LAMMPS (10 Feb 2015)
# ---- initialize simulations
clear
units metal
dimension 3
boundary p p p
atom_style charge
atom_modify map array
# ---- create atoms
read_data /Users/eugeneragasa/pyflamestk_git/pypospack/tests/tests_integration/workflow/WorkflowLammpsThermalExpansion/param_3101/MgO_NaCl_unit.npt.T1100/lammps.structure
  triclinic box = (0 0 0) to (4.2565 4.2565 4.2565) with tilt (0 0 0)
  1 by 1 by 1 MPI processor grid
  reading atoms ...
  8 atoms
# ---- define interatomic potential
include potential.mod
mass 1 24.305
mass 2 15.999

group Mg type 1
4 atoms in group Mg
group O type 2
4 atoms in group O

set group Mg charge 1.61886676565
  4 settings made for charge
set group O charge -1.61886676565
  4 settings made for charge

variable R_cut equal 10.0

pair_style buck/coul/long ${R_cut}
pair_style buck/coul/long 10
pair_coeff 1 1 0.0 0.5 0.0 ${R_cut}
pair_coeff 1 1 0.0 0.5 0.0 10
pair_coeff 1 2 1642.32869573 0.278339228763 0.0 ${R_cut}
pair_coeff 1 2 1642.32869573 0.278339228763 0.0 10
pair_coeff 2 2 10249.6145692 0.172187509684 14.0611166933 ${R_cut}
pair_coeff 2 2 10249.6145692 0.172187509684 14.0611166933 10

kspace_style pppm 1.0e-5

neighbor 1.0 bin
neigh_modify every 1 delay 0 check yes
# ---- define settings
compute eng all pe/atom
compute eatoms all reduce sum c_eng
# ---- run minimization
reset_timestep 0
fix 1 all box/relax iso 0.0 vmax 0.001
thermo 10
thermo_style custom step pe lx ly lz xy xz yz press pxx pyy pzz pxy pxz pyz c_eatoms
min_style cg
minimize 1e-25 1e-25 5000 10000
PPPM initialization ...
  G vector (1/distance) = 0.352512
  grid = 8 8 8
  stencil order = 5
  estimated absolute RMS force accuracy = 3.81673e-05
  estimated relative force accuracy = 2.65057e-06
  using double precision FFTs
  3d grid and FFT values/proc = 3375 512
Neighbor list info ...
  1 neighbor list requests
  update every 1 steps, delay 0 steps, check yes
  master list distance cutoff = 11
Memory usage per processor = 4.06549 Mbytes
Step PotEng Lx Ly Lz Xy Xz Yz Press Pxx Pyy Pzz Pxy Pxz Pyz eatoms 
       0   -105.55076       4.2565       4.2565       4.2565            0            0            0    126453.59    126453.59    126453.59    126453.59 4.0363335e-11 4.044677e-11 1.0723156e-10   -105.55076 
      10   -105.69165     4.299065     4.299065     4.299065            0            0            0    68786.015    68786.015    68786.015    68786.015 -1.0242962e-10 -4.708445e-11 -3.569371e-11   -105.69165 
      20   -105.75532      4.34163      4.34163      4.34163            0            0            0    18126.479    18126.479    18126.479    18126.479 7.5197513e-11 1.703257e-11 -3.0007315e-11   -105.75532 
      27   -105.76066    4.3583247    4.3583247    4.3583247            0            0            0    1.3863117    1.3863117    1.3863117    1.3863117 -6.2572681e-11 -1.3142723e-10 -3.2118437e-11   -105.76066 
Loop time of 0.014559 on 1 procs for 27 steps with 8 atoms

Minimization stats:
  Stopping criterion = linesearch alpha is zero
  Energy initial, next-to-last, final = 
        -105.550764672     -105.760658065     -105.760658065
  Force two-norm initial, final = 18.26 0.000217628
  Force max component initial, final = 18.26 0.000209876
  Final line search alpha, max atom move = 0.25 5.24691e-05
  Iterations, force evaluations = 27 40

Pair  time (%) = 0.00400925 (27.5379)
Kspce time (%) = 0.00229812 (15.7848)
Neigh time (%) = 0 (0)
Comm  time (%) = 0.000436306 (2.99681)
Outpt time (%) = 2.69413e-05 (0.185049)
Other time (%) = 0.00778842 (53.4955)

Nlocal:    8 ave 8 max 8 min
Histogram: 1 0 0 0 0 0 0 0 0 0
Nghost:    2189 ave 2189 max 2189 min
Histogram: 1 0 0 0 0 0 0 0 0 0
Neighs:    2344 ave 2344 max 2344 min
Histogram: 1 0 0 0 0 0 0 0 0 0

Total # of neighbors = 2344
Ave neighs/atom = 293
Neighbor list builds = 0
Dangerous builds = 0
unfix 1
# ---- define output variables ----
variable natoms equal "count(all)"
variable tot_energy equal "c_eatoms"
variable length_x equal "lx"
variable length_y equal "ly"
variable length_z equal "lz"
variable tilt_xy equal "xy"
variable tilt_xz equal "xz"
variable tilt_yz equal "yz"
variable tot_press equal "press"
variable press_xx equal "pxx"
variable press_yy equal "pyy"
variable press_zz equal "pzz"
variable press_xy equal "pxy"
variable press_xz equal "pxz"
variable press_yz equal "pyz"

# ---- output ----
print "pypospack:output_section:begin"
pypospack:output_section:begin
print "tot_energy = ${tot_energy}"
tot_energy = -105.760658064539
print "num_atoms = ${natoms}"
num_atoms = 8
print "xx = ${length_x}"
xx = 4.35832471527479
print "yy = ${length_y}"
yy = 4.35832471527479
print "zz = ${length_z}"
zz = 4.35832471527479
print "xy = ${tilt_xy}"
xy = 0
print "xz = ${tilt_xz}"
xz = 0
print "yz = ${tilt_yz}"
yz = 0
print "tot_press = ${tot_press}"
tot_press = 1.38631174704167
print "pxx = ${press_xx}"
pxx = 1.38631174709188
print "pyy = ${press_yy}"
pyy = 1.38631174731354
print "pzz = ${press_zz}"
pzz = 1.3863117467196
print "pxy = ${press_xy}"
pxy = -6.25726806975275e-11
print "pxz = ${press_xz}"
pxz = -1.31427228854923e-10
print "pyz = ${press_yz}"
pyz = -3.21184365171528e-11
print "pypospack:output_section:done"
pypospack:output_section:done
print "pypospack:lammps_sim:done"
pypospack:lammps_sim:done
#------------------------------------------------------------------------------
# RUN THERMOSTAT
# running using an NPT Nose-Hoover style thermostat
#------------------------------------------------------------------------------
variable tempdamp equal 0.1
variable pressdamp equal 1.0
# set initial velocities
velocity all create 1100 2852252 mom yes dist gaussian loop all
# fix for Nose-Hoover style thermostat
fix 20 all npt temp 1100 1100 0.1 aniso 0.0 0.0 1.0 drag 1.0 couple xyz
variable boxx equal lx
variable boxy equal ly
variable boxz equal lz
variable boxp equal press
variable boxt equal temp
# calculate averages every 10000 steps
reset_timestep 0
fix 21 all ave/time 10 10 100 v_boxx v_boxy v_boxz v_boxp v_boxt file lattice.out
thermo_style custom step temp pe ke etotal press lx ly lz press pxx pyy pzz pxy pxz pyz vol
thermo_modify flush yes
thermo 100
run 100000
PPPM initialization ...
  G vector (1/distance) = 0.351503
  grid = 8 8 8
  stencil order = 5
  estimated absolute RMS force accuracy = 3.99806e-05
  estimated relative force accuracy = 2.7765e-06
  using double precision FFTs
  3d grid and FFT values/proc = 3375 512
Memory usage per processor = 3.06549 Mbytes
Step Temp PotEng KinEng TotEng Press Lx Ly Lz Press Pxx Pyy Pzz Pxy Pxz Pyz Volume 
       0         1100   -105.76067   0.99530312   -104.76537    12840.742    4.3583247    4.3583247    4.3583247    12840.742    11864.562    14068.089    12589.576   -1688.7193   -2241.5125   -7359.3681    82.786353 
     100    265.15509   -104.88367    0.2399179   -104.64375    12665.152    4.3946383    4.3946383    4.3946383    12665.152    23028.539    11236.111    3730.8049    1961.4397   -1171.2055    14610.641    84.872971 
     200    899.03993   -105.17391   0.81347023   -104.36044   -28815.011    4.4300308    4.4300308    4.4300308   -28815.011   -38388.582   -39976.136   -8080.3146    3955.1429   -7386.2327    2478.5334     86.94012 
     300    799.92431   -104.85415   0.72378833   -104.13036    7438.9351    4.4100451    4.4100451    4.4100451    7438.9351   -4885.8202    15468.855     11733.77    966.66123    2608.0088    10731.508    85.768754 
     400    596.25147   -104.47298   0.53950086   -103.93348    28299.998    4.4023424    4.4023424    4.4023424    28299.998    22570.474    14695.498    47634.021    -2270.838   -5542.3771    31802.674    85.320116 
     500    1366.8941   -105.05359    1.2367945    -103.8168   -16078.803    4.4318564    4.4318564    4.4318564   -16078.803   -17854.968   -38394.747    8013.3062    4941.1551    7754.4509   -11186.063    87.047648 
     600    941.18435   -104.59413   0.85160338   -103.74253   -25534.143    4.4402243    4.4402243    4.4402243   -25534.143   -32889.668   -23782.922   -19929.839    6351.6375    4323.0482    10928.065    87.541652 
     700    1166.5235   -104.75322     1.055495   -103.69773     23559.88    4.4163605    4.4163605    4.4163605     23559.88    27936.172   -14231.426    56974.894   -4112.1986   -11166.248    7890.2299    86.137756 
     800    1050.8193   -104.66647   0.95080338   -103.71567   -12782.873    4.4266176    4.4266176    4.4266176   -12782.873   -30417.576   -13868.759    5937.7156     6220.496    8861.0332    6629.5221     86.73932 
     900    962.57224   -104.58871   0.87095559   -103.71776    7205.0246    4.4363752    4.4363752    4.4363752    7205.0246    57379.998   -23552.275   -12212.649   -6429.7293    7832.1497   -10143.691    87.314183 
    1000     1050.314   -104.67291   0.95034617   -103.72256     17975.25    4.4133146    4.4133146    4.4133146     17975.25    8503.5651    17048.727    28373.458    -2333.109    1947.9261    26118.054    85.959656 
    1100    1375.8945   -104.99495    1.2449383   -103.75001   -14232.114      4.42231      4.42231      4.42231   -14232.114   -2653.1856   -22118.995   -17924.161    260.09613    1926.5018   -3640.9045    86.486345 
    1200    987.80915   -104.64218   0.89379048   -103.74838    17811.354    4.4235627    4.4235627    4.4235627    17811.354    36522.922    11475.958    5435.1813   -7026.6138    1925.1586    2838.5049    86.559863 
    1300     1055.724   -104.69876   0.95524124   -103.74352    8166.8042    4.4239027    4.4239027    4.4239027    8166.8042    10455.617    24758.714   -10713.918   -1709.0854    545.03333    3720.3145    86.579827 
    1400     1188.786   -104.80892    1.0756386   -103.73328   -7686.8762    4.4254358    4.4254358    4.4254358   -7686.8762    519.55533   -1988.6801   -21591.504    3399.8134    -538.2586   -11671.549    86.669867 
    1500    985.39819   -104.61979   0.89160899   -103.72818    41759.009    4.4076818    4.4076818    4.4076818    41759.009    53152.546    64033.732    8090.7489   -8862.3375    91.329326     22731.81    85.630937 
    1600    1067.0463   -104.70868   0.96548593   -103.74319   -4212.4404    4.4305719    4.4305719    4.4305719   -4212.4404    28934.655   -30380.155   -11191.821   -3160.2426   -479.63982   -4147.5829    86.971981 
    1700    1162.6657   -104.78438    1.0520044   -103.73238   -9724.4862    4.4306611    4.4306611    4.4306611   -9724.4862   -11461.678    31141.865   -48853.645    5302.5275    196.79229    3017.0316    86.977238 
    1800    1323.4938   -104.92218     1.197525   -103.72465    13422.734    4.3990499    4.3990499    4.3990499    13422.734    52459.725    -17684.93     5493.406   -1287.8676    3365.8082    3047.2802    85.128827 
    1900    1006.6218   -104.66755    0.9108126   -103.75674    1773.0086    4.4132247    4.4132247    4.4132247    1773.0086    38010.524    1646.4003   -34337.898   -1239.4126   -7895.9743    -6027.694      85.9544 
    2000    1430.8088   -105.03833    1.2946259    -103.7437    -22154.32    4.4310254    4.4310254    4.4310254    -22154.32   -6970.4346   -9408.9661   -50083.558    6724.7931    6704.8681    7563.8297    86.998689 
    2100    757.74183   -104.43167   0.68562073   -103.74605    14481.281    4.4077035    4.4077035    4.4077035    14481.281    93188.268   -14135.777   -35608.648    2480.6409    4716.4807   -18148.659    85.632202 
    2200     1390.809    -105.0079    1.2584332   -103.74946    8197.2607    4.4043543    4.4043543    4.4043543    8197.2607    9695.8656    41619.728   -26723.812    3200.2772    1575.8423    9574.2468    85.437147 
    2300    664.83144   -104.37581   0.60155346   -103.77426    9313.5579    4.4099627    4.4099627    4.4099627    9313.5579     29925.56    31786.197   -33771.083    1706.6657    1492.4108   -13548.203    85.763944 
    2400    1411.7855   -105.04654    1.2774131   -103.76912   -19499.354    4.4169481    4.4169481    4.4169481   -19499.354   -449.46404   -15909.835   -42138.763    3109.0304   -9326.6053    7642.0382     86.17214 
    2500    1171.6295   -104.81935     1.060115   -103.75923   -7870.0609    4.4146543    4.4146543    4.4146543   -7870.0609    19941.238    -5358.849   -38192.572   -5414.6959    6475.4482   -11873.443    86.037959 
    2600     876.3305   -104.53956   0.79292225   -103.74664    16739.647     4.396796     4.396796     4.396796    16739.647    21468.157    39005.796   -10255.012    4771.8159   -8425.7261    2639.0004    84.998046 
    2700    1429.7487   -105.04303    1.2936666   -103.74936   -9897.3551    4.4136611    4.4136611    4.4136611   -9897.3551   -5971.4519    1520.5879   -25241.201    -6910.002    10266.011    7449.0669    85.979902 
    2800    732.95977   -104.41862    0.6631974   -103.75543    10171.651    4.4164988    4.4164988    4.4164988    10171.651    39614.697    38689.191   -47788.934   -10471.488    5447.1838    3831.6647    86.145846 
    2900    1203.9793   -104.84237    1.0893858   -103.75299   -4823.1485    4.4055237    4.4055237    4.4055237   -4823.1485   -14394.753     21632.51   -21707.202    7128.8998    5395.6477    10679.405    85.505222 
    3000    1160.2689   -104.80334    1.0498357   -103.75351    5675.5866    4.3965628    4.3965628    4.3965628    5675.5866    22237.031    6548.1262   -11758.398   -2250.4003    281.35549   -10272.757    84.984523 
    3100    1111.3265   -104.76134    1.0055516   -103.75578   -7452.2497    4.4170879    4.4170879    4.4170879   -7452.2497     25071.92   -5544.0097   -41884.659    3276.4282   -3994.8863    16649.089    86.180325 
    3200    1045.6741   -104.69167   0.94614794   -103.74552   -1720.6585    4.4114164    4.4114164    4.4114164   -1720.6585    21855.194    -800.2875   -26216.882   -8964.6208    12285.167   -4673.2803    85.848785 
    3300    1164.3937    -104.7918    1.0535679   -103.73824    16808.737    4.3975671    4.3975671    4.3975671    16808.737    45468.231    5954.9539   -996.97263   -6685.3312   -15568.268    -5930.967    85.042777 
    3400    926.36387   -104.59515    0.8381935   -103.75696    945.95688    4.4170091    4.4170091    4.4170091    945.95688    37166.069    8466.4173   -42794.616    29.018275    30174.862   -3584.1721    86.175714 
    3500    1321.3724   -104.94004    1.1956055   -103.74444   -5609.0656     4.416479     4.416479     4.416479   -5609.0656    27120.288    -22194.54   -21752.945   -5496.7255    2196.3205   -5324.3117    86.144692 
    3600    875.15897    -104.5396   0.79186223   -103.74774    -18567.96    4.4089242    4.4089242    4.4089242    -18567.96   -31163.792   -8084.9467    -16455.14    1493.2475    19536.877   -4949.0291    85.703372 
    3700    936.56533   -104.60051   0.84742399   -103.75308    33006.765     4.398053     4.398053     4.398053    33006.765    92950.049    20724.343   -14654.097   -233.92704   -7252.0013    1576.3963    85.070968 
    3800    1166.3765   -104.82826     1.055362   -103.77289    2426.4862    4.4175052    4.4175052    4.4175052    2426.4862    50026.042   -22063.333    -20683.25   -4237.2045    -240.4991   -1631.1151    86.204751 
    3900     953.3342   -104.62186   0.86259682   -103.75926   -11589.311    4.4227332    4.4227332    4.4227332   -11589.311    39825.799   -29317.035   -45276.699    -1251.771    18491.229   -4204.5784    86.511175 
    4000    1335.3797   -104.94855    1.2082796   -103.74027    11455.879    4.4073134    4.4073134    4.4073134    11455.879    32541.766    18204.277   -16378.406    12533.123    90.599888   -330.84112    85.609468 
    4100    803.98399   -104.47231   0.72746161   -103.74485    7530.1902    4.4083646    4.4083646    4.4083646    7530.1902    47457.916   -2647.8505   -22219.495   -15564.754     26835.78    2961.9681    85.670738 
    4200    1365.8757   -104.97006    1.2358731   -103.73419   -13453.237    4.4219889    4.4219889    4.4219889   -13453.237   -7292.3872   -3575.0934   -29492.231    924.15161   -1399.2828   -3473.3385     86.46751 
    4300    1001.4781   -104.63838   0.90615843   -103.73222   -16811.267    4.4260802    4.4260802    4.4260802   -16811.267    -18093.86     6701.444   -39041.385    3423.8079    13315.003   -2327.9483    86.707735 
    4400    1186.0601   -104.79782    1.0731721   -103.72465    2490.1355    4.4121515    4.4121515    4.4121515    2490.1355    18460.994    4848.9093   -15839.497   -439.91461   -6620.1911    3706.9879    85.891707 
    4500    953.78829   -104.59473   0.86300769   -103.73173    15900.659    4.4018761    4.4018761    4.4018761    15900.659    1150.7695    63291.059    -16739.85   -14662.983    7613.2791   -6375.5968    85.293012 
    4600    1047.1026   -104.69342   0.94744048   -103.74598   -6478.0442    4.4249128    4.4249128    4.4249128   -6478.0442    21768.875   -8282.1015   -32920.906    2627.0269   -2075.9742   -10745.716    86.639142 
    4700    1378.4803   -104.97712    1.2472779   -103.72984   -9008.6593    4.4189032    4.4189032    4.4189032   -9008.6593   -9527.2456     11374.48   -28873.212   -10249.211    2044.4763    5727.2565    86.286621 
    4800    894.45424     -104.545     0.809321   -103.73568    12983.106    4.4063692    4.4063692    4.4063692    12983.106    30660.123    23074.964   -14785.768   -4477.9435    12985.387   -5247.4113     85.55446 
    4900    1275.1889   -104.89121    1.1538177   -103.73739   -908.40365    4.4158619    4.4158619    4.4158619   -908.40365   -4235.6641    8148.8914   -6638.4382   -2883.4533   -8132.0957     5460.919    86.108582 
    5000    839.84671   -104.49755   0.75991096   -103.73764    6318.6875    4.4243059    4.4243059    4.4243059    6318.6875    58893.046   -11933.154   -28003.829   -11760.895    18676.159    2639.3577    86.603501 
    5100    1337.5742   -104.93998    1.2102653   -103.72972   -18623.503    4.4227284    4.4227284    4.4227284   -18623.503   -2196.0962    -5102.833    -48571.58    -11026.82    -13478.08    2191.2525    86.510895 
    5200    879.74858   -104.53053     0.796015   -103.73452    21867.346    4.3986255    4.3986255    4.3986255    21867.346    33825.287    36096.629   -4319.8778   -8335.5727    16470.148     2199.796    85.104196 
    5300    1338.2657   -104.95821    1.2108909   -103.74732   -26700.393    4.4118198    4.4118198    4.4118198   -26700.393   -27166.406   -11060.571   -41874.202   -1549.8629   -13452.609    4228.0514    85.872341 
    5400    1088.2773   -104.73071   0.98469617   -103.74601    -5373.243    4.4208905    4.4208905    4.4208905    -5373.243     15699.49    13930.664   -45749.883   -1189.0597    140.62392   -4284.5856    86.403089 
    5500    1051.0999   -104.69222    0.9510573   -103.74116    -7214.579    4.4198586    4.4198586    4.4198586    -7214.579   -1150.2419    25282.157   -45775.652   -9055.7843    11506.924    3912.3693      86.3426 
    5600     1077.114   -104.71218   0.97459539   -103.73758    5531.0839    4.4112377    4.4112377    4.4112377    5531.0839    62127.562   -19368.502   -26165.808    9845.1869   -10555.901    2919.0481    85.838353 
    5700    1169.6611   -104.80684     1.058334    -103.7485    6404.0902    4.4043704    4.4043704    4.4043704    6404.0902   -15879.712    54296.203    -19204.22   -12200.639    22235.179   -4147.7585    85.438085 
    5800    1210.2091   -104.85971    1.0950226   -103.76469   -8649.1819    4.4161479    4.4161479    4.4161479   -8649.1819    41101.923   -23766.588   -43282.881    -7348.068   -5243.6957   -1700.6216    86.125313 
    5900     1116.086   -104.77557    1.0098581   -103.76572   -598.89415    4.4195957    4.4195957    4.4195957   -598.89415    13150.022    9714.3582   -24661.063    12250.565    10953.748   -4836.1091    86.327194 
    6000    915.24078   -104.58475   0.82812909   -103.75662    14776.971    4.4191494    4.4191494    4.4191494    14776.971    44244.704    16183.417   -16097.208     1309.815    -11370.34   -5504.8488    86.301046 
    6100     1301.597   -104.91977    1.1777123   -103.74206    -13962.09    4.4142152    4.4142152    4.4142152    -13962.09    12364.854   -32729.842   -21521.282   -4313.5403   -4407.9685    361.95287    86.012292 
    6200    1165.6324   -104.79487    1.0546887   -103.74019   -757.65659    4.4099345    4.4099345    4.4099345   -757.65659    39060.199   -32885.543   -8447.6253    -8505.722    5716.2627   -10005.511    85.762298 
    6300    988.69383    -104.6469   0.89459096   -103.75231    10458.346    4.4212478    4.4212478    4.4212478    10458.346    80200.647   -18239.559    -30586.05   -1145.6265    7444.1239   -3184.5241    86.424038 
    6400    745.06054   -104.43051   0.67414644   -103.75636   -6636.0309    4.4228787    4.4228787    4.4228787   -6636.0309    30412.218   -30360.711     -19959.6    23412.171    16130.491   -2093.5854    86.519715 
    6500    1065.0516   -104.70608   0.96368109    -103.7424     8275.121    4.4045101    4.4045101    4.4045101     8275.121    23242.336    3048.2678   -1465.2405   -2057.0399    -3382.329    404.82458    85.446214 
    6600    1160.3845   -104.80362    1.0499403   -103.75368   -6552.6091    4.4135349    4.4135349    4.4135349   -6552.6091    36899.065   -20003.643   -36553.249   -4841.4618    6081.9617   -10209.389    85.972528 
    6700    828.62067   -104.50156    0.7497534    -103.7518   -19505.553    4.4343231    4.4343231    4.4343231   -19505.553    16105.937   -31215.322   -43407.275   -1735.7092    1287.4497      1394.74    87.193074 
    6800     953.9595   -104.59309    0.8631626   -103.72993     24263.96    4.4121888    4.4121888    4.4121888     24263.96    20187.596    46619.071    5985.2148   -13229.868     9771.644   -5224.2816    85.893891 
    6900     1085.963   -104.71944   0.98260212   -103.73684   -9787.9218    4.4176589    4.4176589    4.4176589   -9787.9218    853.25464   -19883.406   -10333.614    7993.0291    -947.0519   -13916.689    86.213749 
    7000    967.77005   -104.61446   0.87565868    -103.7388   -3103.0271    4.4235865    4.4235865    4.4235865   -3103.0271    1527.2856    4398.4755   -15234.843   -19437.787    3878.2693    6756.4548    86.561262 
    7100    1186.3331   -104.80927    1.0734191   -103.73585    5399.7834      4.41736      4.41736      4.41736    5399.7834   -3029.2261    28405.529    -9176.953   -826.26445   -195.41523   -7649.4191    86.196255 
    7200    638.95169   -104.32338   0.57813691   -103.74524    13177.862    4.4183634    4.4183634    4.4183634    13177.862    53575.981    21232.231   -35274.627    7429.6728   -25925.413     7873.834    86.255005 
    7300    1277.1519   -104.89938    1.1555939   -103.74378   -11889.503     4.420254     4.420254     4.420254   -11889.503   -3434.1239    9862.3743   -42096.758    5084.0043    13012.557    123.31495    86.365775 
    7400    1167.8294   -104.80241    1.0566765   -103.74573   -21103.836    4.4157134    4.4157134    4.4157134   -21103.836    10697.437   -21631.824    -52377.12   -8061.1112   -11569.121    10434.588    86.099897 
    7500    927.76454    -104.5903   0.83946085   -103.75084    8664.1105    4.4059659    4.4059659    4.4059659    8664.1105     15530.78    43797.583   -33336.032    11575.154    5817.2978    3692.8351    85.530971 
    7600    1415.6896   -105.03833    1.2809457   -103.75739   -16291.735    4.4208579    4.4208579    4.4208579   -16291.735    19845.026   -22520.965   -46199.267   -12640.188   -2358.0836    3429.8936    86.401181 
    7700    739.44448   -104.43013    0.6690649   -103.76107   -8136.7297    4.4209047    4.4209047    4.4209047   -8136.7297    32160.909   -77.907576   -56493.191    10.612062    1320.1162    3158.9213    86.403924 
    7800    1378.2196   -105.00832     1.247042   -103.76127     16362.02    4.3980688    4.3980688    4.3980688     16362.02    18469.123    46552.477   -15935.539    1995.8489    14158.018    10317.081    85.071884 
    7900    1335.6081   -104.98646    1.2084862   -103.77798   -22620.932    4.4091436    4.4091436    4.4091436   -22620.932   -3523.9937   -23040.152    -41298.65   -5295.8314   -6894.2744   -4597.2598    85.716162 
    8000     883.9965   -104.56429   0.79985861   -103.76443    3476.2894    4.4218302    4.4218302    4.4218302    3476.2894    27353.671    21864.251   -38789.053   -5483.8657    5589.0176    3026.8347    86.458199 
    8100    1320.8159   -104.93296     1.195102   -103.73786    4912.7832    4.4124979    4.4124979    4.4124979    4912.7832    33769.268    16868.628   -35899.547     10161.75   -2733.3099   -3022.9002    85.911943 
    8200    1032.8786   -104.66789   0.93457027   -103.73332    -13783.12    4.4134082    4.4134082    4.4134082    -13783.12   -396.87148   -172.70213   -40779.785    -12799.78   -4724.9447   -1643.8824    85.965126 
    8300    1540.2562   -105.12331    1.3936562   -103.72966   -12000.157    4.4127835    4.4127835    4.4127835   -12000.157    9381.5616   -4555.3039   -40826.728    16852.742     791.1631   -5790.6581    85.928626 
    8400    1003.4079   -104.64567   0.90790454   -103.73777   -2269.4513    4.4173655    4.4173655    4.4173655   -2269.4513    18950.364    6853.4289   -32612.147     328.2269   -4137.5025    -7554.097    86.196573 
    8500    1208.3593   -104.82636    1.0933488   -103.73301    -9880.067    4.4176683    4.4176683    4.4176683    -9880.067   -21038.528    25759.809   -34361.482    1184.3744    1091.7818    1905.6342    86.214302 
    8600    1112.6534   -104.74297    1.0067522   -103.73621    9309.1846    4.4110017    4.4110017    4.4110017    9309.1846    46489.903    6580.9828   -25143.332   -2634.6987   -10662.587    584.67362    85.824577 
    8700    1052.5733   -104.69705   0.95239043   -103.74466    13000.359    4.4133425    4.4133425    4.4133425    13000.359    2931.2398    68544.226    -32474.39   -1018.1681     2755.877    7388.6411    85.961286 
    8800    1152.2864   -104.78952     1.042613   -103.74691   -113.02034    4.4160311    4.4160311    4.4160311   -113.02034    31069.904    2212.0751    -33621.04     12953.05   -13462.185     7138.347    86.118485 
    8900    948.28364   -104.60895   0.85802697   -103.75092    21862.045    4.4057979    4.4057979    4.4057979    21862.045    35898.589    48380.181   -18692.636   -3659.2103    8019.4793   -5924.8426    85.521184 
    9000    1420.8614   -105.03521    1.2856253   -103.74959    -10475.84     4.406506     4.406506     4.406506    -10475.84    -10989.96     10733.53    -31171.09   -12498.301   -5259.9577    18126.856    85.562425 
    9100    945.93554    -104.6011   0.85590235    -103.7452    4534.3628    4.4131052    4.4131052    4.4131052    4534.3628     29898.77     8039.183   -24334.865   -1452.1845    3192.4334   -14743.518    85.947419 
    9200    1275.4414   -104.89461    1.1540462   -103.74056    -17875.88    4.4111231    4.4111231    4.4111231    -17875.88   -8761.7685   -15338.821   -29527.051   -12274.183    1146.2553     13712.96    85.831663 
    9300    972.42711   -104.62041   0.87987248   -103.74053    21033.544    4.4062084    4.4062084    4.4062084    21033.544    28782.615    69420.633   -35102.617    5619.6368   -7398.2981   -8140.3357     85.54509 
    9400    1161.3921   -104.80078    1.0508519   -103.74993   -11451.866    4.4109053    4.4109053    4.4109053   -11451.866   -5923.5683    3855.9229   -32287.951    -15251.64    5036.2769    8528.7838    85.818953 
    9500     1035.483   -104.68381   0.93692675   -103.74688    8364.9043    4.4158868    4.4158868    4.4158868    8364.9043     17386.86    41012.198   -33304.345   -7527.7999   -10581.179    3395.7548    86.110042 
    9600    1538.5813   -105.12935    1.3921407   -103.73721   -18969.204    4.4155803    4.4155803    4.4155803   -18969.204   -15565.019    1455.7559   -42798.349   -3683.1606    6769.0712   -4863.6281    86.092113 
    9700    738.26794     -104.406   0.66800035     -103.738    22899.532    4.4065332    4.4065332    4.4065332    22899.532    43133.842    44551.781   -18987.027   -12181.792   -9725.1997    18254.886    85.564009 
    9800    1304.4905   -104.92398    1.1803304   -103.74365   -21631.144    4.4168367    4.4168367    4.4168367   -21631.144   -7043.0658   -6668.8844    -51181.48    8853.7188    14364.691   -16108.294    86.165623 
    9900    1169.6683     -104.798    1.0583404   -103.73965   -4248.2436    4.4129525    4.4129525    4.4129525   -4248.2436    10063.944    17984.482   -40793.156   -9309.9132    4061.7909    8329.0954    85.938498 
   10000    1161.3893   -104.78856    1.0508495   -103.73771   -19531.715    4.4005778    4.4005778    4.4005778   -19531.715    9807.2823   -39129.617   -29272.811   -2343.6337     2125.944   -17609.732    85.217562 
   10100    1026.3473   -104.67811   0.92866062   -103.74945    2869.6435     4.412464     4.412464     4.412464    2869.6435    31846.134    21315.098   -44552.301   -7657.0776    12698.492     -8152.95    85.909963 
   10200    1322.6272   -104.93913    1.1967409   -103.74239   -12688.792    4.4185147    4.4185147    4.4185147   -12688.792   -11800.691    6777.0479   -33042.733     -5953.41    11032.071    3854.6843    86.263863 
   10300    843.21117   -104.51029   0.76295519   -103.74734    4356.5495    4.4142877    4.4142877    4.4142877    4356.5495    17865.548    35011.871    -39807.77    228.23287     1374.893   -13780.385     86.01653 
   10400    1498.4846   -105.09906    1.3558603    -103.7432    4079.7564    4.4074991    4.4074991    4.4074991    4079.7564   -5673.9435    28567.543    -10654.33     5394.881    3512.0343    12910.811    85.620292 
   10500    959.42118   -104.62657   0.86810445   -103.75846    8176.1896    4.4062683    4.4062683    4.4062683    8176.1896    13966.155    33898.265   -23335.851    1813.3207    4691.5262   -19349.786    85.548579 
   10600    1222.1105   -104.85872    1.1057912   -103.75293    10196.025     4.418439     4.418439     4.418439    10196.025    3915.6377    47111.199   -20438.761    3818.7218    6036.9997    2788.5369    86.259433 
   10700    833.47129   -104.50491   0.75414234   -103.75077    -13218.36    4.4169603    4.4169603    4.4169603    -13218.36   -6848.3432   -20468.715   -12338.021    -11659.65   -7350.7592   -25441.023    86.172853 
   10800     1326.166    -104.9425    1.1999428   -103.74256    3600.8744    4.3939499    4.3939499    4.3939499    3600.8744    8631.8514    25.060071    2145.7116    14545.624     10066.67   -4878.2166    84.833096 
   10900    1214.3743   -104.86048    1.0987914   -103.76169   -5542.7892    4.4137304    4.4137304    4.4137304   -5542.7892   -13938.947    2120.8026   -4810.2238    -5975.296   -6239.4146    10173.583    85.983951 
   11000    567.03739    -104.2768   0.51306735   -103.76373   -23323.405    4.4229645    4.4229645    4.4229645   -23323.405   -35310.989   -17400.957   -17258.268    12507.551     11939.23   -24346.618     86.52475 
   11100    1583.2816   -105.17165    1.4325865   -103.73906    9078.2126    4.3941774    4.3941774    4.3941774    9078.2126    6293.1098    16086.072    4855.4557    3485.8382   -3705.2042    14152.813    84.846269 
   11200    912.17661   -104.58871   0.82535657   -103.76336   -8492.9731    4.4071024    4.4071024    4.4071024   -8492.9731   -12388.522    15760.981   -28851.379    2320.3403    6613.4401   -36420.842    85.597173 
   11300    889.56071   -104.57226   0.80489322   -103.76737    -12943.77    4.4298747    4.4298747    4.4298747    -12943.77   -35428.094    29873.077   -33276.293    7541.9569   -1910.8989    3082.1132    86.930928 
   11400    1569.0477   -105.16921    1.4197073    -103.7495   -17563.358    4.4154137    4.4154137    4.4154137   -17563.358   -27895.775    11439.828   -36234.126   -20494.777   -3471.5794     2152.473    86.082369 
   11500    743.94137   -104.41581   0.67313379   -103.74267    20836.515    4.3981632    4.3981632    4.3981632    20836.515   -56.170867    49083.734    13481.982    17375.504    5931.2779   -7489.7647    85.077366 
   11600    1354.3314   -104.97148    1.2254275   -103.74605   -1107.9621    4.4179762    4.4179762    4.4179762   -1107.9621   -34256.835    51632.725   -20699.777   -10027.891   -3678.0216     8968.521    86.232329 
   11700    1157.3778   -104.79222    1.0472198     -103.745   -9801.8121    4.4192281    4.4192281    4.4192281   -9801.8121   -42639.531    27727.085    -14492.99    1516.7511    7302.1354   -8530.5881    86.305657 
   11800    1419.1409   -105.02588    1.2840686   -103.74181   -2306.3422    4.4027707    4.4027707    4.4027707   -2306.3422    -13048.71    11228.286   -5098.6029    8730.1217   -1213.4835    3798.3987    85.345022 
   11900    1063.2813   -104.73505   0.96207929   -103.77297    3335.0179    4.4090888    4.4090888    4.4090888    3335.0179   -24939.619    47884.968   -12940.296   -326.16598    4971.4277   -5681.3552    85.712969 
   12000    787.39716   -104.49525   0.71245349   -103.78279    3776.6314    4.4169022    4.4169022    4.4169022    3776.6314   -37055.418    37306.807    11078.505    7252.4122   -4498.0855   -4644.0995    86.169457 
   12100    1301.4508   -104.94386    1.1775801   -103.76628   -160.86563    4.4073782    4.4073782    4.4073782   -160.86563   -11785.226    27287.831   -15985.202    -18329.59   -558.97681    11624.542    85.613245 
   12200    984.69711   -104.64902   0.89097463   -103.75805    4079.6001    4.4064488    4.4064488    4.4064488    4079.6001   -24981.544    25870.559    11349.785    17262.542    1482.6926   -9176.4995    85.559094 
   12300    920.94773   -104.58771   0.83329286   -103.75442   -4437.4991    4.4201049    4.4201049    4.4201049   -4437.4991   -33713.921    21887.475   -1486.0518     3308.838   -7165.6364    14835.323    86.357036 
   12400     1525.576   -105.11896    1.3803733   -103.73859    -17215.62    4.4141254    4.4141254    4.4141254    -17215.62   -45297.292    15074.709   -21424.276   -5981.1732    2980.6055   -1807.4092     86.00704 
   12500    969.20716   -104.61925   0.87695901   -103.74229   -10497.657    4.4174266    4.4174266    4.4174266   -10497.657   -40423.318   -9858.8371    18789.186    15380.651   -3912.4734   -5786.9752    86.200149 
   12600    1136.0867   -104.77237    1.0279551   -103.74442    3648.6429    4.4142728    4.4142728    4.4142728    3648.6429   -15297.907    58650.186    -32406.35   -6060.5191    5931.1469    214.85033    86.015654 
   12700    1136.5074   -104.79099    1.0283357   -103.76266    19091.038    4.4101259    4.4101259    4.4101259    19091.038   -27566.626    70843.148    13996.593    15609.164   -7795.2206   -16173.061    85.773468 
   12800    1242.3483   -104.89976    1.1241029   -103.77566   -16830.142     4.416009     4.416009     4.416009   -16830.142   -42024.745   -2995.8495    -5469.833   -6061.2637    1172.2371    20228.828     86.11719 
   12900     1264.787   -104.92237    1.1444059   -103.77797   -5386.2539    4.4068837    4.4068837    4.4068837   -5386.2539   -32648.145    30187.817   -13698.434    5740.7821   -4135.8102     8592.108    85.584431 
   13000    891.60254   -104.59062   0.80674072   -103.78388    8161.0533     4.413561     4.413561     4.413561    8161.0533   -47899.329    45111.036    27271.453   -16939.087    3197.1939   -18076.771    85.974054 
   13100    954.18439   -104.63373   0.86336609   -103.77036   -7102.0573    4.4153822    4.4153822    4.4153822   -7102.0573   -24857.867    34525.405    -30973.71   -10188.947   -3412.4964    17281.481    86.080524 
   13200    1253.2514   -104.88934    1.1339682   -103.75537    6597.1719    4.4119695    4.4119695    4.4119695    6597.1719   -40993.589    44203.503    16581.601    8461.4586   -4798.8681   -17067.157    85.881082 
   13300     1303.636   -104.93309    1.1795573   -103.75354   -14125.102     4.409971     4.409971     4.409971   -14125.102   -22618.964   -4385.4019   -15370.939   -7028.1584    7919.8489     6134.064    85.764427 
   13400    809.96182   -104.49028   0.73287048   -103.75741    19114.044     4.410935     4.410935     4.410935    19114.044   -40372.201    76351.081    21363.252    1912.9078   -9104.5782    7845.1652    85.820686 
   13500    943.12088   -104.61556   0.85335559   -103.76221   -83.495548    4.4188434    4.4188434    4.4188434   -83.495548   -29275.809    31503.337   -2478.0149    -8453.709    707.30269   -1359.3371    86.283117 
   13600    1430.8349   -105.05627    1.2946495   -103.76162   -21997.601    4.4084636    4.4084636    4.4084636   -21997.601   -26066.419   -12788.059   -27138.327   -2185.5482   -11903.511    13915.862    85.676513 
   13700    1054.4049   -104.72039   0.95404768   -103.76634    9063.0175    4.4101396    4.4101396    4.4101396    9063.0175   -34108.492    59900.255    1397.2894   -5005.6833    6793.5445   -11508.982    85.774265 
   13800    881.93658   -104.56053   0.79799475   -103.76253   -30696.193    4.4261787    4.4261787    4.4261787   -30696.193   -55215.391    6280.0036   -43153.192   -17647.503   -13585.438    1421.3292    86.713522 
   13900    1466.7116   -105.06991    1.3271115   -103.74279    2551.4445    4.4082886    4.4082886    4.4082886    2551.4445   -15500.488    23465.663   -310.84188   -2521.6388      3961.23   -2644.7429    85.666308 
   14000    1010.8327   -104.66494    0.9146227   -103.75031   -26557.163    4.4157376    4.4157376    4.4157376   -26557.163   -48835.219   -1232.8355   -29603.435   -4777.2671   -9647.5713   -1808.4432    86.101314 
   14100    1130.8698   -104.76791    1.0232347   -103.74467    9036.8215    4.4093242    4.4093242    4.4093242    9036.8215   -7637.5603    34177.925    570.09933   -5406.5336   -5534.9314   -4318.2903    85.726701 
   14200    803.33565    -104.4837   0.72687498   -103.75682    14965.362    4.4169939    4.4169939    4.4169939    14965.362   -7051.9585    30436.348    21511.697    10674.552    -4606.214    542.15752    86.174822 
   14300    994.95571    -104.6446   0.90025684   -103.74435   -11574.594    4.4244449    4.4244449    4.4244449   -11574.594   -21341.857   -1736.9981   -11644.927    1098.5368   -9558.0151     5148.686    86.611664 
   14400     1237.984   -104.85271    1.1201539   -103.73256     7097.629    4.4120898    4.4120898    4.4120898     7097.629   -29241.435    41255.633    9278.6891    6710.6378    3433.7749    16558.913    85.888107 
   14500    790.88122   -104.46142   0.71560595   -103.74582    7070.7891     4.414841     4.414841     4.414841    7070.7891    24204.077    16910.776   -19902.485    12328.311   -13784.457   -857.91847    86.048876 
   14600    1276.5312   -104.89431    1.1550323   -103.73928   -8137.7027    4.4182572    4.4182572    4.4182572   -8137.7027   -25868.966    30840.317    -29384.46    13058.746    7064.5769    10682.083    86.248787 
   14700    1179.1218   -104.81034    1.0668942   -103.74345     6355.322     4.417039     4.417039     4.417039     6355.322    34228.587    7488.9888    -22651.61   -3927.5013   -2814.8258   -3689.9125    86.177463 
   14800    1044.3734   -104.69526   0.94497103   -103.75029    116.48928    4.4238038    4.4238038    4.4238038    116.48928   -6863.6363    23336.224    -16123.12    5807.1373     4626.706   -7438.2189    86.574017 
   14900    1182.9787   -104.81592     1.070384   -103.74554    -1442.173    4.4159128    4.4159128    4.4159128    -1442.173    14532.941     11503.46    -30362.92   -4129.4775    842.18917    9048.1294    86.111559 
   15000    1155.6436    -104.7876    1.0456506   -103.74195    20486.581    4.4073837    4.4073837    4.4073837    20486.581   -3592.2176    48806.281    16245.681    -4536.341    3940.6636   -12089.952    85.613562 
   15100    894.52625   -104.56632   0.80938615   -103.75694   -500.52116    4.4276103    4.4276103    4.4276103   -500.52116    2949.4254    16991.997   -21442.985    9186.1705   -724.47044    14099.142    86.797687 
   15200    1348.6654   -104.95554    1.2203008   -103.73524    -14071.01    4.4283306    4.4283306    4.4283306    -14071.01   -37481.805    15491.398   -20222.624    -13014.95    -6531.685   -5650.8397    86.840061 
   15300    737.46564   -104.39123   0.66727441   -103.72396    36799.813    4.4077563    4.4077563    4.4077563    36799.813    23189.769    76725.617    10484.051    14817.363    6974.6973    672.46092    85.635281 
   15400    1530.0087   -105.11804     1.384384   -103.73366   -29597.163    4.4152348    4.4152348    4.4152348   -29597.163   -44867.328   -4741.4155   -39182.747    -6766.721   -15783.935   -4403.8783    86.071904 
   15500    989.80123   -104.63492   0.89559295   -103.73932    5197.5931    4.4195827    4.4195827    4.4195827    5197.5931    3867.4985    28425.833   -16700.553    7978.1846    6089.6623   -2514.0806    86.326434 
   15600    1122.8122    -104.7631    1.0159441   -103.74716    -15680.89    4.4183161    4.4183161    4.4183161    -15680.89   -33971.571    -1975.114   -11095.986    6017.9496   -15872.689    12213.009    86.252236 
   15700    1378.4287   -104.98317    1.2472313   -103.73594   -7156.4507    4.4220104    4.4220104    4.4220104   -7156.4507   -9304.3768   -12985.424    820.44828   -531.08175    4593.2405    4046.4667     86.46877 
   15800    713.88065   -104.38154   0.64593422    -103.7356   -3440.0503    4.4241023    4.4241023    4.4241023   -3440.0503   -29670.741    17100.104    2250.4862    14055.508   -8631.1398    1527.0065    86.591543 
   15900    1380.3891   -104.97269    1.2490051   -103.72369    2404.9362    4.4155162    4.4155162    4.4155162    2404.9362   -22398.924   -5017.8807    34631.613    -8691.614    400.87576    16012.298     86.08836 
   16000    809.21765   -104.47745   0.73219714   -103.74525    20111.504    4.4126401    4.4126401    4.4126401    20111.504   -22484.732    85235.143   -2415.8992   -1496.4081   -2997.2831    21280.054     85.92025 
   16100    992.11252   -104.65634   0.89768425   -103.75865   -3544.6797    4.4291496    4.4291496    4.4291496   -3544.6797   -33260.121    26303.819   -3677.7372    3732.3767   -14173.497    9417.8047     86.88825 
   16200     1067.575   -104.71257   0.96596434   -103.74661     191.4627    4.4301137    4.4301137    4.4301137     191.4627   -12891.252    17367.918   -3902.2778    9943.9085   -1256.6671   -3669.6397       86.945 
   16300    1089.3427   -104.71933   0.98566014   -103.73367   -5191.3572    4.4108199    4.4108199    4.4108199   -5191.3572   -1777.4246    9561.6013   -23358.248   -2539.0203   -14872.173    3254.1411    85.813966 
   16400    1247.5674   -104.86563    1.1288252   -103.73681    1250.3952    4.4215086    4.4215086    4.4215086    1250.3952   -27138.522    28901.041    1988.6668   -2277.7313    3497.9634   -16358.638    86.439334 
   16500    745.00087   -104.41599   0.67409244    -103.7419   -13616.187    4.4285794    4.4285794    4.4285794   -13616.187   -14413.733    4988.4196   -31423.246    22136.123   -18934.755     4545.881    86.854696 
   16600     1518.198    -105.1036    1.3736975    -103.7299    7821.7299    4.4122067    4.4122067    4.4122067    7821.7299   -8992.2051    53074.914   -20617.519   -17272.092    7490.5338     3187.025    85.894931 
   16700    1047.2099   -104.70073   0.94753752    -103.7532   -10894.478    4.4208303    4.4208303    4.4208303   -10894.478   -20801.768   -12072.919    191.25305    20564.312   -15714.777    472.78182     86.39956 
   16800    1207.6399   -104.83488     1.092698   -103.74218    7088.2524     4.425985     4.425985     4.425985    7088.2524    1246.4282     40732.65   -20714.321    -5069.034    6625.6676    2911.3239    86.702137 
   16900    891.26924   -104.54083   0.80643914    -103.7344     7479.202    4.4289616    4.4289616    4.4289616     7479.202   -16209.764    24565.012    14082.358   -4070.0856   -10415.889   -4659.0743    86.877186 
   17000     1348.336   -104.94823    1.2200027   -103.72823   -11360.788    4.4183385    4.4183385    4.4183385   -11360.788   -28743.405     6631.273   -11970.231    7582.6548   -6139.4839    4586.9548    86.253548 
   17100     1088.269   -104.72176   0.98468869   -103.73707    28683.922    4.4059301    4.4059301    4.4059301    28683.922    33361.967    11536.183    41153.617   -16028.986   -10170.935   -8074.2879    85.528882 
   17200    976.13349   -104.64081    0.8832261   -103.75759   -15214.884    4.4317931    4.4317931    4.4317931   -15214.884   -6593.6682   -22160.279   -16890.703    5829.1396   -14853.128    5039.9133     87.04392 
   17300    1264.7342   -104.87929    1.1443581   -103.73493    5326.7095    4.4261863    4.4261863    4.4261863    5326.7095   -6203.6375   -5700.6154    27884.381    -4739.727   -7979.5271    9001.6102    86.713969 
   17400    1154.0404   -104.77207       1.0442   -103.72787   -7155.1288    4.4281432    4.4281432    4.4281432   -7155.1288   -41600.902   -2616.3812    22751.897    2498.6909   -2412.5847    2038.0728    86.829033 
   17500    1432.8176   -105.01362    1.2964435   -103.71717   -11998.644    4.4282207    4.4282207    4.4282207   -11998.644    -34256.73   -10842.686    9103.4838   -42.976071    3657.1615     17349.49    86.833593 
   17600    848.97656    -104.4925   0.76817184   -103.72433    21574.845    4.4214206    4.4214206    4.4214206    21574.845    9707.6761    34583.875    20432.983   -5794.6526   -20736.222   -1320.6568    86.434175 
   17700    1630.0899   -105.19958    1.4749396   -103.72464   -20884.535    4.4258262    4.4258262    4.4258262   -20884.535   -22856.884   -24842.813   -14953.909    3641.8543    11637.302    595.75548    86.692807 
   17800    835.32906   -104.48806   0.75582329   -103.73223    29267.349    4.4112951    4.4112951    4.4112951    29267.349    31784.152     43784.12    12233.775   -10288.506    -23677.45   -4121.8557    85.841707 
   17900    1087.3527   -104.72372   0.98385955   -103.73986    14470.684     4.430799     4.430799     4.430799    14470.684    18325.449    2614.2266    22472.377   -4865.0713   -8106.7491    5498.3821    86.985359 
   18000    1344.9303   -104.95081    1.2169212   -103.73389   -26103.546    4.4230058    4.4230058    4.4230058   -26103.546   -53012.986    18994.525   -44292.177   -6002.5111   -1557.6885   -6707.2819    86.527174 
   18100    715.43524   -104.37624   0.64734084    -103.7289    51715.095    4.4039644    4.4039644    4.4039644    51715.095    68724.813    33305.242     53115.23    4463.9933   -17298.709    3108.4799    85.414458 
   18200    1395.3047   -104.99769    1.2625011   -103.73519   -24992.346    4.4337117    4.4337117    4.4337117   -24992.346   -41935.313   -13359.356    -19682.37    866.95556   -15570.088    3149.1329    87.157015 
   18300    906.93602   -104.55718   0.82061477   -103.73657   -8354.4973    4.4219761    4.4219761    4.4219761   -8354.4973   -40365.565    14427.768    874.30528   -8074.5766    -22728.95    12753.381    86.466759 
   18400    1249.6092   -104.86493    1.1306727   -103.73425    19292.921    4.4100042    4.4100042    4.4100042    19292.921    3646.8674    7462.3291    46769.565    1222.0475    15588.425   -4706.4751    85.766364 
   18500    842.59534   -104.51484   0.76239797   -103.75244   -2510.6166    4.4232833    4.4232833    4.4232833   -2510.6166    967.33681   -7542.4294   -956.75716   -14465.624   -18659.392    6520.6214    86.543464 
   18600    1169.2965   -104.78946     1.058004   -103.73145   -4971.2716      4.43818      4.43818      4.43818   -4971.2716   -11946.511    270.99225   -3238.2962   -11469.847    4924.5832    501.35468    87.420791 
   18700    1054.3392   -104.67921   0.95398824   -103.72522   -5826.2205    4.4184559    4.4184559    4.4184559   -5826.2205    21355.421   -8030.6058   -30803.477   -10695.604   -20680.639   -3048.0522     86.26042 
   18800    1314.3974   -104.92921    1.1892944   -103.73991    4311.2108    4.4017268    4.4017268    4.4017268    4311.2108   -9247.5231    -7447.079    29628.235    4547.0215   -352.92735   -3008.1451     85.28433 
   18900    1157.4656   -104.81117    1.0472992   -103.76387   -15518.074    4.4350567    4.4350567    4.4350567   -15518.074   -26567.769   -18943.522   -1042.9301    6434.9136   -7806.5182    4428.1123    87.236357 
   19000     711.0645   -104.38279    0.6433861   -103.73941    -21034.48    4.4406858    4.4406858    4.4406858    -21034.48   -13386.109   -33734.708   -15982.622    2481.5669     -12990.9    842.19835     87.56895 
   19100    1267.9211   -104.86011    1.1472416   -103.71287    23139.815    4.4015493    4.4015493    4.4015493    23139.815    57706.502   -9299.4379     21012.38    12061.414    25486.129   -1968.5119    85.274017 
   19200    1084.0678    -104.7316    0.9808873   -103.75071    -5828.188    4.4157683    4.4157683    4.4157683    -5828.188    11104.662   -30755.325     2166.099   -13126.148   -8863.1814   -5458.6407    86.103106 
   19300    1197.4504   -104.83327    1.0834783   -103.74979   -17697.065    4.4410276    4.4410276    4.4410276   -17697.065   -43222.898   -47453.945    37585.648    2466.2633    1517.3156    4388.1212    87.589173 
   19400    987.06272    -104.6359   0.89311509   -103.74278   -18888.904    4.4282336    4.4282336    4.4282336   -18888.904    166.60049   -33906.405   -22926.909   -10747.035   -28224.705   -7532.1426    86.834355 
   19500    939.87603    -104.5807   0.85041958   -103.73028    30253.864    4.3890101    4.3890101    4.3890101    30253.864     60993.64    7791.3982    21976.552   -721.39867   -1908.9605    4294.6608    84.547302 
   19600    1446.2407   -105.07074     1.308589   -103.76215    -17722.17    4.4174137    4.4174137    4.4174137    -17722.17   -20350.241   -34205.257    1388.9867    16908.141   -1216.7703   -6038.4293    86.199399 
   19700    1123.2955   -104.76427    1.0163814   -103.74789     -29390.3     4.443078     4.443078     4.443078     -29390.3   -4404.2018   -53052.403   -30714.296   -3450.6808   -18628.796    98.465372    87.710548 
   19800    1162.2347   -104.78139    1.0516144   -103.72978    6560.9819    4.4159952    4.4159952    4.4159952    6560.9819    42841.738   -24055.828    897.03569    8876.9133   -700.59102    1513.4462    86.116385 
   19900    910.66441    -104.5527   0.82398829   -103.72872    25463.057    4.4053582    4.4053582    4.4053582    25463.057    57527.695    37277.381   -18415.907   -14265.799   -22552.368   -11516.462    85.495584 
   20000    970.04597   -104.61622   0.87771798   -103.73851   -1077.5107    4.4326558    4.4326558    4.4326558   -1077.5107   -22881.241    32106.645   -12457.936   -12048.008    1220.5591   -3657.2205     87.09476 
   20100    979.49566   -104.61475   0.88626826   -103.72848   -13078.149    4.4360997    4.4360997    4.4360997   -13078.149   -50881.355    65062.236   -53415.328    1200.9489    -16323.82   -17658.469    87.297921 
   20200    1260.2776   -104.86257    1.1403257   -103.72224   -2179.7811    4.4122043    4.4122043    4.4122043   -2179.7811   -11444.177    24184.982   -19280.149   -596.85629    1115.5504   -3933.2431    85.894795 
   20300    1233.4773   -104.85269    1.1160762   -103.73661   -243.42394     4.412133     4.412133     4.412133   -243.42394   -7211.7547    26597.903   -20116.421    6894.5452   -10183.142    3191.3306    85.890627 
   20400    970.50933   -104.62815   0.87813724   -103.75002   -4093.8536    4.4264576    4.4264576    4.4264576   -4093.8536   -17661.175    54410.272   -49030.658   -20625.471   -2738.0934   -4628.9834    86.729914 
   20500    858.21743   -104.51627   0.77653317   -103.73974    14555.381    4.4315169    4.4315169    4.4315169    14555.381     14334.91      55398.6   -26067.368   -27710.438    1747.9864    13893.018    87.027644 
   20600    895.69441   -104.53777   0.81044312   -103.72732      12279.6    4.4207669    4.4207669    4.4207669      12279.6    28000.009    13522.263   -4683.4727   -24564.026   -3965.3035   -2915.0641    86.395841 
   20700    1166.6209   -104.77861    1.0555831   -103.72303    5309.5642    4.4129396    4.4129396    4.4129396    5309.5642    59427.055   -17892.638   -25605.724   -2665.2058    9639.0022    9937.4963    85.937745 
   20800    1164.4779   -104.78584     1.053644    -103.7322   -15133.369    4.4304222    4.4304222    4.4304222   -15133.369    2972.1737   -27336.017   -21036.264    1804.1712   -12546.994   -1397.5071    86.963164 
   20900    1320.9483   -104.92161    1.1952218   -103.72639   -16044.134    4.4215831    4.4215831    4.4215831   -16044.134   -22273.831   -36023.475    10164.902   -7994.4257   -4218.0801    5395.7229    86.443705 
   21000     993.2546    -104.6333   0.89871763   -103.73458    4777.4331     4.408859     4.408859     4.408859    4777.4331    24527.499    -16135.99    5940.7906     8157.393   -10055.877    2498.8557    85.699568 
   21100    1169.0217   -104.80192    1.0577554   -103.74416   -2387.9622    4.4163567    4.4163567    4.4163567   -2387.9622    23890.178   -14679.299   -16374.766    -19202.53   -3518.7529    4402.9784    86.137535 
   21200    780.73991   -104.44839   0.70642988   -103.74196    456.59428    4.4250809    4.4250809    4.4250809    456.59428   -2499.8163    11301.543   -7431.9438   -11229.868   -10338.598    4440.2919    86.649017 
   21300    1378.0079    -104.9751    1.2468505   -103.72825   -8062.4598    4.4184226    4.4184226    4.4184226   -8062.4598   -13436.966    11213.255   -21963.669   -7835.4122   -5584.9861    2146.2768     86.25847 
   21400     671.6312   -104.34921   0.60770602   -103.74151    9291.4387    4.4150229    4.4150229    4.4150229    9291.4387   -25127.078    31632.627    21368.767   -11226.016    2018.4205    14150.095    86.059512 
   21500    1315.4584   -104.93335    1.1902544    -103.7431   -9501.2941     4.408995     4.408995     4.408995   -9501.2941   -18017.185    18689.798   -29176.495    14185.234   -24528.549   -5238.9747    85.707498 
   21600    998.71571   -104.65372   0.90365896   -103.75006   -4625.4577    4.4173747    4.4173747    4.4173747   -4625.4577   -6525.3465   -22014.491    14663.464   -6340.2298    3865.0049    7195.6618    86.197111 
   21700    1216.0523   -104.84289    1.1003096   -103.74259   -17212.826    4.4258292    4.4258292    4.4258292   -17212.826   -20514.253    2355.4833   -33479.709    2376.0158   -19986.362     -10813.3    86.692983 
   21800     886.7916   -104.53684   0.80238768   -103.73445    21775.404    4.4177362    4.4177362    4.4177362    21775.404   -3359.0093    56125.771    12559.449   -8781.7754    -7343.522   -3867.4206    86.218278 
   21900    1030.6239   -104.66898   0.93253021   -103.73645   -1946.9076    4.4207265    4.4207265    4.4207265   -1946.9076   -34860.693    53138.176   -24118.206   -10568.296   -13549.875   -8100.1944    86.393476 
   22000    1058.8448   -104.68929   0.95806504   -103.73122    596.48005    4.4232807    4.4232807    4.4232807    596.48005   -33231.099    16480.122    18540.417     1055.353   -3637.3533   -3899.1344    86.543312 
   22100    1202.6896   -104.81935    1.0882188   -103.73114      -8018.3    4.4088737    4.4088737    4.4088737      -8018.3   -16622.389    6466.6013   -13899.112   -11734.302   -17532.685    8234.3121    85.700422 
   22200    1067.8231   -104.71216   0.96618881   -103.74597    9894.5701    4.4200735    4.4200735    4.4200735    9894.5701    -41205.39    76039.701   -5150.6002    13038.148    -2734.834   -6265.4398    86.355195 
   22300    1154.5509    -104.7922     1.044662   -103.74754    -6841.077    4.4140277    4.4140277    4.4140277    -6841.077   -38091.295    40195.487   -22627.424    2590.8293   -11181.701    -2133.073    86.001326 
   22400    1260.5728   -104.88489    1.1405928    -103.7443   -4219.2829    4.4171176    4.4171176    4.4171176   -4219.2829   -21119.788    17638.701   -9176.7618    5126.7418    719.64579   -6290.6053    86.182062 
   22500    891.05376   -104.55054   0.80624417   -103.74429    -11951.95    4.4256785    4.4256785    4.4256785    -11951.95   -65304.208    64761.711   -35313.351    8509.7692   -21660.469    4906.3052    86.684129 
   22600    1440.3068   -105.04265    1.3032198   -103.73943   -9716.8947    4.4058743    4.4058743    4.4058743   -9716.8947   -37452.187     34855.98   -26554.477   -17752.458    4763.8287    1154.8797    85.525634 
   22700    1067.6131   -104.71404   0.96599875   -103.74804    15249.154    4.4006472    4.4006472    4.4006472    15249.154   -30621.075    76293.786    74.750956    6470.2073   -13944.906    2229.2358    85.221592 
   22800    1108.5396   -104.75835    1.0030299   -103.75532   -14850.037    4.4277388    4.4277388    4.4277388   -14850.037   -56125.642    44882.936   -33307.404   -14516.046    4648.8893   -7622.0716    86.805248 
   22900    1026.9607   -104.67494    0.9292156   -103.74572   -2424.4937    4.4227299    4.4227299    4.4227299   -2424.4937   -44602.577    51853.837   -14524.741    8290.0565   -12734.534   -4219.7017    86.510983 
   23000    1101.8302   -104.73604   0.99695913   -103.73908   -6040.8806    4.4066345    4.4066345    4.4066345   -6040.8806   -32238.392    27274.911   -13159.161    10439.655    3218.5819   -4058.3463    85.569915 
   23100     1182.299   -104.82078     1.069769   -103.75101    5902.4383    4.4034381    4.4034381    4.4034381    5902.4383   -3493.4578    32455.275   -11254.503   -6762.7852   -4064.7132     6853.599    85.383841 
   23200    1065.7012   -104.72842   0.96426887   -103.76415   -7791.4851    4.4289982    4.4289982    4.4289982   -7791.4851   -48256.072     58022.32   -33140.703    2878.3244   -2808.4612     898.1746     86.87934 
   23300     1110.871    -104.7566    1.0051395   -103.75146   -13067.388    4.4192505    4.4192505    4.4192505   -13067.388   -33286.991    36468.767    -42383.94   -14291.065   -12.104398    376.56755    86.306966 
   23400    1377.9222   -104.98003     1.246773   -103.73326    8728.5899    4.4038219    4.4038219    4.4038219    8728.5899   -4223.8175    21873.841    8535.7465    10161.423   -11960.419   -8366.5355     85.40617 
   23500    646.87119   -104.33546   0.58530265   -103.75016    11451.201     4.419446     4.419446     4.419446    11451.201   -27835.039      87520.1   -25331.457   -11904.034   -5791.5314   -9419.8404    86.318423 
   23600    1303.1618    -104.9179    1.1791282   -103.73878   -4489.0373    4.4206934    4.4206934    4.4206934   -4489.0373   -2101.6023    33584.726   -44950.236    4837.1249   -6157.8247   -1193.4987    86.391534 
   23700    1114.8942   -104.74284    1.0087797   -103.73406    9843.4202     4.408356     4.408356     4.408356    9843.4202    -33606.01      50889.1     12247.17    5936.5081   -5594.7186    5008.6713     85.67024 
   23800    1279.0961   -104.90077     1.157353   -103.74342   -17361.594    4.4127701    4.4127701    4.4127701   -17361.594   -45901.731    33915.544   -40098.595   -12386.839   -12274.383   -1649.5212     85.92784 
   23900     923.8137   -104.58808   0.83588605   -103.75219    29713.308    4.4173337    4.4173337    4.4173337    29713.308    7724.4155    57037.119    24378.388    19534.834    10151.528   -11746.179    86.194715 
   24000    1041.4945   -104.68233   0.94236615   -103.73997   -35562.761    4.4374505    4.4374505    4.4374505   -35562.761   -50645.014   -25184.351   -30858.919    -21016.53   -7932.9524   -9159.0189    87.377692 
   24100     1245.912   -104.84352    1.1273274   -103.71619    25015.627    4.3975226    4.3975226    4.3975226    25015.627    -7340.307    42019.185    40368.004    6974.8467     4409.231   -9256.2756    85.040194 
   24200    928.87307   -104.57942   0.84046387   -103.73895    1131.8553    4.4026077    4.4026077    4.4026077    1131.8553   -9891.1918   -12607.674    25894.431   -12722.691   -9933.2753    4897.0244    85.335545 
   24300    1286.5779   -104.89727    1.1641227   -103.73315   -27103.189    4.4356941    4.4356941    4.4356941   -27103.189   -38855.777    322.03717   -42775.827     6664.376    2855.4392    3431.8894    87.273974 
   24400    990.38218   -104.62702   0.89611861    -103.7309   -13380.509    4.4192465    4.4192465    4.4192465   -13380.509   -42072.485   -6406.0975     8337.055    8359.1534   -16292.115     1829.491    86.306731 
   24500    1113.6292   -104.73117    1.0076351   -103.72354    7552.5545    4.3994179    4.3994179    4.3994179    7552.5545   -936.55963    22442.463    1151.7602    2682.9785    7246.2594   -13180.733    85.150199 
   24600    850.66671   -104.51582   0.76970111   -103.74612    14349.658    4.4100164    4.4100164    4.4100164    14349.658   -32464.279    25516.506    49996.748    9267.3831    -895.7061   -18002.149    85.767075 
   24700    880.82847   -104.53773   0.79699211   -103.74073   -9807.3978    4.4321995    4.4321995    4.4321995   -9807.3978   -18622.699    8982.7242   -19782.219   -576.88934   -8393.0688   -6669.6025    87.067867 
   24800    1237.2332   -104.83942    1.1194746   -103.71994   -10436.073    4.4160978    4.4160978    4.4160978   -10436.073   -31333.976    21956.772   -21931.014    2159.1022    8278.9284    3465.2831    86.122385 
   24900    1135.2259   -104.74231    1.0271762   -103.71513     12479.22    4.3990699    4.3990699    4.3990699     12479.22   -14648.436    60837.521   -8751.4241   -3743.0045   -25840.937   -3827.2996    85.129989 
   25000     1448.098   -105.04376    1.3102695   -103.73349   -25246.699    4.4200779    4.4200779    4.4200779   -25246.699   -20591.114    -14788.54   -40360.445    7015.4981    18177.683    9017.3467    86.355453 
   25100    987.07696    -104.6318   0.89312798   -103.73867   -4197.7453     4.424279     4.424279     4.424279   -4197.7453    -35117.59    55544.072   -33019.718   -2043.3219   -20938.771    -1552.046    86.601917 
   25200    1207.5437   -104.82612    1.0926109   -103.73351     3871.322    4.4083132    4.4083132    4.4083132     3871.322     5252.311    10691.885     -4330.23    473.50769    6356.8954   -10772.788    85.667744 
   25300    1049.0043   -104.69284   0.94916117   -103.74368    20941.941    4.4032069    4.4032069    4.4032069    20941.941    7606.0402    28829.316    26390.466    1818.0727   -12892.565    6531.6753     85.37039 
   25400    614.32648   -104.30342   0.55585551   -103.74756    27481.265     4.421594     4.421594     4.421594    27481.265    16674.549    60626.102    5143.1428   -72.054074    3623.4323   -13046.397    86.444345 
   25500    1445.3036   -105.03837     1.307741   -103.73063   -11320.811    4.4198669    4.4198669    4.4198669   -11320.811   -14647.109    -22940.67    3625.3455   -933.46585   -9543.6017   -747.50473    86.343086 
   25600    783.63331   -104.44055   0.70904789   -103.73151    28820.507    4.3990441    4.3990441    4.3990441    28820.507    59970.778    45044.108   -18553.365   -10039.198   -3430.7449   -9853.6844    85.128491 
   25700    1321.7275   -104.93895    1.1959268   -103.74303    3347.1095    4.4111253    4.4111253    4.4111253    3347.1095   -3543.7378    9995.4206    3589.6457    727.37223    7804.8575   -16327.683    85.831791 
   25800     1296.832    -104.9212    1.1734009    -103.7478   -19563.118    4.4225763    4.4225763    4.4225763   -19563.118    -14663.12    5993.7758   -50020.011    4449.4793    -9564.032      11429.5    86.501973 
   25900    853.01646    -104.5155   0.77182722   -103.74367    12086.506     4.412294     4.412294     4.412294    12086.506    15313.077    28281.233   -7334.7917   -1849.4731    3693.0381   -15961.063     85.90003 
   26000    1273.7021   -104.89226    1.1524724   -103.73979    11977.364    4.4064595    4.4064595    4.4064595    11977.364     28204.15   -5992.3654    13720.306    11348.843   -4217.4485    3450.6243    85.559718 
   26100    1078.5334   -104.72233   0.97587968   -103.74645   -17363.302    4.4197589    4.4197589    4.4197589   -17363.302   -6554.0473   -8309.4483   -37226.411    5810.1795    5425.2348   -15408.281    86.336761 
   26200    1337.9099   -104.94072     1.210569   -103.73015    9295.8984    4.4130007    4.4130007    4.4130007    9295.8984    36681.093   -7564.1845   -1229.2135    13980.031     -5831.14    2549.1953    85.941316 
   26300    946.96327   -104.59799   0.85683226   -103.74116   -8515.0615    4.4113404    4.4113404    4.4113404   -8515.0615    21446.497    1951.9349   -48943.617    3913.0295    -14441.93   -19347.803    85.844352 
   26400    1280.6277   -104.89602    1.1587388   -103.73728     20341.24    4.4052605    4.4052605    4.4052605     20341.24    46197.678    16867.906   -2041.8629   -2586.5429    2244.5639    7205.5526    85.489898 
   26500    790.20105   -104.46467   0.71499052   -103.74968   -7603.0332    4.4198551    4.4198551    4.4198551   -7603.0332     36786.53   -15541.298   -44054.332   -7581.0838   -19941.559   -11395.436    86.342395 
   26600    1406.8264   -105.01076    1.2729261   -103.73783   -11320.453     4.412489     4.412489     4.412489   -11320.453   -5774.7559   -15746.288   -12440.315     9821.725    5182.7994   -7032.6323    85.911422 
   26700    939.42873   -104.59393   0.85001486   -103.74391    19302.055    4.3995854    4.3995854    4.3995854    19302.055    94275.625   -5485.9322   -30883.527    4236.4904   -16205.439   -2209.8386    85.159921 
   26800    1051.2002    -104.7017   0.95114803   -103.75055   -28896.218    4.4207543    4.4207543    4.4207543   -28896.218    618.03814    -55106.04   -32200.652   -1148.5164   -2627.8451   -36076.724    86.395105 
   26900    1228.3107   -104.84272    1.1114013   -103.73132    22092.297    4.4052714    4.4052714    4.4052714    22092.297    73595.887    9283.3855   -16602.381   -5809.4634   -1756.2928     4964.059    85.490529 
   27000     990.2707   -104.63908   0.89601774   -103.74306   -30537.334    4.4160301    4.4160301    4.4160301   -30537.334   -16139.973   -34917.033   -40554.996   -394.07505   -9141.4947   -22342.331    86.118427 
   27100    1259.4592   -104.87052    1.1395851   -103.73094    15775.553    4.4073746    4.4073746    4.4073746    15775.553     41401.27     435.9262    5489.4619   -4372.5929    2730.1851    -918.6792    85.613035 
   27200    952.95121   -104.60707   0.86225028   -103.74482   -12623.437    4.4131946    4.4131946    4.4131946   -12623.437    -21020.48    1914.7616   -18764.594    8039.4305   -13629.147   -12903.565    85.952643 
   27300    1130.0057   -104.75231    1.0224529   -103.72986    2015.2741    4.4195918    4.4195918    4.4195918    2015.2741    33655.654   -2843.8085   -24766.023    11391.389    12186.093     3527.843    86.326968 
   27400    870.77243    -104.5147   0.78789319    -103.7268    12910.813    4.4040818    4.4040818    4.4040818    12910.813   -4810.2984    19396.153    24146.586    5087.4149   -8738.3877    -21245.58    85.421294 
   27500    1069.6545   -104.70217   0.96784588   -103.73433    3966.9398    4.4153821    4.4153821    4.4153821    3966.9398    43627.066   -19629.583   -12096.664    8423.9321   -5624.2292    -7162.842    86.080518 
   27600    1163.9395   -104.78544     1.053157   -103.73229    8612.2315    4.4086097    4.4086097    4.4086097    8612.2315   -10697.884   -5390.7019    41925.281    650.61794    3415.4893   -7565.6005    85.685029 
   27700    886.80274   -104.54598   0.80239775   -103.74359   -4738.7693    4.4129192    4.4129192    4.4129192   -4738.7693    16000.866    16310.086    -46527.26   -11978.288   -22008.911   -20558.578    85.936553 
   27800    1236.8905   -104.85316    1.1191645     -103.734    18839.495     4.410967     4.410967     4.410967    18839.495    11892.273    12261.507    32364.704   -4991.2265   -1260.5055    6992.3299    85.822554 
   27900    627.99623   -104.31023   0.56822419   -103.74201    6324.4899     4.415927     4.415927     4.415927    6324.4899    14151.705   -5900.1663    10721.931   -7088.1056    3395.1761   -23178.839    86.112393 
   28000    1424.4216   -105.01011    1.2888466   -103.72126   -14691.308    4.4209082    4.4209082    4.4209082   -14691.308   -12028.508    1867.5099   -33912.926    -5202.224   -86.304744    11936.865    86.404128 
   28100    875.57203   -104.52231   0.79223597   -103.73007    14755.038    4.4006432    4.4006432    4.4006432    14755.038    27842.293    12157.796    4265.0253    14616.795   -8482.4421   -15183.831    85.221365 
   28200    1254.2291   -104.87292    1.1348528   -103.73807    356.94453    4.4141664    4.4141664    4.4141664    356.94453    10403.752   -8725.8955    -607.0225    10385.258    1851.7112    7479.5347    86.009437 
   28300    1115.8673   -104.74698    1.0096602   -103.73732   -11938.486    4.4216661    4.4216661    4.4216661   -11938.486     30667.72    -40393.65   -26089.527    4438.6708   -13842.263   -11584.759    86.448574 
   28400    915.32392   -104.56199   0.82820432   -103.73378    7592.8557    4.4060001    4.4060001    4.4060001    7592.8557     16640.35    3185.6748    2952.5419    3969.5788    -9295.574    -5186.886     85.53296 
   28500    1473.2034   -105.06736    1.3329854   -103.73437   -3965.1313    4.4067392    4.4067392    4.4067392   -3965.1313    45572.716   -34410.244   -23057.866   -5037.8282    2572.3544   -2107.3537    85.576011 
   28600    1120.7017   -104.75699    1.0140345   -103.74295   -17294.361    4.4197169    4.4197169    4.4197169   -17294.361   -6785.3524   -28613.638   -16484.093     3574.313   -4848.6724   -12095.724    86.334299 
   28700    1100.5885   -104.73146   0.99583561   -103.73562    21150.529    4.4109069    4.4109069    4.4109069    21150.529      63565.7    4197.9403   -4312.0545   -6081.9223   -4592.2958    12919.867    85.819045 
   28800    1315.1073   -104.92968    1.1899367   -103.73974   -13759.646    4.4091714    4.4091714    4.4091714   -13759.646    22058.981   -31570.374   -31767.545    10220.369   -8549.5941   -22240.819    85.717786 
   28900    1183.6176   -104.81324    1.0709621   -103.74228    7449.6764    4.4045048    4.4045048    4.4045048    7449.6764    31904.809   -21400.117    11844.338    918.08316   -11396.949    16745.504    85.445907 
   29000     1205.155   -104.83311    1.0904496   -103.74266    6626.3988    4.4171521    4.4171521    4.4171521    6626.3988    51281.416    1874.1289   -33276.348   -9454.9495   -12.396897   -9442.9038    86.184081 
   29100    1213.5117   -104.83816    1.0980109   -103.74015   -14040.865    4.4126595    4.4126595    4.4126595   -14040.865   -5802.3862   -13680.563   -22639.645    5161.8333   -4646.9891    6048.1119    85.921382 
   29200    865.53561   -104.51932   0.78315481   -103.73616    46253.078    4.3986901    4.3986901    4.3986901    46253.078    81471.618    48134.667    9152.9483    -14084.61     1177.588      2443.33    85.107941 
   29300    1310.8658   -104.92792    1.1860989   -103.74182   -25623.023    4.4179872    4.4179872    4.4179872   -25623.023   -26516.161    2026.7467   -52379.653    636.50005   -8811.0168     671.4465    86.232972 
   29400    972.84052    -104.6212   0.88024655   -103.74095    14209.112    4.4051385    4.4051385    4.4051385    14209.112    34135.766    21072.567   -12580.998    3138.1753   -4721.6681    14773.076    85.482791 
   29500    1122.2956   -104.75307    1.0154766    -103.7376    13208.284    4.4080903    4.4080903    4.4080903    13208.284    17600.228    38670.034    -16645.41   -6918.9778    4185.9714   -6747.7792     85.65475 
   29600    1006.2303   -104.65376   0.91045832   -103.74331   -19034.599    4.4099896    4.4099896    4.4099896   -19034.599    -17224.47   -780.54914   -39098.779   -759.13694   -23966.091    12900.633    85.765514 
   29700     1168.754   -104.79439    1.0575131   -103.73688    27405.549    4.4045857    4.4045857    4.4045857    27405.549    10159.704    74712.934   -2655.9918   -4101.0621    12302.782   -8438.3156    85.450618 
   29800    815.47662   -104.48415   0.73786039   -103.74629    -21491.16    4.4176147    4.4176147    4.4176147    -21491.16    -20715.74   -3807.4132   -39950.326    8054.9195   -21756.171    10753.966    86.211164 
   29900    1506.4563   -105.09462    1.3630733   -103.73155    4116.5988    4.4008044    4.4008044    4.4008044    4116.5988   -16589.451    31710.734   -2771.4874   -5541.7452    4232.4254    6638.6502    85.230729 
   30000    747.98282    -104.4191   0.67679057   -103.74231    17384.609    4.4044912    4.4044912    4.4044912    17384.609    1531.5909      51169.9   -547.66422    2679.9379   -10874.209    8141.9759    85.445117 
   30100    1188.0951   -104.81259    1.0750134   -103.73758   -18880.146    4.4172016    4.4172016    4.4172016   -18880.146   -24609.651    676.27954   -32707.067    965.86886    2833.8651    8868.8428    86.186979 
   30200    1253.0494   -104.86882    1.1337854   -103.73504   -1191.9608    4.4054453    4.4054453    4.4054453   -1191.9608   -21349.364    26295.438   -8521.9562   -6793.5475   -6749.5843   -1346.6878    85.500653 
   30300    881.60928   -104.53778    0.7976986   -103.74008   -1678.6618     4.410019     4.410019     4.410019   -1678.6618   -5819.3984    14821.798   -14038.384    3917.8975   -6250.7677    14257.322    85.767228 
   30400    940.57801   -104.58501   0.85105475   -103.73396    8709.2701    4.4065142    4.4065142    4.4065142    8709.2701   -302.05853    25731.039    698.82945    10998.764    1675.9299   -9737.3464    85.562907 
   30500    1533.9856   -105.12046    1.3879824   -103.73247   -23973.088    4.4076321    4.4076321    4.4076321   -23973.088   -13513.598   -15310.901   -43094.766   -11210.134   -19082.644    9549.5896    85.628042 
   30600    879.03006   -104.53332   0.79536487   -103.73796   -4308.8966    4.4181742    4.4181742    4.4181742   -4308.8966   -6634.9581    16014.341   -22306.073    12566.987     4950.878    4574.4047    86.243925 
   30700    959.81611   -104.60546   0.86846179     -103.737    3326.5024    4.4017953    4.4017953    4.4017953    3326.5024   -10767.775    16043.509     4703.773    2598.1755   -12175.947   -11284.215    85.288315 
   30800    1421.0504   -105.02842    1.2857963   -103.74263    8015.5208    4.3982312    4.3982312    4.3982312    8015.5208      3560.54    45218.125   -24732.103    6672.3055    2949.2426    17571.259    85.081312 
   30900    848.06381   -104.51744   0.76734596   -103.75009    -22530.52    4.4230859    4.4230859    4.4230859    -22530.52   -34887.072   -16130.587   -16573.902    19522.936    -4484.311   -13504.184    86.531878 
   31000    1204.1329   -104.82466    1.0895247   -103.73513    18308.991    4.4016875    4.4016875    4.4016875    18308.991    27493.154    28794.767   -1360.9474   -15558.658    -5200.339    10692.677    85.282047 
   31100    1045.6338   -104.68822   0.94611146   -103.74211   -5558.3293    4.4071018    4.4071018    4.4071018   -5558.3293   -392.52657    6938.8635   -23221.325    19767.507    7953.0102    3665.6009    85.597141 
   31200    1163.5222   -104.79279    1.0527793   -103.74001    1226.6719    4.4072365    4.4072365    4.4072365    1226.6719   -6718.0865     9214.625    1183.4772    8879.3821   -5889.6177    7032.2568    85.604989 
   31300     976.3415   -104.63634   0.88341431   -103.75292    -3557.402     4.412946     4.412946     4.412946    -3557.402    36150.686   -15728.536   -31094.356    14148.801    9491.2497    5541.8083    85.938117 
   31400      1074.08   -104.72195   0.97185015    -103.7501   -12997.442    4.4100358    4.4100358    4.4100358   -12997.442    5826.5678   -24359.313   -20459.582    16204.293   -19739.565   -1540.9752    85.768207 
   31500    1315.2988   -104.92678      1.19011   -103.73667    4279.1985    4.4032055    4.4032055    4.4032055    4279.1985    30239.619    1228.4423   -18630.466   -13837.061    7160.2709     11577.04    85.370314 
   31600    876.15743   -104.53459   0.79276566   -103.74182   -12526.607     4.415665     4.415665     4.415665   -12526.607   -28926.426     1915.835   -10569.231    12208.843   -2049.8581   -4564.1642    86.097069 
   31700    1296.4633   -104.90588    1.1730672   -103.73281    10035.758      4.39973      4.39973      4.39973    10035.758    68657.799   -12568.601   -25981.924   -3453.9837    1335.6033    8652.1691     85.16832 
   31800    994.73681   -104.65355   0.90005877   -103.75349   -4389.9588    4.4051383    4.4051383    4.4051383   -4389.9588    11430.309   -6336.8561   -18263.329    14534.824    22462.142   -2794.9501    85.482783 
   31900    1244.5753   -104.87846    1.1261179   -103.75234   -1171.1945    4.4114246    4.4114246    4.4114246   -1171.1945    7290.1692    -6232.012   -4571.7407   -12112.026   -8944.6181    2366.8534    85.849267 
   32000    1154.8129   -104.79393     1.044899   -103.74903   -3581.7866    4.4085576    4.4085576    4.4085576   -3581.7866    4008.6567    2390.9138    -17144.93   -979.60791    16060.347         3967     85.68199 
   32100    989.24681     -104.643   0.89509131   -103.74791    13236.008    4.4055538    4.4055538    4.4055538    13236.008    33931.583    11077.419   -5300.9792    7219.8044   -12241.939   -5762.3548    85.506969 
   32200    997.79074   -104.65026   0.90282203   -103.74743    2754.8335    4.4140922    4.4140922    4.4140922    2754.8335    8926.8206    25266.939    -25929.26   -15253.408     10532.37    -4367.742      86.0051 
   32300    1187.8162   -104.81583    1.0747611   -103.74107   -3371.0936    4.4060746    4.4060746    4.4060746   -3371.0936    -8077.194     5615.614   -7651.7009    22703.997    3316.7888   -354.68937    85.537303 
   32400    1128.2183   -104.76523    1.0208356   -103.74439   -8396.8272    4.4083275    4.4083275    4.4083275   -8396.8272   -6871.9673    7329.6395   -25648.154    2385.1535    7081.0245    613.87458    85.668579 
   32500     1193.095    -104.8222    1.0795374   -103.74266   -8384.6292    4.4059943    4.4059943    4.4059943   -8384.6292   -17146.228    29483.355   -37491.014    2809.6291     32830.74    5036.6627    85.532626 
   32600    864.89342   -104.52832   0.78257374   -103.74575    4270.9853    4.4113282    4.4113282    4.4113282    4270.9853    42971.134   -2712.6088   -27445.569    7749.7498   -6283.4076   -4924.5871     85.84364 
   32700    882.49363   -104.54378   0.79849878   -103.74528   -3129.2791    4.4111138    4.4111138    4.4111138   -3129.2791   -8755.1778    38888.322   -39520.981      4970.12    44110.929   -2880.2694    85.831121 
   32800    1353.3757   -104.96282    1.2245628   -103.73825    15781.312    4.4044507    4.4044507    4.4044507    15781.312    52300.865    5761.9701     -10718.9    4979.0391   -11084.192    2600.7693    85.442761 
   32900    1041.2366   -104.68449    0.9421328   -103.74235   -23947.637    4.4102598    4.4102598    4.4102598   -23947.637   -40447.942    4686.0944   -36081.063   -9972.0233    23050.428    491.51924    85.781277 
   33000    1183.2468   -104.80796    1.0706265   -103.73733    19330.217    4.4045384    4.4045384    4.4045384    19330.217    61821.785    19964.459   -23795.593   -3968.1591    268.31364   -1174.4788    85.447862 
   33100    1181.4218   -104.81795    1.0689753   -103.74898   -13270.399    4.4106223    4.4106223    4.4106223   -13270.399    -22089.38   -1132.5295   -16589.287    8371.9978    9071.1498    4680.0569    85.802434 
   33200    1232.6739     -104.859    1.1153493   -103.74365   -11935.979    4.4143505    4.4143505    4.4143505   -11935.979    1557.3516   -17352.089   -20013.199    1205.5547    20870.785    7044.9099    86.020198 
   33300    1273.2005   -104.88741    1.1520185   -103.73539   -9802.9428      4.41552      4.41552      4.41552   -9802.9428    13920.447   -17840.126   -25489.149    1645.7221     4870.807    5032.7679    86.088586 
   33400    1101.7183   -104.73233    0.9968579   -103.73547   -11207.223    4.4070873    4.4070873    4.4070873   -11207.223   -30514.313   -4737.9048    1630.5477   -4353.6991    10728.017    7939.9048    85.596295 
   33500    1208.2386    -104.8257    1.0932397   -103.73246    12393.457    4.4061165    4.4061165    4.4061165    12393.457    19309.569    14776.103    3094.6982   -4302.4371   -9726.4223   -450.47304    85.539743 
   33600    1143.1409   -104.77313    1.0343379   -103.73879    -17253.32    4.4189783    4.4189783    4.4189783    -17253.32   -51734.418    240.07316   -265.61633    3187.1521    20714.854   -6164.1205     86.29102 
   33700    1108.0452   -104.73307    1.0025826   -103.73049    19471.339    4.4113462    4.4113462    4.4113462    19471.339     23307.65    5686.5002    29419.867   -4008.5564    2433.7803    1042.9937    85.844688 
   33800    753.42996   -104.41808   0.68171926   -103.73636    15384.921    4.4021312    4.4021312    4.4021312    15384.921    16733.995      53696.3   -24275.534    21956.517    30611.909   -13134.412     85.30784 
   33900    1201.3229   -104.82295    1.0869822   -103.73597    17178.549    4.4058103    4.4058103    4.4058103    17178.549    39429.588    17258.826   -5152.7664    3368.6935    7720.7069   -3324.7206    85.521909 
   34000    729.46506   -104.40264   0.66003532    -103.7426     12885.49    4.4147084    4.4147084    4.4147084     12885.49   -11313.067    50490.948   -521.41264    3966.9919    22789.173   -9070.8565    86.041125 
   34100    1242.8591   -104.84941     1.124565   -103.72484   -2762.7374    4.4172802    4.4172802    4.4172802   -2762.7374   -12633.002     1002.499    3342.2904   -2873.5756    11740.289   -2616.5591    86.191582 
   34200    1224.2025   -104.83034    1.1076841   -103.72265   -13813.548    4.4049813    4.4049813    4.4049813   -13813.548   -11345.893   -24178.987   -5915.7632   -6265.1372    2645.5248    2850.6467    85.473644 
   34300    1130.0028   -104.75386    1.0224503   -103.73141    4066.0892    4.4044728    4.4044728    4.4044728    4066.0892   -19578.252    37319.293   -5542.7735    224.98126    17293.448    1272.4866    85.444046 
   34400    1232.2332   -104.84312    1.1149505   -103.72817   -11247.819    4.4135441    4.4135441    4.4135441   -11247.819     13384.36   -28703.439    -18424.38    6433.2586   -4452.4621    11617.246    85.973063 
   34500    1034.7884   -104.67118   0.93629833   -103.73488   -22675.309    4.4093381    4.4093381    4.4093381   -22675.309   -9320.2339   -20933.992   -37771.701     2387.467    27930.981    356.30179    85.727507 
   34600    1235.8658   -104.85368    1.1182373   -103.73544    23462.121    4.4051223    4.4051223    4.4051223    23462.121    20769.573    44999.087    4617.7043    7602.6332   -15467.339   -4743.8353    85.481848 
   34700    864.68171   -104.53157   0.78238219   -103.74919   -5442.6975    4.4033495    4.4033495    4.4033495   -5442.6975    -46864.78    10355.982    20180.705    4448.1056    27315.145    -7542.711    85.378687 
   34800    1028.5396   -104.67533   0.93064428   -103.74468    13749.494    4.4198371    4.4198371    4.4198371    13749.494    24605.428    -8812.753    25455.808    7658.2555   -6989.4557   -5963.7579    86.341341 
   34900    804.90119   -104.46838   0.72829151   -103.74009   -17543.915    4.4195964    4.4195964    4.4195964   -17543.915   -64441.189   -3906.3793    15715.823   -218.95745    14725.987   -5687.5822    86.327236 
   35000    1077.3171   -104.70132   0.97477914   -103.72654    18444.705    4.3801149    4.3801149    4.3801149    18444.705    33918.337   -2818.1272    24233.905    6523.5603     5634.931    2109.9156    84.034287 
   35100     1363.358   -104.98592     1.233595   -103.75233   -3308.3812    4.4007743    4.4007743    4.4007743   -3308.3812    5553.0395   -7482.1584   -7996.0248    612.15347   -2784.6858     4421.902     85.22898 
   35200    946.57884   -104.60059   0.85648443    -103.7441   -43510.429    4.4320828    4.4320828    4.4320828   -43510.429   -43769.906   -41380.067   -45381.314    10911.855    28020.993    7137.1956    87.060988 
   35300    1513.9169    -105.0876    1.3698238   -103.71777   -5151.7715    4.4093437    4.4093437    4.4093437   -5151.7715    1198.3521    3824.3839    -20478.05    6803.4668   -2304.6867    4634.6295    85.727838 
   35400    1200.4825   -104.80885    1.0862218   -103.72263   -16816.086    4.3924599    4.3924599    4.3924599   -16816.086   -36754.493    2458.5226   -16152.287    3564.6796    32650.304    3861.8741    84.746823 
   35500    966.60528   -104.62256   0.87460477   -103.74795    14441.627    4.4092595    4.4092595    4.4092595    14441.627    8342.0964    16015.118    18967.667   -8302.1869   -12850.711   -2823.9423    85.722924 
   35600    1273.0421    -104.8899    1.1518752   -103.73802    -20722.64    4.4165888    4.4165888    4.4165888    -20722.64    -38990.43   -2695.3212   -20482.169   -8828.2726    9117.6027   -2459.1567    86.151115 
   35700    659.80749   -104.32879   0.59700768   -103.73179    28090.787    4.3977058    4.3977058    4.3977058    28090.787    34166.771    22664.456    27441.134   -4535.5657   -929.35281   -5304.7487    85.050823 
   35800    1028.8871   -104.66103   0.93095864   -103.73007    16356.414    4.4039776    4.4039776    4.4039776    16356.414    -1708.065    41499.931    9277.3756   -20137.637   -1603.3092   -7246.2275    85.415227 
   35900    1075.3488    -104.7049   0.97299822    -103.7319   -6882.2929    4.4081814    4.4081814    4.4081814   -6882.2929    772.39678   -12489.455   -8929.8206     2448.675    2714.9418   -567.45888    85.660061 
   36000    1083.7453   -104.70673   0.98059556   -103.72613   -5741.3537    4.4186051    4.4186051    4.4186051   -5741.3537   -1096.1657    -16017.49    -110.4049   -4738.7951   -6275.0463    148.02384    86.269159 
   36100    1102.9284   -104.72224   0.99795284   -103.72429    5222.1688    4.4017627    4.4017627    4.4017627    5222.1688   -6516.5359    39815.584   -17632.542   -10863.691    25242.417    2730.5864    85.286421 
   36200    1218.4311   -104.83524    1.1024621   -103.73278   -6336.5077    4.3998979    4.3998979    4.3998979   -6336.5077    -1199.506   -31999.627     14189.61    12050.234    1627.6385    4267.0963    85.178071 
   36300    1195.5552   -104.81864    1.0817635   -103.73688   -12007.514    4.4101507    4.4101507    4.4101507   -12007.514   -27586.321   -6538.6218   -1897.5993   -5396.9867    23069.997    3536.7832    85.774913 
   36400    1039.3463   -104.67953   0.94042241   -103.73911    11458.734    4.3959686    4.3959686    4.3959686    11458.734     5959.837    21365.093    7051.2721    8319.6012   -1003.8966    1907.3758    84.950069 
   36500    1082.5403   -104.72466   0.97950525   -103.74516    -1069.218    4.4013968    4.4013968    4.4013968    -1069.218   -5001.2924   -10530.886    12324.524   -4116.5576   -7873.8487   -2136.0077    85.265153 
   36600     1231.369   -104.85533    1.1141685   -103.74116    7269.0304    4.4043592    4.4043592    4.4043592    7269.0304   -8276.8569    30555.516   -471.56781    1237.1618    10876.887   -4186.4723    85.437435 
   36700    821.82994   -104.48638     0.743609   -103.74277   -2162.7771    4.4101387    4.4101387    4.4101387   -2162.7771    389.20233    16885.607    -23763.14   -7646.2089   -4111.9459    3077.8892    85.774215 
   36800    1261.5491   -104.88136    1.1414761   -103.73989    10209.944    4.4008966    4.4008966    4.4008966    10209.944   -8706.9869    28004.251    11332.569   -1584.4342    22482.286    3484.8872    85.236082 
   36900    1070.3753   -104.70959   0.96849806    -103.7411    14184.135    4.3967124    4.3967124    4.3967124    14184.135   -15303.553     42490.22    15365.739    5114.6758   -5486.1344    14969.851    84.993196 
   37000    803.19002   -104.47864   0.72674321    -103.7519   -8409.9175    4.4041742    4.4041742    4.4041742   -8409.9175   -36350.009   -18801.075    29921.332    1078.1462     11550.65    8798.6251     85.42667 
   37100     1583.946   -105.17182    1.4331877   -103.73864   -12958.613     4.410891     4.410891     4.410891   -12958.613   -24734.828   -6558.1411   -7582.8695    5176.8561    324.77545   -6514.7124    85.818119 
   37200    817.98971   -104.48097   0.74013428   -103.74083   -27840.295    4.4113996    4.4113996    4.4113996   -27840.295   -44272.636   -19723.894   -19524.354   -3280.2344    5870.9104   -3883.2582    85.847806 
   37300    1171.8382   -104.78908    1.0603038   -103.72878    18717.823    4.3937288    4.3937288    4.3937288    18717.823   -6883.5762    67162.545   -4125.4994    4207.7732    2623.3347   -5085.5545    84.820285 
   37400     1343.103   -104.96283    1.2152678   -103.74756     -17339.1    4.4061448    4.4061448    4.4061448     -17339.1   -52053.608   -3438.4228    3474.7314    991.24919    -2135.686    10318.637    85.541391 
   37500    694.12477   -104.38304   0.62805868   -103.75498   -6312.7597    4.4079539    4.4079539    4.4079539   -6312.7597   -27909.251   -13684.644    22655.616    -1180.563    7850.8489    7550.4383    85.646798 
   37600    1218.7013   -104.84642    1.1027066   -103.74372    14806.164    4.3901999    4.3901999    4.3901999    14806.164     11589.72   -10443.957    43272.727    40.449465   -3245.3809   -23402.917    84.616077 
   37700    1169.5208   -104.81093     1.058207   -103.75273   -16564.324    4.4079793    4.4079793    4.4079793   -16564.324   -33692.141   -4636.0375   -11364.792   -12765.556    9818.2243    4681.0254    85.648277 
   37800    1065.7541   -104.70398   0.96431671   -103.73966    -15285.73    4.4118937    4.4118937    4.4118937    -15285.73   -8887.6231   -10218.167   -26751.398    9763.1061   -1516.1104   -17491.968    85.876658 
   37900    1125.6008   -104.75476    1.0184672   -103.73629    6877.8078    4.4005192    4.4005192    4.4005192    6877.8078   -27601.585    23283.982    24951.026   -17653.041    6138.1706    9720.4158    85.214157 
   38000    869.15258   -104.52749   0.78642752   -103.74106    18879.255    4.3995611    4.3995611    4.3995611    18879.255    -3190.263    11441.366    48386.662     12577.98   -6457.2183    9704.3329    85.158513 
   38100    926.37028   -104.58401    0.8381993   -103.74581   -22330.473    4.4085663    4.4085663    4.4085663   -22330.473    -35238.83    -42655.34    10902.751   -7182.5978   -2898.2142   -10236.641    85.682499 
   38200    1533.5697   -105.12851    1.3876061   -103.74091   -14191.052    4.3993736    4.3993736    4.3993736   -14191.052   -22400.841   -5846.3194   -14325.996    -3931.871    8712.9542    7183.2121    85.147626 
   38300     816.5922   -104.49493   0.73886978   -103.75606    11220.414     4.388596     4.388596     4.388596    11220.414   -7422.1958   -18833.597    59917.036   -826.20068   -3839.7129   -21604.836    84.523371 
   38400    940.88946    -104.6188   0.85133656   -103.76746    273.25152    4.4038256    4.4038256    4.4038256    273.25152   -46083.764   -23234.718    70138.237    -9264.728    15970.826     14524.84    85.406383 
   38500    1328.9197   -104.95932    1.2024345   -103.75689   -10604.235    4.4159832    4.4159832    4.4159832   -10604.235   -33938.862    4064.4917   -1938.3342   -1398.5675   -3598.6276   -6121.2129    86.115681 
   38600    1138.3525   -104.78117    1.0300053   -103.75116   -16946.931    4.4103936    4.4103936    4.4103936   -16946.931   -38341.148   -26207.873    13708.229   -7092.1931    1467.2534   -8170.9968    85.789089 
   38700    1149.7968   -104.78103    1.0403603   -103.74067    24556.354    4.3943571    4.3943571    4.3943571    24556.354   -27245.626     25811.61    75103.078    3243.7782   -3701.3425    -10975.07     84.85668 
   38800    629.03069   -104.32868   0.56916018   -103.75952    13484.837    4.3990942    4.3990942    4.3990942    13484.837   -30319.192    36317.664    34456.041   -8703.8182   -14657.872   -24251.755    85.131402 
   38900    1658.9295   -105.24645    1.5010343   -103.74541   -14458.764     4.411029     4.411029     4.411029   -14458.764   -29370.782   -3467.3658   -10538.144    2446.4283    4417.1199    11409.047    85.826168 
   39000    852.90101   -104.51553   0.77172276   -103.74381   -8644.7631    4.4094568    4.4094568    4.4094568   -8644.7631   -58443.751    16935.146    15574.316   -10090.032   -14426.478    1589.5729     85.73443 
   39100    1143.1438   -104.77215    1.0343406   -103.73781    10566.867    4.4043401    4.4043401    4.4043401    10566.867   -24646.209   -6795.1977    63142.008    7106.1151    9375.0305    13917.527    85.436323 
   39200     1002.864   -104.65086   0.90741242   -103.74345   -1305.2108    4.4000838    4.4000838    4.4000838   -1305.2108   -37849.763   -11166.162    45100.293    -8689.246   -8737.3033    2972.9254    85.188866 
   39300    1423.3787   -105.03878     1.287903   -103.75087   -24783.454    4.4040224    4.4040224    4.4040224   -24783.454   -43550.823   -16565.777   -14233.763   -909.12915   -600.65838   -8783.3943    85.417835 
   39400    1099.7016   -104.75556    0.9950331   -103.76053    -7865.815    4.4105359    4.4105359    4.4105359    -7865.815    -40835.65   -26115.595    43353.801   -2445.9508    3125.4021    8967.8956    85.797391 
   39500     812.2184   -104.49125   0.73491228   -103.75634     16224.61    4.4004265    4.4004265    4.4004265     16224.61   -36362.361   -1765.9668    86802.159   -5575.6978   -8303.0066    4228.7107    85.208775 
   39600    1165.4504   -104.81107     1.054524   -103.75655   -3042.3611    4.4028153    4.4028153    4.4028153   -3042.3611   -30261.143    24373.377   -3239.3175   -5164.6217    2573.4695   -8336.1652    85.347615 
   39700    1031.5515    -104.6947   0.93336945   -103.76133   -9822.9395    4.4084731    4.4084731    4.4084731   -9822.9395   -46103.149   -12921.337    29555.668    -8815.687   -7049.0236   -5251.9313    85.677067 
   39800    1156.2592   -104.79406    1.0462076   -103.74786    11570.868    4.4042793    4.4042793    4.4042793    11570.868   -30004.877    24488.699    40228.782    1762.1826   -75.028065   -9237.9734    85.432782 
   39900    871.12289   -104.54323    0.7882103   -103.75502   -13123.369    4.4074972    4.4074972    4.4074972   -13123.369   -58573.601   -26090.687    45294.181   -12325.328   -2.3288474    7450.1166    85.620178 
   40000    1327.4129   -104.95161    1.2010711   -103.75054   -5656.8959    4.4092811    4.4092811    4.4092811   -5656.8959   -38851.084    34813.823   -12933.426    1535.7014   -6361.5152    7479.5991    85.724181 
   40100    1087.5178   -104.73655   0.98400896   -103.75255    6947.4676    4.4017487    4.4017487    4.4017487    6947.4676   -43456.358    24143.862    40154.899   -14507.744    3129.9392   -10756.786    85.285604 
   40200    619.90547   -104.32583   0.56090349   -103.76492   -2749.6863     4.409212     4.409212     4.409212   -2749.6863   -49707.305   -17753.053    59211.299     9354.309   -13827.297    11557.914    85.720152 
   40300    1687.9335   -105.27552    1.5272777   -103.74825   -5628.9259    4.4059008    4.4059008    4.4059008   -5628.9259   -35984.789   -7571.4222    26669.434   -13433.635   -4957.2967     1046.213    85.527177 
   40400    887.47255   -104.56633   0.80300381   -103.76332   -20221.442     4.402419     4.402419     4.402419   -20221.442   -43952.659    -23544.88    6833.2131    3599.1676   -3342.6985    20676.639    85.324573 
   40500    1134.4996   -104.78985    1.0265191   -103.76333    -229.5228    4.4010044    4.4010044    4.4010044    -229.5228   -30980.908   -6437.6594    36729.999   -438.10131   -1103.1651    7002.8979    85.242347 
   40600    982.88963   -104.64918    0.8893392   -103.75985    6898.6002    4.4167002    4.4167002    4.4167002    6898.6002   -55249.781    32996.971    42948.611   -2961.5863    5947.3104   -20281.153    86.157632 
   40700    689.52935   -104.37608   0.62390065   -103.75218   -12509.591    4.4104152    4.4104152    4.4104152   -12509.591   -43334.917    204.24577    5601.8996    185.47888    -75.66551   -1589.8817    85.790349 
   40800    1300.3743   -104.91505     1.176606   -103.73844    18881.084    4.3990888    4.3990888    4.3990888    18881.084   -23453.244    51847.647    28248.848   -2848.8455    4460.5706     2663.113    85.131087 
   40900    1375.7052   -104.99077     1.244767   -103.74601   -36311.675     4.414415     4.414415     4.414415   -36311.675   -51602.354   -23585.035   -33747.636    1243.6022   -279.19557    12554.662    86.023966 
   41000    954.61217   -104.60896   0.86375315    -103.7452    -10459.08    4.4145417    4.4145417    4.4145417    -10459.08   -26088.056   -7679.2915    2390.1066    5409.3483     9274.662    10039.024    86.031376 
   41100     1274.968   -104.89351    1.1536179   -103.73989    6895.9254    4.4027555    4.4027555    4.4027555    6895.9254   -39580.835    51874.577    8394.0338    2978.4986    -9677.543   -7463.3611    85.344138 
   41200    970.06799   -104.63092   0.87773791   -103.75318    8525.3721    4.3936684    4.3936684    4.3936684    8525.3721   -15330.697    46598.782   -5691.9693       4008.2    8619.4406    10273.646    84.816788 
   41300    1120.1427   -104.77672    1.0135287   -103.76319   -7274.1956    4.4100797    4.4100797    4.4100797   -7274.1956   -39843.523     26041.04   -8020.1043    -2418.323   -7294.5604    4785.6339    85.770769 
   41400    1296.5395   -104.92936    1.1731362   -103.75622   -4896.8273    4.4104522    4.4104522    4.4104522   -4896.8273   -42238.292    50406.224   -22858.414   -3454.3142   -620.38253    14414.838    85.792507 
   41500    861.08013   -104.53894    0.7791234   -103.75981    318.85743    4.3929417    4.3929417    4.3929417    318.85743   -15118.207    42204.419   -26129.639   -3365.1838   -5640.0922    15219.149    84.774714 
   41600    1196.7832   -104.84745    1.0828746   -103.76457    -5206.566    4.3996322    4.3996322    4.3996322    -5206.566    -22782.39    10731.848   -3569.1567    1890.2984   -7516.5687   -12350.824    85.162641 
   41700    1294.2212    -104.9373    1.1710386   -103.76626   -22428.206    4.4194171    4.4194171    4.4194171   -22428.206   -43417.824    19028.325    -42895.12   -10173.795   -1845.5015    16978.885    86.316728 
   41800    831.09681   -104.52131   0.75199386   -103.76932   -15895.531    4.4083173    4.4083173    4.4083173   -15895.531   -33155.341    30624.009   -45155.261   -313.79669   -24185.229    3728.4875    85.667984 
   41900    1214.2562   -104.84278    1.0986845    -103.7441    30694.848    4.3867802    4.3867802    4.3867802    30694.848   -11053.779    70458.893    32679.429   -10519.728    7409.1649    1973.4963      84.4185 
   42000    1094.7781   -104.74875   0.99057821   -103.75817   -37611.113    4.4116484    4.4116484    4.4116484   -37611.113   -45359.305   -27315.071   -40158.964   -3927.8898   -26529.538    7476.1056    85.862334 
   42100    1030.7526   -104.68965   0.93264658   -103.75701    -318.1426    4.4123293    4.4123293    4.4123293    -318.1426   -19600.243    32860.057   -14214.241    10635.118    1609.9627   -25670.361    85.902097 
   42200    1217.1776   -104.85326    1.1013278   -103.75194    16677.098    4.3932343    4.3932343    4.3932343    16677.098   -20018.655    71800.534   -1750.5851    446.44735    -8222.542    6545.1104     84.79165 
   42300    967.04406   -104.64149   0.87500178   -103.76649   -18092.382    4.4063213    4.4063213    4.4063213   -18092.382    2332.2665   -27374.924   -29234.487    4037.8547   -11095.337   -2054.1034    85.551671 
   42400    1401.4198   -105.01308    1.2680341   -103.74505   -10953.694    4.4238917    4.4238917    4.4238917   -10953.694   -29828.988    20456.369   -23488.461   -2480.7133    6821.0249    3544.1762    86.579178 
   42500    1241.9187   -104.85866    1.1237141   -103.73494   -23626.599    4.4158111    4.4158111    4.4158111   -23626.599   -38784.591    39.434181   -32134.639   -7951.1294   -9996.5119    851.52977    86.105612 
   42600    849.13629   -104.49197   0.76831636   -103.72365    32937.205    4.3988365    4.3988365    4.3988365    32937.205     31062.45    70055.736   -2306.5711   -51.701351    8333.3974   -14042.929    85.116442 
   42700    1248.6807   -104.86217    1.1298326   -103.73233   -10586.555    4.4189632    4.4189632    4.4189632   -10586.555   -32997.856    42851.568   -41613.379   -8786.0383   -2503.5583   -6408.6601    86.290135 
   42800    1250.2724    -104.8633    1.1312728   -103.73203   -20330.548    4.4183975    4.4183975    4.4183975   -20330.548   -27490.023   -13717.891   -19783.731   -10074.968    7845.8272   -16088.701    86.257002 
   42900    1247.4939   -104.86408    1.1287587   -103.73532    18713.816    4.4054228    4.4054228    4.4054228    18713.816    -8095.109    73859.661   -9623.1051   -2859.0488   -11395.161    3640.6164    85.499347 
   43000     805.0431   -104.47779   0.72841992   -103.74937    16830.864    4.3998993    4.3998993    4.3998993    16830.864    27144.868    56445.609   -33097.884    872.47161    2848.0791   -6492.3319    85.178154 
   43100    1365.6727    -104.9915    1.2356893   -103.75581    643.95644    4.4114145    4.4114145    4.4114145    643.95644    773.48948    14314.563   -13156.183   -4420.5073   -8835.9138    4285.6548    85.848678 
   43200    984.97541   -104.64504   0.89122645   -103.75382     4882.171    4.4153039    4.4153039    4.4153039     4882.171    13735.427    30980.041   -30068.954   -3337.6779   -7176.0598   -14013.671    86.075948 
   43300    720.84073   -104.39913   0.65223184    -103.7469    20047.193    4.4031604    4.4031604    4.4031604    20047.193    16181.981    76740.109   -32780.511   -19221.955    411.63084   -7564.5268    85.367688 
   43400    1319.2999   -104.92999    1.1937303   -103.73626    16731.615    4.4107006    4.4107006    4.4107006    16731.615    35642.079    19862.142   -5309.3767    394.57763   -17995.354    -16503.04    85.807004 
   43500    869.27496   -104.53807   0.78653825   -103.75153   -24915.974    4.4114839    4.4114839    4.4114839   -24915.974   -6201.7824   -29108.526   -39437.615    -3331.697    7474.5628   -3385.1186    85.852726 
   43600    1257.8052   -104.88099    1.1380886    -103.7429    22393.319    4.4045938    4.4045938    4.4045938    22393.319    21034.912    41037.574    5107.4719    23024.459   -5179.9829    8470.1451    85.451089 
   43700    905.39421   -104.57248   0.81921971   -103.75326   -35426.274    4.4180435    4.4180435    4.4180435   -35426.274   -15479.135   -43032.993   -47766.694   -4583.5564     4427.187   -7581.3957    86.236269 
   43800    972.97463   -104.61955   0.88036789   -103.73918    11533.857    4.4053776    4.4053776    4.4053776    11533.857    656.70918    54744.722   -20799.859    4115.3533    5118.9808    7092.9785    85.496711 
   43900    1418.0452   -105.02042    1.2830771   -103.73734   -15421.265    4.4037424    4.4037424    4.4037424   -15421.265    -22046.39    13552.287   -37769.693    1723.9406    -10905.39    511.74174    85.401543 
   44000    838.29557   -104.50671   0.75850745   -103.74821   -19186.403    4.4150699    4.4150699    4.4150699   -19186.403   -16936.343    7893.9638   -48516.831   -1340.4819    18533.704    6610.3138     86.06226 
   44100    1366.9255   -104.98462    1.2368229   -103.74779   -4730.7626    4.4044488    4.4044488    4.4044488   -4730.7626   -30222.707    50329.355   -34298.936    6821.6526    -14911.73   -4525.2895    85.442646 
   44200    913.15069   -104.59262   0.82623793   -103.76638   -5387.9425    4.3948076    4.3948076    4.3948076   -5387.9425    18684.543    -2538.741   -32309.629    11586.038    14187.465    1445.0635    84.882782 
   44300    1237.7412   -104.88099    1.1199342   -103.76106   -1022.9286    4.4040779    4.4040779    4.4040779   -1022.9286   -25403.454    33258.092   -10923.423    9228.4572   -19285.584    1325.1662    85.421065 
   44400    1006.0438   -104.65568   0.91028956   -103.74539   -14203.229    4.4245236    4.4245236    4.4245236   -14203.229     5797.848   -3638.5144   -44769.019   -1958.8587   -1014.0235   -1507.0488    86.616284 
   44500    946.18317   -104.59104   0.85612641   -103.73491   -4113.1186    4.4016956    4.4016956    4.4016956   -4113.1186   -25411.394    12782.446    289.59207    10247.166    159.90003   -1061.3761    85.282518 
   44600    1000.5683   -104.63716   0.90533523   -103.73182    31107.664    4.3880542    4.3880542    4.3880542    31107.664    19677.375    63209.374    10436.244    8821.2077   -26317.861    2466.8683     84.49207 
   44700    1122.1725   -104.75665    1.0153652   -103.74128   -13751.917    4.4126517    4.4126517    4.4126517   -13751.917   -29190.287   -865.08716   -11200.376   -8072.6604    11197.333    4708.7293    85.920927 
   44800    1114.1385   -104.75603    1.0080959   -103.74793   -25248.384    4.4153891    4.4153891    4.4153891   -25248.384   -37948.474    3678.0735    -41474.75    3831.0393   -29807.669   -788.21951    86.080928 
   44900    1367.6279   -104.98389    1.2374584   -103.74643    17775.888    4.3994199    4.3994199    4.3994199    17775.888    338.53266    63556.754   -10567.624   -9323.2593    12760.345   -2112.7389    85.150314 
   45000    823.50673   -104.50696   0.74512619   -103.76183   -19283.336     4.403644     4.403644     4.403644   -19283.336   -37322.606   -2909.2254   -17618.175   -1235.7882   -20836.186    1578.6164     85.39582 
   45100      1256.05   -104.88283    1.1365004   -103.74633    9149.1536    4.4175288    4.4175288    4.4175288    9149.1536   -11988.151    68828.497   -29392.886    4453.0285    10260.792    1982.4401    86.206136 
   45200    950.59554   -104.60154   0.86011882   -103.74142    -6657.847    4.4127508    4.4127508    4.4127508    -6657.847   -37739.035     20170.16   -2404.6651   -8330.9645   -15473.695    8821.0867    85.926714 
   45300    1103.5082   -104.73717   0.99847737   -103.73869   -1575.2015    4.4004683    4.4004683    4.4004683   -1575.2015   -4121.3318    23623.384   -24227.657    8892.4151    546.21161   -4761.0475      85.2112 
   45400    1279.8156   -104.90186    1.1580041   -103.74385    2866.8495    4.4015955    4.4015955    4.4015955    2866.8495   -23111.917    48700.672   -16988.206    2619.7921   -12968.174   -8204.5493      85.2767 
   45500    891.47588   -104.56322   0.80662611   -103.75659    1054.6196    4.4192909    4.4192909    4.4192909    1054.6196   -33668.506    35810.612    1021.7527    6353.5833    2699.2217    6833.8616    86.309337 
   45600    1028.1358    -104.6727   0.93027885   -103.74242   -13051.936    4.4191146    4.4191146    4.4191146   -13051.936   -21963.571    21603.777   -38796.014    3975.0327   -13505.541    3845.4874    86.299006 
   45700    1303.9806   -104.90987    1.1798691      -103.73    6699.0992    4.4009477    4.4009477    4.4009477    6699.0992    3965.5861    22844.884   -6713.1728   -80.343721   -7959.5781    12076.387    85.239056 
   45800    906.88842   -104.56589    0.8205717   -103.74532   -2946.5395    4.4031304    4.4031304    4.4031304   -2946.5395   -29714.609    16788.433    4086.5578   -122.52244   -9378.7836   -6768.4345    85.365941 
   45900    994.77289   -104.66025   0.90009142   -103.76016   -830.97188    4.4135972    4.4135972    4.4135972   -830.97188   -33912.225    56608.349    -25189.04   -7183.0597   -11702.185    2315.7492     85.97617 
   46000    1332.3354   -104.95574    1.2055251   -103.75021   -9285.1349      4.41317      4.41317      4.41317   -9285.1349   -26095.188    5073.0595    -6833.276   -2070.2911   -190.67536    1026.4938    85.951205 
   46100     636.4726   -104.32758   0.57589378   -103.75169   -7216.4559    4.4044316    4.4044316    4.4044316   -7216.4559   -26357.911     42241.39   -37532.848    2423.9564   -32369.861    126.46169    85.441648 
   46200    1801.9468   -105.36679    1.6304393   -103.73636   -12639.448    4.4065784    4.4065784    4.4065784   -12639.448   -19115.284   -20721.445    1918.3846   -18507.761    13661.789   -5492.7333    85.566648 
   46300    658.91553   -104.34251   0.59620062   -103.74631   -21098.612    4.4181169    4.4181169    4.4181169   -21098.612   -6032.6021   -10419.449   -46843.785    6830.7365   -32380.257    5520.3201    86.240565 
   46400    1272.7521   -104.89192    1.1516129   -103.74031    7497.5352    4.4030778    4.4030778    4.4030778    7497.5352   -20677.319    21379.959    21789.966   -18257.318    7645.1763   -11861.207    85.362885 
   46500    1098.8876   -104.74146   0.99429655   -103.74716    9346.7747    4.4003973    4.4003973    4.4003973    9346.7747    23964.264    17169.103   -13093.043    1196.9704   -14321.238    14306.359    85.207079 
   46600    858.94793   -104.53621   0.77719413   -103.75902   -6734.3358    4.4100295    4.4100295    4.4100295   -6734.3358   -28829.585     31611.08   -22984.503   -11111.656   -10232.285    -7616.021    85.767841 
   46700    1290.2336   -104.91336    1.1674305   -103.74593    11910.241    4.4094009    4.4094009    4.4094009    11910.241    25265.419    662.59993    9802.7058    3518.3284    7044.6104    984.32634    85.731169 
   46800    843.09961   -104.51325   0.76285425    -103.7504    447.94759     4.397502     4.397502     4.397502    447.94759    -3871.791    9918.6203   -4702.9866    829.08719   -23320.392   -6019.1398    85.038996 
   46900    1270.7956   -104.90693    1.1498426   -103.75708   -213.14843    4.4082526    4.4082526    4.4082526   -213.14843    16186.744    -12805.06   -4021.1296   -1904.9471    5596.4564    3384.0684    85.664209 
   47000    1488.3632   -105.09454    1.3467023   -103.74784   -21766.777    4.4176744    4.4176744    4.4176744   -21766.777   -28394.898   -4064.0434   -32841.389    14224.677   -8757.8772    -484.8405     86.21466 
   47100    643.98553   -104.33706   0.58269164   -103.75437    18878.585    4.4034513    4.4034513    4.4034513    18878.585    33107.149   -22194.882    45723.488   -6647.2398   -7077.8904    1768.7341    85.384609 
   47200    1707.0687   -105.29147    1.5445916   -103.74688   -20549.812    4.4081434    4.4081434    4.4081434   -20549.812   -28568.696   -12051.547   -21029.192    12084.973   -731.55653    -1389.369    85.657846 
   47300    993.11645   -104.64309   0.89859264    -103.7445   -8494.9347    4.4196654    4.4196654    4.4196654   -8494.9347    2115.6706   -40627.239    13026.764   -5178.3721   -8723.2002    3055.2195    86.331276 
   47400    1380.4903   -104.98164    1.2490967   -103.73254    -25102.98    4.4188145    4.4188145    4.4188145    -25102.98   -10786.819   -28934.348   -35587.774    11899.383    1949.9914   -1045.0462    86.281426 
   47500    1212.3764   -104.82713    1.0969836   -103.73015   -1046.9932    4.4058404    4.4058404    4.4058404   -1046.9932   -1155.6768     2374.133   -4359.4359   -4128.3901   -15933.893   -5691.4985    85.523658 
   47600    1022.6361   -104.67042    0.9253026   -103.74512    6434.5381     4.401171     4.401171     4.401171    6434.5381    19116.963    7366.4251   -7179.7739   -6881.0758    7606.5046   -12923.877    85.252031 
   47700    1055.4318   -104.69637   0.95497691   -103.74139    10125.281    4.4180919    4.4180919    4.4180919    10125.281     5745.605     35502.86   -10872.623   -9702.3974   -5644.7143    13604.043    86.239104 
   47800    1030.0758   -104.66667   0.93203422   -103.73463   -8052.0433    4.4167304    4.4167304    4.4167304   -8052.0433   -8223.5098    10839.152   -26771.772   -15901.328    5275.3962   -4706.7084    86.159403 
   47900    688.76363   -104.35619    0.6232078   -103.73299    38264.356    4.4024777    4.4024777    4.4024777    38264.356    32607.843    45979.935    36205.288   -5842.0801    12156.761     19620.95    85.327986 
   48000    1318.3952   -104.92566    1.1929117   -103.73275    5843.3538    4.4101019    4.4101019    4.4101019    5843.3538   -27890.211    20284.103     25136.17   -18223.691     1209.215    3771.1188    85.772069 
   48100    750.14254   -104.42716   0.67874473   -103.74841   -6457.3398    4.4099875    4.4099875    4.4099875   -6457.3398    8241.1861   -29675.417    2062.2119    1061.0449    7786.6187   -5385.4232    85.765393 
   48200    1524.8154    -105.1218     1.379685   -103.74212    2275.7812    4.4094092    4.4094092    4.4094092    2275.7812   -4882.7171   -6626.0067    18336.068   -4177.3169   -826.27217    540.07008    85.731656 
   48300    1007.6207   -104.66845   0.91171636   -103.75673   -5947.1448    4.4036246    4.4036246    4.4036246   -5947.1448   -20644.387   -35567.787     38370.74   -8155.5943    7286.0875   -9573.4695    85.394689 
   48400    970.51401   -104.64611   0.87814147   -103.76797   -6769.7668    4.4076259    4.4076259    4.4076259   -6769.7668    6547.3238   -16145.034    -10711.59    7874.4576    -1318.341    20901.447    85.627679 
   48500    1438.8913   -105.05924    1.3019391    -103.7573    1260.4375    4.4081856    4.4081856    4.4081856    1260.4375   -26117.437   -16284.995    46183.745    -8097.681    12409.285   -18937.135    85.660302 
   48600    746.42953   -104.44135   0.67538512   -103.76596    1091.1503    4.4065127    4.4065127    4.4065127    1091.1503    8139.5853   -17322.822    12456.688    8608.3929    6806.7114    2570.3395    85.562816 
   48700    1327.4522   -104.95191    1.2011067    -103.7508   -36.227203    4.4129295    4.4129295    4.4129295   -36.227203   -25295.797    3546.7954     21640.32    -9652.807    2806.7251    3224.2423    85.937153 
   48800     862.2933   -104.52879    0.7802211   -103.74857    16165.513    4.4000503    4.4000503    4.4000503    16165.513    -24242.29    15170.378    57568.451    1630.3972    2674.2608    14165.653    85.186922 
   48900    964.42707   -104.62612   0.87263388   -103.75349    7065.8092     4.407339     4.407339     4.407339    7065.8092   -11096.876    12090.072    20204.232    2654.4664   -1637.3731    6583.2459    85.610961 
   49000    1387.5772    -105.0004     1.255509   -103.74489   -1766.1504    4.4097575    4.4097575    4.4097575   -1766.1504   -43022.371    17885.631    19838.289   -10704.345    7117.0834    2426.9398    85.751971 
   49100    788.48945   -104.46494   0.71344182    -103.7515    7326.6015    4.4074862    4.4074862    4.4074862    7326.6015   -5330.2173   -17136.825    44446.847    9546.5271    3790.7529   -3678.9743    85.619538 
   49200    1245.8113   -104.87264    1.1272362    -103.7454   -10261.221    4.4076229    4.4076229    4.4076229   -10261.221   -25706.499   -24033.035    18955.872   -16239.161    8400.8042    5481.8063    85.627505 
   49300    1315.2614   -104.93597    1.1900762    -103.7459   -3861.1389    4.4031969    4.4031969    4.4031969   -3861.1389   -7474.9248   -18364.624    14256.132     1619.359    2710.3503    9572.0254    85.369811 
   49400    923.50469    -104.5905   0.83560646   -103.75489    3002.1187    4.4119592    4.4119592    4.4119592    3002.1187   -14193.098   -2277.7541    25477.208   -15552.756   -8218.0914   -2430.7672    85.880478 
   49500    1061.6157   -104.70828   0.96057224   -103.74771    4967.0402    4.4126413    4.4126413    4.4126413    4967.0402   -40993.537    18370.394    37524.264    -8055.214    186.18386   -20430.596     85.92032 
   49600    921.02133   -104.58004   0.83335946   -103.74668    21550.406    4.4018885    4.4018885    4.4018885    21550.406   -9221.0737    39119.036    34753.254   -12627.606   -10603.118   -10861.221     85.29373 
   49700    1067.9665    -104.7115   0.96631854   -103.74518    8499.9777    4.4120105    4.4120105    4.4120105    8499.9777   -17722.785     34034.66    9188.0581   -8819.7841    5034.4383   -1588.8003    85.883478 
   49800    1532.3812   -105.12212    1.3865307   -103.73559   -24042.021    4.4212166    4.4212166    4.4212166   -24042.021   -40999.553   -20560.803   -10565.707   -10094.196    1199.7693    1389.3426    86.422213 
   49900    954.46866   -104.60112    0.8636233    -103.7375    3579.7134    4.4042498    4.4042498    4.4042498    3579.7134   -19698.863    27050.355    3387.6485   -6140.0778    5176.4341    7781.0576    85.431065 
   50000    1057.7802   -104.69729   0.95710178   -103.74019    19187.666    4.4058333    4.4058333    4.4058333    19187.666   -28981.075   -850.77433    87394.847    7814.9676    8962.5342   -13187.404    85.523247 
   50100    972.32544   -104.62915   0.87978049   -103.74937    -2293.466     4.413726     4.413726     4.413726    -2293.466   -31082.036    14380.657    9820.9803   -14457.977    902.95311   -7997.7287    85.983693 
   50200    917.83349   -104.58038   0.83047503    -103.7499    3692.7767    4.4100984    4.4100984    4.4100984    3692.7767   -21668.489    25214.475    7532.3441    12408.617    9290.7846    2319.2849    85.771861 
   50300    1487.0257   -105.08841    1.3454921   -103.74292     1156.935    4.4071096    4.4071096    4.4071096     1156.935   -32938.552    18564.706    17844.651   -4523.1139   -4913.5789      12036.4    85.597592 
   50400     575.5401   -104.27849   0.52076078   -103.75773    12210.729    4.4100118    4.4100118    4.4100118    12210.729    4673.6688   -3394.6175    35353.135    7026.8692    4698.8658    19132.684    85.766807 
   50500    1278.0876   -104.90682    1.1564406   -103.75038    2422.7081    4.4145671    4.4145671    4.4145671    2422.7081   -33763.332   -4550.4604    45581.916   -327.05126   -1959.1034    3077.9327    86.032862 
   50600    1125.8725   -104.76358    1.0187131   -103.74487   -3664.9631    4.4106855    4.4106855    4.4106855   -3664.9631   -9832.8768    5565.8881   -6727.9006    4404.4401    9250.1274   -1258.7168    85.806123 
   50700    1251.6085   -104.87475    1.1324817   -103.74227   -15879.515    4.4116352    4.4116352    4.4116352   -15879.515   -35905.995   -454.52788   -11278.023   -5562.6562    8374.8548   -13993.644     85.86156 
   50800    1387.3292   -104.98638    1.2552846   -103.73109   -10516.167    4.4224731    4.4224731    4.4224731   -10516.167   -13682.967   -16188.963   -1676.5701    -5390.826    2351.0934   -5020.6984    86.495918 
   50900    1013.9109   -104.64739   0.91740792   -103.72998   -22663.176    4.4241542    4.4241542    4.4241542   -22663.176   -39715.746   -446.72157    -27827.06    4183.3726    4844.6849   -1814.3544     86.59459 
   51000    1312.9204    -104.9082     1.187958   -103.72024    20560.094    4.4079602    4.4079602    4.4079602    20560.094   -31722.288    64674.275    28728.296   -13150.317    115.18888    18627.295    85.647164 
   51100     441.6366   -104.13501   0.39960207   -103.73541    25419.928    4.4062227    4.4062227    4.4062227    25419.928   -962.52386    56807.752    20414.557    11600.551    9085.9291    20653.242    85.545925 
   51200    1177.3923   -104.80092    1.0653293   -103.73559   -10776.136    4.4235237    4.4235237    4.4235237   -10776.136   -33310.673    18851.198   -17868.934   -12927.452     792.7399   -5193.2241    86.557573 
   51300    1283.5254   -104.89142    1.1613607   -103.73006   -11246.819    4.4118796    4.4118796    4.4118796   -11246.819   -27950.643   -3151.7297   -2638.0853   -7637.7611    14222.211    10130.645    85.875829 
   51400    1050.4603   -104.69146   0.95047852   -103.74098    -10597.99    4.3979461    4.3979461    4.3979461    -10597.99   -13927.428    -2891.166   -14975.377    6996.2802    -3704.949   -15089.623    85.064763 
   51500    1259.6904   -104.89312    1.1397943   -103.75333   -9306.7725     4.417874     4.417874     4.417874   -9306.7725   -50072.361    20209.422    1942.6212    -15192.14    8321.7849    1763.1687    86.226345 
   51600    852.48925   -104.51361   0.77135019   -103.74226   -10793.116    4.4295306    4.4295306    4.4295306   -10793.116   -50212.869    38663.072   -20829.551    15836.594   -2317.2878    23004.487    86.910676 
   51700    913.33428   -104.55176   0.82640405   -103.72535    20099.019     4.395619     4.395619     4.395619    20099.019   -26429.622    33377.257    53349.423   -12709.537    5583.2877    9057.4314    84.929805 
   51800    1235.5718   -104.85151    1.1179713   -103.73354    8407.6949    4.4047783    4.4047783    4.4047783    8407.6949   -32227.185    20757.025    36693.245    3196.7078    7356.0298    13779.805    85.461823 
   51900    1122.6266   -104.76273    1.0157761   -103.74695   -29435.651    4.4222322    4.4222322    4.4222322   -29435.651   -52654.962   -54099.902     18447.91   -12523.216   -5423.5267   -12386.872    86.481782 
   52000    1170.1494   -104.80635    1.0587757   -103.74758    -7215.121     4.408042     4.408042     4.408042    -7215.121    -32336.29    5991.6788    4699.2478     848.8634     7616.692   -12072.201    85.651931 
   52100    1107.2654   -104.75213     1.001877   -103.75025    2317.5386    4.3914349    4.3914349    4.3914349    2317.5386   -30818.472   -6646.2378    44417.326   -14870.138   -16087.553    4897.8387    84.687509 
   52200    905.60741   -104.58739   0.81941262   -103.76797    13064.272     4.403407     4.403407     4.403407    13064.272   -26745.904    9182.7466    56755.973   -423.17679     1371.756    -2215.629    85.382031 
   52300     1303.469   -104.93781    1.1794062    -103.7584   -26826.464    4.4230995    4.4230995    4.4230995   -26826.464   -60424.873    15897.446   -35951.966   -6351.9865    -9005.876   -6761.8549    86.532674 
   52400    820.25333   -104.49322   0.74218245   -103.75104    14951.897    4.4074471    4.4074471    4.4074471    14951.897    -30756.06   -5951.8668    81563.619   -7663.3316   -1758.7922   -9433.3826    85.617259 
   52500    1178.9668   -104.80918    1.0667539   -103.74242    5247.2943    4.3959082    4.3959082    4.3959082    5247.2943   -22784.016    7508.2003    31017.699    2149.9739    4211.7683   -14449.687     84.94657 
   52600    1446.4222   -105.05843    1.3087532   -103.74968   -13097.028    4.4067475    4.4067475    4.4067475   -13097.028   -39222.737   -24703.089    24634.743    -19127.65   -10138.991    14783.074    85.576497 
   52700     908.4685   -104.57853   0.82200139   -103.75653   -14936.994    4.4184233    4.4184233    4.4184233   -14936.994   -34308.037    13605.275   -24108.219    1777.4325    8202.8059   -12321.352    86.258512 
   52800    944.57762   -104.60549   0.85467368   -103.75081    10775.101    4.4001689    4.4001689    4.4001689    10775.101   -48345.965   -3739.8085    84411.077   -24183.104   -3221.4578   -12038.488    85.193813 
   52900     1122.896   -104.77007    1.0160199   -103.75405    10457.907    4.4016506    4.4016506    4.4016506    10457.907   -27150.473    16443.352    42080.843    7893.8889    1473.7847    22019.329    85.279902 
   53000    1136.1989   -104.78616    1.0280566   -103.75811   -15037.013    4.4060662    4.4060662    4.4060662   -15037.013   -34613.047   -19782.792    9284.7988   -24457.511   -3441.6413   -17270.554    85.536812 
   53100    1146.6166   -104.79199    1.0374828   -103.75451    -5474.038    4.4126396    4.4126396    4.4126396    -5474.038   -39555.383    25678.664   -2545.3947    8881.1204   -5442.2055    15719.211     85.92022 
   53200    1128.3784    -104.7712    1.0209805   -103.75022    2988.3883    4.4043255    4.4043255    4.4043255    2988.3883   -31004.378   -31176.343    71145.886   -12419.837   -2316.7632   -19391.008    85.435471 
   53300     848.4136   -104.51783   0.76766246   -103.75017    9746.2398    4.4008277    4.4008277    4.4008277    9746.2398     -30415.1    27732.268    31921.552    7624.0859   -1174.2348   -3412.4011     85.23208 
   53400    1487.6273   -105.09106    1.3460364   -103.74502   -11020.648    4.4120146    4.4120146    4.4120146   -11020.648   -35940.759    21118.368   -18239.552   -99.302066     1098.476    3777.6989    85.883713 
   53500    1046.2144    -104.7006   0.94663681   -103.75397   -1575.0755    4.3997096    4.3997096    4.3997096   -1575.0755   -35660.421     36262.65   -5327.4563   -175.80543   -5134.8189   -6717.6867    85.167137 
   53600    1085.3317      -104.74    0.9820309   -103.75797    2065.8621    4.4014784    4.4014784    4.4014784    2065.8621   -33239.881    30885.767    8551.7006    17078.098     174.4586   -9062.1258    85.269892 
   53700    1555.8126   -105.15429    1.4077319   -103.74656   -18480.863    4.4138802    4.4138802    4.4138802   -18480.863   -51134.895    6285.1477   -10592.841   -12273.336    821.87471   -7.2053107    85.992708 
   53800    590.89536   -104.28738   0.53465454   -103.75273    7500.7101    4.4140676    4.4140676    4.4140676    7500.7101   -50945.366    65579.045    7868.4509    25667.473    1767.5534     6726.877    86.003664 
   53900     1459.922   -105.05189    1.3209681   -103.73092    9757.9363    4.4082424    4.4082424    4.4082424    9757.9363   -32055.669    27972.733    33356.744    -7761.965    9848.2776    17330.385    85.663614 
   54000    725.91591   -104.39878   0.65682397   -103.74196    8423.0065    4.4024557    4.4024557    4.4024557    8423.0065   -51384.215   -17056.494    93709.729    28265.064   -2549.8876    1594.7277    85.326706 
   54100    1291.7983   -104.91011    1.1688463   -103.74127    3016.4668    4.4140958    4.4140958    4.4140958    3016.4668   -20849.167   -831.52337    30730.091   -164.04936    423.03657   -14627.132    86.005309 
   54200    1198.7482   -104.82029    1.0846525   -103.73564   -24273.771    4.4207433    4.4207433    4.4207433   -24273.771   -54424.186   -20864.493     2467.366    30105.157   -6721.3015   -11755.772    86.394461 
   54300     1479.501   -105.05728    1.3386836   -103.71859   -5098.5871    4.4010517    4.4010517    4.4010517   -5098.5871   -12919.915     18130.04   -20505.886    4481.9891   -4382.5367   -8404.3438    85.245098 
   54400    876.88196   -104.52842   0.79342123   -103.73499    389.66174    4.4049392    4.4049392    4.4049392    389.66174    -45339.32   -15784.833    62293.138    25279.224    -8646.944    12712.825    85.471192 
   54500    1013.4288   -104.65284   0.91697171   -103.73587    10917.048    4.4165881    4.4165881    4.4165881    10917.048    -36672.32   -3926.4407    73349.905    4714.3361   -3645.1746    549.18604    86.151075 
   54600    694.73317   -104.36159   0.62860918   -103.73298     18719.22    4.4139636    4.4139636    4.4139636     18719.22   -28002.787     28252.94    55907.506    18119.155    7922.9857    8184.7911    85.997581 
   54700    1388.7537   -104.97324    1.2565736   -103.71666   -13050.443    4.4096368    4.4096368    4.4096368   -13050.443   -35902.431    -14442.85    11193.952    390.63414    -5848.382    2702.8856     85.74493 
   54800     1260.629   -104.86485    1.1406436   -103.72421   -5126.6266    4.3963386    4.3963386    4.3963386   -5126.6266    -41612.33    15464.191    10768.259    13507.129    16465.589   -8803.5832    84.971521 
   54900    1292.5046   -104.91078    1.1694854    -103.7413   -22801.972    4.4082784    4.4082784    4.4082784   -22801.972   -40642.646    -38028.84     10265.57     2327.135   -12.841671   -6959.3193    85.665717 
   55000    995.73552   -104.64137   0.90096243    -103.7404   -3150.3891     4.415483     4.415483     4.415483   -3150.3891   -46571.798   -6615.7903    43736.421   -9182.2525    941.11236   -6143.7937    86.086422 
   55100     917.9656   -104.57019   0.83059456   -103.73959     1028.446    4.4099526    4.4099526    4.4099526     1028.446   -44176.224   -7182.8115    54444.373    16692.377    430.74857     13077.83    85.763358 
   55200    972.51804   -104.61593   0.87995476   -103.73597    7396.0863    4.4090406    4.4090406    4.4090406    7396.0863   -38860.309    47495.856    13552.712   -13922.584   -4505.6364     13660.18    85.710159 
   55300    1184.6903   -104.80696    1.0719327   -103.73503   -7415.1234    4.4051006    4.4051006    4.4051006   -7415.1234   -28838.923   -14710.794    21304.347    28225.528    1073.1949   -5266.4958    85.480587 
   55400    994.08983   -104.64037   0.89947337   -103.74089   -12048.706    4.4157535    4.4157535    4.4157535   -12048.706   -15650.343   -11143.297   -9352.4775   -8465.0692   -6784.3224   -5274.5618    86.102243 
   55500    1347.9838   -104.95094    1.2196841   -103.73126   -21424.412    4.4103899    4.4103899    4.4103899   -21424.412   -22230.212   -20130.149   -21912.874    9559.7526    18338.316   -10372.731     85.78887 
   55600    1207.8669   -104.82341    1.0929034   -103.73051   -1483.9531    4.4027656    4.4027656    4.4027656   -1483.9531   -18509.443   -23019.828    37077.412   -18722.515   -708.76131   -6216.8257    85.344725 
   55700    930.25558   -104.58205    0.8417148   -103.74033    4728.7651    4.4105354    4.4105354    4.4105354    4728.7651   -17489.222    13792.953    17882.565    1548.1196    17331.492    2747.0525     85.79736 
   55800    1041.9632   -104.67641   0.94279018   -103.73362    3174.0397     4.419924     4.419924     4.419924    3174.0397   -57045.937    39592.622    26975.434   -20725.945    9308.8473    20409.498    86.346434 
   55900    802.20867   -104.45987   0.72585526   -103.73402    5364.6576    4.4059211    4.4059211    4.4059211    5364.6576   -32364.124    50075.218   -1617.1211   -11784.698    8710.5869    10826.869    85.528362 
   56000    1253.0553   -104.86322    1.1337908   -103.72943    7248.9399    4.4031316    4.4031316    4.4031316    7248.9399   -25186.738    28778.317    18155.241   -12592.248    10469.185   -8743.4115    85.366011 
   56100    1241.9841    -104.8688    1.1237733   -103.74503   -36335.174    4.4091252    4.4091252    4.4091252   -36335.174   -58773.125   -22586.489   -27645.909   -23345.606    2479.2965    3218.9508     85.71509 
   56200    1344.3453    -104.9611    1.2163918   -103.74471    10399.954    4.3967391    4.3967391    4.3967391    10399.954   -5603.3272    36731.926    71.264121    12913.354    9091.4752   -14595.205    84.994747 
   56300    693.01487   -104.38142   0.62705442   -103.75437   -2808.4491    4.4138322    4.4138322    4.4138322   -2808.4491   -51443.608    41302.682    1715.5794   -27545.295    393.13709    14030.422    85.989902 
   56400    1251.4273   -104.87008    1.1323177   -103.73776   -11044.351    4.4091409    4.4091409    4.4091409   -11044.351   -28059.794      17758.3   -22831.561    15378.889    14721.688    4653.7429    85.716006 
   56500    1178.4297   -104.79711    1.0662679   -103.73084    12678.091    4.3933764    4.3933764    4.3933764    12678.091   -2867.0537    6608.0022    34293.325   -26976.868   -10081.143   -3422.2213    84.799878 
   56600    874.18805   -104.53045   0.79098372   -103.73947   -19711.918    4.4189724    4.4189724    4.4189724   -19711.918   -49235.341    6723.5136   -16623.926     348.4125    30001.829    3560.2457    86.290676 
   56700    1316.8404   -104.91595    1.1915048   -103.72444    5418.7468    4.4035039    4.4035039    4.4035039    5418.7468   -3426.9555    17798.134    1885.0617   -12268.122   -10985.642   -14328.398    85.387669 
   56800    849.08593   -104.50192    0.7682708   -103.73365   -5718.7548    4.4012912    4.4012912    4.4012912   -5718.7548   -36360.188    46187.517   -26983.593   -19703.727    13774.487    2466.9468    85.259015 
   56900     1144.202   -104.76424     1.035298   -103.72894    11045.205    4.4017631    4.4017631    4.4017631    11045.205   -6218.8389    37058.265    2296.1891    3592.1483    6677.2698   -8316.4285     85.28644 
   57000    1115.0768   -104.74851    1.0089449   -103.73957   -12629.046    4.4069885    4.4069885    4.4069885   -12629.046   -17194.511   -7457.3711   -13235.257   -32368.256    4724.1398    4591.9822    85.590535 
   57100    1474.8723   -105.06416    1.3344954   -103.72966   -25721.179    4.4164829    4.4164829    4.4164829   -25721.179   -32347.508   -6908.5404   -37907.489    13665.275   -5419.8791    2943.8835    86.144917 
   57200    884.34051   -104.53151   0.80016988   -103.73134    17977.831    4.3925115    4.3925115    4.3925115    17977.831   -1610.3663    40690.842    14853.017   -19430.336    9704.1103    2633.9788    84.749805 
   57300    1172.0974    -104.7971    1.0605383   -103.73657    17564.059    4.3968127    4.3968127    4.3968127    17564.059    2818.8751    44635.639    5237.6646   -8511.8936    5776.5963   -261.15792    84.999014 
   57400    1090.4471    -104.7281   0.98665946   -103.74144   -28647.339    4.4188369    4.4188369    4.4188369   -28647.339   -52112.583    7092.9166   -40922.351   -739.44288   -3253.0231   -4356.5465    86.282737 
   57500    1395.7522   -105.00153    1.2629059   -103.73862   -13384.071    4.3989761    4.3989761    4.3989761   -13384.071   -13046.551   -3141.9328   -23963.728   -27379.375    8801.2323    930.63637    85.124544 
   57600    882.58693   -104.54345    0.7985832   -103.74486    11934.018    4.3965746    4.3965746    4.3965746    11934.018    -19789.43    59613.747   -4022.2635    30631.068   -4802.8857    1017.6079    84.985207 
   57700    1015.3335   -104.66487   0.91869509   -103.74617   -20315.427    4.4095227    4.4095227    4.4095227   -20315.427   -54315.313    31327.354   -37958.321    -16012.05    12490.661   -281.99332    85.738274 
   57800    1264.6459   -104.88213    1.1442781   -103.73785    9371.4118    4.3974539    4.3974539    4.3974539    9371.4118    25921.777   -512.63579    2705.0945    9718.6261   -4946.4854   -301.40912    85.036206 
   57900    1183.2597   -104.82289    1.0706382   -103.75226   -25098.491     4.412122     4.412122     4.412122   -25098.491    -32704.55   -8398.1908   -34192.733   -6032.6754    4978.6995   -2971.2472    85.889985 
   58000    1205.1748   -104.83003    1.0904675   -103.73956    14592.683    4.4091661    4.4091661    4.4091661    14592.683    694.26755    38478.652    4605.1305     3916.745     -1602.53   -10041.313    85.717476 
   58100    768.39401   -104.44949   0.69525904   -103.75423    5647.9836    4.4004972    4.4004972    4.4004972    5647.9836   -6624.6805    49120.047   -25551.415    33266.159    8231.5497   -2557.4795    85.212882 
   58200    1743.9933   -105.32219    1.5780018   -103.74419    4708.2599    4.4009265    4.4009265    4.4009265    4708.2599     7.273318    25982.216   -11864.709   -2025.7881    -3878.798   -3469.1822     85.23782 
   58300    633.62934   -104.33926   0.57332115   -103.76594    10444.399    4.3999555    4.3999555    4.3999555    10444.399    59989.711   -11632.832   -17023.683    16353.972    365.51775     4547.936    85.181414 
   58400    1241.0711   -104.87915    1.1229472   -103.75621     60.76003    4.4177406    4.4177406    4.4177406     60.76003   -28630.373    66587.737   -37775.085    3868.8649    4238.4501    879.42318    86.218534 
   58500    986.55958   -104.64649   0.89265984   -103.75383   -818.12607    4.4062613    4.4062613    4.4062613   -818.12607   -19448.042    65233.343    -48239.68    2081.3977   -5673.0946     1476.565    85.548174 
   58600    1238.4575   -104.86902    1.1205824   -103.74844   -3070.3708    4.3916771    4.3916771    4.3916771   -3070.3708    24867.758   -22556.318   -11522.553    25861.932    5264.5732    3576.1166    84.701521 
   58700     1257.981   -104.89053    1.1382476   -103.75229   -7865.8344    4.4121662    4.4121662    4.4121662   -7865.8344   -27695.523    47628.963   -43530.944   -11734.841   -7853.3259    2357.4007    85.892566 
   58800    771.18592   -104.44772   0.69778523   -103.74993    8148.5764    4.4111451    4.4111451    4.4111451    8148.5764   -8351.0897    70962.796   -38165.977    10289.246    3816.4368    5885.5849    85.832947 
   58900    957.78964   -104.61128   0.86662819   -103.74465     18435.88     4.400253     4.400253     4.400253     18435.88    34810.232    36684.133   -16186.724   -4722.7902   -7295.8474    2106.2156    85.198693 
   59000    1411.7198   -105.02774    1.2773538   -103.75039   -6868.7442    4.4043174    4.4043174    4.4043174   -6868.7442    11180.597   -13480.776   -18306.054    4395.4358   -1610.7772   -9.9070468    85.435003 
   59100    1226.9365   -104.86552    1.1101579   -103.75537   -19728.309    4.4116672    4.4116672    4.4116672   -19728.309   -13331.345   -13260.679   -32592.904    3746.1647   -11411.518    -2023.594    85.863427 
   59200    1017.3335   -104.67293   0.92050477   -103.75242    6945.2433    4.4077654    4.4077654    4.4077654    6945.2433   -12495.116    70882.024   -37551.178   -22168.776     636.7949   -6324.8169    85.635811 
   59300     940.4548   -104.59621   0.85094327   -103.74527    15098.161    4.4096707    4.4096707    4.4096707    15098.161     22736.41    48511.793    -25953.72    2958.5792    -18112.29   -7374.5281    85.746908 
   59400    791.66449   -104.45489   0.71631467   -103.73858     3085.821    4.4146396    4.4146396    4.4146396     3085.821   -6505.9944     25717.31   -9953.8526    2647.5131    952.78061   -9270.5199    86.037099 
   59500    1033.8581   -104.66146   0.93545657   -103.72601    14160.699    4.4064009    4.4064009    4.4064009    14160.699    17260.639     32002.83   -6781.3729    2742.4681    6649.0527   -10902.627    85.556305 
   59600    1289.8967   -104.89718    1.1671257   -103.73006   -11931.424    4.4109823    4.4109823    4.4109823   -11931.424   -26845.561    1567.7176   -10516.429    8816.9663   -11973.669   -5283.3614    85.823448 
   59700    923.32494   -104.56586   0.83544381   -103.73041    3818.6277    4.4178849    4.4178849    4.4178849    3818.6277    29331.252   -12499.879   -5375.4899    -20961.38    16846.391   -13434.943    86.226985 
   59800    1225.8092   -104.83846    1.1091379   -103.72932   -23095.634    4.4123585    4.4123585    4.4123585   -23095.634   -37688.927   -16620.687   -14977.289    18490.672   -18889.541     2232.993    85.903798 
   59900     1176.079   -104.79489     1.064141   -103.73075    20082.162     4.394627     4.394627     4.394627    20082.162    32903.005    10798.792    16544.687   -17813.733    10859.067    3978.3742     84.87232 
   60000    941.75609   -104.60424    0.8521207   -103.75212   -3261.2907    4.4043682    4.4043682    4.4043682   -3261.2907   -24844.374    37130.917   -22070.415   -4517.8922   -8630.9188    9780.8754    85.437959 
   60100    1077.0948   -104.72506   0.97457799   -103.75048    302.07697    4.4112144    4.4112144    4.4112144    302.07697   -8316.5887    35247.495   -26024.675     112.3254   -2869.7311    12663.834    85.836996 
   60200    1070.0478   -104.71563   0.96820174   -103.74743    21599.207    4.3974217    4.3974217    4.3974217    21599.207    32868.471    34794.912   -2865.7632   -11214.266   -3885.2184    682.07437    85.034338 
   60300    1063.0493   -104.72102   0.96186938   -103.75915   -20456.502    4.4048052    4.4048052    4.4048052   -20456.502   -34656.648    -282.9289   -26429.929    10517.121   -13950.442    9624.2057    85.463392 
   60400    1029.1425   -104.68545   0.93118975   -103.75426    30575.057    4.3992404    4.3992404    4.3992404    30575.057    25951.909    65662.417    110.84484   -6594.2919     9409.985   -7260.1767    85.139891 
   60500    1069.1853   -104.72973   0.96742131   -103.76231   -19300.048    4.4137377    4.4137377    4.4137377   -19300.048   -42922.272    25334.838   -40312.709    1009.5911   -21197.385   -3417.0107    85.984378 
   60600    1174.1288   -104.81582    1.0623764   -103.75344   -2139.6902    4.4031565    4.4031565    4.4031565   -2139.6902    577.44459   -3618.9497   -3377.5654    10479.004    4708.5001     7436.591     85.36746 
   60700    1172.4366   -104.81787    1.0608453   -103.75702    2225.2604    4.3967735    4.3967735    4.3967735    2225.2604   -22840.026    53927.031   -24411.224   -8830.1678   -15133.231    5183.3398    84.996744 
   60800    1002.0745   -104.66349   0.90669807   -103.75679    14519.435    4.4049831    4.4049831    4.4049831    14519.435   -4537.7425    66907.415   -18811.367    1441.2675    4176.1367    13209.693    85.473747 
   60900    954.36272   -104.62375   0.86352744   -103.76022   -24720.824    4.4080454    4.4080454    4.4080454   -24720.824   -50256.243     -2760.26   -21145.969   -5448.1874   -11552.279   -5237.5187    85.652135 
   61000    1501.7346   -105.10384     1.358801   -103.74503    4463.8455    4.3988898    4.3988898    4.3988898    4463.8455     4172.774    30704.452   -21485.689   -6026.8861   -8609.4913   -5919.6953    85.119539 
   61100    1138.3231   -104.77934    1.0299787   -103.74937   -15920.965    4.4086331    4.4086331    4.4086331   -15920.965   -48520.613    5049.2586   -4291.5414    3574.2803   -6143.4133   -1768.5039    85.686395 
   61200    719.10634   -104.39947   0.65066253    -103.7488    3170.8998    4.4084946    4.4084946    4.4084946    3170.8998   -15785.772    52128.986   -26830.514   -9686.0511   -17565.613   -7087.0006    85.678317 
   61300    1301.6016   -104.90773    1.1777164   -103.73001     20927.15    4.4009446    4.4009446    4.4009446     20927.15   -2359.0986    52065.287    13075.261    1470.7455    2191.7855    15595.093    85.238873 
   61400    782.81647   -104.45632   0.70830879   -103.74801   -25616.141    4.4060767    4.4060767    4.4060767   -25616.141   -47182.673     -8110.29   -21555.461   -22093.542    -21688.54   -827.47712    85.537423 
   61500    1439.2718   -105.04473    1.3022833   -103.74245    15151.138    4.3982066    4.3982066    4.3982066    15151.138   -1405.0653    33373.789    13484.691    4266.1839    10215.364    -4489.626    85.079881 
   61600    776.03355   -104.45915   0.70217146   -103.75698   -6254.5195      4.40696      4.40696      4.40696   -6254.5195   -24697.876    21613.158    -15678.84   -12326.724    -12022.87   -1323.3447    85.588878 
   61700    1229.9636   -104.86674    1.1128969   -103.75385   -14012.123    4.4060366    4.4060366    4.4060366   -14012.123   -42372.787    18702.938   -18366.519    3173.0345    6301.3573   -6426.1067    85.535089 
   61800     1121.416   -104.76531    1.0146808   -103.75063    4841.0177    4.4030616    4.4030616    4.4030616    4841.0177   -8370.2608    37155.885   -14262.571    -8923.917    -3515.364    3615.7504     85.36194 
   61900    799.80433   -104.47907   0.72367976   -103.75539   -10541.613    4.4016515    4.4016515    4.4016515   -10541.613   -35290.883    32367.649   -28701.605   -10763.901    -8040.014    2515.6117    85.279955 
   62000    1089.5316   -104.73775   0.98583109   -103.75192    21526.094    4.3986246    4.3986246    4.3986246    21526.094   -12406.552    88805.255   -11820.419    15095.163    5639.0949    37.519746     85.10414 
   62100    1061.0251   -104.71515   0.96003781   -103.75512    772.60433    4.4085917    4.4085917    4.4085917    772.60433   -25127.421    19501.245    7943.9889   -10720.576   -16823.932    5077.1057    85.683979 
   62200    1071.6596   -104.71869   0.96966012   -103.74903   -15496.375    4.4109098    4.4109098    4.4109098   -15496.375   -30665.711    7875.7235   -23699.139   -7811.6872    12280.552   -16012.492    85.819211 
   62300     1150.501   -104.77834    1.0409975   -103.73734    8681.9024     4.406562     4.406562     4.406562    8681.9024   -25061.816    38965.514     12142.01   -7156.0081   -15086.569   -7544.4916     85.56569 
   62400    752.94718   -104.42239   0.68128244    -103.7411    2448.9737    4.4020903    4.4020903    4.4020903    2448.9737   -23579.882    20653.351    10273.452   -18023.226     16987.63   -4137.4056    85.305464 
   62500    1542.5424   -105.13448    1.3957248   -103.73875   -18863.912    4.4041916    4.4041916    4.4041916   -18863.912   -23649.319   -2567.3042   -30375.112    4640.9917   -3175.6956     6200.881     85.42768 
   62600    1188.5574   -104.82025    1.0754317   -103.74482    -18654.93    4.4092623    4.4092623    4.4092623    -18654.93   -37425.751    898.04392   -19437.081   -13636.202    11004.238    14044.828    85.723085 
   62700    1001.7559   -104.65328   0.90640983   -103.74687   -5139.5078    4.4047199    4.4047199    4.4047199   -5139.5078   -14433.601    29326.797   -30311.719    6940.7341    6600.2992    797.31485    85.458426 
   62800    1197.1535   -104.82032    1.0832096   -103.73711     16358.73    4.3981617    4.3981617    4.3981617     16358.73   -22193.303    92678.718   -21409.225    -18559.74     1304.703    6025.0195    85.077279 
   62900    882.63086    -104.5491   0.79862295   -103.75048   -24053.789    4.4068409    4.4068409    4.4068409   -24053.789   -29682.311   -20268.371   -22210.684   -1683.1998     21154.42   -6489.4016    85.581937 
   63000    1354.7663   -104.97326     1.225821   -103.74744    1030.6415    4.4012136    4.4012136    4.4012136    1030.6415   -10046.925    29716.511   -16577.662    5893.7901   -4634.6029    3755.2471    85.254507 
   63100    873.96531   -104.54603   0.79078218   -103.75525    6752.0813    4.3937291    4.3937291    4.3937291    6752.0813    -27555.62    59726.237   -11914.373   -1789.6496    18005.496    8715.9156    84.820303 
   63200    1290.5384   -104.92272    1.1677063   -103.75502   -13200.342    4.4032544    4.4032544    4.4032544   -13200.342   -16864.282   -17436.402   -5300.3426    13954.236   -2495.3298   -3489.1164    85.373155 
   63300    876.65943   -104.55071   0.79321988   -103.75749    6017.6894     4.409754     4.409754     4.409754    6017.6894   -16782.893    67550.871    -32714.91   -7654.2823    7768.1444    11706.315    85.751768 
   63400    1124.9277   -104.77284    1.0178582   -103.75498   -1854.0154    4.4032641    4.4032641    4.4032641   -1854.0154   -44312.093    43266.316   -4516.2697    14044.174    3855.1214   -14556.074    85.373717 
   63500    1274.4881   -104.90379    1.1531836   -103.75061     23792.95    4.3891086    4.3891086    4.3891086     23792.95    19805.726    50621.822    951.30274    3981.7553    11689.258   -108.02839    84.552993 
   63600    1018.2345   -104.68894   0.92131994   -103.76762   -23806.663    4.4181137    4.4181137    4.4181137   -23806.663   -37435.379   -18619.352   -15365.258    1241.2323    4552.0346    9396.7882    86.240378 
   63700    1233.2273    -104.8627      1.11585   -103.74685     6124.872    4.4140563    4.4140563    4.4140563     6124.872   -21672.198    60228.224    -20181.41   -8738.5994    6242.6575    12130.179    86.002999 
   63800    879.23155   -104.53598   0.79554718   -103.74043    32518.852    4.3996167    4.3996167    4.3996167    32518.852    57852.357    54008.738   -14304.538   -12954.972    12732.442    19185.677    85.161739 
   63900    1242.0869   -104.86776    1.1238663   -103.74389   -11293.104    4.4098389    4.4098389    4.4098389   -11293.104   -36637.795    9741.6649   -6983.1812    -2153.377    6350.4651    1183.9812    85.756719 
   64000    1337.3083   -104.94511    1.2100246   -103.73509   -5763.4399    4.4128907    4.4128907    4.4128907   -5763.4399    11788.089    14152.134   -43230.542    2818.3404    4302.1321    16584.601    85.934888 
   64100    693.67832   -104.36578   0.62765473   -103.73813    5936.6915    4.4113632    4.4113632    4.4113632    5936.6915   -28287.726    35536.304    10561.496    2253.3983    13685.485   -2934.6925    85.845681 
   64200     950.0138   -104.60409   0.85959245    -103.7445     8203.345    4.3960467    4.3960467    4.3960467     8203.345   -22371.065    51573.558    -4592.458    9555.0087     18548.12    -2762.752      84.9546 
   64300    1620.1549   -105.21057    1.4659502   -103.74462   -10077.748    4.4042368    4.4042368    4.4042368   -10077.748   -27087.901     494.2161   -3639.5604    4371.5486   -6813.8824   -992.25844     85.43031 
   64400    530.83413   -104.24235   0.48030988   -103.76204   -15785.362    4.4203445    4.4203445    4.4203445   -15785.362   -59350.317    29344.102    -17349.87    5432.1519    28597.116    8370.2564    86.371081 
   64500    1410.3658   -105.01574    1.2761286   -103.73961    16241.078    4.4056898    4.4056898    4.4056898    16241.078    -13175.02    68140.773   -6242.5201    4391.8344    3640.9145   -235.53071    85.514893 
   64600    1039.2877   -104.69203   0.94036933   -103.75166   -5542.3763    4.3990163    4.3990163    4.3990163   -5542.3763   -34210.572    38957.455   -21374.012    1825.8798    13766.701   -1168.4139    85.126877 
   64700    1094.8546   -104.74961   0.99064747   -103.75896    1542.3603    4.4159008    4.4159008    4.4159008    1542.3603   -21890.726    62701.185   -36183.378    683.50685    4583.1457   -8124.1375    86.110859 
   64800    1322.3931   -104.94553    1.1965291     -103.749    5130.5005     4.407578     4.407578     4.407578    5130.5005   -27603.662    60939.253    -17944.09    14914.066     5949.426   -7839.3529     85.62489 
   64900    1034.0472   -104.68437   0.93562765   -103.74874    5346.6691    4.3959586    4.3959586    4.3959586    5346.6691    11343.181    16773.201   -12076.374    1364.8247      6006.55     -1528.12    84.949492 
   65000    1321.1683   -104.94177    1.1954208   -103.74635   -1829.0666    4.4077042    4.4077042    4.4077042   -1829.0666     2975.648    20177.026   -28639.873   -6363.7415   -1132.4885    8667.2008    85.632246 
   65100       1142.3   -104.78482     1.033577   -103.75124   -14860.274    4.4158719    4.4158719    4.4158719   -14860.274   -31835.748    28648.819   -41393.892    11256.545    15201.644    4379.9357    86.109171 
   65200       1137.6   -104.77432    1.0293244     -103.745    11683.287    4.4067202    4.4067202    4.4067202    11683.287    32365.118    31703.781   -29019.039   -13837.347   -4218.5809    6091.4462    85.574908 
   65300    1114.0636   -104.76039    1.0080282   -103.75236   -4633.8456    4.3959729    4.3959729    4.3959729   -4633.8456    -31205.55     49024.17   -31720.157    2379.1413    13600.361    5484.4922    84.950323 
   65400    1106.2654   -104.76298    1.0009722   -103.76201   -1987.3022     4.406507     4.406507     4.406507   -1987.3022    8682.1468     1784.932   -16428.985    19037.236   -11394.853   -8270.0567    85.562485 
   65500    1059.5179   -104.72395   0.95867405   -103.76528   -19475.584    4.4020737    4.4020737    4.4020737   -19475.584   -30157.705    14700.183    -42969.23   -10895.214    19783.034    3585.2035    85.304498 
   65600    1018.7555   -104.68076   0.92179142   -103.75897   -1612.1803      4.40379      4.40379      4.40379   -1612.1803   -18859.919    42525.415   -28502.037    28256.371    280.26596   -598.71707    85.404315 
   65700    1371.9167   -104.98907    1.2413391   -103.74773   -9516.6053    4.4034133    4.4034133    4.4034133   -9516.6053   -7624.1858    14053.787   -34979.417   -4251.6751      6773.19    2427.4375    85.382401 
   65800    637.95613   -104.33138   0.57723611   -103.75414    4773.8661    4.4093891    4.4093891    4.4093891    4773.8661   -19609.244    65151.406   -31220.564    18111.874    11916.458    11805.937    85.730483 
   65900    1656.3835   -105.23938    1.4987306   -103.74065   -13295.449    4.4070394    4.4070394    4.4070394   -13295.449   -3482.8689   -21306.796    -15096.68    10704.376    443.40043   -2104.1388    85.593503 
   66000    691.58185   -104.37771   0.62575779   -103.75196    13927.883    4.4008901    4.4008901    4.4008901    13927.883   -207.38738    82550.081   -40559.045    7067.1927    11073.785    383.53472    85.235708 
   66100    1239.8045   -104.87726    1.1218011   -103.75546   -7489.4412    4.4039709    4.4039709    4.4039709   -7489.4412   -9133.6403   -12927.444   -407.23937    22770.929   -8265.6336   -2136.9201    85.414839 
   66200     1204.942   -104.84225    1.0902568   -103.75199    11661.116    4.4039401    4.4039401    4.4039401    11661.116    174.32731    50789.138   -15980.117   -10631.043    11481.389   -10132.934    85.413048 
   66300    806.74031   -104.48842   0.72995558   -103.75846    -11521.48    4.4096079    4.4096079    4.4096079    -11521.48    2206.5589   -17713.514   -19057.484    16491.064   -9354.7312    8528.2512    85.743249 
   66400     1208.485   -104.84221    1.0934626   -103.74875     15099.47    4.4043656    4.4043656    4.4043656     15099.47   -4629.4249    43821.747    6106.0865   -3288.8412    9657.8803     2948.897    85.437803 
   66500    938.05912   -104.60786   0.84877561   -103.75909     11093.87    4.3992908    4.3992908    4.3992908     11093.87    25773.559    6259.4267    1248.6244    14142.564   -6867.0059    5843.4036    85.142817 
   66600    1039.9612   -104.70325   0.94097874   -103.76227   -2390.9775     4.413681     4.413681     4.413681   -2390.9775   -13548.964    15278.291   -8902.2596    3809.6961   -874.08614   -13715.539    85.981063 
   66700     1311.331   -104.93327    1.1865199   -103.74675   -1797.6692    4.4106663    4.4106663    4.4106663   -1797.6692    -2053.042   -6132.3716    2792.4059    2173.4357    6702.3493    3245.8211    85.805003 
   66800    731.63672   -104.40752   0.66200028   -103.74552    6038.4547    4.3983236    4.3983236    4.3983236    6038.4547   -12342.098     39800.97    -9343.508    18541.042   -5448.7802   -5676.4098    85.086672 
   66900    1422.6084   -105.02532     1.287206   -103.73812    8398.8317    4.4079428    4.4079428    4.4079428    8398.8317    40405.348   -6868.0804   -8340.7728    3367.8184    15386.238   -3980.5187    85.646153 
   67000    798.66298   -104.47337   0.72264705   -103.75072   -18844.561    4.4108837    4.4108837    4.4108837   -18844.561   -23908.152   -21095.899   -11529.632    23258.391   -8628.1905    4709.9587    85.817689 
   67100    1370.2638   -104.97547    1.2398435   -103.73563   -123.81393    4.4071959    4.4071959    4.4071959   -123.81393    19510.791    3801.7394   -23683.973    4036.5418   -2666.3821   -4289.4004    85.602623 
   67200     1120.601    -104.7584    1.0139433   -103.74445    -9822.591    4.4037859    4.4037859    4.4037859    -9822.591   -11624.115   -24145.134    6301.4754    12571.529    3258.4804    9438.4845    85.404076 
   67300     943.1945   -104.60473    0.8534222    -103.7513    3986.9237    4.4067853    4.4067853    4.4067853    3986.9237   -5319.4364    39958.615   -22678.408   -243.88849   -8115.6756    -9128.117    85.578697 
   67400     1517.046   -105.11584    1.3726551   -103.74318   -337.26526    4.4032443    4.4032443    4.4032443   -337.26526   -11381.213    15052.408    -4682.991    1413.0351    6052.5273    5612.2142    85.372565 
   67500    700.10562   -104.39093   0.63347028   -103.75746    13736.154    4.4013147    4.4013147    4.4013147    13736.154    28959.211    20921.174   -8671.9215    15305.712    776.08586    -10622.92     85.26038 
   67600    1284.2437   -104.90908    1.1620107   -103.74707    4771.3272    4.4115211    4.4115211    4.4115211    4771.3272    2123.7271    34838.467   -22648.212   -984.27371    7865.7856   -406.18609    85.854899 
   67700    910.19193   -104.57753   0.82356079   -103.75397    -2227.103    4.4045488    4.4045488    4.4045488    -2227.103    32657.688   -31493.422   -7845.5756    22898.672    763.77412    274.64164    85.448469 
   67800    993.21337   -104.65367   0.89868033   -103.75499   -3524.2948    4.4022558    4.4022558    4.4022558   -3524.2948   -17688.226    2935.7561    4179.5859    2015.2372    18288.713   -8598.7734    85.315084 
   67900    1240.2918   -104.87196    1.1222421   -103.74972     9581.948    4.4001041    4.4001041    4.4001041     9581.948    26006.079   -8370.2287    11109.994    10904.702   -4669.3341    3684.8975    85.190046 
   68000    1018.7937   -104.66913   0.92182591   -103.74731    -32780.59    4.4167046    4.4167046    4.4167046    -32780.59    -41526.61   -23677.928   -33137.233    1030.6261    7519.8233   -11955.887    86.157892 
   68100    1025.7329   -104.66286   0.92810473   -103.73476    9961.0675      4.40256      4.40256      4.40256    9961.0675    20387.146    4920.9169    4575.1393    6853.6476    16158.867    2657.7517    85.332769 
   68200     1435.392   -105.03052    1.2987728   -103.73175   -14270.389    4.3958117    4.3958117    4.3958117   -14270.389   -8906.5025    -25648.21   -8256.4538    3183.4816   -4769.8229   -1627.9493    84.940973 
   68300    710.00417   -104.38949   0.64242669   -103.74707   -1242.9973    4.4087387    4.4087387    4.4087387   -1242.9973    4566.0041   -2951.3115   -5343.6846    675.26938    22105.451   -7621.3582    85.692551 
   68400    1356.5604   -104.96635    1.2274444    -103.7389    -7570.885    4.4091795    4.4091795    4.4091795    -7570.885   -17902.901   -19177.524     14367.77    4682.2826   -12078.892      3130.47    85.718256 
   68500    971.01397   -104.62239   0.87859385    -103.7438   -5951.9604    4.4052834    4.4052834    4.4052834   -5951.9604     30663.84   -26256.633   -22263.089   -12239.903    8400.0211   -10076.338    85.491231 
   68600     1228.183   -104.85669    1.1112858   -103.74541    9773.7808     4.392313     4.392313     4.392313    9773.7808    9427.2956    18922.487    971.55989    5061.8436   -874.91012   -806.60147     84.73832 
   68700    981.36917   -104.64282   0.88796345   -103.75485    -2632.192    4.4081764    4.4081764    4.4081764    -2632.192    22566.992   -24262.521    -6201.047   -4687.6624    6873.8701   -8106.6261    85.659765 
   68800    1222.5531   -104.85197    1.1061917   -103.74578   -21450.366    4.4069041    4.4069041    4.4069041   -21450.366    -6510.281   -7597.1729   -50243.645   -4048.4418    2178.2715   -5812.9544    85.585621 
   68900    1000.6621   -104.64581   0.90542007   -103.74039    39157.778    4.3932837    4.3932837    4.3932837    39157.778    76460.895    8639.1403    32373.297    10613.984   -7157.7708    9709.7233    84.794512 
   69000    1004.9261   -104.66161   0.90927823   -103.75233   -15653.752    4.4068269    4.4068269    4.4068269   -15653.752   -15883.054   -15012.879   -16065.323   -15811.652    5414.3196   -4429.6177    85.581121 
   69100    1049.3891   -104.68828   0.94950933   -103.73877    22975.137    4.4110749    4.4110749    4.4110749    22975.137    53886.219   -7949.9989    22989.191    4109.6844    6592.8291    11671.318    85.828849 
   69200    1067.5015   -104.70459   0.96589779   -103.73869   -27115.105    4.4132289    4.4132289    4.4132289   -27115.105   -12976.464   -51005.634   -17363.217   -19069.039    12167.702   -6572.2984    85.954648 
   69300    890.88667   -104.54295   0.80609298   -103.73686    16078.851    4.3952584    4.3952584    4.3952584    16078.851    32980.534    11736.682    3519.3353    -1660.166     24550.62    5416.2077    84.908905 
   69400    1389.5425   -104.99746    1.2572873   -103.74018   -1991.4826    4.3951486    4.3951486    4.3951486   -1991.4826    9419.6225   -25788.297    10394.227   -10270.978    3977.6834    -6633.549    84.902543 
   69500    592.45834   -104.29371   0.53606876   -103.75764   -30462.875    4.4148391    4.4148391    4.4148391   -30462.875   -13626.879    -36576.23   -41185.517   -7946.0863    16330.005   -13696.468    86.048766 
   69600    1746.3067   -105.31441     1.580095   -103.73432    1692.0257    4.4030137    4.4030137    4.4030137    1692.0257    19078.357   -6430.9643   -7571.3159    193.15616    6800.8906    11149.279    85.359154 
   69700    708.67388   -104.39026   0.64122302   -103.74904    2592.6836    4.3949039    4.3949039    4.3949039    2592.6836    33340.657   -8553.1771    -17009.43   -10407.905    6486.0123   -22851.758    84.888362 
   69800    1197.3792   -104.83032    1.0834138   -103.74691    15307.069    4.4034963    4.4034963    4.4034963    15307.069     53805.62   -562.14922   -7322.2629    1593.7936    17273.545    8408.4631    85.387226 
   69900    1217.7206   -104.84511    1.1018192   -103.74329   -5319.1002    4.4128348    4.4128348    4.4128348   -5319.1002    12653.092   -15632.989   -12977.403   -1718.6289    -9578.186   -16022.863     85.93162 
   70000    878.02712   -104.53481   0.79445739   -103.74036    17933.442    4.3986879    4.3986879    4.3986879    17933.442     63082.52    10587.664   -19869.858   -8541.2003     16489.75    7840.9206    85.107814 
   70100    1347.3342   -104.95847    1.2190963   -103.73938    13329.403    4.3906203    4.3906203    4.3906203    13329.403    2471.3209    7175.8754    30341.012    6172.4053    -11475.06   -18846.294    84.640385 
   70200    965.70378   -104.62734   0.87378908   -103.75355   -1745.3277    4.4075008    4.4075008    4.4075008   -1745.3277    25101.678    1913.2989    -32250.96   -12638.056    6155.1788    4395.9619    85.620389 
   70300    1011.5621   -104.65895   0.91528264   -103.74367   -2488.1889     4.410966     4.410966     4.410966   -2488.1889   -6552.0386   -4584.2449    3671.7167    15215.002   -3419.2341   -2895.3079    85.822494 
   70400    1299.8529   -104.91223    1.1761342    -103.7361    6630.7593    4.3872013    4.3872013    4.3872013    6630.7593    19923.978    6301.5977   -6333.2984   -7733.3887    1792.6445   -11061.876    84.442812 
   70500    638.53856   -104.33117   0.57776311   -103.75341     9627.969    4.3953932    4.3953932    4.3953932     9627.969    33245.356   -5214.9933    853.54439    4713.9334    7043.5246    11486.411    84.916717 
   70600    1525.1128   -105.12339    1.3799541   -103.74344    -17192.08    4.4111963    4.4111963    4.4111963    -17192.08   -4743.9922   -30838.886   -15993.362    8896.3925    -1717.279   -17365.263    85.835937 
   70700    790.50465   -104.46179   0.71526522   -103.74653   -12227.663    4.4069653    4.4069653    4.4069653   -12227.663    18769.278   -22849.786   -32602.482   -7282.5997    21598.059    11815.741    85.589188 
   70800    1354.7226   -104.96175    1.2257814   -103.73597   -3624.8007    4.3938521    4.3938521    4.3938521   -3624.8007   -3273.0715     -4213.29   -3388.0405    7684.0397    482.06747   -10646.289    84.827429 
   70900    1111.4929   -104.75398    1.0057022   -103.74828   -13629.361    4.4040217    4.4040217    4.4040217   -13629.361    8428.4451   -16453.909   -32862.618   -4450.7025      15311.6    3094.6308    85.417795 
   71000    1040.5374   -104.68844   0.94150008   -103.74694   -13984.193    4.4089492    4.4089492    4.4089492   -13984.193    24932.209   -34427.415   -32457.374   -2208.1439    14149.441   -4660.8329    85.704826 
   71100    1319.5632   -104.93372    1.1939685   -103.73975    -8903.048    4.4070365    4.4070365    4.4070365    -8903.048    13855.432   -17984.213   -22580.363   -589.09513   -4981.6402    1081.3552    85.593336 
   71200    853.11656   -104.51914   0.77191779   -103.74722   -24175.902    4.4006437    4.4006437    4.4006437   -24175.902    -17543.64   -30358.685   -24625.381   -18160.989    12043.338    6895.1396     85.22139 
   71300    1528.0071    -105.1204    1.3825729   -103.73783    33220.771    4.3841467    4.3841467    4.3841467    33220.771    84274.704   -2107.2122    17494.822    9726.3089   -10543.418   -10427.963    84.266556 
   71400    612.90813    -104.3157   0.55457216   -103.76113   -19943.304    4.4092613    4.4092613    4.4092613   -19943.304   -36135.914    -3443.576   -20250.421   -24474.049    16599.352    15802.814     85.72303 
   71500    1423.5566   -105.02513    1.2880639   -103.73707   -6405.4971    4.4056476    4.4056476    4.4056476   -6405.4971   -17751.008    708.86654     -2174.35   -967.79728   -4975.4098   -6314.1949    85.512436 
   71600    847.03345   -104.50703   0.76641367   -103.74062   -3826.2435    4.3984948    4.3984948    4.3984948   -3826.2435   -23350.183    48927.351   -37055.898   -11316.379     13115.45    8155.8702    85.096606 
   71700    1005.5262    -104.6572   0.90982126   -103.74737    5066.0056    4.3934579    4.3934579    4.3934579    5066.0056   -8884.3508    8942.8309    15139.537   -20319.144    3659.6273    4005.6738    84.804599 
   71800    1381.8495   -105.00343    1.2503264    -103.7531   -17696.317    4.4059462    4.4059462    4.4059462   -17696.317   -21375.917    5890.9288   -37603.962   -1460.3875    915.59495    470.17761    85.529825 
   71900    612.12039   -104.31227   0.55385939   -103.75841    7021.0646     4.407091     4.407091     4.407091    7021.0646   -8827.9737     39370.26   -9479.0927   -31162.047    5469.8558    7524.2081    85.596508 
   72000    1381.1957   -104.99121    1.2497349   -103.74147    11198.636    4.3934749    4.3934749    4.3934749    11198.636     1132.541    30842.773     1620.594   -6107.8554   -1683.6002   -1831.3044    84.805585 
   72100    958.14696    -104.6178   0.86695151   -103.75084   -13148.075    4.4058865    4.4058865    4.4058865   -13148.075   -17634.588    8271.6795   -30081.318   -7668.7604    2144.5878    10094.274    85.526344 
   72200    1222.3492    -104.8478    1.1060072   -103.74179   -17657.675    4.4116893    4.4116893    4.4116893   -17657.675   -35989.789   -8841.4958   -8141.7408   -17465.214   -357.27581    2176.1395    85.864722 
   72300    1301.4648   -104.91613    1.1775927   -103.73854    -2611.042    4.3920617    4.3920617    4.3920617    -2611.042   -1259.4438    11176.902   -17750.584    7317.0553   -651.50742   -4656.2307    84.723774 
   72400    865.29671   -104.52695   0.78293865   -103.74402    6658.2415    4.3975181    4.3975181    4.3975181    6658.2415   -23728.706    43682.801    20.630039   -22064.266   -1127.0907    3416.4504     85.03993 
   72500    1150.1343   -104.78133    1.0406657   -103.74066   -16991.467    4.4128098    4.4128098    4.4128098   -16991.467   -42377.187   -4661.8644   -3935.3498    9198.6978    1970.9965   -22003.149    85.930162 
   72600    932.12466   -104.58078   0.84340598   -103.73738    13806.327    4.4025008    4.4025008    4.4025008    13806.327   -9291.6017    40377.433     10333.15   -7150.2961    6621.9475    455.32099    85.329329 
   72700    1190.0149   -104.81447    1.0767505   -103.73771   -11588.948    4.3983466    4.3983466    4.3983466   -11588.948   -26421.268   -18169.834    9824.2576   -7579.2996    1388.9693   -19634.834    85.088006 
   72800    1111.4874   -104.75507    1.0056972   -103.74937    904.97766    4.3980702    4.3980702    4.3980702    904.97766   -28809.737     39947.17   -8422.4994   -668.83797    12424.075     5414.605    85.071964 
   72900    1207.6167   -104.84312    1.0926769   -103.75044   -17262.273    4.4104507    4.4104507    4.4104507   -17262.273   -24310.623   -33088.118    5611.9212   -16699.272   -7760.4778   -9293.4604    85.792418 
   73000     968.2168   -104.62051    0.8760629   -103.74445   -15018.712    4.4042855    4.4042855    4.4042855   -15018.712   -35094.479    22917.557   -32879.214    7283.7557    18549.912   -1109.4095    85.433144 
   73100    1114.2921   -104.74997    1.0082349   -103.74173    2680.8679    4.3951152    4.3951152    4.3951152    2680.8679   -23586.018    8920.2497    22708.372   -17501.828    3879.5547    1531.4087    84.900604 
   73200     1126.173   -104.76929     1.018985   -103.75031   -17790.869    4.4019697    4.4019697    4.4019697   -17790.869     -32849.7   -18598.444   -1924.4642    12804.869    11410.808   -4460.6905    85.298453 
   73300    759.57132   -104.44029   0.68727609   -103.75302    8111.3452    4.4043543    4.4043543    4.4043543    8111.3452    -13992.81    36106.232     2220.614    -13476.06    10450.659    2094.7874    85.437148 
   73400    1346.1167   -104.96152    1.2179947   -103.74353   -9833.8254    4.4029066    4.4029066    4.4029066   -9833.8254   -39165.291   -22626.084    32289.898    5419.9138    5209.5104    7158.6724    85.352928 
   73500    935.99307    -104.5913    0.8469062    -103.7444   -12142.871    4.4070474    4.4070474    4.4070474   -12142.871   -35547.966    31248.032   -32128.677   -1373.2164    5650.9885   -7403.9414    85.593969 
   73600    1506.3625   -105.09696    1.3629885   -103.73397    903.78895    4.3991279    4.3991279    4.3991279    903.78895   -13340.576    3241.5182    12810.425    -1486.014    3473.6908    15536.788     85.13336 
   73700    895.97765   -104.56101   0.81069941   -103.75031   -11553.703    4.4013544    4.4013544    4.4013544   -11553.703   -39970.296   -6305.8978    11615.085    11372.018    6836.8639    -17145.27    85.262687 
   73800    1045.2587   -104.69698     0.945772   -103.75121    15169.323    4.4004766    4.4004766    4.4004766    15169.323   -28802.322    21474.157    52836.134   -7739.7226   -1743.5658   -7205.8302    85.211686 
   73900    1137.5714   -104.77881    1.0292985   -103.74951   -21880.801    4.4135885    4.4135885    4.4135885   -21880.801   -54858.544   -26999.884    16216.025     22190.89    3441.2693   -11652.239    85.975663 
   74000    862.88134   -104.52688   0.78075317   -103.74612    11272.611    4.4003427    4.4003427    4.4003427    11272.611   -24800.238    47875.066    10743.006   -9740.5437    1579.6254   -24082.243    85.203903 
   74100    1243.0479    -104.8655    1.1247359   -103.74076    88.870493    4.3969019    4.3969019    4.3969019    88.870493   -25359.947    12296.377    13330.182    16282.169   -1042.6342    4456.0809    85.004191 
   74200    1048.5505    -104.6969   0.94875054   -103.74815   -21216.243    4.4067727    4.4067727    4.4067727   -21216.243   -46594.158    16614.074   -33668.646    477.65974    3929.8305   -20936.042    85.577963 
   74300    1073.0001   -104.72168   0.97087307   -103.75081    6470.9058    4.4038616    4.4038616    4.4038616    6470.9058    -23958.46    26192.242    17178.936     12345.17   -2868.5694    9091.4627    85.408478 
   74400    1167.9491   -104.80969    1.0567849   -103.75291   -9863.4213    4.3852245    4.3852245    4.3852245   -9863.4213   -9615.6279   -5701.2863    -14273.35    17061.766    11097.426     2030.726    84.328716 
   74500    908.74113   -104.58601   0.82224807   -103.76377    2833.9138    4.4024158    4.4024158    4.4024158    2833.9138   -32237.268    41905.701   -1166.6925   -7500.4429    -9684.554   -4212.9219     85.32439 
   74600    1195.1492   -104.83153    1.0813961   -103.75013   -12785.695    4.4082519    4.4082519    4.4082519   -12785.695   -24590.269    -18893.19    5126.3747    21870.276     6957.469    14161.945    85.664168 
   74700    1026.2562   -104.66873   0.92857816   -103.74015    16480.454    4.3818677    4.3818677    4.3818677    16480.454    9443.8185    48175.434   -8177.8904   -9090.9961   -6108.6821   -4177.4485    84.135209 
   74800    1099.7433   -104.74186   0.99507088   -103.74679    1183.7387    4.3971172    4.3971172    4.3971172    1183.7387   -23117.616   -12099.925    38768.757   -4350.5901    1220.6452    16319.629    85.016676 
   74900    1138.4421   -104.77479    1.0300863   -103.74471   -18614.654    4.4086256    4.4086256    4.4086256   -18614.654   -13277.058   -5460.6636   -37106.241    11328.183    7456.7184   -6092.0374     85.68596 
   75000    1070.3225   -104.70748   0.96845031   -103.73903    6673.0485    4.4028319    4.4028319    4.4028319    6673.0485   -5301.2161   -15803.943    41124.305   -18146.383   -2239.4496    9215.8237    85.348584 
   75100    1207.2236   -104.82929    1.0923213   -103.73697   -12154.812    4.3949575    4.3949575    4.3949575   -12154.812   -18253.642   -16561.524   -1649.2684    10808.521    6049.7265    10929.819    84.891467 
   75200    1072.4045   -104.71519    0.9703341   -103.74486   -10148.783    4.4014028    4.4014028    4.4014028   -10148.783   -14711.941   -28903.632    13169.225   -12898.005    5904.4521   -12507.095    85.265502 
   75300    1106.5216   -104.75617     1.001204   -103.75497    1278.1613     4.403774     4.403774     4.403774    1278.1613   -2126.7588   -10542.225    16503.467   -6969.9275   -2324.0141    10043.551     85.40338 
   75400    1286.8014   -104.91987    1.1643249   -103.75555   -10462.012    4.4036534    4.4036534    4.4036534   -10462.012   -15610.658   -19901.834    4126.4561   -207.69134    18046.398    10544.288    85.396368 
   75500    798.31801   -104.47163   0.72233491   -103.74929    24429.359    4.4042268    4.4042268    4.4042268    24429.359   -8982.0321   -2669.1717     84939.28   -10175.025   -8576.7532    769.84376     85.42973 
   75600    1275.2793   -104.89117    1.1538995   -103.73727   -14454.871    4.4145702    4.4145702    4.4145702   -14454.871     -664.528   -27325.694   -15374.392    7273.0676    12221.765     16055.21    86.033044 
   75700     966.7651   -104.60706   0.87474938   -103.73231    7489.5929    4.3990576    4.3990576    4.3990576    7489.5929   -25334.347    10227.783    37575.343   -23167.477   -5523.2247   -2174.2476    85.129274 
   75800    1409.5525   -105.00939    1.2753927   -103.73399   -3247.2731    4.3967148    4.3967148    4.3967148   -3247.2731    444.89684   -10072.881   -113.83464    7807.2915    8492.2884    17682.628    84.993339 
   75900    882.30711   -104.54568   0.79833002   -103.74735    612.13907    4.4118051    4.4118051    4.4118051    612.13907   -18874.104   -17356.826    38067.347   -15812.888    -7847.579   -8375.5086    85.871484 
   76000    1180.4304   -104.81119    1.0680783   -103.74311   -14972.556    4.4107416    4.4107416    4.4107416   -14972.556   -31965.706   -7572.5255   -5379.4369   -6162.1669    -16112.96    11136.223    85.809395 
   76100    1130.4341   -104.76234    1.0228405    -103.7395   -542.69673    4.3947121    4.3947121    4.3947121   -542.69673   -9844.6746   -23043.506    31260.091   -3163.5785   -1030.9466    5141.8407    84.877245 
   76200    949.78557   -104.60954   0.85938594   -103.75016     12397.08    4.3920846    4.3920846    4.3920846     12397.08   -27624.945    22233.245    42582.941    -10736.51   -19495.778    1727.6999    84.725098 
   76300    1127.8296   -104.77547     1.020484   -103.75498   -21920.664    4.4161657    4.4161657    4.4161657   -21920.664   -18712.337   -16941.991   -30107.665    8619.8472   -281.44602    3380.5778    86.126358 
   76400    972.73041   -104.62511   0.88014692   -103.74497    8741.2393    4.4029298    4.4029298    4.4029298    8741.2393   -42805.495    3362.8528     65666.36   -11900.647   -10870.199    1051.2416    85.354278 
   76500    1091.6518   -104.73177   0.98774948   -103.74402   -1295.2906    4.3936238    4.3936238    4.3936238   -1295.2906   -13587.736    18518.773   -8816.9084      10733.6   -11115.674     4003.385    84.814206 
   76600    1059.4638   -104.70693   0.95862508   -103.74831    -9950.312    4.4000578    4.4000578    4.4000578    -9950.312   -14648.896   -41485.305    26283.265   -6112.6781    189.92517    14773.389    85.187356 
   76700    1237.8944   -104.86583    1.1200728   -103.74576   -1242.2254     4.407007     4.407007     4.407007   -1242.2254   -33178.147    4505.3642    24946.106   -2342.7495   -11797.657   -8709.9095    85.591613 
   76800    748.94896   -104.42823   0.67766475   -103.75057   -32042.386    4.4120538    4.4120538    4.4120538   -32042.386   -16230.365   -55636.067   -24260.727    10100.711    10188.003    20107.964    85.886005 
   76900    1363.5104   -104.97358    1.2337329   -103.73985    28731.712    4.3836579    4.3836579    4.3836579    28731.712   -11165.827    16976.965    80383.999   -12962.942   -14110.059   -2073.9807    84.238372 
   77000    1018.2426    -104.6864   0.92132734   -103.76508   -10286.614    4.3977286    4.3977286    4.3977286   -10286.614   -10941.201   -35131.849    15213.207    9508.0466   -1027.9594    6852.6824    85.052148 
   77100    1153.9327    -104.8099    1.0441026    -103.7658   -3768.5736    4.4127749    4.4127749    4.4127749   -3768.5736   -32185.177   -3495.9126    24375.368   -7949.0465   -3911.8767    7931.0697    85.928121 
   77200    1049.5155   -104.70993   0.94962368   -103.76031   -11910.722    4.4165483    4.4165483    4.4165483   -11910.722    -17064.15   -46946.953    28278.936     7210.695   -5421.9417    5796.2604    86.148743 
   77300    900.15391   -104.56929   0.81447817   -103.75482    -2334.649    4.3835857    4.3835857    4.3835857    -2334.649    3434.9447   -11460.316    1021.4247   -13282.115    1640.2295    6096.5038     84.23421 
   77400    1549.0748   -105.15707    1.4016354   -103.75543    7443.4626    4.3944106    4.3944106    4.3944106    7443.4626     -12786.8   -19958.759    55075.947    11808.407   -6427.9684   -9943.3729     84.85978 
   77500    534.12964   -104.24084   0.48329172   -103.75755   -19997.246    4.4200633    4.4200633    4.4200633   -19997.246   -28803.423   -49565.787    18377.471   -12089.817    7396.7915    11888.612    86.354596 
   77600    1454.8883   -105.06309    1.3164135   -103.74668   -7851.2878    4.3925681    4.3925681    4.3925681   -7851.2878   -28291.285   -15649.178    20386.599    2983.7376    3311.7106   -9539.4265    84.753084 
   77700    1136.2313   -104.78153    1.0280859   -103.75344    5423.3399    4.3911905    4.3911905    4.3911905    5423.3399   -20715.573   -13034.009    50019.602    3287.7168      -816.09    3006.3385    84.673368 
   77800     686.0745   -104.38568   0.62077463    -103.7649   -397.74903    4.4085302    4.4085302    4.4085302   -397.74903   -33225.173   -33829.522    65861.448   -8847.9849    11162.577     11611.46    85.680396 
   77900    1085.0345   -104.75034   0.98176203   -103.76857    -13877.37    4.4027231    4.4027231    4.4027231    -13877.37   -54923.549   -9700.2199    22991.659     20336.06   -2523.9836   -4329.2308    85.342256 
   78000    1346.4839   -104.98211    1.2183269   -103.76378    4227.0809    4.3884687    4.3884687    4.3884687    4227.0809    -6963.749   -6005.8346    25650.826   -21124.577   -3753.2009    22949.513    84.516015 
   78100    957.08768   -104.63508   0.86599304   -103.76908   -17018.878     4.408831     4.408831     4.408831   -17018.878   -50062.117   -7463.1656    6468.6479    21151.677    7794.6186    -963.9152    85.697932 
   78200    1031.7831    -104.6889   0.93357903   -103.75532    5603.4031    4.4044999    4.4044999    4.4044999    5603.4031   -42565.522    35679.888    23695.844   -12772.889   -17417.974    118.34827    85.445624 
   78300    1095.5055   -104.74866    0.9912364   -103.75742   -3831.1575    4.4018364    4.4018364    4.4018364   -3831.1575   -22691.043   -30957.426    42154.997    1203.7603    7014.5227    7107.5742    85.290705 
   78400    1118.6278   -104.77616    1.0121579     -103.764    12048.357    4.3905741    4.3905741    4.3905741    12048.357   -28442.169     46380.48    18206.761    4200.7544   -17082.448   -9615.5695    84.637717 
   78500    1087.3857   -104.75596   0.98388947   -103.77207    -24242.05    4.4131935    4.4131935    4.4131935    -24242.05   -27912.878   -31832.171   -12981.102     -18040.9   -377.78081    14216.243    85.952576 
   78600    1401.9703   -105.02013    1.2685321    -103.7516   -3605.8699    4.4020306    4.4020306    4.4020306   -3605.8699   -21444.172    16571.809   -5945.2468     15196.51   -2875.5325    11038.001    85.301992 
   78700    618.91245   -104.31662     0.560005   -103.75661    11476.025    4.3942264    4.3942264    4.3942264    11476.025   -25616.536     19370.68    40673.933   -17518.148    -6076.275    4958.9496    84.849108 
   78800    1267.5592   -104.90572    1.1469142   -103.75881   -3099.9903    4.4046104    4.4046104    4.4046104   -3099.9903   -9350.4183    9175.2937   -9124.8463    8993.4167    5348.3108    28327.357    85.452054 
   78900     1088.448   -104.74213   0.98485066   -103.75728   -7667.7215    4.4056557    4.4056557    4.4056557   -7667.7215   -54695.202   -3759.4091    35451.447    -13702.05   -12923.762   -5736.1163    85.512905 
   79000    963.93484    -104.6216    0.8721885   -103.74941    17309.669    4.4009356    4.4009356    4.4009356    17309.669    6444.1801    51210.633   -5725.8054    -844.2763    2112.4743    18959.012    85.238354 
   79100    1256.3369   -104.87961    1.1367601   -103.74285   -4771.5382    4.4063199    4.4063199    4.4063199   -4771.5382   -42543.173    10390.768    17837.791   -2832.5343   -10269.165   -3591.7339    85.551587 
   79200    917.39967   -104.57356    0.8300825   -103.74348    1511.2769    4.4050316    4.4050316    4.4050316    1511.2769   -6044.7332   -701.09972    11279.664   -11311.753   -6362.2267    5625.3383    85.476572 
   79300    1395.5107   -104.99772    1.2626874   -103.73504    4885.4378      4.39577      4.39577      4.39577    4885.4378   -832.98181    7973.3755    7515.9197    5459.4074   -9739.9933    8243.0943    84.938558 
   79400    764.74273   -104.44223    0.6919553   -103.75028    2156.5402      4.40975      4.40975      4.40975    2156.5402   -20411.067        16755    10125.688   -7587.3992   -13362.048    7062.7145    85.751537 
   79500    1352.5086   -104.96509    1.2237782   -103.74131   -10465.711     4.407466     4.407466     4.407466   -10465.711    12280.536   -20304.644   -23373.024   -178.40754    7006.7079    16412.001    85.618362 
   79600     930.8295    -104.5797   0.84223409   -103.73747     18559.33    4.3960743    4.3960743    4.3960743     18559.33   -11405.412    39899.576    27183.825   -6440.4914   -20346.377   -6009.7381      84.9562 
   79700    1316.6332   -104.92957    1.1913174   -103.73825   -11773.565    4.4099932    4.4099932    4.4099932   -11773.565    3941.7429   -3935.0149   -35327.422   -10800.773    12209.885    4255.7983    85.765726 
   79800    1026.8613   -104.66373   0.92912569    -103.7346    7409.2218    4.4081144    4.4081144    4.4081144    7409.2218    1687.1159    5968.0375    14572.512   -1280.2898   -14280.861      -1793.6    85.656155 
   79900    1227.9737     -104.839    1.1110964    -103.7279     2186.141     4.404958     4.404958     4.404958     2186.141    9747.3934   -761.07983   -2427.8904   -16600.435   -6739.8764   -1722.8346    85.472283 
   80000    961.74494   -104.60794   0.87020703   -103.73773    438.89529    4.4020488    4.4020488    4.4020488    438.89529    7403.1866   -598.32533   -5488.1754    6199.5538   -7639.9974    4662.5893    85.303051 
   80100    1224.4271   -104.85427    1.1078874   -103.74638    4521.6784    4.3973234    4.3973234    4.3973234    4521.6784     -1538.23    27823.123   -12719.857   -11250.763   -18181.432   -808.97695    85.028639 
   80200    1008.7054   -104.66488   0.91269785   -103.75218    11463.003    4.4074751    4.4074751    4.4074751    11463.003    13939.512     12940.26    7509.2362   -8101.7488    6811.2632    -250.6595    85.618894 
   80300    963.87515   -104.61934   0.87213449    -103.7472   -10986.666    4.4110808    4.4110808    4.4110808   -10986.666   -21693.889    24144.537   -35410.644   -2174.7425   -23969.284   -4964.9556    85.829196 
   80400    1094.0221   -104.72249   0.98989419   -103.73259    20858.728    4.3991537    4.3991537    4.3991537    20858.728    60663.891    6680.2201   -4767.9272   -19636.243    11457.184    1935.2073    85.134857 
   80500    1021.6522   -104.66043   0.92441237   -103.73602   -9263.6339    4.4028976    4.4028976    4.4028976   -9263.6339   -13682.046    17551.045   -31659.901    9087.6128   -32378.535   -6120.6494    85.352405 
   80600    1171.4334   -104.79222    1.0599376   -103.73228   -8094.6296    4.4069883    4.4069883    4.4069883   -8094.6296   -5752.5051    22980.071   -41511.454   -10761.938    11373.453    2820.3694    85.590528 
   80700    1068.0952   -104.70741   0.96643502   -103.74097   -8495.6915    4.4088326    4.4088326    4.4088326   -8495.6915    24474.651   -9213.4192   -40748.306     9983.559   -16916.574   -5099.3507    85.698027 
   80800    1363.5593   -104.97084    1.2337771   -103.73706   -16778.126    4.4068634    4.4068634    4.4068634   -16778.126   -12567.245    5953.9708   -43721.103   -3972.9017   -5176.0523    3355.6834     85.58325 
   80900    1026.2871   -104.68096   0.92860612   -103.75235   -2049.1207    4.3931065    4.3931065    4.3931065   -2049.1207    33937.883   -5921.7269   -34163.518   -5725.7179    19185.324    8713.8802    84.784253 
   81000    1380.1179   -105.00156    1.2487597    -103.7528    19686.629    4.3982376    4.3982376    4.3982376    19686.629    39472.243    43282.785   -23695.142   -4467.9596     -13220.4   -1031.0847     85.08168 
   81100    575.85368   -104.28388   0.52104451   -103.76283   -11415.629     4.419043     4.419043     4.419043   -11415.629   -1752.9584    13154.849   -45648.777   -6826.2572    27909.571    22221.781    86.294813 
   81200    1356.2523   -104.95684    1.2271656   -103.72967     16738.89    4.4074172    4.4074172    4.4074172     16738.89    44148.971    13756.508   -7688.8106    339.24701   -13351.462   -113.14074    85.615519 
   81300    821.88226   -104.47669   0.74365634   -103.73304    2826.9607     4.401323     4.401323     4.401323    2826.9607   -290.17928    23669.032   -14897.971   -7163.8395    23244.835    16968.617    85.260864 
   81400     1132.201   -104.75506    1.0244393   -103.73062    4989.0485    4.4112884    4.4112884    4.4112884    4989.0485        15430   -12845.333    12382.479    2360.2173    3494.2637    5682.2325    85.841311 
   81500    1232.5832    -104.8465    1.1152672   -103.73124   -11481.215    4.4126867    4.4126867    4.4126867   -11481.215   -23224.773   -20540.465    9321.5916    1566.8656    11580.729    9196.5569    85.922972 
   81600     870.7937   -104.51977   0.78791244   -103.73186   -1729.7264    4.4104849    4.4104849    4.4104849   -1729.7264   -6834.6062    549.62524    1095.8017    60.695336    8485.1186    7061.9914    85.794418 
   81700    1595.3757   -105.16239    1.4435294   -103.71886   -12461.232    4.4078124    4.4078124    4.4078124   -12461.232   -15256.783   -14841.346   -7285.5681   -3655.9607   -6558.5291   -2610.9259    85.638548 
   81800    845.03536   -104.49967   0.76460576   -103.73507   -24242.219    4.4101564    4.4101564    4.4101564   -24242.219   -25426.131   -13457.133   -33843.394    1636.0836    17620.496    1190.5701    85.775248 
   81900    1532.5442   -105.11226    1.3866782   -103.72558    10669.215    4.4046808    4.4046808    4.4046808    10669.215    9610.9636   -19619.136    42015.817    -4428.556   -8863.8546   -3938.5609     85.45615 
   82000     782.3705   -104.45392   0.70790527   -103.74601   -12474.831    4.4078945    4.4078945    4.4078945   -12474.831   -24121.555    -8145.538   -5157.3992   -8378.5836    22967.605    17098.979    85.643334 
   82100      1281.93   -104.89285    1.1599172   -103.73294    11874.143    4.4176678    4.4176678    4.4176678    11874.143   -3217.1705    14547.386    24292.213    1555.7704   -15119.293    17452.067     86.21427 
   82200    574.90057     -104.259   0.52018212   -103.73881   -6222.7199    4.4160472    4.4160472    4.4160472   -6222.7199   -54656.456    37347.818   -1359.5223   -6571.5672    16730.037    22337.796    86.119424 
   82300    1076.1311   -104.69738   0.97370599   -103.72367    21684.346    4.4006826    4.4006826    4.4006826    21684.346   -2432.5478    60887.905    6597.6791    9952.0226   -1504.9146    21662.892     85.22365 
   82400    1053.2168   -104.69337   0.95297265    -103.7404     4338.991    4.4052008    4.4052008    4.4052008     4338.991   -35529.308    37039.554    11506.727   -17304.382    15883.853    13599.776     85.48642 
   82500    1008.3855   -104.64603   0.91240841   -103.73362   -7768.4394    4.4299045    4.4299045    4.4299045   -7768.4394   -18723.234   -23508.698    18926.614   -43.273159    6016.2496    7417.3157    86.932683 
   82600    1374.7145   -104.95441    1.2438706   -103.71054   -15052.135    4.4196234    4.4196234    4.4196234   -15052.135   -15944.884   -24862.522   -4348.9971   -8694.7067     13167.47   -9915.0385     86.32882 
   82700    1175.4849   -104.76809    1.0636035   -103.70449   -10157.826    4.3977765    4.3977765    4.3977765   -10157.826    3780.6194    -22778.24   -11475.857   -5899.9268    16735.427     10071.39    85.054923 
   82800    1617.7866    -105.1764    1.4638073   -103.71259   -10166.036    4.4063016    4.4063016    4.4063016   -10166.036   -17186.299   -1906.1664   -11405.642   -6937.7618    6011.4384   -13074.664    85.550521 
   82900    951.81546   -104.58974   0.86122263   -103.72851   -45662.522     4.426525     4.426525     4.426525   -45662.522    -35909.61   -53285.847   -47792.109   -12272.775    27717.698    7961.8852    86.733875 
   83000    1554.4897   -105.12883    1.4065349    -103.7223    1725.7079    4.4037975    4.4037975    4.4037975    1725.7079   -7930.9995    2587.6153    10520.508   -705.27624   -7128.2312   -5415.0017    85.404748 
   83100     564.0785   -104.25361   0.51039008   -103.74322    13195.655    4.3955869    4.3955869    4.3955869    13195.655   -8580.3419    15039.207    33128.099   -4054.6863    22667.214    13247.469    84.927944 
   83200    1370.1058   -104.98593    1.2397005   -103.74623   -1907.1479    4.4107483    4.4107483    4.4107483   -1907.1479   -34941.634    11266.361    17953.829   -3567.5948   -770.49031    12758.157    85.809789 
   83300    575.20049   -104.26507   0.52045349   -103.74461   -5566.5147    4.4262666    4.4262666    4.4262666   -5566.5147   -19425.959     27930.13   -25203.715    11156.194   -3848.6655    2183.5659    86.718687 
   83400    1227.4432   -104.84325    1.1106164   -103.73263   -1341.5142    4.4004175    4.4004175    4.4004175   -1341.5142   -16260.763    29940.364   -17704.143    2763.5649    5994.5754    16107.404    85.208249 
   83500    1210.8247   -104.83054    1.0955796   -103.73497    3696.2387    4.3949215    4.3949215    4.3949215    3696.2387    23862.781    7385.1673   -20159.232    722.84662   -2294.7804   -20394.884    84.889383 
   83600    1100.2599   -104.73926   0.99553831   -103.74373   -32553.785    4.4214858    4.4214858    4.4214858   -32553.785   -36384.302   -24210.319   -37066.733   -1743.6594    14140.748    3834.8009    86.438001 
   83700    1252.1034   -104.85141    1.1329294   -103.71849    -9398.106    4.4213275    4.4213275    4.4213275    -9398.106    5562.3853   -14873.907   -18882.797     11224.94   -11917.829   -11060.941    86.428716 
   83800    1159.6126   -104.77065    1.0492419   -103.72141    -32420.08     4.407149     4.407149     4.407149    -32420.08    -44363.96   -4559.3352   -48336.945   -4005.3797    17931.942    -10469.57    85.599888 
   83900    1131.7749   -104.74936    1.0240537    -103.7253    32900.326     4.395072     4.395072     4.395072    32900.326    33104.949    42996.663    22599.367    8190.8367   -6002.5756    4872.9902    84.898103 
   84000    776.55911   -104.45736   0.70264701   -103.75471   -3502.2261    4.4058569    4.4058569    4.4058569   -3502.2261   -32460.956    49204.162   -27249.885    -3664.128    8150.1349   -8804.5852    85.524624 
   84100    1166.5206   -104.79833    1.0554923   -103.74284    13252.761    4.4186636    4.4186636    4.4186636    13252.761    157.09457    47830.558   -8229.3701     7703.655    561.08484   -2535.9164    86.272588 
   84200     1148.214   -104.78068    1.0389282   -103.74175   -26105.383    4.4067951    4.4067951    4.4067951   -26105.383   -39636.785    5074.3428   -43753.708    6031.3225    2678.2869   -3777.9413    85.579272 
   84300    1158.3568    -104.7831    1.0481056   -103.73499    21837.978    4.3893361    4.3893361    4.3893361    21837.978    16176.158    43051.155    6286.6229   -4758.7246    10064.148   -14092.356    84.566142 
   84400    1127.6095   -104.76517    1.0202848   -103.74489   -7668.9776    4.4098395    4.4098395    4.4098395   -7668.9776   -18308.886    30686.685   -35384.732    11410.821    7738.4193    10916.774    85.756759 
   84500    983.15279   -104.63411   0.88957731   -103.74453   -13395.142    4.4165557    4.4165557    4.4165557   -13395.142   -32479.141    48514.748   -56221.032    88.586418    8158.4436   -11903.149    86.149178 
   84600    1205.6693   -104.82494    1.0909149   -103.73402     18874.42    4.3984307    4.3984307    4.3984307     18874.42   -244.50008    70741.811    -13874.05   -1475.1295    512.28087    20024.654    85.092886 
   84700    928.16566   -104.59011    0.8398238   -103.75028    -19415.73    4.3977032    4.3977032    4.3977032    -19415.73    -32896.36    3282.9865   -28633.817   -1430.2682    8711.0764   -2406.6386    85.050673 
   84800     1516.727   -105.11706    1.3723664    -103.7447    399.19366    4.4084017    4.4084017    4.4084017    399.19366    6025.9687    4359.1884   -9187.5761    5123.6183    54.583988    5926.7819    85.672906 
   84900    957.27783   -104.61572    0.8661651   -103.74956   -24846.904    4.4179698    4.4179698    4.4179698   -24846.904   -55417.755    33055.036   -52177.992   -5650.9706    6512.2169   -1233.5555    86.231956 
   85000     1081.559   -104.70834   0.97861733   -103.72972    32196.178    4.4019029    4.4019029    4.4019029    32196.178    130.94364    86377.898    10079.691   -2439.0038    -2734.924   -16358.552    85.294566 
   85100    969.71726   -104.61839   0.87742055   -103.74097    -6984.782    4.4093162    4.4093162    4.4093162    -6984.782   -35892.885    36811.932   -21873.393   -6281.7958    10803.712   -6749.9437    85.726229 
   85200    1451.5198   -105.04374    1.3133656   -103.73037    -6256.659    4.4141024    4.4141024    4.4141024    -6256.659   -20035.213    1006.2369    258.99898    3276.3527   -6881.3422   -14363.142    86.005693 
   85300    796.98075   -104.46079   0.72112493   -103.73967    10780.038    4.4013987    4.4013987    4.4013987    10780.038   -14745.067    50065.196   -2980.0148    3235.1717    15084.628    3436.8198    85.265262 
   85400    1288.6731   -104.91326    1.1660185   -103.74724    3778.5443    4.4020609    4.4020609    4.4020609    3778.5443   -18515.792    34938.884   -5087.4588    3501.0403    -18151.66   -4288.2359     85.30375 
   85500    922.64721   -104.58497   0.83483058   -103.75014    21526.399    4.4068861    4.4068861    4.4068861    21526.399    -10229.85    78062.895   -3253.8471    2207.9429    15924.455   -1008.4703    85.584571 
   85600    1124.5212   -104.76404    1.0174904   -103.74655   -25271.279    4.4100919    4.4100919    4.4100919   -25271.279   -49798.364    9849.1613   -35864.634    1249.4547   -13231.333    -528.3322    85.771484 
   85700    1386.6394   -104.98389    1.2546605   -103.72923    18232.198    4.4026793    4.4026793    4.4026793    18232.198    2545.0021    50789.708    1361.8839    5832.8009    9446.9594   -12658.549    85.339711 
   85800    1102.0662   -104.73887   0.99717268    -103.7417    -34055.07    4.4131339    4.4131339    4.4131339    -34055.07   -56902.115    8522.4257   -53785.521   -2132.2716    -9936.767   -10378.848    85.949099 
   85900    1631.8006   -105.20102    1.4764875   -103.72453   -8076.2147    4.4125654    4.4125654    4.4125654   -8076.2147   -28606.419    11386.229   -7008.4549   -1475.0456   -2458.1442   -260.25425    85.915887 
   86000     955.1964   -104.59372   0.86428178   -103.72944   -6997.6282    4.4059533    4.4059533    4.4059533   -6997.6282   -47164.069    21544.379    4626.8059    55.247014    8541.7559   -1285.0557    85.530237 
   86100     900.7867   -104.54586   0.81505074   -103.73081    21412.127    4.4123503    4.4123503    4.4123503    21412.127   -49130.403    64806.501    48560.282   -11759.504   -8436.4616    17694.688    85.903321 
   86200    755.41616   -104.41065   0.68351641   -103.72713    18581.395     4.411378     4.411378     4.411378    18581.395   -48297.041    52929.847    51111.379    2658.4635    11146.071    21222.567    85.846543 
   86300    863.97467   -104.51135   0.78174244   -103.72961    6367.3783     4.403961     4.403961     4.403961    6367.3783   -45451.548    49206.334    15347.349   -2086.8706   -12125.703    9993.5723    85.414263 
   86400    1620.2238    -105.1909    1.4660125   -103.72489   -10293.141    4.4079815    4.4079815    4.4079815   -10293.141   -38924.239    16300.159    -8255.343    1195.7752    6604.4762    1847.6207    85.648406 
   86500    863.76522   -104.52131   0.78155292   -103.73976   -18957.414    4.4117558    4.4117558    4.4117558   -18957.414   -73025.446    36550.718   -20397.514    1033.7269   -14965.465   -8712.6185      85.8686 
   86600    1727.4478   -105.28816    1.5630311   -103.72513   -12321.074    4.4048202    4.4048202    4.4048202   -12321.074   -36666.947    7563.1958   -7859.4703    3381.8211    3065.8294    4633.8076    85.464263 
   86700    723.54421   -104.39762   0.65467801   -103.74294    2696.0815     4.398055     4.398055     4.398055    2696.0815   -55663.468    74482.447   -10730.734      2741.98   -23947.503    2690.3406    85.071082 
   86800    1180.9508   -104.81048    1.0685491   -103.74193     17394.59    4.4065177    4.4065177    4.4065177     17394.59   -28831.456     6116.823    74898.402   -2915.7547    3872.1635     23134.82     85.56311 
   86900    719.73645   -104.39796   0.65123267   -103.74672    16798.704    4.4049269    4.4049269    4.4049269    16798.704   -41096.774    39472.133    52020.754    7721.8069   -21162.797    12322.897    85.470476 
   87000    1154.0158   -104.78474    1.0441777   -103.74056   -15032.944    4.4070453    4.4070453    4.4070453   -15032.944   -48215.835    24004.684    -20887.68   -1215.1842    5110.3838    1107.3927    85.593846 
   87100     1475.692   -105.06732    1.3352371   -103.73209   -2888.0812    4.3996056    4.3996056    4.3996056   -2888.0812   -34631.781    14403.126    11564.412    6821.8299   -11744.141   -6365.4417    85.161097 
   87200    676.46663   -104.35707   0.61208123   -103.74499   -13438.354    4.4040074    4.4040074    4.4040074   -13438.354   -60313.842    15746.667    4252.1136    -4417.254    8853.7996   -12113.218     85.41696 
   87300    1421.7393    -105.0172    1.2864196   -103.73078    6924.3983    4.4014212    4.4014212    4.4014212    6924.3983   -11165.207   -22507.207    54445.609   -2778.0771    11739.413     1087.969    85.266567 
   87400    832.71651   -104.49817    0.7534594   -103.74471    -17835.52    4.3997395    4.3997395    4.3997395    -17835.52   -66060.012    18964.713   -6411.2611   -6707.6546   -5808.3293    6121.1942    85.168869 
   87500    1538.9946   -105.13031    1.3925147   -103.73779   -15431.569     4.401797     4.401797     4.401797   -15431.569   -27604.271   -10762.052   -7928.3844   -13839.172     11607.45    27.190107    85.288414 
   87600    1086.5174    -104.7252   0.98310376    -103.7421    6670.1513    4.3916967    4.3916967    4.3916967    6670.1513   -35062.139    27707.843     27364.75    1045.4654   -16662.702   -711.31829    84.702653 
   87700    692.42599   -104.38128   0.62652158   -103.75476     15876.64    4.4030085    4.4030085    4.4030085     15876.64   -51758.298    58981.733    40406.487   -9177.1372    15873.047    -13008.06    85.358853 
   87800    1361.4124     -104.964    1.2318345   -103.73217    5469.0567    4.4068683    4.4068683    4.4068683    5469.0567   -23222.432    2211.9495    37417.653   -1411.5628   -8672.6868   -13466.737    85.583532 
   87900    696.55537   -104.37186   0.63025793    -103.7416   -7456.5696    4.3921121    4.3921121    4.3921121   -7456.5696   -54762.422    65496.781   -33104.068    1040.1123    16757.364   -2982.0275    84.726694 
   88000    1602.7093   -105.18263    1.4501651   -103.73247    22606.782    4.3867292    4.3867292    4.3867292    22606.782      2716.43    17842.793    47261.123    2857.0583   -2062.3515    1350.4277    84.415555 
   88100    719.88748   -104.40828   0.65136932   -103.75691   -18679.264     4.409417     4.409417     4.409417   -18679.264     -50923.8    23805.238   -28919.231    5504.1048    11089.632    7353.2815    85.732111 
   88200    1209.0853   -104.83034    1.0940058   -103.73634   -1946.0182    4.4064355    4.4064355    4.4064355   -1946.0182   -33140.786   -4843.9917    32146.723    8520.8574   -946.14204   -3132.3107    85.558323 
   88300    1062.9716   -104.69208   0.96179905   -103.73028     14921.16    4.3789851    4.3789851    4.3789851     14921.16    14884.779    12920.957    16957.744    3014.5029    266.25368    2345.1408    83.969273 
   88400    1039.6038   -104.68743   0.94065538   -103.74677   -10087.551    4.4012058    4.4012058    4.4012058   -10087.551   -23856.909     26375.47   -32781.215   -8571.9981    10682.904    -4851.062    85.254052 
   88500    1339.7581   -104.94786    1.2122413   -103.73562   -12722.878    4.4094579    4.4094579    4.4094579   -12722.878   -11107.945   -25578.808     -1481.88    6292.1797    7352.0068    1624.9765    85.734499 
   88600    712.22533   -104.39102   0.64443645   -103.74658    5066.0338    4.3912646    4.3912646    4.3912646    5066.0338   -53271.464    56109.612    12359.954   -12416.028    23297.645     2583.707    84.677656 
   88700    1268.4997   -104.89166    1.1477652   -103.74389    16682.586    4.3941609    4.3941609    4.3941609    16682.586   -8184.0092    19602.236    38629.531    7717.2824   -5181.1466    5370.3206    84.845314 
   88800    1060.0876   -104.70697   0.95918956   -103.74778   -26326.827    4.4059787    4.4059787    4.4059787   -26326.827   -58080.456    11804.155   -32704.179    2458.9425    17563.657    7692.8366    85.531713 
   88900    1194.2964   -104.81738    1.0806245   -103.73676   -4450.5801    4.4017518    4.4017518    4.4017518   -4450.5801   -30585.174    20892.296   -3658.8626    1422.5535   -6736.2199   -10064.922    85.285784 
   89000     1236.289   -104.85541    1.1186203   -103.73679   -15566.113    4.3991305    4.3991305    4.3991305   -15566.113   -29240.142    -14750.39   -2707.8082    2884.9681     14592.17   -1153.8035    85.133507 
   89100    1062.2889   -104.70053   0.96118134   -103.73935   -1939.7251    4.3981789    4.3981789    4.3981789   -1939.7251   -29780.115    23857.645    103.29484   -6626.6709    848.22041    931.73515    85.078276 
   89200    1144.6054   -104.77219     1.035663   -103.73652   -5723.0885    4.3995978    4.3995978    4.3995978   -5723.0885   -9892.0261   -25721.811    18444.572    2666.6359    6224.4342    13627.184    85.160642 
   89300    1033.0883   -104.67854   0.93475996   -103.74378   -3875.2261    4.3970824    4.3970824    4.3970824   -3875.2261    -22981.39    41476.828   -30121.116   -6491.3972     6600.155    6295.8884    85.014659 
   89400    1270.3185   -104.89092    1.1494109   -103.74151    5695.8676     4.401537     4.401537     4.401537    5695.8676   -4629.4927    15161.377    6555.7186   -6805.1752   -8622.1272   -1475.3571    85.273299 
   89500    594.27036   -104.28532   0.53770831   -103.74762    2937.8447    4.4030132    4.4030132    4.4030132    2937.8447   -33122.775      51087.9   -9151.5904   -3704.6919    7660.6434   -8428.4457    85.359124 
   89600    1327.1421   -104.93337    1.2008261   -103.73254    19313.271     4.400538     4.400538     4.400538    19313.271   -8339.2435    28369.686    37909.372   -5712.7291   -10308.998   -12379.971    85.215252 
   89700    687.72655    -104.3639   0.62226944   -103.74163    1013.6848    4.4016463    4.4016463    4.4016463    1013.6848   -20654.935    14514.298    9181.6912    3555.5408    10566.902   -8831.7081    85.279653 
   89800    1465.5682   -105.05897    1.3260769   -103.73289   -4524.7099    4.4070697    4.4070697    4.4070697   -4524.7099   -6640.4142    132.07218   -7065.7876    2892.8742   -868.54738     4484.223    85.595266 
   89900    1220.9598   -104.84427    1.1047501   -103.73952    -12914.97    4.4000458    4.4000458    4.4000458    -12914.97   -14502.153   -5718.5899   -18524.167    8504.4943    8856.8573   -5706.6449    85.186657 
   90000    1019.2975   -104.66734    0.9222818   -103.74506   -1580.4487    4.3956942    4.3956942    4.3956942   -1580.4487    4133.3725   -602.54325   -8272.1754     5449.298    6299.3575    6905.8247    84.934162 
   90100    1414.6055   -105.02022    1.2799648   -103.74025    12556.361    4.3992697    4.3992697    4.3992697    12556.361   -9955.8194    11265.768    36359.136    4140.8885   -1137.4685   -11588.297    85.141588 
   90200    598.50451   -104.29508   0.54153946   -103.75354    4331.7083    4.3976364    4.3976364    4.3976364    4331.7083   -31163.268     42884.43    1273.9636    3943.6201    13590.584   -4261.4863    85.046799 
   90300    1608.6967   -105.19373    1.4555826   -103.73815   -301.96219    4.4072864    4.4072864    4.4072864   -301.96219   -16845.416    22654.525   -6714.9955   -816.31216   -5469.8708   -4592.1592    85.607893 
   90400    769.10766   -104.44875   0.69590478   -103.75285   -12959.892    4.3986379    4.3986379    4.3986379   -12959.892   -33898.772    29336.577    -34317.48    6378.8863    20334.088   -10244.112    85.104915 
   90500    1387.6564   -104.99739    1.2555807   -103.74181    29891.903    4.3871612    4.3871612    4.3871612    29891.903    -1434.286    54990.821    36119.174   -7441.8231     -10085.3    11374.228    84.440496 
   90600    838.65942   -104.50747   0.75883667   -103.74863   -18193.051    4.4122137    4.4122137    4.4122137   -18193.051   -29877.979   -1591.3141   -23109.859   -1170.2655     23514.65   -15548.625    85.895344 
   90700     1076.887   -104.71558   0.97438998   -103.74119    3092.5093    4.4044752    4.4044752    4.4044752    3092.5093   -24979.228    37213.687    -2956.931   -1338.0922   -2086.1985   -3841.2921    85.444186 
   90800    916.38824   -104.56817   0.82916734     -103.739    30359.388     4.381005     4.381005     4.381005    30359.388    27489.421    47961.687    15627.057   -12010.664    1871.4432   -3231.5176    84.085527 
   90900    1219.0796   -104.85709    1.1030489   -103.75404   -23751.114    4.3970872    4.3970872    4.3970872   -23751.114    -24230.85   -11379.095   -35643.398    4004.0921    14882.144   -6842.4875    85.014935 
   91000    1267.7975   -104.88592    1.1471298   -103.73879   -6694.0739    4.4191055    4.4191055    4.4191055   -6694.0739    -9986.876   -1407.3865   -8687.9594    -11879.44   -13334.895    12238.055     86.29847 
   91100    1107.2308   -104.73824    1.0018457   -103.73639   -28975.529    4.4035451    4.4035451    4.4035451   -28975.529   -22784.298    -9624.261   -54518.026    1055.9675    9679.1813   -7469.6474    85.390065 
   91200    1436.5544   -105.02429    1.2998246   -103.72446    15497.121     4.385094     4.385094     4.385094    15497.121    -6027.243    28846.249    23672.358   -8098.2735   -8539.8522    6955.3556    84.321187 
   91300    730.42084   -104.40893   0.66090012   -103.74803    4173.7885    4.4017948    4.4017948    4.4017948    4173.7885   -15804.486    25317.404    3008.4475    -8611.032    3058.0683   -14219.362    85.288282 
   91400    1221.3843   -104.83819    1.1051342   -103.73306    2423.5282    4.4192857    4.4192857    4.4192857    2423.5282   -33628.552    18487.003    22412.134    5693.8467    1867.6084   -13849.894    86.309029 
   91500     837.2517   -104.48672   0.75756293   -103.72916    2198.7243    4.4060083    4.4060083    4.4060083    2198.7243    -33966.56    15560.539    25002.194   -6848.2639    12672.427   -15143.937    85.533439 
   91600    798.18705   -104.45211   0.72221641   -103.72989    28182.347     4.386326     4.386326     4.386326    28182.347    17025.161    51936.663    15585.218    6592.8944    9625.2841   -22405.444    84.392278 
   91700    1528.9294   -105.11203    1.3834075   -103.72862   -5615.0253    4.4057753    4.4057753    4.4057753   -5615.0253   -23027.837    10420.014   -4237.2534      9045.95    9642.6884   -4184.2792    85.519868 
   91800    513.13114   -104.21259   0.46429184    -103.7483   -19852.384    4.4056386    4.4056386    4.4056386   -19852.384   -25542.686    2804.0734    -36818.54   -6997.9725    20231.458    -12288.23    85.511909 
   91900    1757.2604   -105.31967    1.5900061   -103.72966    5522.9655    4.3892677    4.3892677    4.3892677    5522.9655     12280.04   -2793.1533    7082.0101    4352.2994   -8824.2377   -1646.0737    84.562187 
   92000    826.59807   -104.50364    0.7479233   -103.75572   -5007.9068    4.3956853    4.3956853    4.3956853   -5007.9068    -40067.23     47226.84   -22183.331   -10505.996    20044.308    -8848.144    84.933648 
   92100     1042.212   -104.69552   0.94301534    -103.7525    593.05853    4.4034806    4.4034806    4.4034806    593.05853    -14932.83    18580.188   -1868.1832    5573.0091   -9713.2386   -20454.343    85.386315 
   92200    1198.9638   -104.82969    1.0848476   -103.74484   -11180.972    4.4067174    4.4067174    4.4067174   -11180.972   -40987.684    19179.295   -11734.528    12375.679    12641.495    1610.7266    85.574744 
   92300    1197.0956    -104.8208    1.0831573   -103.73765   -10558.901    4.3973006    4.3973006    4.3973006   -10558.901   -12324.662   -5753.8183   -13598.224   -1238.5905    3718.5342   -19233.873    85.027313 
   92400    1187.1669   -104.81159    1.0741736   -103.73742    10900.747    4.3942116    4.3942116    4.3942116    10900.747   -16225.149    42959.731    5967.6592    21141.009    11052.157    16986.198    84.848252 
   92500    994.98284   -104.64728   0.90028138   -103.74699   -18889.911    4.4061547    4.4061547    4.4061547   -18889.911   -33503.739    20443.293   -43609.286   -10757.506    15403.304   -11361.817    85.541968 
   92600    1000.5886   -104.64349    0.9053536   -103.73814    7603.8253    4.4055028    4.4055028    4.4055028    7603.8253   -4297.8647    9924.0073    17185.333    10483.475   -10344.591    8502.2336    85.504002 
   92700    1085.0955   -104.71762    0.9818172    -103.7358   -8808.2832    4.3928047    4.3928047    4.3928047   -8808.2832   -10196.006   -1894.5313   -14334.312   -5121.9758     21990.68    -12850.74    84.766778 
   92800    1197.8498   -104.82648    1.0838397   -103.74264   -7422.2988    4.3912561    4.3912561    4.3912561   -7422.2988    6661.6084   -33114.902    4186.3969    205.01733   -12555.749   -2752.0337    84.677161 
   92900     950.0524   -104.60685   0.85962738   -103.74723    8613.7745     4.402559     4.402559     4.402559    8613.7745   -31119.042    33101.174    23859.191    21539.581    7294.6187    9451.2488    85.332714 
   93000    957.28333   -104.61115   0.86617008   -103.74498   -11838.957    4.4081061    4.4081061    4.4081061   -11838.957   -33159.254    24046.142    -26403.76   -12488.039    551.21429   -11721.656    85.655673 
   93100    1137.3823   -104.76687    1.0291274   -103.73774    7275.7634    4.3928201    4.3928201    4.3928201    7275.7634   -31069.659    32452.491    20444.458    23970.301   -1256.1834     14114.33    84.767672 
   93200    1191.2576   -104.82353    1.0778749   -103.74566    -3180.683    4.3923909    4.3923909    4.3923909    -3180.683   -27411.678    10731.976    7137.6529   -16071.977    8889.6721   -23583.265    84.742827 
   93300    945.34324   -104.61288   0.85536643   -103.75751   -10207.438    4.4000611    4.4000611    4.4000611   -10207.438   -45390.463     28602.06    -13833.91    12240.027    -1958.753   -14310.185    85.187546 
   93400    1235.0055   -104.86749    1.1174589   -103.75003    2113.4734    4.4027268    4.4027268    4.4027268    2113.4734   -36919.198    50389.122   -7129.5044    9230.9069    8569.3915   -4214.7247    85.342471 
   93500    1037.0808   -104.69258   0.93837251   -103.75421   -16932.026     4.400084     4.400084     4.400084   -16932.026   -20041.734   -3598.0352    -27156.31    1891.1645   -3178.2531   -15167.833    85.188879 
   93600    1302.0579   -104.92885    1.1781293   -103.75073    8227.4281    4.3933362    4.3933362    4.3933362    8227.4281   -27299.418    55461.328   -3479.6254    23625.447    9755.2779    14192.563    84.797553 
   93700    995.29533   -104.65629   0.90056413   -103.75572    772.87762    4.4048458    4.4048458    4.4048458    772.87762   -9784.9826    45542.592   -33438.977   -8424.0883   -4675.2878   -26010.484    85.465756 
   93800    1056.0703   -104.70967   0.95555464   -103.75411   -17286.299    4.3998789    4.3998789    4.3998789   -17286.299   -29359.646   -14554.127   -7945.1227    17834.645    6367.4826    -5760.998    85.176964 
   93900    1323.9942   -104.94809    1.1979778   -103.75011    10829.283    4.3908363    4.3908363    4.3908363    10829.283   -13763.377    46243.842    7.3828804   -14099.759    2110.8474   -499.66859     84.65288 
   94000    732.03664   -104.42319   0.66236213   -103.76083   -11978.155    4.4117958    4.4117958    4.4117958   -11978.155   -32352.174    11229.626   -14811.916    9495.2333     1092.959   -5472.7762    85.870941 
   94100     1189.108   -104.82003    1.0759299    -103.7441    3209.0094    4.4005862    4.4005862    4.4005862    3209.0094   -40239.678    18372.497     31494.21    13493.142    7009.3635     14457.31    85.218051 
   94200    1011.7603   -104.66654   0.91546202   -103.75108   -8609.1135    4.3957135    4.3957135    4.3957135   -8609.1135   -17736.214    3245.1668   -11336.293    1989.2407   -8015.9034   -37794.673    84.935282 
   94300     993.0541   -104.64896   0.89853622   -103.75042    2902.1418    4.4039038    4.4039038    4.4039038    2902.1418   -39864.301    32665.385    15905.342    27497.647    637.24599    4535.6496    85.410935 
   94400    1300.9983   -104.92475    1.1771706   -103.74758    -10066.91    4.3969812    4.3969812    4.3969812    -10066.91   -22769.354   -13844.682    6413.3045   -12606.203   -5032.7449   -16880.798    85.008788 
   94500    883.22187   -104.55815   0.79915771     -103.759   -15273.062    4.4069505    4.4069505    4.4069505   -15273.062   -18973.712   -4940.8255   -21904.649    18960.582   -4926.2301   -3165.1428    85.588321 
   94600     1367.281   -104.98206    1.2371446   -103.74492    15737.191    4.3943532    4.3943532    4.3943532    15737.191   -20325.243     28755.07    38781.745   -5576.5132   -4947.1874     3445.562    84.856456 
   94700    709.78795   -104.40111   0.64223106   -103.75888    4372.8794    4.4023087    4.4023087    4.4023087    4372.8794   -17607.424    36011.908   -5285.8457    14406.313    -2577.391   -30283.705    85.318158 
   94800    1544.6496   -105.13728    1.3976314   -103.73965   -17616.103     4.418313     4.418313     4.418313   -17616.103   -35887.079   -8709.0043    -8252.227    12105.596   -7222.6881    9452.4502     86.25205 
   94900    1028.2371   -104.67325    0.9303705   -103.74287    11826.975    4.3941936    4.3941936    4.3941936    11826.975    -7022.501    21413.919    21089.507    7854.4254   -4437.9434   -21080.797    84.847208 
   95000    1097.6714   -104.74303   0.99319612   -103.74983     16309.24    4.3976558    4.3976558    4.3976558     16309.24   -19793.093     67917.03    803.78297    17518.466    3529.4202    11360.063    85.047919 
   95100    1381.9939   -104.99457    1.2504571   -103.74411   -5825.0364    4.4113214    4.4113214    4.4113214   -5825.0364   -28879.743    25067.786   -13663.151   -11877.703   -3770.0928   -15957.785    85.843241 
   95200    875.67719   -104.54161   0.79233113   -103.74928    1916.1877     4.410579     4.410579     4.410579    1916.1877   -39089.886    28892.888    15945.561    16067.859    -1422.653   -21784.968    85.799907 
   95300    1313.7733   -104.93086    1.1887297   -103.74213   -642.56306    4.4071834    4.4071834    4.4071834   -642.56306   -33781.853    30333.616    1520.5474   -2709.8623   -2747.6346   -7206.2952    85.601894 
   95400    832.39643   -104.50426   0.75316978   -103.75109    6757.9611    4.3990588    4.3990588    4.3990588    6757.9611   -20545.799    33630.819    7188.8627    11088.155    1105.3551   -10805.763    85.129345 
   95500    1361.4374   -104.98286    1.2318572     -103.751   -9589.0209    4.4116703    4.4116703    4.4116703   -9589.0209   -46099.096    14906.841    2425.1917    8552.6129    362.37734    18674.279    85.863612 
   95600    933.57451   -104.59152   0.84471784   -103.74681   -12916.879    4.4193215    4.4193215    4.4193215   -12916.879   -32152.222    19796.493   -26394.907   -11207.138    449.59795   -11373.748    86.311127 
   95700    1262.5296   -104.87734    1.1423633   -103.73498   -5428.7235    4.4004536    4.4004536    4.4004536   -5428.7235   -31843.711   -6426.8728    21984.414    19331.415   -1370.8752   -3628.8738    85.210345 
   95800    1134.6539   -104.77131    1.0266587   -103.74465    11086.443     4.396709     4.396709     4.396709    11086.443   -2252.1329    57043.195   -21531.734   -12039.451   -1199.6054   -7554.1539    84.993004 
   95900    1126.1469   -104.77228    1.0189614   -103.75332   -15008.319    4.4082675    4.4082675    4.4082675   -15008.319   -38819.327     23231.74   -29437.369    25408.472    7001.8921   -6835.5766    85.665081 
   96000    1206.8655   -104.83502    1.0919973   -103.74302    7921.5753    4.4124376    4.4124376    4.4124376    7921.5753   -10909.885    40550.766   -5876.1547   -6060.1438   -3087.3963    19796.183    85.908421 
   96100     1070.568   -104.70881   0.96867243   -103.74014   -19485.202    4.4078911    4.4078911    4.4078911   -19485.202   -24696.255   -42072.499    8313.1492    18335.606    5614.0385   -2518.3292     85.64314 
   96200    1091.0152   -104.71737    0.9871735    -103.7302     24218.45    4.4002402    4.4002402    4.4002402     24218.45   -28183.465    49999.311    50839.504    6337.6544    6670.1829    3939.6489    85.197949 
   96300    1095.2167   -104.72877   0.99097507   -103.73779   -18423.027    4.4141032    4.4141032    4.4141032   -18423.027   -44487.773   -23494.254    12712.947    4809.2239   -3010.5082   -7870.4017    86.005742 
   96400     1168.574   -104.79615    1.0573503    -103.7388    2530.3232    4.4067916    4.4067916    4.4067916    2530.3232   -33369.881    39862.138    1098.7119    12722.513   -732.25935   -6994.7134    85.579063 
   96500    1168.3796   -104.79837    1.0571744    -103.7412    11775.833    4.3919239    4.3919239    4.3919239    11775.833   -8122.0558    33701.952    9747.6035   -13461.074    2558.6806    16548.496    84.715801 
   96600     1178.787   -104.82523    1.0665913   -103.75864   -13184.026    4.4051722    4.4051722    4.4051722   -13184.026   -42504.289   -21133.237    24085.446    14715.511    3536.8182   -3653.2993    85.484753 
   96700     1087.602   -104.73267   0.98408512   -103.74858   -1286.0663    4.4163783    4.4163783    4.4163783   -1286.0663   -48650.335    37355.905    7436.2318   -14216.179    5048.5599   -11264.602    86.138799 
   96800    724.28081   -104.40461   0.65534449   -103.74926    3041.3857    4.4001218    4.4001218    4.4001218    3041.3857   -25658.254    17321.416    17460.995    8598.7537    5667.4378    12394.432    85.191074 
   96900    1435.1831   -105.04009    1.2985838   -103.74151    216.72577     4.396133     4.396133     4.396133    216.72577   -28618.656     16959.51    12309.323    3424.5859    10366.701   -7360.7528    84.959603 
   97000    849.39226   -104.52162   0.76854797   -103.75308   -9845.3602    4.4107533    4.4107533    4.4107533   -9845.3602   -27888.605    14837.674   -16485.149   -5591.3435   -1210.7352    21122.975    85.810079 
   97100    1230.9984    -104.8576    1.1138332   -103.74376   -22458.294    4.4106259    4.4106259    4.4106259   -22458.294   -46176.927   -498.24303    -20699.71    7064.9997    12703.481   -11673.352    85.802641 
   97200    1292.1864   -104.89934    1.1691974   -103.73014    4447.1465    4.3978387    4.3978387    4.3978387    4447.1465    -19665.62    16369.704    16637.356   -6370.5054   -7169.6613    4731.6388    85.058532 
   97300    658.06295   -104.34204   0.59542919   -103.74661   -264.40096    4.4073087    4.4073087    4.4073087   -264.40096   -18694.119    12515.477    5385.4391    16784.156    12989.181    13208.238    85.609197 
   97400    1348.0869    -104.9571    1.2197773   -103.73732   -5418.8375    4.4071052    4.4071052    4.4071052   -5418.8375   -21796.562   -10658.241    16198.291     -6124.08    -8869.238   -1931.8977    85.597335 
   97500    966.11288   -104.61855   0.87415924   -103.74439   -7503.6046     4.399434     4.399434     4.399434   -7503.6046    -24965.09   -18311.664     20765.94    13953.473     4415.341    7337.6271    85.151129 
   97600    1225.4015    -104.8501     1.108769   -103.74133   -6518.2444     4.405215     4.405215     4.405215   -6518.2444   -29330.285    15715.642    -5940.091   -1143.1518    10348.971    94.098119    85.487245 
   97700    1218.4391   -104.84524    1.1024693   -103.74277   -13891.091    4.4048581    4.4048581    4.4048581   -13891.091   -27516.763   -29204.137    15047.627    9721.7113   -10908.359    14197.715     85.46647 
   97800    831.37132   -104.49555   0.75224224   -103.74331    883.56675    4.4097956    4.4097956    4.4097956    883.56675   -29343.966    13207.296     18787.37    7766.6753    24529.303   -10930.675    85.754195 
   97900    1220.1228    -104.8387    1.1039927    -103.7347    5014.7459    4.3967484    4.3967484    4.3967484    5014.7459   -26793.379    9626.1815    32211.436   -1474.2949   -6419.0125   -1062.1604    84.995288 
   98000     846.3091   -104.51171   0.76575826   -103.74595    1290.1673    4.3990176    4.3990176    4.3990176    1290.1673   -26362.107    -13272.25    43504.859    17861.952    1159.4384    9024.3468    85.126957 
   98100    1364.0346   -104.97758    1.2342071   -103.74338   -12043.225    4.4086986    4.4086986    4.4086986   -12043.225    -22185.82    11396.546   -25340.401   -4747.4627    25.200187   -1445.9276    85.690213 
   98200     987.5249   -104.63765   0.89353328   -103.74412   -7717.4097    4.4054789    4.4054789    4.4054789   -7717.4097   -32727.681   -14594.487     24169.94    25800.909   -4115.0937    5563.3463    85.502614 
   98300    1403.7852   -105.00044    1.2701743   -103.73027   -12998.239    4.4105069    4.4105069    4.4105069   -12998.239   -16797.012   -853.22027   -21344.484   -8410.7094    8504.9737    4483.0344    85.795696 
   98400    972.55882   -104.61698   0.87999166   -103.73699     567.3874     4.391189     4.391189     4.391189     567.3874   -24214.541   -6719.5461    32636.249    24595.812    2037.3831   -3174.6961    84.673284 
   98500    1169.6366   -104.80621    1.0583118    -103.7479    10674.406    4.4017609    4.4017609    4.4017609    10674.406    6183.8447    6558.1888    19281.186    3645.2302    3187.9965    4022.8387    85.286311 
   98600    791.21518   -104.45757   0.71590812   -103.74167   -17923.355    4.4188246    4.4188246    4.4188246   -17923.355   -16420.767   -7048.2384   -30301.061    15549.892    4215.3044   -27906.532     86.28202 
   98700    1113.1972   -104.74086    1.0072442   -103.73361   -5098.1356    4.3983227    4.3983227    4.3983227   -5098.1356   -18022.876   -11655.487    14383.956    8817.1206    1161.1078    13325.861    85.086619 
   98800    1213.4821   -104.83023    1.0979841   -103.73224    6655.4765    4.3936186    4.3936186    4.3936186    6655.4765   -759.14393    19718.788     1006.785    1626.9626    3771.9935   -12195.713    84.813904 
   98900     813.1559   -104.48157   0.73576055   -103.74581   -17643.521    4.4097281    4.4097281    4.4097281   -17643.521   -27171.943   -40233.716    14475.097     5541.274    1251.8741   -1389.6364    85.750256 
   99000    1258.3535   -104.87418    1.1385847    -103.7356    3428.6101    4.4114318    4.4114318    4.4114318    3428.6101    -33785.71    58977.485   -14905.945   -14546.452   -2061.8131    24186.779    85.849686 
   99100    874.26593   -104.53536   0.79105418   -103.74431   -4013.6122    4.3992681    4.3992681    4.3992681   -4013.6122   -20521.756   -18162.131    26643.051    18220.197    3323.0542   -18727.724    85.141498 
   99200    1219.0154   -104.84481    1.1029907   -103.74182   -287.37999    4.4016152    4.4016152    4.4016152   -287.37999   -37208.703    26783.287    9563.2763   -20335.126   -7343.4408     12378.37    85.277848 
   99300    1373.7074   -104.98188    1.2429593   -103.73892   -4626.1297    4.4003303    4.4003303    4.4003303   -4626.1297   -28111.082   -12176.289    26408.982    16637.994     1530.062   -5730.5262    85.203183 
   99400     887.3955   -104.55385    0.8029341   -103.75092   -8502.9046    4.4059847    4.4059847    4.4059847   -8502.9046   -48491.765    15619.762    7363.2888   -11516.506   -7955.6451   -3630.6388    85.532066 
   99500    1507.6408   -105.10237     1.364145   -103.73823   -7857.7405     4.411725     4.411725     4.411725   -7857.7405   -24205.882   -13642.202    14274.862   -2799.3487   -8572.3197    13830.367    85.866802 
   99600    671.58444   -104.35724   0.60766372   -103.74958    13654.024    4.4030217    4.4030217    4.4030217    13654.024   -36298.047    42199.957    35060.164   -4557.3126   -3994.9787    -24688.86    85.359621 
   99700    1408.7351   -105.00969    1.2746531   -103.73504    2380.8216    4.4044562    4.4044562    4.4044562    2380.8216   -37188.313    15300.423    29030.356   -12448.044   -8022.0557    2213.8081    85.443078 
   99800    945.66037   -104.59327   0.85565338   -103.73762    10247.595    4.4001575    4.4001575    4.4001575    10247.595   -32031.209    34884.343     27889.65    16.669154   -5512.7636   -14422.125    85.193147 
   99900    890.40379   -104.54859   0.80565606   -103.74294    20886.966     4.405293     4.405293     4.405293    20886.966   -35996.214    19552.982     79104.13    -14004.28   -4393.1902   -2690.9591    85.491786 
  100000    1474.3589   -105.06934    1.3340309   -103.73531   -22381.624    4.4060423    4.4060423    4.4060423   -22381.624   -31828.655   -24529.277   -10786.941    5010.8795   -781.13292    7839.1369    85.535418 
Loop time of 21.0576 on 1 procs for 100000 steps with 8 atoms

Pair  time (%) = 6.4193 (30.4845)
Kspce time (%) = 5.25 (24.9316)
Neigh time (%) = 0.0251837 (0.119594)
Comm  time (%) = 0.796482 (3.78239)
Outpt time (%) = 0.0224001 (0.106375)
Other time (%) = 8.54426 (40.5756)

Nlocal:    8 ave 8 max 8 min
Histogram: 1 0 0 0 0 0 0 0 0 0
Nghost:    1684 ave 1684 max 1684 min
Histogram: 1 0 0 0 0 0 0 0 0 0
Neighs:    2018 ave 2018 max 2018 min
Histogram: 1 0 0 0 0 0 0 0 0 0

Total # of neighbors = 2018
Ave neighs/atom = 252.25
Neighbor list builds = 345
Dangerous builds = 0
unfix 20
unfix 21
print "seeds:2852252"
seeds:2852252
