LAMMPS (10 Feb 2015)
# ---- initialize simulations
clear
units metal
dimension 3
boundary p p p
atom_style charge
atom_modify map array
# ---- create atoms
read_data /Users/eugeneragasa/pyflamestk_git/pypospack/tests/tests_integration/workflow/WorkflowLammpsThermalExpansion/param_5861/MgO_NaCl_unit.npt.T500/lammps.structure
  triclinic box = (0 0 0) to (4.2565 4.2565 4.2565) with tilt (0 0 0)
  1 by 1 by 1 MPI processor grid
  reading atoms ...
  8 atoms
# ---- define interatomic potential
include potential.mod
mass 1 24.305
mass 2 15.999

group Mg type 1
4 atoms in group Mg
group O type 2
4 atoms in group O

set group Mg charge 1.63577302612
  4 settings made for charge
set group O charge -1.63577302612
  4 settings made for charge

variable R_cut equal 10.0

pair_style buck/coul/long ${R_cut}
pair_style buck/coul/long 10
pair_coeff 1 1 0.0 0.5 0.0 ${R_cut}
pair_coeff 1 1 0.0 0.5 0.0 10
pair_coeff 1 2 1558.72850733 0.278190610155 0.0 ${R_cut}
pair_coeff 1 2 1558.72850733 0.278190610155 0.0 10
pair_coeff 2 2 26609.5495557 0.148782776904 9.00084075824 ${R_cut}
pair_coeff 2 2 26609.5495557 0.148782776904 9.00084075824 10

kspace_style pppm 1.0e-5

neighbor 1.0 bin
neigh_modify every 1 delay 0 check yes
# ---- define settings
compute eng all pe/atom
compute eatoms all reduce sum c_eng
# ---- run minimization
reset_timestep 0
fix 1 all box/relax iso 0.0 vmax 0.001
thermo 10
thermo_style custom step pe lx ly lz xy xz yz press pxx pyy pzz pxy pxz pyz c_eatoms
min_style cg
minimize 1e-25 1e-25 5000 10000
PPPM initialization ...
  G vector (1/distance) = 0.352653
  grid = 8 8 8
  stencil order = 5
  estimated absolute RMS force accuracy = 3.87471e-05
  estimated relative force accuracy = 2.69083e-06
  using double precision FFTs
  3d grid and FFT values/proc = 3375 512
Neighbor list info ...
  1 neighbor list requests
  update every 1 steps, delay 0 steps, check yes
  master list distance cutoff = 11
Memory usage per processor = 4.06549 Mbytes
Step PotEng Lx Ly Lz Xy Xz Yz Press Pxx Pyy Pzz Pxy Pxz Pyz eatoms 
       0   -109.00108       4.2565       4.2565       4.2565            0            0            0    61252.417    61252.417    61252.417    61252.417 -3.6848803e-11 -3.3369169e-11 3.6549969e-10   -109.00108 
      10    -109.0509     4.299065     4.299065     4.299065            0            0            0    8703.9294    8703.9294    8703.9294    8703.9294 1.5032756e-10 -1.0327816e-11 -1.1009458e-10    -109.0509 
      15   -109.05203    4.3066964    4.3066964    4.3066964            0            0            0 0.0034250328 0.0034250327  0.003425033 0.0034250328 -1.8553982e-10 4.3823803e-11 -1.4551403e-10   -109.05203 
Loop time of 0.00769615 on 1 procs for 15 steps with 8 atoms

Minimization stats:
  Stopping criterion = linesearch alpha is zero
  Energy initial, next-to-last, final = 
        -109.001077098     -109.052033723     -109.052033723
  Force two-norm initial, final = 8.84488 3.43431e-05
  Force max component initial, final = 8.84488 7.26821e-06
  Final line search alpha, max atom move = 0.5 3.63411e-06
  Iterations, force evaluations = 15 22

Pair  time (%) = 0.00204706 (26.5985)
Kspce time (%) = 0.00121617 (15.8024)
Neigh time (%) = 0 (0)
Comm  time (%) = 0.000236988 (3.07931)
Outpt time (%) = 1.19209e-05 (0.154895)
Other time (%) = 0.00418401 (54.3649)

Nlocal:    8 ave 8 max 8 min
Histogram: 1 0 0 0 0 0 0 0 0 0
Nghost:    2189 ave 2189 max 2189 min
Histogram: 1 0 0 0 0 0 0 0 0 0
Neighs:    2344 ave 2344 max 2344 min
Histogram: 1 0 0 0 0 0 0 0 0 0

Total # of neighbors = 2344
Ave neighs/atom = 293
Neighbor list builds = 0
Dangerous builds = 0
unfix 1
# ---- define output variables ----
variable natoms equal "count(all)"
variable tot_energy equal "c_eatoms"
variable length_x equal "lx"
variable length_y equal "ly"
variable length_z equal "lz"
variable tilt_xy equal "xy"
variable tilt_xz equal "xz"
variable tilt_yz equal "yz"
variable tot_press equal "press"
variable press_xx equal "pxx"
variable press_yy equal "pyy"
variable press_zz equal "pzz"
variable press_xy equal "pxy"
variable press_xz equal "pxz"
variable press_yz equal "pyz"

# ---- output ----
print "pypospack:output_section:begin"
pypospack:output_section:begin
print "tot_energy = ${tot_energy}"
tot_energy = -109.052033723467
print "num_atoms = ${natoms}"
num_atoms = 8
print "xx = ${length_x}"
xx = 4.30669636930156
print "yy = ${length_y}"
yy = 4.30669636930156
print "zz = ${length_z}"
zz = 4.30669636930156
print "xy = ${tilt_xy}"
xy = 0
print "xz = ${tilt_xz}"
xz = 0
print "yz = ${tilt_yz}"
yz = 0
print "tot_press = ${tot_press}"
tot_press = 0.00342503281246904
print "pxx = ${press_xx}"
pxx = 0.00342503266517326
print "pyy = ${press_yy}"
pyy = 0.00342503296687446
print "pzz = ${press_zz}"
pzz = 0.00342503280535941
print "pxy = ${press_xy}"
pxy = -1.85539817051957e-10
print "pxz = ${press_xz}"
pxz = 4.38238030577261e-11
print "pyz = ${press_yz}"
pyz = -1.45514027090344e-10
print "pypospack:output_section:done"
pypospack:output_section:done
print "pypospack:lammps_sim:done"
pypospack:lammps_sim:done
#------------------------------------------------------------------------------
# RUN THERMOSTAT
# running using an NPT Nose-Hoover style thermostat
#------------------------------------------------------------------------------
variable tempdamp equal 0.1
variable pressdamp equal 1.0
# set initial velocities
velocity all create 500 7711939 mom yes dist gaussian loop all
# fix for Nose-Hoover style thermostat
fix 20 all npt temp 500 500 0.1 aniso 0.0 0.0 1.0 drag 1.0 couple xyz
variable boxx equal lx
variable boxy equal ly
variable boxz equal lz
variable boxp equal press
variable boxt equal temp
# calculate averages every 10000 steps
reset_timestep 0
fix 21 all ave/time 10 10 100 v_boxx v_boxy v_boxz v_boxp v_boxt file lattice.out
thermo_style custom step temp pe ke etotal press lx ly lz press pxx pyy pzz pxy pxz pyz vol
thermo_modify flush yes
thermo 100
run 100000
PPPM initialization ...
  G vector (1/distance) = 0.352152
  grid = 8 8 8
  stencil order = 5
  estimated absolute RMS force accuracy = 3.96483e-05
  estimated relative force accuracy = 2.75342e-06
  using double precision FFTs
  3d grid and FFT values/proc = 3375 512
Memory usage per processor = 3.06549 Mbytes
Step Temp PotEng KinEng TotEng Press Lx Ly Lz Press Pxx Pyy Pzz Pxy Pxz Pyz Volume 
       0          500   -109.05204   0.45241051   -108.59963    6048.0389    4.3066964    4.3066964    4.3066964    6048.0389    2016.1573    8332.5416    7795.4178    3505.7893   -290.19535   -153.05406    79.879026 
     100     249.4941   -108.76042   0.22574751   -108.53467   -4991.5066     4.323058     4.323058     4.323058   -4991.5066   -4019.7907   -10322.241   -632.48769   -564.24656   -1961.1383    4171.5929    80.792899 
     200    315.16978   -108.70032   0.28517224   -108.41514   -358.01854     4.312447     4.312447     4.312447   -358.01854    3362.5596   -7344.8511    2908.2358   -1991.0377    2648.7618     1250.304    80.199434 
     300    165.53322   -108.45716   0.14977793   -108.30738   -2854.8037    4.3260276    4.3260276    4.3260276   -2854.8037     2642.565     -19983.5    8776.5239   -1028.4819   -2489.7192    2106.3695    80.959508 
     400    369.32466   -108.55798   0.33417271   -108.22381   -7064.0333    4.3191948    4.3191948    4.3191948   -7064.0333    2242.0754   -10542.219   -12891.956   -629.78135     1863.968    1411.8259    80.576493 
     500    596.43528   -108.71072   0.53966717   -108.17105    6730.6669    4.3210922    4.3210922    4.3210922    6730.6669   -579.41915     2135.377    18636.043    -3604.716   -1101.2636    2893.8148    80.682735 
     600    770.80076   -108.84242   0.69743672   -108.14499   -3772.1257    4.3311215    4.3311215    4.3311215   -3772.1257   -8458.1624   -1579.3423   -1278.8723    901.75441    163.90119    4546.8166    81.245832 
     700      544.844   -108.62874    0.4929863   -108.13575    16854.842     4.309688     4.309688     4.309688    16854.842    8202.1865    11341.728    31020.611    3978.9233   -415.82575    4692.1132    80.045603 
     800    348.24086   -108.45134   0.31509564   -108.13625   -16137.558    4.3395542    4.3395542    4.3395542   -16137.558   -5345.1489   -25870.972   -17196.554    -2105.086    243.66827   -367.23377    81.721314 
     900    331.37539   -108.43745   0.29983541   -108.13762    12837.724    4.3072934    4.3072934    4.3072934    12837.724    15140.088    3545.8753     19827.21    1793.1025   -557.72149   -1299.8535    79.912251 
    1000    346.95233   -108.46191   0.31392976   -108.14798   -8721.9498    4.3311971    4.3311971    4.3311971   -8721.9498   -539.99051   -8966.2564   -16659.602    1515.9508     687.5422     2401.796     81.25009 
    1100    732.77892   -108.80826   0.66303377   -108.14523    2078.9843    4.3239034    4.3239034    4.3239034    2078.9843   -7596.4248    1993.5573     11839.82   -1801.4291    4684.8451     97.82446    80.840305 
    1200    743.51157   -108.81569   0.67274489   -108.14295    17872.163    4.3114074    4.3114074    4.3114074    17872.163    13241.347    30468.669    9906.4741   -6517.7665   -827.10746    6733.3116    80.141448 
    1300    451.82327   -108.54968   0.40881919   -108.14087   -21090.209    4.3408191    4.3408191    4.3408191   -21090.209   -17832.702   -31602.212   -13835.712    1987.3895   -233.42843    3151.5792    81.792796 
    1400    417.93421   -108.51172   0.37815565   -108.13356    20393.068    4.3004501    4.3004501    4.3004501    20393.068    27572.282    12229.947    21376.973   -922.97149   -2364.5249   -2588.4117    79.531969 
    1500    265.58026   -108.38189    0.2403026   -108.14159   -22069.879    4.3402126    4.3402126    4.3402126   -22069.879   -11457.381   -29007.715   -25744.541    355.39973    3047.5308    5346.3815     81.75852 
    1600    419.02116   -108.52353   0.37913915   -108.14439    5705.8137    4.3133023    4.3133023    4.3133023    5705.8137    4771.4824    2082.1641    10263.795    -211.5323   -1512.9794    4733.0717    80.247164 
    1700    748.19434   -108.82242   0.67698196   -108.14543    7560.7545    4.3190546    4.3190546    4.3190546    7560.7545    7221.1283    12530.958    2930.1773   -832.94795    2656.1373   -5347.6474    80.568651 
    1800    660.18888   -108.73892   0.59735277   -108.14157   -17160.935    4.3356967    4.3356967    4.3356967   -17160.935   -21542.315   -20691.495   -9248.9947   -3685.4406    3593.4511    9248.6336    81.503579 
    1900    497.56998   -108.58472   0.45021178   -108.13451    18075.241     4.300506     4.300506     4.300506    18075.241    31224.328    2214.8845     20786.51   -2566.9027   -401.20527    7337.2556    79.535073 
    2000    385.01844   -108.48472   0.34837278   -108.13635   -23347.103    4.3428093    4.3428093    4.3428093   -23347.103   -25214.821     -22579.6   -22246.888    2954.1524   -1695.9851   -2619.5526    81.905352 
    2100    236.77242   -108.35488   0.21423667   -108.14065    12384.702    4.3057584    4.3057584    4.3057584    12384.702    23162.532    3887.5701    10104.004   -5924.6992    933.99291    8826.6139    79.826848 
    2200    473.18154   -108.57498    0.4281446   -108.14683   -7812.6005     4.328465     4.328465     4.328465   -7812.6005   -7038.2851   -12214.407   -4185.1098    5.6422251   -2329.6388    1045.8315     81.09643 
    2300    816.80082   -108.88007   0.73905854   -108.14101   -4965.8715    4.3251627    4.3251627    4.3251627   -4965.8715   -7359.8997   -1904.5126   -5633.2022   -937.69914   -4565.5056   -6658.9619    80.910956 
    2400    586.14963   -108.67044    0.5303605   -108.14008    13439.109    4.3080006    4.3080006    4.3080006    13439.109    13575.602    2600.6415    24141.082   -2473.4484    3776.0536    7785.1807    79.951618 
    2500    521.08221    -108.6091   0.47148613   -108.13761   -20756.234    4.3397892    4.3397892    4.3397892   -20756.234   -24342.411   -16827.455   -21098.836      599.967    2481.0259    2361.8173    81.734595 
    2600    302.69737   -108.41111   0.27388694   -108.13723    21217.099    4.3019918    4.3019918    4.3019918    21217.099     28848.22    13149.413    21653.664    -2518.755   -594.93158    362.79842    79.617534 
    2700    224.54239   -108.34738   0.20317067   -108.14421   -20082.097    4.3353391    4.3353391    4.3353391   -20082.097   -6183.7022   -31492.447   -22570.142   -3384.7313   -890.42776    6479.9255    81.483413 
    2800    651.28538   -108.72965    0.5892967   -108.14035    5966.0129    4.3159523    4.3159523    4.3159523    5966.0129    14871.044    3366.5006   -339.50622    2154.6451    458.51405    3939.3982    80.395159 
    2900    725.42594   -108.79818   0.65638064    -108.1418    8101.6919    4.3154875    4.3154875    4.3154875    8101.6919   -1272.3802    13067.182    12510.274    2567.7451   -5523.3394   -711.33632    80.369191 
    3000    572.50604   -108.65942    0.5180155    -108.1414   -15235.835    4.3350549    4.3350549    4.3350549   -15235.835   -8103.6723   -17211.564    -20392.27    -997.4088    101.22758     2796.373    81.467393 
    3100    502.88433   -108.59044   0.45502031   -108.13542    22813.683    4.3028397    4.3028397    4.3028397    22813.683    18509.502    19096.616    30834.931   -1362.0684    1881.1742   -1650.5759    79.664622 
    3200    212.14431   -108.33272   0.19195263   -108.14077   -17146.161      4.33646      4.33646      4.33646   -17146.161    7563.6002   -33369.269   -25632.815   -2970.0203   -2116.5062    3797.9556    81.546631 
    3300    365.13734   -108.47165   0.33038394   -108.14126    4853.4183    4.3126931    4.3126931    4.3126931    4853.4183    19395.447   -7512.0726    2676.8807   -194.75112    258.91695    3688.7213    80.213165 
    3400    694.77374   -108.77138   0.62864588   -108.14274     5952.803    4.3186217    4.3186217    4.3186217     5952.803    9071.9354    13940.286   -5153.8125   -134.38297    2042.8599    2220.7558    80.544424 
    3500    671.97056   -108.75047   0.60801308   -108.14246   -12389.721    4.3317717    4.3317717    4.3317717   -12389.721   -12550.219   -9100.0757   -15518.867     3.907544   -1970.3063    9282.9606    81.282432 
    3600    570.09064    -108.6541      0.51583   -108.13827    20848.162    4.3053267    4.3053267    4.3053267    20848.162    24241.495    17229.989    21073.002   -39.614823   -4545.6727   -3112.0726    79.802841 
    3700    440.89012   -108.53871   0.39892665   -108.13979   -15447.354    4.3343552    4.3343552    4.3343552   -15447.354   -1104.6141    -27413.25   -17824.196   -1578.9252   -944.43568    180.97985    81.427951 
    3800    165.04075   -108.29264   0.14933234   -108.14331    1719.3628    4.3125671    4.3125671    4.3125671    1719.3628    20496.142   -16815.684    1477.6299   -411.81565   -6044.5271    7360.5905    80.206134 
    3900    561.72678   -108.65329    0.5082622   -108.14503    -4457.811    4.3211767    4.3211767    4.3211767    -4457.811    4090.4621   -2489.6026   -14974.292    324.72429    3127.9609   -475.92355    80.687466 
    4000    666.35592   -108.74616   0.60293284   -108.14323   -8091.1787    4.3286788    4.3286788    4.3286788   -8091.1787   -10261.202   -287.88009   -13724.454   -3938.6871   -625.94672    895.79896    81.108444 
    4100    597.39426   -108.68176   0.54053488   -108.14123    12844.986    4.3076137    4.3076137    4.3076137    12844.986    18149.314    11336.937    9048.7071   -1692.8652   -4186.5964     10714.08    79.930081 
    4200    606.43885   -108.68772   0.54871861     -108.139   -13149.016    4.3341122    4.3341122    4.3341122   -13149.016   -5642.5321   -20720.542   -13083.974    3460.7837   -2372.8084    -4020.919    81.414252 
    4300    249.05544   -108.36787    0.2253506   -108.14252    3675.4595    4.3106836    4.3106836    4.3106836    3675.4595    16219.369   -11490.479     6297.489   -2072.8495   -6103.1872    2717.4855    80.101093 
    4400    317.69316   -108.43393   0.28745545   -108.14647    -11069.12    4.3228466    4.3228466    4.3228466    -11069.12    5906.7389   -19252.996   -19861.103   -1265.5234   -667.53479    6952.4545    80.781046 
    4500    556.58372   -108.64589   0.50360865   -108.14228   -1215.4863    4.3265146    4.3265146    4.3265146   -1215.4863    7703.2046     3108.281   -14457.944   -1340.4488   -227.00768   -4446.9013     80.98685 
    4600    677.37571   -108.75326   0.61290378   -108.14035    9467.3312    4.3080628    4.3080628    4.3080628    9467.3312    13679.372    9338.1648    5384.4564   -5763.1093   -1616.9189    5452.5485    79.955085 
    4700     581.6738   -108.66763   0.52631068   -108.14132   -9203.7588    4.3344194    4.3344194    4.3344194   -9203.7588   -4526.4413    -13351.69   -9733.1448    1042.1267   -4644.9796    3318.8443    81.431567 
    4800    575.89226   -108.66033   0.52107942   -108.13925    9835.4955    4.3098908    4.3098908    4.3098908    9835.4955    8254.2882    1852.6406    19399.558    4417.1186    846.64445    1933.3436    80.056907 
    4900    194.53405   -108.32042    0.1760185    -108.1444   -8919.7075    4.3245453    4.3245453    4.3245453   -8919.7075    10801.799   -23285.451    -14275.47    -2639.834    -2470.459    4283.7317    80.876313 
    5000    413.44569   -108.51569   0.37409435   -108.14159   -4685.5755    4.3243596    4.3243596    4.3243596   -4685.5755    4851.8942   -18.151268   -18890.469    455.90284   -1111.2655    2274.4586    80.865897 
    5100    635.51632   -108.71437   0.57502852   -108.13934    16693.501    4.3096472    4.3096472    4.3096472    16693.501    23234.477    11810.336    15035.691   -715.04716   -1482.9995   -1808.6695    80.043331 
    5200    590.05271   -108.67775   0.53389209   -108.14385   -9421.5169     4.332016     4.332016     4.332016   -9421.5169   -18630.962    -2903.218   -6730.3704   -4357.1064   -3539.9967    3645.0386    81.296183 
    5300    672.56739   -108.74877   0.60855311   -108.14022    12528.416    4.3119156    4.3119156    4.3119156    12528.416    7041.5757    4873.5329    25670.138   -1186.0898    1056.8699   -407.67624     80.16979 
    5400    419.13671   -108.52155    0.3792437    -108.1423   -4194.2884    4.3229648    4.3229648    4.3229648   -4194.2884    -429.4827   -11069.119   -1084.2636    882.78862   -2111.8888    1714.3456    80.787671 
    5500    231.96918   -108.35341   0.20989059   -108.14352   -8594.4109    4.3248058    4.3248058    4.3248058   -8594.4109   -3768.7586   -13843.737    -8170.737   -2914.6527   -2606.3504     4443.307    80.890933 
    5600    478.46593   -108.57372   0.43292603    -108.1408    16308.507    4.3108893    4.3108893    4.3108893    16308.507    20073.863    14116.365    14735.292    1570.9132   -6248.3539    -3366.017    80.112559 
    5700    631.86435   -108.71456   0.57172414   -108.14283   -8672.2555    4.3301536    4.3301536    4.3301536   -8672.2555   -15781.785   -9885.6286   -349.35255    2594.2331   -3758.9635    6214.9494    81.191379 
    5800    620.94773   -108.70437   0.56184656   -108.14252    2604.0049    4.3159484    4.3159484    4.3159484    2604.0049   -7794.5397     4208.298    11398.256   -638.43464   -3334.1389    5340.5439    80.394944 
    5900    636.24353   -108.71694   0.57568652   -108.14126    3047.4589    4.3179281    4.3179281    4.3179281    3047.4589   -2412.0198   -2278.4293    13832.826   -363.97043    3145.9804   -2325.0438    80.505627 
    6000    319.80331   -108.43241   0.28936476   -108.14304   -15656.434    4.3296763    4.3296763    4.3296763   -15656.434   -17533.926   -29615.284    179.90854   -4405.2897   -4960.9902    1086.4769     81.16453 
    6100    247.76275   -108.36697   0.22418095   -108.14279     7428.124    4.3090494    4.3090494    4.3090494     7428.124    15463.249    9427.1116   -2605.9885   -2010.0198   -4365.4707    7022.7736    80.010026 
    6200    631.14098   -108.71322   0.57106962   -108.14216   -10215.746    4.3281353    4.3281353    4.3281353   -10215.746   -2117.9682   -16546.249   -11983.022   -43.821828    525.43561   -5766.4443    81.077901 
    6300    572.56713   -108.66289   0.51807077   -108.14482   -4787.8434    4.3198662    4.3198662    4.3198662   -4787.8434   -9287.1946   -1126.5262   -3949.8095   -1710.4473   -9092.9716    8640.9332    80.614076 
    6400    607.57649   -108.69444   0.54974797   -108.14469    9928.1289    4.3111826    4.3111826    4.3111826    9928.1289    4919.2914    2989.1454     21875.95   -205.50687   -675.47473    2355.6199    80.128914 
    6500     584.5793   -108.66941   0.52893963   -108.14048   -21220.429    4.3358236    4.3358236    4.3358236   -21220.429   -24686.122   -30260.213   -8714.9506    1181.8686   -1595.2076   -3289.8491    81.510737 
    6600    218.25412   -108.33877   0.19748091   -108.14129    8486.1701    4.3041902    4.3041902    4.3041902    8486.1701    18555.434      740.776    6162.3006   -3361.3565   -6321.1931    10466.543    79.739659 
    6700     427.0253   -108.53103   0.38638147   -108.14465   -7472.0628    4.3284238    4.3284238    4.3284238   -7472.0628    1678.0639   -15137.247   -8957.0055    622.15538    2687.2095   -128.82629    81.094114 
    6800    580.77705   -108.67089   0.52549928   -108.14539    1536.5234    4.3204193    4.3204193    4.3204193    1536.5234    4204.4423   -6810.5066    7215.6346    1538.4411    3664.1541   -1686.5423    80.645047 
    6900    590.12571    -108.6804   0.53395815   -108.14644    8287.1043     4.308832     4.308832     4.308832    8287.1043    5628.4187    10105.522    9127.3727     -3290.69   -10324.686    7436.7064     79.99792 
    7000    642.48764   -108.72063   0.58133632    -108.1393   -16776.205    4.3370715    4.3370715    4.3370715   -16776.205   -26387.492   -21587.009   -2354.1134   -747.05971   -1710.3955    3261.5949    81.581133 
    7100    490.46013    -108.5799   0.44377863   -108.13612    15138.182    4.3010544    4.3010544    4.3010544    15138.182     12865.05    4062.6877    28486.808   -1312.2627    1241.8537    235.21347    79.565504 
    7200    204.91071   -108.33073   0.18540752   -108.14532   -8257.5417    4.3306043    4.3306043    4.3306043   -8257.5417   -8980.3398    -14838.19   -954.09587   -1784.9419   -4970.3537    6063.9794    81.216731 
    7300    533.55747   -108.62659   0.48277401   -108.14381    3556.9323    4.3167812    4.3167812    4.3167812    3556.9323    13363.465   -2752.0664    59.397988    311.70705    4152.3543   -4196.6753    80.441491 
    7400    592.25124   -108.67988   0.53588137     -108.144    7191.9284    4.3110242    4.3110242    4.3110242    7191.9284    8431.9871    6272.7472    6871.0509   -1091.8327    -1527.905     1390.907    80.120083 
    7500    536.99413   -108.62676   0.48588358   -108.14088   -15666.051     4.334365     4.334365     4.334365   -15666.051   -23294.433   -13917.073   -9786.6475   -2043.1569   -7338.1838    6555.8447    81.428502 
    7600    644.39692     -108.718   0.58306387   -108.13494    18607.893    4.3013116    4.3013116    4.3013116    18607.893    9952.6985    9824.4834    36046.497    806.77814   -347.46418   -938.47434    79.579776 
    7700    340.65987   -108.45181   0.30823621   -108.14357   -12327.051    4.3318899    4.3318899    4.3318899   -12327.051   -14253.184   -17329.098   -5398.8724   -1953.5532    44.186625    5380.3564    81.289086 
    7800    368.97736   -108.47791   0.33385847   -108.14406    4166.2371    4.3141447    4.3141447    4.3141447    4166.2371     15687.61    2516.8718   -5705.7705    326.70836   -6970.4015    1986.8705    80.294189 
    7900    586.25764   -108.67154   0.53045823   -108.14109      5882.43    4.3139145    4.3139145    4.3139145      5882.43    11927.251    1193.4487    4526.5906    1423.0961    2246.4452   -939.61532    80.281337 
    8000    522.29132   -108.61389   0.47258017   -108.14131   -11542.236    4.3306351    4.3306351    4.3306351   -11542.236   -7496.3215    -8967.043   -18163.345    -3866.934    97.231238    4499.8457    81.218467 
    8100    568.03318   -108.65392   0.51396836   -108.13995    14546.754    4.3049919    4.3049919    4.3049919    14546.754    9147.3349    11641.029    22851.897   -1871.9652   -326.91619    2215.4906    79.784222 
    8200     586.8672   -108.67277   0.53100978   -108.14176   -11257.711    4.3291584    4.3291584    4.3291584   -11257.711   -14956.885   -11909.538   -6906.7083    959.86379   -693.65208   -2062.8765    81.135412 
    8300    287.96904    -108.4043   0.26056044   -108.14374     4636.492    4.3155135    4.3155135    4.3155135     4636.492    8082.7237    110.67767    5716.0747   -3970.2553   -5622.4764    8252.0239    80.370642 
    8400    462.18734   -108.56037   0.41819682   -108.14217    1216.5007    4.3146668    4.3146668    4.3146668    1216.5007    6185.6291   -2790.7175    254.59053   -652.81126   -6053.3307    1585.7568    80.323346 
    8500     570.5329   -108.65712   0.51623015   -108.14089   -6510.1465    4.3278986    4.3278986    4.3278986   -6510.1465   -2671.8573   -8619.2414   -8239.3406    1441.8326    825.00784    661.67701    81.064598 
    8600    562.79911   -108.65164   0.50923246   -108.14241    2569.2781     4.310622     4.310622     4.310622    2569.2781    8216.0313    3135.6822   -3643.8792   -3158.5839    191.90162    7815.5372    80.097657 
    8700    586.66561   -108.67326   0.53082737   -108.14243   -5764.9163    4.3227598    4.3227598    4.3227598   -5764.9163   -15575.516   -3153.9257    1434.6926   -126.84671   -2735.8211   -3424.5746    80.776178 
    8800    473.76411   -108.57115   0.42867173   -108.14248   -1974.8259    4.3203457    4.3203457    4.3203457   -1974.8259   -6503.0457   -6426.8521    7005.4201    3335.5148      681.344    4770.6992    80.640926 
    8900    251.77201   -108.37258    0.2278086   -108.14477    3553.8616    4.3134384    4.3134384    4.3134384    3553.8616    -63.04635   -4734.4902    15459.121   -4680.0912   -8452.0215    7646.4655    80.254761 
    9000    582.13683   -108.66918   0.52672963   -108.14245   -11440.604    4.3255079    4.3255079    4.3255079   -11440.604   -7383.8625   -16081.255   -10856.695    -536.6062    512.22857    244.14848    80.930333 
    9100    606.03426    -108.6907   0.54835254   -108.14235     825.3782    4.3156058    4.3156058    4.3156058     825.3782    10428.397   -2745.4924   -5206.7696    548.06812   -2032.9251    2629.4478    80.375799 
    9200    526.29579    -108.6199   0.47620349    -108.1437   -3849.4154    4.3178073    4.3178073    4.3178073   -3849.4154   -6333.3801    203.45338   -5418.3194   -4168.2217   -5097.1225    4614.2463    80.498866 
    9300    551.80325   -108.64041   0.49928318   -108.14112   -3223.5544    4.3244472    4.3244472    4.3244472   -3223.5544   -18680.079   -3136.7455    12146.162     657.8703   -1175.2154   -5209.6709    80.870812 
    9400    330.27241   -108.44194   0.29883741   -108.14311     7377.149     4.312051     4.312051     4.312051     7377.149   -115.19696    4038.8051    18207.839   -24.540357   -1179.8209    6754.5304    80.177344 
    9500     375.8121   -108.48457   0.34004269   -108.14453   -9801.4742    4.3229925    4.3229925    4.3229925   -9801.4742   -11863.961   -12509.064   -5031.3985    -2700.327   -1578.6371    3752.0016    80.789226 
    9600    677.14249   -108.75371   0.61269276   -108.14101   -1024.2462    4.3196817    4.3196817    4.3196817   -1024.2462    6313.5908   -6589.9832   -2796.3463   -200.88157   -2020.7301   -1849.8947    80.603749 
    9700    556.03551   -108.64704   0.50311261   -108.14392     7052.939    4.3125551    4.3125551    4.3125551     7052.939    8009.2337    12126.823    1022.7603   -119.51895   -853.03252     7381.345    80.205465 
    9800    503.12682   -108.60016   0.45523972   -108.14492   -7371.6737    4.3270845    4.3270845    4.3270845   -7371.6737   -13620.234    -7725.756   -769.03122   -1631.9478   -4379.1811    4958.4111    81.018861 
    9900    500.80172   -108.59421   0.45313593   -108.14107    13050.717    4.3126631    4.3126631    4.3126631    13050.717    3755.0093    16183.802     19213.34    1286.3335    2254.2623   -966.30068    80.211495 
   10000    328.19613    -108.4411   0.29695876   -108.14414   -5958.2754     4.319447     4.319447     4.319447   -5958.2754    -8441.898   -10396.229    963.30122   -3280.3592   -749.97017    5131.2531     80.59061 
   10100    439.90526   -108.54219   0.39803552   -108.14416    -8132.012    4.3239663    4.3239663    4.3239663    -8132.012   -3077.3008   -19950.865   -1367.8698   -2951.2299     284.8006   -456.61148    80.843832 
   10200    732.34894   -108.80359   0.66264471   -108.14095    12915.187    4.3100524    4.3100524    4.3100524    12915.187    14143.592    10806.475    13795.495   -1494.3848   -3798.2132   -1423.3643     80.06591 
   10300    483.19789   -108.58209   0.43720761   -108.14488    -5041.295    4.3270084    4.3270084    4.3270084    -5041.295    4254.9793    -11569.81   -7809.0544   -3523.3225   -4267.2849    9588.9519    81.014584 
   10400    575.05084    -108.6618   0.52031808   -108.14148    3973.2008    4.3146445    4.3146445    4.3146445    3973.2008   -3403.1827    9206.5761    6116.2091    1255.9687   -563.74537    1879.2083    80.322103 
   10500    463.88634   -108.56183   0.41973411    -108.1421    4261.8351    4.3164728    4.3164728    4.3164728    4261.8351    3179.7851    4286.3726    5319.3477    2078.9977    1125.4291   -293.34394    80.424251 
   10600    228.95316    -108.3527   0.20716163   -108.14553   -15659.047    4.3259537    4.3259537    4.3259537   -15659.047   -18447.746   -29739.987    1210.5926    -4450.394   -2032.9463    4498.1638    80.955357 
   10700    560.04371    -108.6494   0.50673932   -108.14266     7692.971    4.3102215    4.3102215    4.3102215     7692.971    6716.0126    744.07606    15618.824    259.83405    440.55752    -226.6092    80.075334 
   10800    665.25306   -108.74407   0.60193495   -108.14214    548.47584    4.3250978    4.3250978    4.3250978    548.47584    7887.6853   -1332.9607   -4909.2971   -98.440173   -751.24996    1673.2974    80.907317 
   10900    599.67588   -108.68673   0.54259934   -108.14414   -3105.3737    4.3161084    4.3161084    4.3161084   -3105.3737   -3045.5839    2821.7812   -9092.3185   -8917.9368   -6019.6349      7774.65    80.403886 
   11000    530.11891   -108.62324   0.47966273   -108.14358    7419.6199    4.3166242    4.3166242    4.3166242    7419.6199    3848.7749    14893.424    3516.6604    593.27954     1719.815   -3173.1232    80.432712 
   11100    383.12803   -108.48999   0.34666229   -108.14333   -13808.529    4.3247454    4.3247454    4.3247454   -13808.529   -25755.054   -14615.323   -1055.2087    973.20577   -940.81266    644.71178    80.887543 
   11200    180.80233   -108.30845   0.16359375   -108.14485    1920.1612    4.3119593    4.3119593    4.3119593    1920.1612   -4826.9356    -6936.339    17523.758   -5532.5947    -4988.459     6480.771    80.172232 
   11300     651.5307    -108.7319   0.58951867   -108.14238   -1706.4934     4.323446     4.323446     4.323446   -1706.4934   -3141.7538   -96.902275   -1880.8242     3478.697    2796.0537    112.98898    80.814655 
   11400    690.40997    -108.7683   0.62469745   -108.14361    3403.4418    4.3171331    4.3171331    4.3171331    3403.4418     6806.927    11496.555   -8093.1565   -449.48464    2662.2211    4358.3732    80.461167 
   11500    598.42247   -108.68682   0.54146523   -108.14535   -2336.5884    4.3174232    4.3174232    4.3174232   -2336.5884   -251.54556    2162.4689   -8920.6886   -11528.486   -5528.9084    5274.0762    80.477388 
   11600    526.40686   -108.61797   0.47630399   -108.14166   -4467.3442    4.3220107    4.3220107    4.3220107   -4467.3442   -11729.776   -1081.3276   -590.92866    751.11527    2891.0935   -3059.0435    80.734193 
   11700    224.41852   -108.34634   0.20305859   -108.14328     -5053.38    4.3148392    4.3148392    4.3148392     -5053.38   -17040.988    -8731.242    10612.091   -640.92342   -3193.7939    5804.4665    80.332972 
   11800    268.54879   -108.38892   0.24298859   -108.14593    -3857.569    4.3215376    4.3215376    4.3215376    -3857.569   -6052.2007   -9067.1752    3546.6689   -5316.9268   -2868.0952    4637.7383    80.707687 
   11900    710.82395   -108.78557   0.64316845    -108.1424    2878.8959    4.3185128    4.3185128    4.3185128    2878.8959    4334.1259    7930.6835   -3628.1218    4601.8966    3399.9906   -2193.5925    80.538335 
   12000    705.03607   -108.78189   0.63793145   -108.14396    443.04158    4.3165175    4.3165175    4.3165175    443.04158    10203.266   -379.44623   -8494.6945   -358.12072    476.92631    2502.6205    80.426752 
   12100    604.69435    -108.6907   0.54714016   -108.14356   -4408.7373    4.3228099    4.3228099    4.3228099   -4408.7373   -1481.2415   -6414.9893   -5329.9811   -9504.4238   -1761.8794     1752.448    80.778989 
   12200    437.68242   -108.53819   0.39602426   -108.14217    3525.3729    4.3144093    4.3144093    4.3144093    3525.3729   -12055.942    11472.313    11159.748    1375.4299    1521.8088    1817.7048    80.308963 
   12300    179.18068   -108.30806   0.16212645   -108.14593   -744.62129    4.3197703    4.3197703    4.3197703   -744.62129   -6038.7125   -4912.8297    8717.6783   -5076.5079   -2192.9311    6640.8362     80.60871 
   12400    380.87143   -108.48838   0.34462047   -108.14376    72.015562    4.3222147    4.3222147    4.3222147    72.015562   -8777.3036    8564.0814    429.26882   -6454.5848   -605.93567    1916.4547    80.745624 
   12500    764.94826   -108.83229   0.69214126   -108.14015    8528.6069    4.3114114    4.3114114    4.3114114    8528.6069    20097.201    2991.3084    2497.3117    4020.2919    3380.7753   -1765.0642     80.14167 
   12600    676.53033   -108.75658   0.61213886   -108.14444   -6828.3309    4.3262825    4.3262825    4.3262825   -6828.3309   -5382.4669    1950.4235    -17052.95   -1835.1883   -3202.4936    1331.7645    80.973819 
   12700    565.22071   -108.65586   0.51142358   -108.14444    6264.2321    4.3133633    4.3133633    4.3133633    6264.2321   -5020.3623     14644.08    9168.9786    -5274.334    349.26169    2210.0273    80.250569 
   12800    409.83005   -108.51505   0.37082284   -108.14423    1894.0613    4.3176798    4.3176798    4.3176798    1894.0613   -16326.151    14156.384    7851.9506    829.20275    525.05229    1174.6251    80.491738 
   12900    163.18116   -108.29223   0.14764975   -108.14458   -7439.9501    4.3249581    4.3249581    4.3249581   -7439.9501   -22490.058   -4591.4064    4761.6139   -8538.1401     -1923.15    3610.7953    80.899478 
   13000    511.92594   -108.60464   0.46320135   -108.14144    5491.2289    4.3078438    4.3078438    4.3078438    5491.2289    6685.2973   -1431.7204     11220.11   -7123.9256    1132.8722   -2244.5934    79.942889 
   13100    700.62027   -108.77691   0.63393594   -108.14297   -12499.372    4.3294495    4.3294495    4.3294495   -12499.372   -9196.4392   -8011.6231   -20290.055     4268.105     2881.043    1963.7301    81.151775 
   13200    603.99592   -108.69174    0.5465082   -108.14523    4533.7465    4.3114305    4.3114305    4.3114305    4533.7465    -1003.446    7990.2567    6614.4289   -6835.8484   -4596.4415    3822.2594    80.142734 
   13300    614.08309   -108.69887   0.55563529   -108.14323   -856.94912    4.3186933    4.3186933    4.3186933   -856.94912   -13789.456    5246.5668    5972.0414   -651.88142    3505.0123    2467.7702    80.548434 
   13400    306.35557   -108.42025   0.27719695   -108.14305   -6282.5836    4.3248634    4.3248634    4.3248634   -6282.5836   -26119.145    1078.8323    6192.5618   -3145.2736     1797.837    87.837851    80.894165 
   13500     248.9202   -108.36771   0.22522823   -108.14248    4496.6661    4.3057521    4.3057521    4.3057521    4496.6661     983.4447   -3815.2112    16321.765   -7606.5299   -2593.6337    1296.7933    79.826496 
   13600    557.96324   -108.64655   0.50485686   -108.14169   -17775.456    4.3326543    4.3326543    4.3326543   -17775.456   -15632.719    -18364.83   -19328.818   -2407.6516    2420.1371   -1115.0587    81.332124 
   13700    658.63415   -108.73801   0.59594602   -108.14207    12045.873     4.307304     4.307304     4.307304    12045.873    13221.318    14993.382    7922.9205   -3185.4767   -1101.8425    3542.5006    79.912839 
   13800    612.64746   -108.69854    0.5543363    -108.1442   -3620.8085    4.3215991    4.3215991    4.3215991   -3620.8085   -9547.7989    -1840.279     525.6524   -6701.9399   -2829.8807    1922.2431    80.711129 
   13900    552.37387   -108.64157   0.49979949   -108.14177    336.13676    4.3226131    4.3226131    4.3226131    336.13676   -17761.195    16525.571    2244.0334    3062.6681    2773.6725   -4371.5842    80.767956 
   14000    301.91096   -108.41574   0.27317538   -108.14257    11570.914    4.3055061    4.3055061    4.3055061    11570.914   -608.10191    15310.412    20010.432   -4235.5952    1371.9222    2364.3269    79.812814 
   14100    313.61649   -108.42648   0.28376679   -108.14271   -20765.157    4.3339572    4.3339572    4.3339572   -20765.157   -26181.012   -20560.904   -15553.556   -5563.3406   -2979.3845    1302.7826    81.405519 
   14200    683.07456   -108.75636   0.61806022    -108.1383    16557.993     4.304414     4.304414     4.304414    16557.993    19874.363    12201.695    17597.921   -107.45317    2834.5754    1371.5985    79.752097 
   14300    537.29381   -108.63003   0.48615473   -108.14387   -1907.3821    4.3232197    4.3232197    4.3232197   -1907.3821   -6571.7636    3315.3871   -2465.7697   -8732.1919    -1386.384    889.95605    80.801967 
   14400    572.50982   -108.66124   0.51801891   -108.14322   -2472.4584    4.3213738    4.3213738    4.3213738   -2472.4584    -12992.77    2170.3034    3405.0918   -2108.9469    1099.9585    1344.3243    80.698509 
   14500    535.67827   -108.62545   0.48469296   -108.14076    15796.953    4.3070115    4.3070115    4.3070115    15796.953    1205.4907    29877.721    16307.647    3483.3204    1832.2448   -5463.2752    79.896564 
   14600    298.56984   -108.41292   0.27015227   -108.14277   -22391.482    4.3312255    4.3312255    4.3312255   -22391.482   -32831.411   -26413.805   -7929.2287   -8816.6023   -1185.4138    3647.4918    81.251689 
   14700      490.658    -108.5837   0.44395767   -108.13974    10434.708    4.3064774    4.3064774    4.3064774    10434.708    8396.9683    5296.0552    17611.102   -3390.8729   -2627.1227    1960.7474     79.86684 
   14800     631.7926    -108.7125   0.57165922   -108.14084   -2769.6066    4.3236543    4.3236543    4.3236543   -2769.6066   -1448.6358    -4401.236   -2458.9478   -836.15305    1914.5152   -2556.2303    80.826336 
   14900    429.38097   -108.53382   0.38851293   -108.14531   -562.19928    4.3176214    4.3176214    4.3176214   -562.19928   -3920.5892   -5033.8421    7267.8334   -10740.758   -1915.1924   -709.33539    80.488471 
   15000    630.51604   -108.71384   0.57050416   -108.14334    3198.7925    4.3136574    4.3136574    4.3136574    3198.7925   -924.81389    8942.1009    1579.0906    2982.1431    2072.3158    3518.7866    80.266986 
   15100    447.07197   -108.54783   0.40452011   -108.14331   -7519.0052    4.3240008    4.3240008    4.3240008   -7519.0052    -19966.96   -1143.4161   -1446.6392   -2649.3516    4290.1304    576.94048    80.845768 
   15200    373.76249   -108.48162   0.33818815   -108.14343    744.24609    4.3100498    4.3100498    4.3100498    744.24609   -11170.106    2618.2033    10784.641   -9991.0347   -4440.9126    1496.0594    80.065765 
   15300    551.18323   -108.64057   0.49872217   -108.14185    -2232.846    4.3245569    4.3245569    4.3245569    -2232.846   -5132.3986    575.88609   -2142.0253     2836.897   -370.70509    496.22359    80.876963 
   15400     578.7458   -108.66625   0.52366137   -108.14259    4202.5422    4.3123101    4.3123101    4.3123101    4202.5422    10321.499   -9029.1187    11315.246   -6387.8164    2159.7568   -5098.5149    80.191796 
   15500    447.30981   -108.55036   0.40473532   -108.14562   -6504.7445    4.3207384    4.3207384    4.3207384   -6504.7445   -10565.424   -6556.9452   -2391.8641   -7739.6647   -2525.6442    1575.1951    80.662918 
   15600    572.56352   -108.65953    0.5180675   -108.14147    2380.6879    4.3171629    4.3171629    4.3171629    2380.6879   -4878.5669    13541.359   -1520.7286    3513.2683    74.828581    2253.3437    80.462833 
   15700    425.04836   -108.52751   0.38459269   -108.14292   -1642.1265    4.3148047    4.3148047    4.3148047   -1642.1265   -23048.951    10915.122    7207.4489   -7799.6971    813.21796    1552.3154    80.331049 
   15800     373.5854   -108.48264   0.33802792   -108.14461   -5482.7301    4.3225131    4.3225131    4.3225131   -5482.7301   -19800.416    4611.1966   -1258.9704   -4878.0194   -4797.4675   -455.59912    80.762351 
   15900    684.28487   -108.76017   0.61915533   -108.14101    8655.7477    4.3111919    4.3111919    4.3111919    8655.7477    16662.419   -5404.8243    14709.648    6541.7744    2653.7027    1633.2118    80.129434 
   16000    484.01761   -108.58224   0.43794931   -108.14429   -6396.7933    4.3231644    4.3231644    4.3231644   -6396.7933    -5171.226   -17910.351    3891.1975   -9287.2284    1929.8756   -882.45915    80.798863 
   16100    493.32207    -108.5893   0.44636818   -108.14293    2850.6703    4.3140636    4.3140636    4.3140636    2850.6703    4521.1242    5917.4537   -1886.5672   -5770.5801    -2806.875    2632.4733    80.289659 
   16200     513.1812   -108.60555   0.46433713   -108.14122    663.79012    4.3187845    4.3187845    4.3187845    663.79012   -15923.112    14250.272    3664.2101    1501.2664   -400.79761   -527.67796    80.553536 
   16300    365.02422   -108.47424   0.33028159   -108.14396   -6385.4719     4.319209     4.319209     4.319209   -6385.4719   -23478.822    3573.0681    749.33765   -9952.2934   -452.62229   -927.57078    80.577289 
   16400    492.06039   -108.58929   0.44522658   -108.14407    5407.0388    4.3134365    4.3134365    4.3134365    5407.0388    7440.3944   -3807.3553    12588.077   -1131.2787   -3327.9649    867.06637    80.254653 
   16500    678.93122   -108.75657   0.61431124   -108.14226   -3652.4253     4.322142     4.322142     4.322142   -3652.4253    7583.6095    -21377.39    2836.5051    1002.4636    1964.6172     1560.949    80.741554 
   16600    495.03799   -108.59217   0.44792077   -108.14425    4288.2052    4.3134153    4.3134153    4.3134153    4288.2052    9014.8687   -3313.1991    7162.9459   -10785.796   -646.02894    2976.0423    80.253468 
   16700    499.88541    -108.5957   0.45230682   -108.14339   -4207.7129    4.3204192    4.3204192    4.3204192   -4207.7129   -13704.024    6597.5687   -5516.6833   -952.64967   -5479.9128   -195.66153    80.645042 
   16800    436.94908   -108.53758   0.39536071   -108.14222   -2314.8663    4.3170807    4.3170807    4.3170807   -2314.8663   -18270.494    10630.645    695.25064   -237.31394    1122.4298   -1837.4188    80.458235 
   16900    353.02126   -108.46381   0.31942105   -108.14439   -3307.9124    4.3164973    4.3164973    4.3164973   -3307.9124   -14170.465   -3182.9077    7429.6355   -9644.0682    308.42399   -692.58878    80.425621 
   17000    553.90167   -108.64443   0.50118187   -108.14325    416.35541    4.3195468    4.3195468    4.3195468    416.35541    4265.8609   -1271.1006   -1745.6941    701.81728   -2481.2386    2530.1975    80.596197 
   17100    693.30575   -108.76901   0.62731761   -108.14169    3022.0754    4.3161002    4.3161002    4.3161002    3022.0754    9482.0051   -8595.0929    8179.3139   -5240.6188    2510.1285    1127.1557    80.403424 
   17200    492.19499   -108.58912   0.44534837   -108.14377   -1972.5476    4.3187731    4.3187731    4.3187731   -1972.5476   -7489.7015    6042.4544   -4470.3957   -3734.7961   -2780.3201    2300.8411    80.552895 
   17300    473.28442   -108.57037   0.42823769   -108.14214   -3470.6512    4.3165498    4.3165498    4.3165498   -3470.6512   -14118.868    7604.9501   -3898.0359   -95.613209   -6006.8065    -969.6683    80.428555 
   17400    365.69086   -108.47389   0.33088477     -108.143   -4374.2759    4.3188367    4.3188367    4.3188367   -4374.2759   -19307.462    4882.9134    1301.7209   -5367.0038    2936.9714   -873.14575    80.556454 
   17500    373.65141   -108.48277   0.33808764   -108.14468    1943.5899    4.3158147    4.3158147    4.3158147    1943.5899   -8146.3828    10503.563    3473.5897    -3696.045   -3549.5114    1319.5912    80.387474 
   17600    642.45826   -108.72432   0.58130973   -108.14301     209.2601    4.3200724    4.3200724    4.3200724     209.2601    7436.5278   -5193.3945    -1615.353   -206.10727   -3821.0217     2271.836     80.62562 
   17700    687.76713   -108.76486   0.62230615   -108.14255    5776.4358    4.3153423    4.3153423    4.3153423    5776.4358    8183.1906    4964.2752    4181.8417   -5276.2181    839.25477    23.631679     80.36108 
   17800    512.19101   -108.60709   0.46344119   -108.14365   -4975.5744    4.3176071    4.3176071    4.3176071   -4975.5744    -3744.739   -6406.7564   -4775.2277    697.24428   -5397.5307    -739.9425    80.487668 
   17900    366.06302   -108.47425   0.33122151   -108.14303   -5407.8911    4.3193398    4.3193398    4.3193398   -5407.8911    -15702.25    6207.6623   -6729.0853   -2276.9529   -661.93945   -107.15606    80.584609 
   18000    332.32795   -108.44401   0.30069731   -108.14331    2828.2545    4.3149562    4.3149562    4.3149562    2828.2545   -10036.756    9100.2464    9421.2736   -9883.9851    2287.5442    1246.9338    80.339509 
   18100    433.11618   -108.53598   0.39189262   -108.14409   -1937.7325    4.3204545    4.3204545    4.3204545   -1937.7325    -7601.462    5402.4918   -3614.2274    1682.7028   -5677.1327    2152.2665    80.647016 
   18200    729.72421   -108.80276    0.6602698   -108.14249    4575.0318    4.3151886    4.3151886    4.3151886    4575.0318    9759.1649     2555.862    1410.0684   -4654.1073   -3765.3602    -1502.294    80.352492 
   18300    673.39208   -108.75197   0.60929931   -108.14268   -641.40985     4.319028     4.319028     4.319028   -641.40985    6380.1688   -5862.6943   -2441.7041   -5832.5653    158.86482   -1314.9705    80.567163 
   18400    479.80654   -108.57716   0.43413904   -108.14302   -5188.0695    4.3168565    4.3168565    4.3168565   -5188.0695   -13740.012    1777.2297   -3601.4261     2913.774   -5730.3663    221.45711    80.445701 
   18500    271.09582   -108.38876    0.2452932   -108.14347    1030.5405    4.3173938    4.3173938    4.3173938    1030.5405   -15975.679    15263.034    3804.2663   -1454.9775    1728.4477    1594.0169     80.47574 
   18600      343.082   -108.45352    0.3104278   -108.14309    -1911.537    4.3180734    4.3180734    4.3180734    -1911.537    -17779.27    5726.1997    6318.4598   -6996.8517   -1619.3123    1826.2205    80.513751 
   18700    542.41627   -108.63433   0.49078964   -108.14354    2342.5452    4.3157647    4.3157647    4.3157647    2342.5452    -4915.529    10641.859    1301.3058    4903.8949   -6312.4752   -98.279664     80.38468 
   18800    753.45737   -108.82425   0.68174407   -108.14251    -2600.197    4.3203033    4.3203033    4.3203033    -2600.197    6862.5404   -4135.2287   -10527.903   -9128.6016    663.32894   -3074.0375    80.638553 
   18900     647.8553   -108.72899   0.58619309   -108.14279     767.3888    4.3148513    4.3148513    4.3148513     767.3888   -2626.8874    2645.9393    2283.1145   -8783.4065   -1430.0346   -1105.5439    80.333649 
   19000     414.9976   -108.51943   0.37549855   -108.14393   -4960.8778    4.3194959    4.3194959    4.3194959   -4960.8778   -20376.838    9209.2025   -3714.9976    4273.9783   -3794.9503     1784.975    80.593349 
   19100    240.01677    -108.3609   0.21717222   -108.14372    689.74681    4.3164395    4.3164395    4.3164395    689.74681   -14332.808    5280.3531    11121.695   -5393.9727    637.38741   -383.44617     80.42239 
   19200    386.36947    -108.4929   0.34959522   -108.14331    -3372.915    4.3167052    4.3167052    4.3167052    -3372.915   -19854.264    5918.9249    3816.5937   -628.14048   -4513.1599    159.98236    80.437241 
   19300    637.71439   -108.72006   0.57701738   -108.14304   -4331.1808    4.3195184    4.3195184    4.3195184   -4331.1808   -662.21642    1497.4034   -13828.729    2033.1035   -4686.0686   -2488.4552     80.59461 
   19400    689.29396   -108.76735   0.62368766   -108.14366    3140.1485    4.3146075    4.3146075    4.3146075    3140.1485    13006.505    1803.2675   -5389.3268   -6785.2957    2571.7805   -1551.7633    80.320034 
   19500    644.31067   -108.72605   0.58298583   -108.14306   -5772.3129    4.3203889    4.3203889    4.3203889   -5772.3129   -12190.788   -58.608117   -5067.5423   -5269.7301    -7044.367    1095.5097    80.643341 
   19600    321.68242   -108.43437   0.29106501   -108.14331    5950.5282    4.3150844    4.3150844    4.3150844    5950.5282   -1297.1746    10684.628    8464.1315    2774.0188   -2500.7525   -399.51366    80.346669 
   19700    282.84254   -108.39955   0.25592188   -108.14362   -7414.8067    4.3179487    4.3179487    4.3179487   -7414.8067   -25381.191   -4333.6316    7470.4027    -9457.507   -767.45277   -2217.8151    80.506776 
   19800    432.31445    -108.5345    0.3911672   -108.14333   -1789.3059    4.3188824    4.3188824    4.3188824   -1789.3059   -10652.234    11210.487   -5926.1713    -940.7828   -4983.9636   -1159.0947    80.559013 
   19900     689.9303   -108.76693   0.62426344   -108.14266    2782.1553    4.3147091    4.3147091    4.3147091    2782.1553    14091.981    7080.0588   -12825.574    1352.8006    1347.5852   -1612.0758    80.325708 
   20000    647.72213   -108.73005   0.58607259   -108.14398   -548.37944    4.3196897    4.3196897    4.3196897   -548.37944    5662.7602    100.81103   -7408.7095   -3209.5207    941.20653     1405.933    80.604196 
   20100    583.42546   -108.67003   0.52789562   -108.14214    5001.9183    4.3165501    4.3165501    4.3165501    5001.9183    2529.6292    7309.3545     5166.771    92.357364   -6720.6603    493.96167    80.428574 
   20200    340.97748   -108.45152   0.30852359     -108.143     842.1275    4.3165555    4.3165555    4.3165555     842.1275    -18591.66     9092.552    12025.491   -2777.9887    662.57878   -4010.1873    80.428873 
   20300    242.30256   -108.36319   0.21924044   -108.14395   -5821.6597    4.3195643    4.3195643    4.3195643   -5821.6597   -26667.489    8594.0525     608.4576   -5735.6757   -982.59253   -1430.2304    80.597175 
   20400    572.76509   -108.66069   0.51824989   -108.14244     1588.029     4.314718     4.314718     4.314718     1588.029   -2621.0484    12217.846    -4832.711   -2200.8447   -6241.4023    1166.4281    80.326206 
   20500     650.0231   -108.73153   0.58815456   -108.14338    2501.4062    4.3184087    4.3184087    4.3184087    2501.4062    12413.812    5944.3908   -10853.985   -808.02961    4439.3932    -218.3463     80.53251 
   20600    642.52253   -108.72515   0.58136789   -108.14378   -2089.5401    4.3186531    4.3186531    4.3186531   -2089.5401    3318.2409   -9650.2932    63.432223   -4223.5425   -4598.6898    254.75967    80.546183 
   20700    492.79254   -108.58875   0.44588904   -108.14286    8320.0533    4.3143547    4.3143547    4.3143547    8320.0533   -5052.5319    18803.398    11209.294    1200.5769   -4142.9256   -2294.2559    80.305917 
   20800    316.97124   -108.43028   0.28680224   -108.14348   -9105.3381    4.3206862    4.3206862    4.3206862   -9105.3381   -35709.191     5877.432    2515.7444   -5873.1167    2518.0023   -5262.9643    80.659992 
   20900    318.15726   -108.43167   0.28787537   -108.14379   -3286.2731    4.3156899    4.3156899    4.3156899   -3286.2731   -20554.494    8333.0986    2362.5764   -824.77393   -1842.2943    1308.5766    80.380499 
   21000    649.46231   -108.72974   0.58764715   -108.14209   -95.127672    4.3171701    4.3171701    4.3171701   -95.127672    4538.6637    5889.8019   -10713.849   -328.67848    -4244.238    2049.6252    80.463234 
   21100    664.48965   -108.74459    0.6012442   -108.14335   -2292.6692    4.3192887    4.3192887    4.3192887   -2292.6692    6470.4295   -8162.0502    -5186.387   -5471.6313    1466.2755   -3024.7042     80.58175 
   21200    532.81357   -108.62638   0.48210092   -108.14428    4899.9655    4.3148426    4.3148426    4.3148426    4899.9655    4471.9453    8881.7512    1346.1999   -523.96628   -6039.7263   -51.065078    80.333163 
   21300    451.85979   -108.55134   0.40885224   -108.14249   -3375.1592    4.3195482    4.3195482    4.3195482   -3375.1592   -26832.611    14897.977     1809.157    2206.2407   -2631.9815   -742.97516    80.596274 
   21400    318.45098   -108.43139   0.28814114   -108.14324   -6323.3905    4.3160847    4.3160847    4.3160847   -6323.3905   -30532.464    4403.1882     7159.104   -5200.4818    2400.9283   -3736.6433    80.402558 
   21500    435.21947   -108.53832   0.39379572   -108.14452   -3297.6281    4.3176443    4.3176443    4.3176443   -3297.6281    -9369.118    7159.2293   -7682.9955    832.52677    -6308.643    2438.7204    80.489751 
   21600    677.42159    -108.7558   0.61294529   -108.14286    1098.1559    4.3182612    4.3182612    4.3182612    1098.1559    6391.8321    3524.8112   -6622.1755    479.12903    439.32041   -1355.5124    80.524258 
   21700    601.14691   -108.68787   0.54393035   -108.14394    6569.1034     4.315713     4.315713     4.315713    6569.1034    10071.472    11107.591   -1471.7522   -9133.1237   -2592.6751    -4823.004    80.381787 
   21800    484.16999    -108.5818   0.43808718   -108.14371   -1835.3523    4.3196487    4.3196487    4.3196487   -1835.3523   -9539.5324     7711.951   -3678.4755    4057.8381   -4135.8863   -303.06603    80.601904 
   21900    417.83295   -108.51983   0.37806403   -108.14177   -3620.4935    4.3150293    4.3150293    4.3150293   -3620.4935   -28486.491    10100.626    7524.3838    2712.1803    1564.3454    2558.3621     80.34359 
   22000    339.66932   -108.45082   0.30733994   -108.14348   -7557.1995     4.319854     4.319854     4.319854   -7557.1995   -25608.037    3804.5619   -868.12306    -5103.621   -1190.3077   -1858.0032    80.613396 
   22100    492.88888   -108.59001   0.44597622   -108.14404     3075.331    4.3155888    4.3155888    4.3155888     3075.331    2684.9642    12074.032   -5533.0032    3845.0127   -4209.5221    1638.5272    80.374848 
   22200    686.26852   -108.76398   0.62095018   -108.14303    5054.7194     4.317618     4.317618     4.317618    5054.7194    5683.1221    8150.2398    1330.7964   -1028.8239    3475.5349   -3070.7863    80.488278 
   22300    620.17648   -108.70489   0.56114872   -108.14374     1069.374    4.3189721    4.3189721    4.3189721     1069.374    7648.5557   -1525.4003   -2915.0334   -8158.6465   -3650.8693   -2947.9451     80.56403 
   22400     442.3033   -108.54296   0.40020532   -108.14276   -1467.9808    4.3142033    4.3142033    4.3142033   -1467.9808   -16288.415    7260.1012    4624.3718    5803.2864   -4756.9176    2458.8825     80.29746 
   22500    343.43563   -108.45306   0.31074777   -108.14231   -10358.071    4.3212354    4.3212354    4.3212354   -10358.071   -37067.685    2331.1323    3662.3396    496.13918    3926.9127    1671.4976    80.690754 
   22600    336.19097   -108.44739   0.30419265   -108.14319    5203.0823      4.31411      4.31411      4.31411    5203.0823   -7074.1536    18002.201    4681.1991   -5012.3404   -6298.0362   -3150.4652    80.292254 
   22700    588.00589   -108.67589   0.53204008   -108.14385    237.59156    4.3189692    4.3189692    4.3189692    237.59156   -3914.3358    675.12503    3951.9854    8299.7728   -628.69733    -1842.688    80.563871 
   22800    757.35111   -108.82794    0.6852672   -108.14267    3983.8682    4.3178064    4.3178064    4.3178064    3983.8682    9893.2324    -2289.897    4348.2692    1413.9618    3334.1378   -274.16269    80.498819 
   22900    601.24346    -108.6873   0.54401772   -108.14328    515.00391    4.3148741    4.3148741    4.3148741    515.00391   -1236.7903   -115.01021    2896.8122   -5508.3118   -1732.2021   -2364.7333    80.334923 
   23000    330.11055   -108.44215   0.29869096   -108.14346    -10733.18     4.320891     4.320891     4.320891    -10733.18    -33780.24     5601.592   -4020.8918    6594.2959   -2027.6019    3626.2966    80.671462 
   23100    276.87138   -108.39328   0.25051904   -108.14276    2210.5901    4.3151051    4.3151051    4.3151051    2210.5901   -22685.321    14942.447    14374.643   -3580.2847    1652.4001   -2267.9687    80.347827 
   23200     429.3404    -108.5321   0.38847621   -108.14362    400.88664    4.3180752    4.3180752    4.3180752    400.88664   -9710.3559    5567.2639    5345.7519   -3025.8972   -7606.5711   -3933.2522    80.513851 
   23300    679.59373   -108.75851   0.61491069    -108.1436    284.42441    4.3180901    4.3180901    4.3180901    284.42441    594.94462   -7138.7965    7397.1251    8406.7573   -2414.4377    317.95776    80.514685 
   23400    777.02525   -108.84559   0.70306877   -108.14252    3182.1547    4.3161531    4.3161531    4.3161531    3182.1547    8731.9685   -436.16923    1250.6648   -2716.8773    2625.1227    2878.4579    80.406384 
   23500    486.66144   -108.58421    0.4403415   -108.14387     -6391.33    4.3184211    4.3184211    4.3184211     -6391.33   -18108.079    4688.3976   -5754.3089   -897.20047   -3849.6208   -3715.6069      80.5332 
   23600    243.81562   -108.36425    0.2206095   -108.14364    -4345.795    4.3174465    4.3174465    4.3174465    -4345.795   -32253.149    10049.819    9165.9459    5651.1202     696.0455    1733.9233    80.478692 
   23700    335.95992   -108.44652    0.3039836   -108.14253    2374.4062    4.3169371    4.3169371    4.3169371    2374.4062   -15040.918    6649.1455    15514.991   -3888.1377   -604.97775   -1412.9151    80.450207 
   23800    522.49778   -108.61674   0.47276697   -108.14398   -1659.2105    4.3177767    4.3177767    4.3177767   -1659.2105   -9394.9043   -2047.8491    6465.1219    799.63187   -3532.0485   -1614.4873    80.497154 
   23900    741.94436   -108.81518   0.67132685   -108.14386   -267.79033    4.3179214    4.3179214    4.3179214   -267.79033    5539.1072   -4302.3503   -2040.1279    6334.2124   -1036.1739     2972.997    80.505249 
   24000    717.05544    -108.7916   0.64880683    -108.1428     2596.352    4.3159505    4.3159505    4.3159505     2596.352    1594.3562    6135.5963    59.103629   -2920.3271   -566.22629    -893.6461    80.395062 
   24100    351.09916   -108.46193    0.3176819   -108.14425   -6561.9098    4.3193835    4.3193835    4.3193835   -6561.9098   -27110.337    5659.9984    1764.6088    4222.5943    -3477.809   -6548.0321    80.587058 
   24200    252.63984   -108.37169   0.22859383   -108.14309    1302.3942    4.3165548    4.3165548    4.3165548    1302.3942   -22773.586    1575.6694    25105.099    2654.3056   -196.38917    817.74042    80.428832 
   24300    428.69216   -108.53039   0.38788968    -108.1425    1250.8031    4.3171343    4.3171343    4.3171343    1250.8031   -12428.155    10602.766    5577.7989   -1146.7219   -1452.6401    2043.6718     80.46123 
   24400     572.3439   -108.66198   0.51786879   -108.14411   -5109.2359    4.3195855    4.3195855    4.3195855   -5109.2359   -7461.7916   -6212.2944   -1653.6217    5254.0667   -2058.9851   -4093.7891    80.598362 
   24500    766.13818   -108.83606   0.69321792   -108.14284    5448.4899    4.3145288    4.3145288    4.3145288    5448.4899    10680.129    3895.0566    1770.2838    1296.8351   -1126.6952    2308.6798    80.315636 
   24600    585.50808   -108.67313   0.52978002   -108.14335   -1581.4556      4.31934      4.31934      4.31934   -1581.4556   -10112.405   -1449.6402     6817.678    501.99587   -1385.8026   -3727.2455     80.58462 
   24700    277.18872    -108.3954   0.25080618   -108.14459   -4034.1733    4.3171707    4.3171707    4.3171707   -4034.1733   -27766.287   -1994.5695    17658.337    7972.2876    210.64412   -4384.1158    80.463265 
   24800    344.18302   -108.45427   0.31142403   -108.14285    2249.6837    4.3167166    4.3167166    4.3167166    2249.6837   -13004.602    6702.3237    13051.329    26.235524    1079.6315    4309.0455    80.437877 
   24900    506.42422   -108.60129   0.45822327   -108.14306   -5073.3146     4.318778     4.318778     4.318778   -5073.3146   -16869.608    3354.5899   -1704.9251    773.69955   -526.01861    441.56043    80.553171 
   25000    578.95623   -108.66871   0.52385176   -108.14486    1401.7957    4.3165303    4.3165303    4.3165303    1401.7957     1377.737   -7251.9808    10079.631    7471.8467    -144.2805   -6502.1994    80.427464 
   25100    763.80085   -108.83308   0.69110306   -108.14198    2961.3533    4.3177994    4.3177994    4.3177994    2961.3533    6324.0467   -8854.2028    11414.216   -4785.5921   -4837.0232     2802.848    80.498425 
   25200    437.43791    -108.5398   0.39580301     -108.144   -1649.9981     4.317328     4.317328     4.317328   -1649.9981   -18782.293   -2118.2419     15950.54    6191.9136   -4322.2353    -369.4395    80.472061 
   25300    310.60226   -108.42499   0.28103945   -108.14395   -6881.1438    4.3182316    4.3182316    4.3182316   -6881.1438   -21388.607   -3225.5084    3970.6839     6906.511   -961.64726   -2881.0034    80.522598 
   25400    423.06955   -108.52501   0.38280222   -108.14221    2810.2103    4.3164307    4.3164307    4.3164307    2810.2103   -13039.132    11692.269    9777.4938     -2730.65    973.56269    1787.3336    80.421901 
   25500     484.6092   -108.58275   0.43848459   -108.14427   -4559.9349    4.3184856    4.3184856    4.3184856   -4559.9349   -17356.533   -6419.9085    10096.637    8037.2108   -199.77179   -4424.0154    80.536812 
   25600    641.29297   -108.72458   0.58025536   -108.14433    2521.6054    4.3172679    4.3172679    4.3172679    2521.6054    6120.6637   -10678.791    12122.944    3585.9066    2374.9742   -6763.3573    80.468704 
   25700    719.82654   -108.79315   0.65131418   -108.14183    1205.7394    4.3168408    4.3168408    4.3168408    1205.7394    621.03107   -4530.9239     7527.111   -1954.7008   -1945.9466    3968.5275     80.44482 
   25800    383.97758   -108.49177   0.34743098   -108.14434   -9454.1068    4.3185941    4.3185941    4.3185941   -9454.1068   -23876.782   -3807.3696   -678.16927    5860.8479    -3602.332   -1869.6122    80.542883 
   25900    280.15294   -108.39767   0.25348826   -108.14419    2301.1627    4.3170136    4.3170136    4.3170136    2301.1627    -12541.69    7151.1411    12294.037    2225.3642    685.57574   -6000.6829    80.454481 
   26000    472.51869    -108.5702   0.42754484   -108.14266    1000.6022    4.3167503    4.3167503    4.3167503    1000.6022   -21192.549    3647.0595    20547.296   -2305.2201   -3855.6523    1501.3131    80.439764 
   26100    488.56188   -108.58777   0.44206105   -108.14571   -1437.2389    4.3184664    4.3184664    4.3184664   -1437.2389   -7936.8088   -5376.3685    9001.4604    7242.0671   -607.09585   -5196.1419    80.535737 
   26200    791.74852   -108.85899    0.7163907    -108.1426   -735.10363    4.3174654    4.3174654    4.3174654   -735.10363    12784.593   -13284.916   -1704.9881    109.92791    1100.5044    -2278.553    80.479746 
   26300    614.58589   -108.69845   0.55609023   -108.14236    2866.7388    4.3157973    4.3157973    4.3157973    2866.7388    -6270.846    5839.6822    9031.3801    3681.3167   -304.23348    2731.1594    80.386502 
   26400    236.05306   -108.35896   0.21358577   -108.14538   -2859.1682    4.3208454    4.3208454    4.3208454   -2859.1682   -17379.564   -5504.8958    14306.955    6935.1053   -3010.9412    -5232.617     80.66891 
   26500    357.58807   -108.46624    0.3235532   -108.14268    8391.8635     4.313473     4.313473     4.313473    8391.8635    -12253.83    13686.007    23743.413   -1771.0182    2465.2421   -7067.6509    80.256694 
   26600    515.16391   -108.60915   0.46613113   -108.14302    -3812.921    4.3196263    4.3196263    4.3196263    -3812.921   -21531.457    2267.8956    7824.7987    5493.8099   -2955.1632     2834.335    80.600649 
   26700     623.8912    -108.7088   0.56450986   -108.14429   -4334.7624    4.3179919    4.3179919    4.3179919   -4334.7624    2223.2593   -13239.694   -1987.8525    3005.1039   -724.45843   -4005.7667     80.50919 
   26800    724.15636   -108.79707   0.65523189   -108.14183    7911.7482    4.3137317    4.3137317    4.3137317    7911.7482    13074.849    3184.0822    7476.3136   -365.87685    1600.9371    -1242.925    80.271131 
   26900    432.04621   -108.53474   0.39092449   -108.14381   -5944.4078    4.3236263    4.3236263    4.3236263   -5944.4078   -17864.097   -13467.978    13498.851    7423.7146   -3488.6852    33.666452    80.824763 
   27000    240.53034   -108.36163    0.2176369   -108.14399    7535.7327    4.3113175    4.3113175    4.3113175    7535.7327   -6692.9682    12280.136    17020.031    3248.9961   -3711.1877   -5031.9117    80.136435 
   27100    485.29312   -108.58074   0.43910341   -108.14163   -7873.9765    4.3210302    4.3210302    4.3210302   -7873.9765   -26186.302    29.692424    2534.6801   -1804.3093   -121.51698   -5416.5971    80.679261 
   27200    551.62485     -108.642   0.49912176   -108.14288   -5961.0696    4.3176535    4.3176535    4.3176535   -5961.0696   -15312.565   -7117.2581    4546.6142    10712.486   -1764.5499    3389.7835    80.490264 
   27300    632.91354    -108.7165   0.57267348   -108.14383    5649.6574    4.3130369    4.3130369    4.3130369    5649.6574    12722.785   -6774.1203    11000.307   -1036.5035    560.03485   -7420.3764    80.232354 
   27400    605.96917   -108.69095   0.54829364   -108.14266   -4456.6068    4.3236712    4.3236712    4.3236712   -4456.6068   -4158.6291   -13404.839    4193.6483    847.02412    3810.0633   -3803.4935    80.827283 
   27500    370.75216   -108.47848   0.33546435   -108.14301    4087.9277    4.3122125    4.3122125    4.3122125    4087.9277   -7314.1731    1892.7226    17685.234    12079.518   -1930.3101   -757.59365    80.186352 
   27600    369.36358    -108.4767   0.33420793   -108.14249   -7376.7031     4.320078     4.320078     4.320078   -7376.7031   -21949.554    941.13472   -1121.6897   -2549.2856    -2139.253    -4426.847    80.625937 
   27700    476.66149   -108.57352   0.43129334   -108.14223   -6194.6643     4.318269     4.318269     4.318269   -6194.6643   -28562.719      -3025.5    13004.226    5717.6545    155.28249    2123.8612    80.524693 
   27800    575.87362   -108.66463   0.52106255   -108.14357    3151.4369    4.3144353    4.3144353    4.3144353    3151.4369   -6148.8669   -3720.4306    19323.608     8197.715   -4816.4067   -1338.6095    80.310416 
   27900    628.65873   -108.71215   0.56882363   -108.14333   -165.13089    4.3205499    4.3205499    4.3205499   -165.13089    7656.7167     -7706.45   -445.65929    -4615.345   -1499.1202   -8035.7799    80.652361 
   28000    566.96533   -108.65561   0.51300215    -108.1426    349.28861    4.3147736    4.3147736    4.3147736    349.28861   -1482.1569   -1958.2102     4488.233    4303.7285    1511.2148   -2593.2661    80.329308 
   28100    365.53853   -108.47398   0.33074694   -108.14323   -2330.6373    4.3190592    4.3190592    4.3190592   -2330.6373   -14638.651     550.6191    7096.1204    6411.3161   -2688.0053    1750.3697    80.568905 
   28200    383.43063   -108.48967    0.3469361   -108.14274   -4773.9094    4.3165075    4.3165075    4.3165075   -4773.9094   -25897.091     4620.764    6954.5986   -1946.8624    1273.1508   -4949.7693    80.426192 
   28300    431.89062    -108.5348   0.39078371   -108.14401    -2079.008    4.3179835    4.3179835    4.3179835    -2079.008   -26514.568    479.57309    19797.971    10311.344    685.65221    997.64825    80.508724 
   28400    669.74472   -108.74858   0.60599909   -108.14258    3006.4373    4.3172608    4.3172608    4.3172608    3006.4373    4976.9952    661.00063     3381.316    4870.0174   -4840.3056   -4595.7174    80.468305 
   28500    661.42243   -108.74154   0.59846892   -108.14307    1316.9303    4.3167598    4.3167598    4.3167598    1316.9303    9698.9492    1129.6071   -6877.7653   -542.04022   -699.25646   -3422.3525    80.440295 
   28600    478.39416   -108.57675   0.43286109   -108.14388   -2266.6076    4.3185405    4.3185405    4.3185405   -2266.6076    -2635.249   -12517.541    8352.9678    8373.0882    3189.7471    1563.1749     80.53988 
   28700    379.80025   -108.48613   0.34365124   -108.14248    1607.9374    4.3156154    4.3156154    4.3156154    1607.9374   -14859.808    6328.4252    13355.195   -1131.8766    -4628.245    807.32333    80.376336 
   28800    300.73927   -108.41557   0.27211521   -108.14345   -7021.7944    4.3192626    4.3192626    4.3192626   -7021.7944   -34728.332    1132.3872    12530.562    3153.7457    1107.3949   -7328.1647    80.580288 
   28900    491.40029   -108.58854   0.44462931   -108.14391    3298.4654    4.3160771    4.3160771    4.3160771    3298.4654    -5127.074    3062.2049    11960.265    7489.6306   -936.38341    221.20489    80.402136 
   29000    770.53298   -108.83888   0.69719443   -108.14169    3317.2842    4.3183729    4.3183729    4.3183729    3317.2842    9787.6059    2810.0577    -2645.811   -253.64946   -2872.7337   -2061.2099    80.530504 
   29100    591.01101   -108.67826   0.53475918    -108.1435    231.51258    4.3170408    4.3170408    4.3170408    231.51258    10329.345   -16651.092    7016.2847    7381.8038    246.81047   -2608.6197    80.456006 
   29200    449.21265   -108.54995   0.40645704   -108.14349    955.23101    4.3166528    4.3166528    4.3166528    955.23101   -4658.9936    -9710.264    17234.951    6862.4944    3266.6789    543.19753    80.434314 
   29300    357.49336   -108.46607   0.32346751   -108.14261   -3444.0594    4.3184363    4.3184363    4.3184363   -3444.0594   -29682.407    8365.3213    10984.908   -3574.5257   -3011.9439   -3636.7198     80.53405 
   29400    287.52168   -108.40525   0.26015566    -108.1451   -3381.2981    4.3159411    4.3159411    4.3159411   -3381.2981   -22406.449    4065.2537    8197.3007    9448.2113    1167.0032   -5958.3101    80.394535 
   29500     599.0865   -108.68607   0.54206606   -108.14401    328.22367     4.318871     4.318871     4.318871    328.22367   -3384.8044    3341.5823    1027.8932    3645.8553    17.870363    4148.2243    80.558373 
   29600    777.93229   -108.84585   0.70388948   -108.14196    1657.4036    4.3165833    4.3165833    4.3165833    1657.4036    10478.727   -5719.9942    213.47785   -1454.5897   -6462.0509    1046.0136    80.430429 
   29700    492.43966   -108.59079   0.44556975   -108.14522   -2434.0449    4.3183594    4.3183594    4.3183594   -2434.0449    626.86494   -19004.977    11075.977    13899.063     530.6397   -4821.1926    80.529752 
   29800    440.47848   -108.54109   0.39855418   -108.14254   -1162.8519    4.3175799    4.3175799    4.3175799   -1162.8519   -20559.558    4512.0774    12558.925    365.67219   -1752.7825   -341.24293    80.486147 
   29900    359.45338   -108.46701   0.32524097   -108.14177   -4293.7217     4.316743     4.316743     4.316743   -4293.7217     -30179.6    11028.981    6269.4539    19.100585   -795.94621   -4153.7568    80.439357 
   30000    321.80579   -108.43613   0.29117664   -108.14495   -4840.2739    4.3190074    4.3190074    4.3190074   -4840.2739   -20074.742    321.72818    5232.1921    11921.993    2178.7478   -2407.5361     80.56601 
   30100    712.11055   -108.78668   0.64433259   -108.14234    3714.0724    4.3154443    4.3154443    4.3154443    3714.0724    3799.3657    1228.9391    6113.9123   -1727.5276    1886.3745    1390.0123    80.366776 
   30200    664.49844   -108.74499   0.60125215   -108.14374   -1304.7335    4.3194391    4.3194391    4.3194391   -1304.7335    3172.5965   -9199.7658    2112.9687    3844.2815   -4089.1092   -109.17786    80.590169 
   30300    438.66398    -108.5421   0.39691239   -108.14519    936.64227    4.3162881    4.3162881    4.3162881    936.64227   -7117.9444   -7636.2377    17564.109    13030.067   -1049.7597   -6294.3015    80.413929 
   30400    502.45599   -108.59641   0.45463274   -108.14177   -1421.2657    4.3169947    4.3169947    4.3169947   -1421.2657   -22785.773    13360.057    5161.9195    -3561.211    -2510.282    3228.5646    80.453426 
   30500    317.03596   -108.43095    0.2868608   -108.14409   -5256.1973    4.3206077    4.3206077    4.3206077   -5256.1973   -32802.792   -2793.1596    19827.359     8233.543   -291.34685    952.75143    80.655597 
   30600    428.47165   -108.53282   0.38769015   -108.14513    810.76323    4.3140312    4.3140312    4.3140312    810.76323   -5102.3823   -3987.3861    11522.058    9268.1431    2490.3933   -2527.0105    80.287855 
   30700    727.27366   -108.80027   0.65805249   -108.14221    679.01929    4.3190922    4.3190922    4.3190922    679.01929    1761.6232   -534.07863    809.51325   -4660.2993     17.85547    -3913.802    80.570753 
   30800    556.48631   -108.64766   0.50352051   -108.14414   -703.46059    4.3190267    4.3190267    4.3190267   -703.46059   -622.19853   -8151.5749    6663.3917    8820.1918   -1410.2819   -1672.4608    80.567087 
   30900    453.31896   -108.55338   0.41017252   -108.14321    2193.4566    4.3135638    4.3135638    4.3135638    2193.4566   -7134.2691    7639.9652    6074.6736    3478.1661    1355.7458   -4363.7616    80.261758 
   31000    455.55418   -108.55393   0.41219499   -108.14174   -8937.9218    4.3234488    4.3234488    4.3234488   -8937.9218   -33236.131   -2374.1474    8796.5127   -712.98406   -1001.6795     4028.209     80.81481 
   31100     320.8844   -108.43453   0.29034295   -108.14419   -544.30485     4.313262     4.313262     4.313262   -544.30485   -18012.669   -5036.9416    21416.696    12146.404    -59.63764   -1012.6186    80.244916 
   31200    568.35405   -108.65784   0.51425868   -108.14358   -2214.1239    4.3179999    4.3179999    4.3179999   -2214.1239   -2837.4021     591.9947   -4396.9642    1553.8757    719.08987   -4996.8522    80.509638 
   31300    705.50688   -108.78051   0.63835745   -108.14215   -1687.6768    4.3210607    4.3210607    4.3210607   -1687.6768   -438.35981     1061.627   -5686.2977    939.92458    772.06753     131.9951    80.680966 
   31400    476.76809   -108.57546   0.43138979   -108.14407    8093.9542     4.310736     4.310736     4.310736    8093.9542    6315.1604    6859.9222     11106.78    9193.2137    1017.3714    1429.4273    80.104014 
   31500    439.35077   -108.54004   0.39753381   -108.14251   -9309.8953    4.3247971    4.3247971    4.3247971   -9309.8953   -24423.233   -4902.4923    1396.0391   -1945.2762   -814.15655   -1015.0657    80.890443 
   31600    417.45956    -108.5193   0.37772618   -108.14157     1689.377    4.3122096    4.3122096    4.3122096     1689.377   -21729.366    2468.1876     24329.31    5670.3225   -2041.3906   -2243.7154     80.18619 
   31700    401.83613   -108.50756   0.36358978   -108.14397   -2626.4603    4.3193398    4.3193398    4.3193398   -2626.4603   -16609.309   -388.30893    9118.2366     7868.043    208.31991   -1901.3339    80.584612 
   31800    676.05003   -108.75393   0.61170427   -108.14223    588.19054     4.319876     4.319876     4.319876    588.19054   -2439.0812    4263.2864    -59.63352   -3311.2501    542.14161    -3965.542    80.614627 
   31900    601.76763   -108.68735     0.544492   -108.14286    12282.008    4.3113084    4.3113084    4.3113084    12282.008    9130.7146    9340.8035    18374.506    9144.9765    1477.1187    4124.5319     80.13593 
   32000    441.84811   -108.54328   0.39979345   -108.14348   -8799.8843    4.3244763    4.3244763    4.3244763   -8799.8843   -15679.835   -11568.862    849.04446    5818.3046     2829.038   -858.09615    80.872441 
   32100    471.05486   -108.56751   0.42622033   -108.14129    1305.6699    4.3101031    4.3101031    4.3101031    1305.6699   -12920.689    7387.3549     9450.344   -2839.6192   -2062.1944   -2301.3599    80.068736 
   32200    322.70487   -108.43664   0.29199015   -108.14465   -6659.8339    4.3219423    4.3219423    4.3219423   -6659.8339   -29160.874   -7243.2477     16424.62    12319.064    763.23989   -1611.2315    80.730363 
   32300    514.21286   -108.60934   0.46527061   -108.14407    538.09497    4.3168116    4.3168116    4.3168116    538.09497   -9752.5785    2284.1069    9082.7565    442.39769   -437.67099     1793.888    80.443188 
   32400     652.2888   -108.73327   0.59020461   -108.14306    8233.0712    4.3132902    4.3132902    4.3132902    8233.0712    3769.6909    4509.1011    16420.421   -36.222522    1628.8982   -2430.5087     80.24649 
   32500    608.19555   -108.69337   0.55030812   -108.14307   -11684.281    4.3237631    4.3237631    4.3237631   -11684.281   -9491.7608    -17685.21   -7875.8714    14304.953    1294.3669    720.33403    80.832437 
   32600    513.52109   -108.60569   0.46464467   -108.14104    1319.0832    4.3101322    4.3101322    4.3101322    1319.0832   -2841.0584    5437.1768    1361.1311   -1429.6578    3897.7675   -5671.1756    80.070357 
   32700    339.16285   -108.44965   0.30688168   -108.14277   -10758.756    4.3226503    4.3226503    4.3226503   -10758.756   -29685.967   -6077.1105     3486.809    3435.2173   -1989.2723   -980.68497    80.770041 
   32800     271.8696   -108.39068   0.24599333   -108.14469    4216.8768    4.3147137    4.3147137    4.3147137    4216.8768   -16103.882    4136.1703    24618.342    10761.123    2978.1642    1901.9144    80.325964 
   32900    612.93928   -108.69728   0.55460034   -108.14268    3138.2376    4.3164024    4.3164024    4.3164024    3138.2376   -7690.3123    5228.2415    11876.783   -4829.6155     430.9196    1201.7689    80.420317 
   33000    681.52328   -108.75979   0.61665658   -108.14314   -4007.3354    4.3206712    4.3206712    4.3206712   -4007.3354   -3414.1084   -12229.145    3621.2472    7595.9794   -3176.9807   -237.39459    80.659154 
   33100    694.11541   -108.77017   0.62805021   -108.14212    338.63477    4.3124502    4.3124502    4.3124502    338.63477    3415.0651   -2001.6469   -397.51395    11137.976    1701.1714    -923.4561    80.199617 
   33200    439.51695   -108.54008   0.39768417    -108.1424    -2113.043    4.3218473    4.3218473    4.3218473    -2113.043   -19166.804    993.18551     11834.49     -3935.44    1161.2373   -1153.2555     80.72504 
   33300    177.21942   -108.30524   0.16035186   -108.14489    1550.6363    4.3129275    4.3129275    4.3129275    1550.6363   -17640.408    6175.2853    16117.031    11699.998    375.51275    266.47557    80.226244 
   33400    349.57517   -108.46118   0.31630296   -108.14487    1138.3066     4.318186     4.318186     4.318186    1138.3066   -18278.081    5433.0599    16259.941    4270.2436    1894.8434    1200.3677    80.520049 
   33500    725.10492   -108.79829   0.65609017    -108.1422    -2073.071    4.3184818    4.3184818    4.3184818    -2073.071   -4402.0512     -3991.78    2174.6181   -2488.7978   -47.455011   -3797.1849      80.5366 
   33600    680.81961   -108.76046   0.61601989   -108.14444    1910.5861     4.313803     4.313803     4.313803    1910.5861    4661.9836   -11758.125      12827.9     12553.92   -2065.5303   -2109.9254    80.275111 
   33700    686.13686   -108.76332   0.62083105   -108.14249   -1692.2389    4.3214945    4.3214945    4.3214945   -1692.2389   -8234.2232    -5156.391    8313.8976    137.54865    5574.8901    763.89077     80.70527 
   33800    336.40804   -108.44755   0.30438907   -108.14316    3948.1456    4.3134464    4.3134464    4.3134464    3948.1456   -14364.358    8630.5682    17578.227    1721.6051    1097.1073    2674.0147    80.255208 
   33900    133.51681   -108.26614   0.12080882   -108.14533   -6802.1314    4.3190736    4.3190736    4.3190736   -6802.1314    -24894.31   -628.78945    5116.7051    13480.841   -272.71942   -1097.8039     80.56971 
   34000     542.4921   -108.63257   0.49085825   -108.14171   -2978.1047    4.3174896    4.3174896    4.3174896   -2978.1047   -11273.367    1721.1822    617.87109   -1685.2495    6.4185685    1389.3453    80.481098 
   34100     620.6074   -108.70493   0.56153862    -108.1434     785.7468    4.3152709    4.3152709    4.3152709     785.7468    -1419.614   -9936.8013    13713.656    7181.0002   -514.53525   -4082.3839    80.357087 
   34200    666.07501   -108.74788   0.60267866    -108.1452    -1901.287    4.3193946    4.3193946    4.3193946    -1901.287   -1613.6788   -17612.527    13522.344    10818.331   -2858.1839     131.3844    80.587677 
   34300    685.72499   -108.76265   0.62045838   -108.14219    6643.6179    4.3137439    4.3137439    4.3137439    6643.6179   -3345.3283      9376.53    13899.652   -6258.6132    6424.1876    1509.2529    80.271812 
   34400     263.3212   -108.38386   0.23825856    -108.1456   -6479.5944    4.3197832    4.3197832    4.3197832   -6479.5944   -26107.039    -1428.289    8096.5446    10596.127   -967.73038    363.39362    80.609431 
   34500    291.63588     -108.408   0.26387827   -108.14412   -3391.7725    4.3157799    4.3157799    4.3157799   -3391.7725   -16197.744   -14.771388    6037.1979    7282.8634    863.49641   -4452.2663    80.385529 
   34600    519.68424   -108.61234   0.47022122   -108.14212    934.84946    4.3166615    4.3166615    4.3166615    934.84946   -8054.7195   -1804.6749    12663.943   -3018.8849    2582.7347    486.06949    80.434799 
   34700    538.05289   -108.63181   0.48684156   -108.14496   -3810.2792    4.3192475    4.3192475    4.3192475   -3810.2792   -5529.8268   -15850.483    9949.4719    13748.769   -1543.2712    1486.5235    80.579447 
   34800    711.22586   -108.78671    0.6435321   -108.14318    4264.6748    4.3139062    4.3139062    4.3139062    4264.6748    6923.8325    2909.3421      2960.85    1469.7934   -4078.6706    311.03274    80.280873 
   34900     607.6391   -108.69247   0.54980462   -108.14266   -1837.2302    4.3194984    4.3194984    4.3194984   -1837.2302   -15256.464    1964.5324    7780.2414   -314.88422    2707.3886    1133.0488     80.59349 
   35000    307.64583   -108.42274   0.27836441   -108.14438   -3794.4674     4.316564     4.316564     4.316564   -3794.4674   -19100.009   -3000.5396    10717.147      13947.1   -15.109889   -3345.8746    80.429348 
   35100    361.78739   -108.46989   0.32735283   -108.14253    761.66242    4.3158952    4.3158952    4.3158952    761.66242   -11248.272   -1635.0684    15168.328    -856.2273   -982.23964   -3427.3485    80.391969 
   35200    495.08421   -108.59054    0.4479626   -108.14258   -5258.0372    4.3189323    4.3189323    4.3189323   -5258.0372   -10627.055   -6486.9532    1339.8971    2751.7862    6485.8455    1331.2245    80.561803 
   35300    523.00538   -108.61731   0.47322626   -108.14409    1210.6331     4.315663     4.315663     4.315663    1210.6331    5234.2962    -1607.752    5.3551872     11278.32   -1390.6113    583.56758    80.378994 
   35400    730.88695   -108.80345   0.66132187   -108.14213    1024.0387    4.3171602    4.3171602    4.3171602    1024.0387     2456.252    2272.0937   -1656.2296   -2677.6068   -2740.5149   -5490.8995    80.462682 
   35500    485.35451   -108.58337   0.43915896   -108.14421    851.90104    4.3181055    4.3181055    4.3181055    851.90104   -14379.258   -4320.2567    21255.218    7251.8015    774.04005    255.90382    80.515548 
   35600    370.60688   -108.47933   0.33533289   -108.14399    1852.9113    4.3153517    4.3153517    4.3153517    1852.9113   -13086.144   -4279.2891    22924.167     8476.036    2349.8841   -1839.0909    80.361605 
   35700    450.76061   -108.55012   0.40785768   -108.14226     -2457.23    4.3180911    4.3180911    4.3180911     -2457.23    -14922.15   -446.82676    7997.2873   -4691.1095    -3307.815    915.62184    80.514741 
   35800    452.72398   -108.55323   0.40963417   -108.14359   -4081.3815    4.3174846    4.3174846    4.3174846   -4081.3815   -4278.3579    1249.8814   -9215.6681    9249.7797    4242.4018    1988.4459    80.480821 
   35900     602.8266   -108.68863   0.54545017   -108.14318    4094.9761    4.3157891    4.3157891    4.3157891    4094.9761    8538.2438    106.57322    3640.1113    5436.3343   -1467.3147    -2766.107    80.386042 
   36000    626.07078   -108.70884     0.566482   -108.14236    358.32605    4.3190742    4.3190742    4.3190742    358.32605   -840.22037   -5311.9921    7227.1906    540.03802   -2244.0144   -5040.7132    80.569745 
   36100    400.66549   -108.50643   0.36253055    -108.1439    2146.9375    4.3154899    4.3154899    4.3154899    2146.9375   -8338.7227   -7434.2824    22213.817    11766.573    1918.2585    2808.4284    80.369325 
   36200    471.04424   -108.56829   0.42621072   -108.14208   -3173.3878    4.3174309    4.3174309    4.3174309   -3173.3878    -21795.95    623.15846    11652.628    657.49906   -59.781866   -2051.5815    80.477817 
   36300    454.19044   -108.55376   0.41096106    -108.1428   -5428.5709    4.3176034    4.3176034    4.3176034   -5428.5709   -12667.185    3451.4051   -7069.9325   -178.35133   -2525.6317   -2421.6784    80.487466 
   36400    476.81773   -108.57588    0.4314347   -108.14445    571.19102     4.315301     4.315301     4.315301    571.19102    331.79596   -3914.5604    5296.3375    11398.849    1963.7581   -153.18493     80.35877 
   36500    655.67572   -108.73527   0.59326917     -108.142    317.00512    4.3194142    4.3194142    4.3194142    317.00512    7257.5543   -8179.8772    1873.3383   -929.17175    3861.8151    -4010.167    80.588777 
   36600    500.14373   -108.59572   0.45254056   -108.14318    436.81729    4.3153099    4.3153099    4.3153099    436.81729    3836.6509   -8836.8029    6310.6039    5437.7388   -1982.4378    -69.42739    80.359265 
   36700     400.0412    -108.5059   0.36196569   -108.14394   -4419.8412    4.3176711    4.3176711    4.3176711   -4419.8412   -22287.482   -904.82999    9932.7884    10313.221    1207.1083    3317.3598     80.49125 
   36800    498.67577   -108.59292   0.45121231   -108.14171   -3922.9534    4.3181032    4.3181032    4.3181032   -3922.9534   -23194.087    7221.5306    4203.6965   -3235.4535   -2614.7674   -3263.4006    80.515417 
   36900    442.28908   -108.54397   0.40019246   -108.14378    -1019.781    4.3150723    4.3150723    4.3150723    -1019.781   -9311.4141   -911.71918    7163.7904    10963.022   -1209.6655   -4753.1403    80.345995 
   37000    559.89263   -108.65075   0.50660261   -108.14415    1977.4249    4.3188884    4.3188884    4.3188884    1977.4249     5445.787   -12854.862     13341.35    6921.2197    2093.1057    1395.2141    80.559349 
   37100    708.99695   -108.78339   0.64151534   -108.14188    1679.0077    4.3158565    4.3158565    4.3158565    1679.0077    15354.156   -7362.6935   -2954.4388   -4650.8531    4555.0065    -3568.494    80.389807 
   37200    349.60086   -108.46181   0.31632621   -108.14549   -2481.3106    4.3171681    4.3171681    4.3171681   -2481.3106   -7563.8047   -5931.0323    6050.9052      10661.7   -1121.6711    1116.4331    80.463123 
   37300    414.37808    -108.5183     0.374938   -108.14336   -5079.4087    4.3178224    4.3178224    4.3178224   -5079.4087   -28899.949      6457.64     7204.083    3576.1344   -359.86835    87.625096    80.499714 
   37400    459.39187   -108.55779   0.41566742   -108.14213     1875.076    4.3159535    4.3159535    4.3159535     1875.076   -19038.599    6261.3269      18402.5   -232.02692   -531.45818   -3009.1306    80.395228 
   37500    475.54356   -108.57546   0.43028181   -108.14518   -2372.1118    4.3181655    4.3181655    4.3181655   -2372.1118    -3769.405   -12866.831    9519.9005    15209.985   -409.31778   -1762.2779    80.518905 
   37600    718.05937   -108.79278   0.64971521   -108.14306     2949.774     4.315725     4.315725     4.315725     2949.774    16249.779   -8532.2415     1131.785   -41.095075   -263.75437    5424.7267    80.382461 
   37700    637.07822   -108.71954   0.57644176    -108.1431   -1310.2968    4.3181578    4.3181578    4.3181578   -1310.2968    8275.3468   -5958.9699   -6247.2673   -1375.1943   -32.919058   -2560.4342    80.518474 
   37800    285.71346   -108.40368   0.25851954   -108.14516   -4415.8311    4.3167951    4.3167951    4.3167951   -4415.8311   -18905.586    3511.0616    2147.0315    12833.131     1462.483   -517.78385     80.44227 
   37900     374.3294    -108.4815   0.33870111    -108.1428   -259.98443    4.3163242    4.3163242    4.3163242   -259.98443   -23570.964    5993.6959    16797.315    -969.2062    345.25177    288.08555    80.415947 
   38000    440.45193   -108.54162   0.39853016   -108.14309     -1735.22    4.3188738    4.3188738    4.3188738     -1735.22   -12125.908    501.89122    6418.3565    4769.3776    2689.8884   -2032.5223    80.558529 
   38100    524.62503   -108.61942   0.47469175   -108.14473    2562.0892    4.3147189    4.3147189    4.3147189    2562.0892    9017.9994   -10858.522    9526.7908    10854.187    1027.2632    2425.7591    80.326258 
   38200    835.90759   -108.89831   0.75634675   -108.14196   -319.57893    4.3189297    4.3189297    4.3189297   -319.57893    11076.114   -3342.4364   -8692.4143   -3298.6212   -2500.0726    990.15858     80.56166 
   38300    523.53236   -108.61807   0.47370308   -108.14437    1341.9178    4.3168343    4.3168343    4.3168343    1341.9178    2953.3928   -820.10579    1892.4664    7086.1553   -997.13694   -2333.7486    80.444458 
   38400    275.81835   -108.39456   0.24956624   -108.14499   -2246.8245    4.3154933    4.3154933    4.3154933   -2246.8245    -17393.77   -2379.0427     13032.34    8702.8807    5216.8117   -1948.2955    80.369511 
   38500    375.21737   -108.48205   0.33950456   -108.14255   -533.52542    4.3187165    4.3187165    4.3187165   -533.52542   -17592.972    5862.4936    10129.902   -3389.8637    984.76981    3564.6735    80.549729 
   38600    406.59818    -108.5118   0.36789857   -108.14391    -91.86984    4.3161196    4.3161196    4.3161196    -91.86984   -3407.0057   -5707.3955    8838.7917    8516.4143    382.48096   -1360.4536    80.404512 
   38700    652.18405   -108.73434   0.59010984   -108.14423   -2473.3423    4.3173939    4.3173939    4.3173939   -2473.3423   -1607.6704   -5351.4137   -460.94266    5897.1781    915.83653     3408.293     80.47575 
   38800    789.53536   -108.85628   0.71438819   -108.14189     3754.156    4.3180807    4.3180807    4.3180807     3754.156    17140.264   -4397.8633   -1479.9329    1862.2397   -2262.3499   -596.33711     80.51416 
   38900    466.69472   -108.56684   0.42227519   -108.14456   -173.23399    4.3156264    4.3156264    4.3156264   -173.23399   -2568.2809   -7894.7003    9943.2792    13530.708    317.87994   -2523.6484    80.376952 
   39000    311.05312   -108.42518    0.2814474   -108.14373   -3205.0524    4.3179952    4.3179952    4.3179952   -3205.0524   -19109.603   -4954.7932    14449.239   -932.91593    4453.4524    1584.4794    80.509376 
   39100    380.89235   -108.48678   0.34463941   -108.14214   -2968.1646    4.3174094    4.3174094    4.3174094   -2968.1646   -14662.761    1620.2179     4138.049    -28.22157   -57.540661    2858.4912    80.476614 
   39200    402.22942   -108.50848   0.36394563   -108.14453   -3442.6599    4.3150845    4.3150845    4.3150845   -3442.6599   -15460.091   -1788.0042    6920.1154    11078.714   -1122.5098   -1408.7765    80.346678 
   39300    690.87669   -108.76889   0.62511975   -108.14377   -2440.3306    4.3199448    4.3199448    4.3199448   -2440.3306    7669.1928   -6921.5928   -8068.5918    -987.0633    4975.6904    1005.4762    80.618479 
   39400    699.09519   -108.77554   0.63255602   -108.14298    5483.7182    4.3149822    4.3149822    4.3149822    5483.7182    14769.421   -5125.5896    6807.3232    6799.0173    1066.2089    1935.4411     80.34096 
   39500    483.97195   -108.58181   0.43790799   -108.14391   -3288.4455    4.3174847    4.3174847    4.3174847   -3288.4455   -13627.488   -10823.257    14585.409    10513.179    927.97133    -3142.677    80.480827 
   39600    376.09685    -108.4829   0.34030034    -108.1426   -5262.5456    4.3193096    4.3193096    4.3193096   -5262.5456   -13687.378   -2770.4829    670.22365   -4475.9894     328.6416    6756.7489     80.58292 
   39700    312.46968   -108.42562   0.28272913   -108.14289    832.08129    4.3126619    4.3126619    4.3126619    832.08129   -15483.813    9084.0159    8896.0415     8478.114   -3101.9365    1534.4549    80.211424 
   39800    456.87415   -108.55718   0.41338933   -108.14379   -7768.7336    4.3222273    4.3222273    4.3222273   -7768.7336   -10402.349   -5296.2704   -7607.5808    7443.5121    287.61472   -1248.7893     80.74633 
   39900    663.29973   -108.74286   0.60016754   -108.14269    8141.2072    4.3135101    4.3135101    4.3135101    8141.2072    19628.598   -766.75165    5561.7755   -4419.9454    5287.3637    108.87117    80.258764 
   40000     673.8823   -108.75318   0.60974287   -108.14344    930.68883    4.3169486    4.3169486    4.3169486    930.68883    2997.5245   -10865.972    10660.514    7444.2759    1008.4255    1609.2786    80.450852 
   40100    519.39446   -108.61275   0.46995902   -108.14279   -4117.5532    4.3207337    4.3207337    4.3207337   -4117.5532   -4246.4777   -12839.391    4733.2093    3958.1447    -52.67676   -2017.1987    80.662653 
   40200    353.96365   -108.46258   0.32027375    -108.1423    4996.4613    4.3106372    4.3106372    4.3106372    4996.4613   -3069.0471    9504.8936    8553.5374   -538.44322      1862.12    3636.4374    80.098509 
   40300     307.2308   -108.42142   0.27798889   -108.14343   -9049.2664     4.323051     4.323051     4.323051   -9049.2664   -25317.756   -4062.0285    2231.9855    9687.3045    727.68005    339.34873    80.792503 
   40400    518.79043   -108.61188   0.46941249   -108.14246    5734.6974    4.3133199    4.3133199    4.3133199    5734.6974   -1677.3896    4458.9495    14422.532    2392.1229    1240.5721   -4426.7939    80.248145 
   40500    634.33416   -108.71752   0.57395887   -108.14356    3180.0743    4.3167723    4.3167723    4.3167723    3180.0743    12241.638   -6878.0371    4176.6218   -2687.1841    116.93777    3728.5813    80.440995 
   40600    664.26747   -108.74396   0.60104317   -108.14292   -3790.8105    4.3202873    4.3202873    4.3202873   -3790.8105    1609.0704    -16968.84    3987.3377    7453.1493    -2312.622    98.514174    80.637652 
   40700    526.27134   -108.61835   0.47618136   -108.14217    6162.2578    4.3120534    4.3120534    4.3120534    6162.2578    8410.3906    3703.4804    6372.9023   -8.7966811    470.53431    -206.2212     80.17748 
   40800     290.4544   -108.40619   0.26280924   -108.14339   -8600.8475    4.3216643    4.3216643    4.3216643   -8600.8475   -25429.472   -2772.3739    2399.3029    5289.9576    3451.6087    1830.5361    80.714786 
   40900    364.69793   -108.47238   0.32998635   -108.14239    922.79518    4.3144927    4.3144927    4.3144927    922.79518   -25383.667    7491.2881    20660.764    6237.2135    1525.7605   -138.23478     80.31362 
   41000    560.11835   -108.64915   0.50680685   -108.14234    2158.7652    4.3163954    4.3163954    4.3163954    2158.7652    1824.0528   -642.77176    5295.0145   -1845.9737    1576.3798   -3428.1494    80.419927 
   41100    615.34381   -108.70081   0.55677601   -108.14404   -4192.9166    4.3192623    4.3192623    4.3192623   -4192.9166    6454.6403   -11915.519   -7117.8713    5327.6244   -978.12292    5869.0467    80.580273 
   41200    681.07207   -108.75894   0.61624832   -108.14269    3916.5986    4.3139341    4.3139341    4.3139341    3916.5986    11078.945   -5590.3485     6261.199    5134.1546    754.34984   -2254.8245     80.28243 
   41300    464.82891    -108.5643   0.42058696   -108.14371   -2413.2992    4.3184716    4.3184716    4.3184716   -2413.2992   -10933.342    -156.7038    3850.1481   -1377.7936    1881.2975   -2425.1466    80.536028 
   41400    237.90024   -108.35996   0.21525714   -108.14471   -3183.6189     4.316674     4.316674     4.316674   -3183.6189   -31942.965    1757.2863    20634.822    7196.0807    608.02135    2690.8084    80.435497 
   41500    469.46351   -108.56713   0.42478045   -108.14235   -915.63888    4.3164361    4.3164361    4.3164361   -915.63888   -19039.453    1914.9795    14377.557     2316.483   -1719.5758    386.55732    80.422201 
   41600    558.00583    -108.6482    0.5048954    -108.1433    -835.1201    4.3171509    4.3171509    4.3171509    -835.1201    6541.4418   -1111.2947   -7935.5074   -551.22536   -433.95512    1638.5322    80.462161 
   41700    648.03491   -108.73059    0.5863556   -108.14423   -3360.1449     4.317799     4.317799     4.317799   -3360.1449    7993.5915    -15297.27   -2776.7557    12037.534   -159.80122    3189.7664    80.498401 
   41800    652.81957   -108.73272   0.59068487   -108.14204     6446.102    4.3156687    4.3156687    4.3156687     6446.102    7685.3504   -180.62392     11833.58   -762.05631    2454.3671   -3117.8411    80.379313 
   41900    373.32274   -108.48149   0.33779026    -108.1437   -4559.0019    4.3177428    4.3177428    4.3177428   -4559.0019   -21025.195   -3897.1352    11245.324     461.0728    2479.5643   -4125.9996    80.495257 
   42000    260.07827   -108.37934   0.23532429   -108.14402   -4987.6826    4.3171882    4.3171882    4.3171882   -4987.6826   -29486.686   -2962.8268    17486.465    6733.2912   -1770.1852     3315.012    80.464248 
   42100    524.90623   -108.61698   0.47494619   -108.14204    1809.0572    4.3153983    4.3153983    4.3153983    1809.0572   -3884.2766    6094.5525    3216.8958   -1724.7054   -392.12151   -2218.5672    80.364209 
   42200    567.48123    -108.6581   0.51346894   -108.14463   -5105.3158    4.3190246    4.3190246    4.3190246   -5105.3158    1977.8234   -11120.173   -6173.5979    3822.4959    1571.5313     441.3771     80.56697 
   42300    640.93719   -108.72456   0.57993344   -108.14463    6218.7922    4.3142072    4.3142072    4.3142072    6218.7922    11854.194   -9508.2657    16310.449    9245.4085   -59.839009      821.769    80.297679 
   42400    663.43132   -108.74286    0.6002866   -108.14257   -1005.8775    4.3189451    4.3189451    4.3189451   -1005.8775   -5285.3698   -3945.5429    6213.2804   -1780.8419   -2268.7971   -1944.4667    80.562524 
   42500    273.77408   -108.39257   0.24771654   -108.14486    -5815.364    4.3164534    4.3164534    4.3164534    -5815.364   -19150.766   -6332.6854    8037.3598    3352.3273    317.96008    175.20758    80.423165 
   42600    327.39209   -108.44005   0.29623124   -108.14381   -2528.3317    4.3156049    4.3156049    4.3156049   -2528.3317   -17293.006    3241.5875    6466.4232    5592.5674   -3030.0278     4328.396    80.375746 
   42700     503.0933   -108.59764   0.45520939   -108.14243   -1702.9952    4.3199109    4.3199109    4.3199109   -1702.9952   -9235.6359    1697.5885    2429.0618   -2456.7411    3042.0059   -4763.7885    80.616579 
   42800    558.83115   -108.65024   0.50564217    -108.1446    3925.1113    4.3132109    4.3132109    4.3132109    3925.1113    5088.5882   -5812.1602    12498.906    7251.4789     2370.894   -177.50165    80.242064 
   42900    740.19434    -108.8129   0.66974339   -108.14315    607.01495    4.3199259    4.3199259    4.3199259    607.01495    3089.8499   -7392.0492    6123.2442    1650.2052   -2798.6546    340.12239     80.61742 
   43000    587.08584    -108.6743    0.5312076   -108.14309   -456.60228    4.3155199    4.3155199    4.3155199   -456.60228    -5363.158   -455.44831    4448.7995    112.53266    -2214.329   -1918.7295    80.370999 
   43100    239.22274   -108.36147   0.21645376   -108.14501   -3882.8679    4.3156446    4.3156446    4.3156446   -3882.8679   -17524.535   -1407.6435    7283.5751    7482.6956    1691.7835    2082.6976    80.377966 
   43200    319.94043   -108.43268   0.28948883   -108.14319   -1786.0877    4.3201914    4.3201914    4.3201914   -1786.0877   -21489.049    2107.5145    14023.271    1583.0545   -2311.2219    1120.0029    80.632285 
   43300    502.93508   -108.59774   0.45506623   -108.14267    5001.7605    4.3123581    4.3123581    4.3123581    5001.7605   -10792.178    9225.3907    16572.069    587.26076   -247.51766   -4190.6982    80.194477 
   43400    653.64584   -108.73677   0.59143249   -108.14534   -3559.6563    4.3200713    4.3200713    4.3200713   -3559.6563    497.22481   -13211.789    2035.5952    5739.6276    186.79038    1413.4304    80.625559 
   43500    793.98898   -108.86124   0.71841791   -108.14282    3131.3975    4.3156908    4.3156908    4.3156908    3131.3975    10934.646   -964.30836    -576.1454   -2465.1604   -5978.5839    3281.9409    80.380548 
   43600    490.25336   -108.58726   0.44359154   -108.14366     151.1479    4.3158215    4.3158215    4.3158215     151.1479   -6291.5766    328.33831     6416.682     4105.529    1668.1134   -2486.1759     80.38785 
   43700    173.47072   -108.30126   0.15695995    -108.1443   -4212.7547    4.3205284    4.3205284    4.3205284   -4212.7547   -21646.498   -7639.4461     16647.68    8531.3245    2036.1682    268.95962    80.651156 
   43800    368.47164   -108.47532   0.33340088   -108.14192    3458.9697    4.3124311    4.3124311    4.3124311    3458.9697   -22760.151    14021.136    19115.925   -2129.1678   -2977.7815   -2510.2785    80.198546 
   43900    539.38755   -108.63195   0.48804919    -108.1439   -6077.1227    4.3206888    4.3206888    4.3206888   -6077.1227   -15422.009   -6907.3532    4097.9944    5511.2346   -944.71046   -2845.1735    80.660138 
   44000    732.72064   -108.80726   0.66298103   -108.14428    1216.3231    4.3149365    4.3149365    4.3149365    1216.3231    15987.329   -9296.9678   -3041.3921    2544.1675    555.23671    673.82185    80.338409 
   44100    752.21932   -108.82343   0.68062385    -108.1428    2934.9361    4.3153295    4.3153295    4.3153295    2934.9361    5596.9295    280.63089    2927.2477   -3205.3301   -5627.1247    4358.1091     80.36036 
   44200    338.47775   -108.45066   0.30626178    -108.1444   -5148.1104    4.3214652    4.3214652    4.3214652   -5148.1104   -13091.705    -13927.57    11574.944    6897.6729    644.02248    -5156.359     80.70363 
   44300    237.24138     -108.358   0.21466099   -108.14334     334.9888    4.3104294    4.3104294    4.3104294     334.9888   -22109.259    7041.5848     16072.64    3204.3865   -3198.6234    1186.9366    80.086925 
   44400    404.68082   -108.50927   0.36616371   -108.14311   -9191.4001     4.321968     4.321968     4.321968   -9191.4001   -30412.483    176.72376     2661.559   -3586.2737   -5286.8377   -662.42576    80.731799 
   44500    582.17745   -108.67081   0.52676639   -108.14405    232.23914    4.3151177    4.3151177    4.3151177    232.23914    6533.3419     -8843.18    3006.5555    8444.2289    1624.4535   -1472.8219    80.348531 
   44600    768.11955   -108.83806   0.69501071   -108.14305    5323.4851     4.313574     4.313574     4.313574    5323.4851    13697.457   -3523.0429    5796.0408    1962.3019    2575.9997    863.94027    80.262331 
   44700    609.68762   -108.69442   0.55165817   -108.14276    -4116.186    4.3236455    4.3236455    4.3236455    -4116.186   -5291.2856   -10806.882    3749.6096   -1417.3568   -1421.5016   -619.92995    80.825844 
   44800    330.01488   -108.44147    0.2986044   -108.14287    3494.0923    4.3092363    4.3092363    4.3092363    3494.0923   -11538.543    4302.7292    17718.091    8403.4794   -1210.9856   -4985.6248     80.02044 
   44900    282.04579   -108.39817   0.25520096   -108.14297   -8704.5031    4.3216883    4.3216883    4.3216883   -8704.5031   -32682.547    2259.3074    4309.7303   -2838.1865   -3188.1206    -39.28204    80.716125 
   45000    438.48549   -108.53926   0.39675089   -108.14251   -1397.2766    4.3167561    4.3167561    4.3167561   -1397.2766   -15084.235    5002.0888    5890.3165    264.75902    -3824.823    3172.8052    80.440089 
   45100    614.90933   -108.69999   0.55638288    -108.1436      7530.55    4.3118884    4.3118884    4.3118884      7530.55    8738.9102   -4286.1464    18138.886    8113.8116    991.09368   -3068.8114    80.168276 
   45200    755.36377   -108.82613   0.68346901   -108.14266   -3772.8471    4.3236723    4.3236723    4.3236723   -3772.8471    4671.7075    -9515.806   -6474.4428   -1245.1391   -4221.4639    1221.4327    80.827347 
   45300    555.75685    -108.6458   0.50286048   -108.14294    6170.9222    4.3102728    4.3102728    4.3102728    6170.9222    3605.2874    6341.4165    8566.0625    2426.6058   -748.39524   -2622.5613    80.078196 
   45400    285.06146   -108.40201    0.2579296   -108.14408   -5735.0145    4.3197187    4.3197187    4.3197187   -5735.0145   -23884.902   -1671.8393    8351.6982    4614.3561    368.17318   -2275.7133    80.605822 
   45500    356.73771   -108.46496   0.32278378   -108.14217   -4575.1909    4.3177899    4.3177899    4.3177899   -4575.1909   -24477.381    7530.8724    3220.9358   -2635.8265   -233.07079    43.790107    80.497892 
   45600    419.40593   -108.52327    0.3794873   -108.14378    6145.4932    4.3121473    4.3121473    4.3121473    6145.4932   -8363.2773    1197.1211    25602.636    6228.3033   -447.33859    1626.9545    80.182714 
   45700    680.49515   -108.75944   0.61572631   -108.14372   -7104.3167    4.3229391    4.3229391    4.3229391   -7104.3167   -1115.4107   -16013.335   -4184.2049    5070.2744   -2526.9245   -7099.1127    80.786235 
   45800    748.75652    -108.8196   0.67749063   -108.14211    7525.2843    4.3112481    4.3112481    4.3112481    7525.2843      18553.3    7405.7613   -3383.2082   -1424.9735    -6819.315   -188.53502    80.132565 
   45900    462.50546   -108.56268   0.41848466    -108.1442   -3319.7471    4.3188554    4.3188554    4.3188554   -3319.7471   -12109.057   -1724.4357     3874.251    4865.5952    1693.5822   -286.24145    80.557501 
   46000    310.31822   -108.42424   0.28078245   -108.14346   -7634.6033    4.3188608    4.3188608    4.3188608   -7634.6033   -25278.365   -658.03156    3032.5871    343.64938    1005.9956   -2994.9018    80.557804 
   46100     337.1262   -108.44744   0.30503887    -108.1424    6676.5252    4.3111461    4.3111461    4.3111461    6676.5252   -13141.223     12595.56    20575.238    493.92911   -3349.5262    2958.1571    80.126878 
   46200    475.15844   -108.57378   0.42993334   -108.14384   -10089.409    4.3232562    4.3232562    4.3232562   -10089.409   -17629.252   -17234.782    4595.8066    5974.9938    1655.8986    -3152.841    80.804014 
   46300    699.72566   -108.77578   0.63312648   -108.14265    5874.0926    4.3118231    4.3118231    4.3118231    5874.0926    16444.379    3870.7991   -2692.9003    -1556.845   -2005.3202   -5694.3761    80.164631 
   46400    746.37518    -108.8181   0.67533595   -108.14276    861.38733    4.3176013    4.3176013    4.3176013    861.38733    5040.5947    2439.8552   -4896.2879    1372.7995    -1953.789    394.53525    80.487346 
   46500    392.12108   -108.50009   0.35479939   -108.14529   -4835.7163    4.3193471    4.3193471    4.3193471   -4835.7163   -19283.293   -3912.5469     8688.691    7749.2624    2608.2542    49.276601    80.585018 
   46600    316.75493   -108.42968   0.28660652   -108.14308    3995.6468    4.3117206    4.3117206    4.3117206    3995.6468   -11576.202    10438.384    13124.758   -1013.2712   -611.69441   -6535.2596    80.158918 
   46700    358.09119   -108.46664   0.32400843   -108.14263   -5787.3408    4.3215685    4.3215685    4.3215685   -5787.3408   -21067.424   -3028.1345    6733.5363    3359.8731   -4223.3879    1711.6051    80.709418 
   46800    464.63618   -108.56473   0.42041258   -108.14432    853.67926    4.3133273    4.3133273    4.3133273    853.67926   -5001.3433     1506.083    6056.2981    4636.7312    3865.1612   -5128.0987    80.248561 
   46900    792.68841   -108.86053   0.71724113   -108.14329    1385.1197    4.3173586    4.3173586    4.3173586    1385.1197    12781.605   -295.20803    -8331.038   -4654.2219   -690.83387   -2736.6379    80.473771 
   47000    666.66401   -108.74677   0.60321161   -108.14356    1904.9968    4.3181413    4.3181413    4.3181413    1904.9968   -2915.8777    1768.2119    6862.6561    6755.7123   -1354.3918     3450.073    80.517548 
   47100    374.11662   -108.48269   0.33850858   -108.14418     -547.477    4.3131216    4.3131216    4.3131216     -547.477   -10227.362   -1425.3783     10010.31    7338.2804    212.10965   -3791.4849    80.237077 
   47200    295.40009   -108.40998   0.26728421    -108.1427   -2910.2102    4.3203508    4.3203508    4.3203508   -2910.2102   -12088.181    2068.6822    1288.8676   -3205.5845    -2363.093   -6278.3111    80.641212 
   47300    365.26452   -108.47344   0.33049902   -108.14294   -2709.4658    4.3143829    4.3143829    4.3143829   -2709.4658   -22706.926    4276.6387     10301.89    6969.8602   -474.91066    100.44542    80.307492 
   47400    532.89726   -108.62723   0.48217664   -108.14505    -3745.292    4.3170096    4.3170096    4.3170096    -3745.292   -6257.5517   -4770.7418    -207.5826    2656.9187     4335.031   -4234.7516    80.454262 
   47500    807.78464   -108.87362   0.73090051   -108.14272    1755.7441    4.3184953    4.3184953    4.3184953    1755.7441    9928.8576   -2634.2394   -2027.3861   -2280.1506    1003.4181   -3595.3384    80.537353 
   47600    635.72321   -108.71877   0.57521572   -108.14355    3465.4575    4.3131162    4.3131162    4.3131162    3465.4575    1463.2392    -3295.639    12228.772    9153.1183   -1686.4634     2655.816    80.236777 
   47700    317.55677   -108.43213   0.28733204    -108.1448    -4026.349    4.3195473    4.3195473    4.3195473    -4026.349   -7077.9688   -2581.5414   -2419.5368   -440.89024    568.33163   -8648.6056    80.596223 
   47800    329.95099   -108.44107   0.29854659   -108.14252   -2427.4068    4.3149995    4.3149995    4.3149995   -2427.4068   -21346.739    11754.533    2309.9861   -1147.0412   -2035.2744   -1985.1632    80.341927 
   47900     347.5883   -108.45835    0.3145052   -108.14385   -5089.4938    4.3165979    4.3165979    4.3165979   -5089.4938   -26060.723    944.26607    9847.9759    9483.0616    2002.8951    1403.9446    80.431246 
   48000    604.65964   -108.69158   0.54710875   -108.14448   -2488.7658    4.3182324    4.3182324    4.3182324   -2488.7658    2558.2615   -4240.9053   -5783.6535    339.01554    353.56839    -3670.275    80.522645 
   48100    794.06775   -108.86103   0.71848919   -108.14254    8061.2531    4.3141084    4.3141084    4.3141084    8061.2531    17508.198   -782.78321    7458.3445    452.88602   -946.72334   -2148.4789    80.292164 
   48200    578.57361   -108.66783   0.52350556   -108.14433   -370.08763    4.3192967    4.3192967    4.3192967   -370.08763    1402.0326   -1656.0868   -856.20872    4029.0496    856.12868   -1451.1025    80.582196 
   48300    342.77748   -108.45419   0.31015227   -108.14404   -1055.3145    4.3146543    4.3146543    4.3146543   -1055.3145   -12804.724    12522.003   -2883.2224   -3780.0271    2111.3917   -8828.3526    80.322647 
   48400    309.23287   -108.42244    0.2798004   -108.14264   -5134.9474    4.3170118    4.3170118    4.3170118   -5134.9474   -26828.633    4572.3684    6851.4225    4459.6017    270.19986   -619.09006    80.454383 
   48500    383.55266   -108.49059    0.3470465   -108.14355   -4857.5396     4.318197     4.318197     4.318197   -4857.5396   -15882.655    -1013.154    2323.1906    6785.9068    2598.1357    1136.7128    80.520668 
   48600    615.32227   -108.70064   0.55675652   -108.14389    6480.3672    4.3135366    4.3135366    4.3135366    6480.3672    18158.878   -1599.9597    2882.1828   -3210.5191   -1069.6641   -7819.6653     80.26024 
   48700    794.14148   -108.86174    0.7185559   -108.14318    1354.1226    4.3191337    4.3191337    4.3191337    1354.1226    9515.3565   -2549.4158    -2903.573    2655.3914   -490.46946    605.90333    80.573074 
   48800    540.11268   -108.63314    0.4887053   -108.14443    2528.8094    4.3152492    4.3152492    4.3152492    2528.8094   -4207.0261    8362.2096    3431.2448    2102.1117    4417.5882   -3299.3029    80.355878 
   48900    355.63007   -108.46528   0.32178156    -108.1435   -5230.1879    4.3161889    4.3161889    4.3161889   -5230.1879   -14820.976     1509.487   -2379.0744   -2061.4218   -660.63979   -4130.0335    80.408381 
   49000    305.61391   -108.41925   0.27652588   -108.14272   -7064.3082    4.3189808    4.3189808    4.3189808   -7064.3082   -28182.977   -1469.8978    8459.9505    6692.4869    440.47829    2052.1755     80.56452 
   49100    382.92843    -108.4903   0.34648169   -108.14381    2519.3437    4.3137371    4.3137371    4.3137371    2519.3437   -15.286338    2971.5236    4601.7939    858.87796   -88.460361   -2794.8178    80.271432 
   49200    646.42918   -108.72892    0.5849027   -108.14402   -1230.4162    4.3189304    4.3189304    4.3189304   -1230.4162    4934.4859   -2899.8253   -5725.9094   -3332.7328   -1275.6926    -8633.164    80.561697 
   49300    747.44061   -108.81927   0.67629997   -108.14297    5431.9425    4.3154903    4.3154903    4.3154903    5431.9425    6576.8865    6333.1318    3385.8091    8549.4978    1399.0613    138.77214    80.369348 
   49400     561.2558   -108.65146   0.50783604   -108.14363    -3166.501    4.3160646    4.3160646    4.3160646    -3166.501    -5641.036   -130.28506   -3728.1819   -1711.7893    6485.9796   -3132.6694    80.401437 
   49500    317.43664   -108.43063   0.28722334    -108.1434   -6260.9575    4.3184653    4.3184653    4.3184653   -6260.9575   -20995.441      55.7214     2156.847   -2742.2075   -1457.2007   -4694.0809    80.535677 
   49600    320.76895   -108.43293   0.29023849   -108.14269    584.11802    4.3143199    4.3143199    4.3143199    584.11802   -15614.825    8268.4446    9098.7347    5305.0642    1089.5857    2555.9129     80.30397 
   49700    386.17263   -108.49382   0.34941711    -108.1444    -2056.675    4.3182567    4.3182567    4.3182567    -2056.675   -10661.899    7009.6997    -2517.826   -4050.5678    2952.4802   -6242.3504    80.524004 
   49800    691.99343   -108.77023    0.6261302   -108.14409    784.68394    4.3157925    4.3157925    4.3157925    784.68394     9105.613   -2599.5204   -4152.0408    2634.0356   -2081.7201   -3247.2937    80.386231 
   49900    741.64082    -108.8144    0.6710522   -108.14335    4124.1282     4.315831     4.315831     4.315831    4124.1282    11907.863   -1496.9988    1961.5205     8147.371    3190.5098    2924.7767    80.388384 
   50000    526.92248   -108.62086   0.47677054   -108.14409   -5501.8016    4.3181582    4.3181582    4.3181582   -5501.8016   -8982.9015   -1036.8694   -6485.6337   -6899.3298    2418.0731    -2394.564    80.518497 
   50100    308.27925    -108.4223   0.27893755   -108.14336   -771.23539    4.3156316    4.3156316    4.3156316   -771.23539   -16700.298    4931.5244    9455.0679   -1430.7273   -1473.1135   -3436.1619    80.377239 
   50200    316.78184   -108.42936   0.28663087   -108.14273   -806.66162    4.3169069    4.3169069    4.3169069   -806.66162   -20239.296    13739.542    4079.7693    4303.5718       2137.8   -1205.2014     80.44852 
   50300    452.40713   -108.55285   0.40934748    -108.1435   -3321.5779    4.3174457    4.3174457    4.3174457   -3321.5779   -4130.9519   -2215.2271   -3618.5546   -5196.2183    5215.1567   -6209.2073    80.478646 
   50400    688.16763   -108.76587   0.62266853    -108.1432     5060.637    4.3150558    4.3150558    4.3150558     5060.637    21296.857   -8250.4113     2135.465    4229.2099   -2495.8683   -2372.4221    80.345073 
   50500    733.38836   -108.80649    0.6635852   -108.14291   -1071.5209    4.3178269    4.3178269    4.3178269   -1071.5209    2686.6308    -526.2522   -5374.9413    3358.7257    3960.5156    3057.8713    80.499966 
   50600    446.88389   -108.54845   0.40434994    -108.1441    -230.9198    4.3158693    4.3158693    4.3158693    -230.9198   -6066.3476    2344.7963    3028.7919   -7222.6353    1490.9067   -5686.0773    80.390523 
   50700    341.35802   -108.45232   0.30886791   -108.14346   -1579.8584    4.3167323    4.3167323    4.3167323   -1579.8584   -20391.553    10553.914    5098.0641    3708.0792    809.75996   -651.45615    80.438759 
   50800    323.91318   -108.43647   0.29308346   -108.14338   -697.23426    4.3163403    4.3163403    4.3163403   -697.23426   -14213.921    7006.3643    5115.8542    3576.2411    6095.0224   -1021.6864    80.416847 
   50900    509.38569   -108.60519   0.46090288   -108.14428   -2222.8413    4.3167156    4.3167156    4.3167156   -2222.8413    7308.8228   -9229.7804   -4747.5662   -7167.4389    1845.7749   -3317.8612    80.437824 
   51000    713.11111    -108.7881   0.64523792   -108.14287    2505.2612    4.3165677    4.3165677    4.3165677    2505.2612    12231.524   -3509.0574    -1206.683    2464.3358   -2324.7749    160.10147    80.429556 
   51100    667.48198    -108.7466   0.60395172   -108.14264   -2053.1031    4.3172129    4.3172129    4.3172129   -2053.1031    1297.3727    2370.8357   -9827.5178    702.09195    373.96303   -891.87963    80.465625 
   51200    404.02679   -108.50922   0.36557193   -108.14365   -236.20973    4.3164694    4.3164694    4.3164694   -236.20973   -7559.4983    5278.3069    1572.5622   -3446.5369    2192.8684   -6876.7161    80.424062 
   51300    323.08661   -108.43517   0.29233555   -108.14283    914.39796     4.315974     4.315974     4.315974    914.39796   -14250.147    6480.1228    10513.218    6079.9739    1893.5664   -1014.5378    80.396376 
   51400    400.04861    -108.5049   0.36197239   -108.14293   -5859.0415    4.3182249    4.3182249    4.3182249   -5859.0415   -14811.515   -268.74812   -2496.8617   -1914.2233    7772.0654   -247.47339    80.522225 
   51500    550.20036   -108.64132   0.49783285   -108.14349    2561.3408    4.3146767    4.3146767    4.3146767    2561.3408     8850.181    -7426.884    6260.7255   -6478.4601   -781.47165   -4223.9674    80.323899 
   51600    709.37813   -108.78472   0.64186024   -108.14286   -3796.7053     4.318568     4.318568     4.318568   -3796.7053    7529.7427   -5486.0771   -13433.782    3842.8602    3112.5313    3295.3908    80.541422 
   51700    532.13609   -108.62532   0.48148792   -108.14383    2678.7837    4.3147073    4.3147073    4.3147073    2678.7837    8351.4081    5935.1096   -6250.1667    -391.3352    3180.7478    -3434.007    80.325609 
   51800    391.70544   -108.49833   0.35442332   -108.14391   -1234.5116    4.3175925    4.3175925    4.3175925   -1234.5116   -6412.7725    -2852.035    5561.2728    481.98733    261.46763   -2707.5703    80.486851 
   51900    398.83457   -108.50358    0.3608739    -108.1427   -3121.3715    4.3165097    4.3165097    4.3165097   -3121.3715   -20758.511    4369.5758    7024.8203    3591.4447     2107.671    842.85456    80.426316 
   52000    463.58126   -108.56279   0.41945807   -108.14333   -2331.3675    4.3161757    4.3161757    4.3161757   -2331.3675   -10933.154   -1938.0383    5877.0901   -4827.9853    1539.5697   -430.56795    80.407648 
   52100    593.86352   -108.68058   0.53734019   -108.14324   -2898.7036    4.3181437    4.3181437    4.3181437   -2898.7036    8133.6809   -12382.349   -4447.4431   -2102.4891   -1005.8342   -3640.2327    80.517686 
   52200    591.51128   -108.67812   0.53521183   -108.14291    5267.8049    4.3138685    4.3138685    4.3138685    5267.8049     18817.24    5809.3859   -8823.2112    3401.8667    6529.7948    151.95396    80.278772 
   52300    491.93901   -108.58869   0.44511676   -108.14358   -2759.4742    4.3201562    4.3201562    4.3201562   -2759.4742     3574.092   -2586.6179   -9265.8966   -1925.7914    4728.9637   -4887.2223    80.630315 
   52400       424.55   -108.52687   0.38414176   -108.14273    3118.4891    4.3133787    4.3133787    4.3133787    3118.4891   -10886.382    5181.9745    15059.875    1466.5399   -2996.5742   -3457.8075     80.25143 
   52500    463.37808   -108.56196   0.41927422   -108.14268   -4991.5652    4.3182832    4.3182832    4.3182832   -4991.5652   -19479.179    4931.0721   -426.58842    892.78072     6285.805    3052.9354     80.52549 
   52600    477.94461   -108.57562   0.43245432   -108.14317   -1254.5057    4.3173555    4.3173555    4.3173555   -1254.5057   -3479.1576   -5468.9784     5184.619   -4870.1394    324.28781   -3032.7124    80.473602 
   52700    561.80116   -108.65129   0.50832949   -108.14296     4602.475    4.3130456    4.3130456    4.3130456     4602.475    16553.655    800.51346   -3546.7432    3394.3936    2127.5928    -855.9681    80.232837 
   52800    572.75365   -108.66161   0.51823954   -108.14337   -5106.7644    4.3211731    4.3211731    4.3211731   -5106.7644    5482.0497   -1003.9001   -19798.443   -106.43183    7345.7479   -1411.5993    80.687267 
   52900    468.75632   -108.56736   0.42414057   -108.14322    5754.9063    4.3118677    4.3118677    4.3118677    5754.9063    218.38764    7652.0756    9394.2558   -5238.9758   -214.99938     -3497.47    80.167119 
   53000    472.51659   -108.57051   0.42754294   -108.14297   -5817.2219    4.3190569    4.3190569    4.3190569   -5817.2219    -12219.87   -2308.2691    -2923.527    1771.0779   -3104.3225   -885.39135    80.568779 
   53100     412.1028   -108.51613   0.37287928   -108.14325   -1377.6909    4.3169924    4.3169924    4.3169924   -1377.6909   -13415.045    4560.9896     4720.983   -600.76552    6688.3884    2491.0319    80.453298 
   53200     528.4599   -108.62124   0.47816162   -108.14308     2048.613    4.3133227    4.3133227    4.3133227     2048.613    690.17338    -1256.874    6712.5395   -1808.8346    925.71238   -6319.2361    80.248302 
   53300    575.66381   -108.66371   0.52087272   -108.14284   -4775.8064    4.3216149    4.3216149    4.3216149   -4775.8064    3991.8437   -5274.0739   -13045.189    5374.6431    1610.7192   -149.23589    80.712015 
   53400    560.62178   -108.64957   0.50726237   -108.14231    4135.1576    4.3117826    4.3117826    4.3117826    4135.1576    6575.1926    10357.466   -4527.1856   -4314.9565    7737.1652   -947.03193    80.162376 
   53500    449.64284   -108.54975   0.40684629   -108.14291   -3460.5664    4.3191894    4.3191894    4.3191894   -3460.5664   -888.73147   -9041.0085   -451.95927   -5849.9298   -1379.3217   -1968.2802    80.576194 
   53600    401.21245   -108.50592   0.36302546   -108.14289   -1814.1303    4.3160136    4.3160136    4.3160136   -1814.1303    -5614.712    1063.9369   -891.61571    3552.3886    3760.0667    3294.5415    80.398586 
   53700    459.45284   -108.55939   0.41572259   -108.14367   -696.33292    4.3149261    4.3149261    4.3149261   -696.33292   -16946.998    4927.0108    9930.9885   -2567.3349    4210.8936   -1021.3981    80.337831 
   53800    566.92072   -108.65638   0.51296178   -108.14341   -3258.9927    4.3194992    4.3194992    4.3194992   -3258.9927   -4087.2096    -7324.543    1634.7744    286.77359   -1799.3549   -5364.8257    80.593531 
   53900    637.32692   -108.71936   0.57666679   -108.14269     2852.517    4.3132861    4.3132861    4.3132861     2852.517    9096.6957    8453.4991   -8992.6437    3599.5225   -122.59615   -315.91039     80.24626 
   54000    489.92417   -108.58661   0.44329368   -108.14332    459.54977    4.3189632    4.3189632    4.3189632    459.54977    6768.7979   -3273.6258   -2116.5228   -5230.2279    5258.1979    426.53638    80.563532 
   54100    424.87395   -108.52704   0.38443488   -108.14261   -1709.2909    4.3154819    4.3154819    4.3154819   -1709.2909    5439.8986   -4947.8333   -5619.9381   -1513.3975    865.46138   -3885.5891    80.368874 
   54200    360.81191   -108.46997    0.3264702    -108.1435   -3601.1761    4.3165089    4.3165089    4.3165089   -3601.1761   -18862.895    7360.7792    698.58758    4964.5536    7104.0051    1978.0934    80.426271 
   54300    503.38601   -108.59909   0.45547424   -108.14361   -2069.2673    4.3167472    4.3167472    4.3167472   -2069.2673    -17695.24    5642.5154    5844.9225   -5209.8946    3232.5943   -3347.0042    80.439588 
   54400    643.68558   -108.72543   0.58242024   -108.14301    2421.5473    4.3157089    4.3157089    4.3157089    2421.5473    2889.7097    5612.8322      -1237.9   -152.47736   -1959.2055   -971.97127     80.38156 
   54500    600.97705   -108.68728   0.54377666    -108.1435    1756.9533    4.3177596    4.3177596    4.3177596    1756.9533    9432.7268   -47.343838   -4114.5229    1432.2796    4895.5234    2875.9305    80.496197 
   54600    480.99808    -108.5782   0.43521717   -108.14299     1052.395    4.3151911    4.3151911    4.3151911     1052.395    9865.3279   -2137.7567   -4570.3864   -4735.6193    2002.7837    -543.0304    80.352632 
   54700    354.55917   -108.46359   0.32081258   -108.14278    -6250.489    4.3179559    4.3179559    4.3179559    -6250.489   -6958.7138   -4432.9453   -7359.8079    3491.2682    1396.0385   -3359.0973    80.507178 
   54800    372.03225   -108.47992    0.3366226    -108.1433   -3576.5572    4.3158356    4.3158356    4.3158356   -3576.5572   -22337.256    13107.304   -1499.7197    703.06273    3169.8418    512.91895    80.388639 
   54900     558.6151   -108.64829   0.50544668   -108.14284   -28.607539    4.3168733    4.3168733    4.3168733   -28.607539   -10206.015    4551.4053     5568.787   -5437.4037    262.45576    -2670.891    80.446639 
   55000    673.07589   -108.75204   0.60901321   -108.14303    3713.2821    4.3164139    4.3164139    4.3164139    3713.2821    10174.235   -2083.2875    3048.8985   -35.180537    1296.1949    2100.2504    80.420961 
   55100    595.47604   -108.68265   0.53879924   -108.14385    2147.8661    4.3159127    4.3159127    4.3159127    2147.8661    8172.6309   -1766.9305    37.897776    998.05714    6783.6983    2235.2044    80.392948 
   55200    450.57329   -108.55078   0.40768818   -108.14309    -5174.125    4.3176677    4.3176677    4.3176677    -5174.125    2359.7966   -9569.7519   -8312.4197   -2944.2959   -981.10074   -5203.3221    80.491058 
   55300    332.96347    -108.4444   0.30127235   -108.14312   -4344.0561    4.3154559    4.3154559    4.3154559   -4344.0561   -12046.766    8123.1112   -9108.5139    3319.6508    2204.2256    1725.8444    80.367423 
   55400    348.69072   -108.45971   0.31550269   -108.14421   -1213.1539     4.317014     4.317014     4.317014   -1213.1539   -18946.687    9371.7537    5935.4711   -4184.5453    3750.8905    592.72689    80.454503 
   55500    591.90745   -108.67888    0.5355703   -108.14331    2590.4026    4.3170892    4.3170892    4.3170892    2590.4026    1479.6227   -1825.4175    8117.0025   -4165.5992    899.02833   -30.570006    80.458708 
   55600    692.79006   -108.77047     0.626851   -108.14362    3158.9858    4.3156101    4.3156101    4.3156101    3158.9858     5938.177   -5069.3202    8608.1005    3035.3577    4467.2274    3188.8099    80.376039 
   55700    608.36522   -108.69435   0.55046164   -108.14389   -2664.2963    4.3170379    4.3170379    4.3170379   -2664.2963    3329.9679   -5231.9442   -6090.9127   -2115.6057    2199.5995   -225.92015     80.45584 
   55800    490.47879   -108.58621   0.44379552   -108.14241   -5202.6405    4.3167346    4.3167346    4.3167346   -5202.6405   -1105.3046   -2057.4267    -12445.19    1440.8995   -3546.0418   -6202.5742    80.438886 
   55900    226.52623   -108.34839    0.2049657   -108.14342   -416.04891    4.3167634    4.3167634    4.3167634   -416.04891   -14817.565    9645.4857    3923.9325     1987.385    2944.2044    4996.3352    80.440498 
   56000    358.12698   -108.46771   0.32404082   -108.14367   -1441.0894    4.3167219    4.3167219    4.3167219   -1441.0894   -10828.975    2604.6702    3901.0369   -4990.0935    5749.8427   -69.422005    80.438175 
   56100     629.0922   -108.71208   0.56921584   -108.14287    4276.9485    4.3159111    4.3159111    4.3159111    4276.9485    2979.5981   -2228.2245    12079.472     150.5394    631.51627   -2959.7684    80.392858 
   56200    719.41916   -108.79482   0.65094557   -108.14387   -2222.8586    4.3174355    4.3174355    4.3174355   -2222.8586    1988.2033   -4574.9604   -4081.8187    3298.7644    6346.3963    3867.6993    80.478073 
   56300    649.48644   -108.73087   0.58766898    -108.1432   -3186.2197    4.3159003    4.3159003    4.3159003   -3186.2197    1550.5356   -2512.0775   -8597.1171   -6832.2204   -191.45815   -63.757567    80.392255 
   56400    393.70999   -108.49953   0.35623707    -108.1433    3671.1884    4.3161278    4.3161278    4.3161278    3671.1884   -3932.2491    6813.7673    8132.0471    2458.0896   -358.40741    334.39743     80.40497 
   56500    183.15666   -108.31068     0.165724   -108.14496   -3719.6784    4.3173672    4.3173672    4.3173672   -3719.6784   -12648.946    946.81063    543.10065    191.33717    4629.5263    5923.1209    80.474255 
   56600    374.27586   -108.48244   0.33865266   -108.14379   -503.30497    4.3160353    4.3160353    4.3160353   -503.30497   -6795.0909    4820.6827    464.49336   -4358.3505    2146.6257   -720.27711    80.399799 
   56700    735.72477   -108.80809   0.66569923   -108.14239   -1719.4052    4.3171424    4.3171424    4.3171424   -1719.4052   -169.75322   -4044.0869   -944.37539    5771.6912   -2293.9417   -3957.3029    80.461685 
   56800    706.47844   -108.78348   0.63923654   -108.14425    -1356.085    4.3161386    4.3161386    4.3161386    -1356.085    890.72311    -1496.339   -3462.6392    1100.1202     4182.067    4469.2737    80.405571 
   56900    634.17565   -108.71708   0.57381545   -108.14326    4501.1121    4.3170055    4.3170055    4.3170055    4501.1121     1322.456    2037.7073    10143.173   -4047.5716    1263.4487   -950.73626    80.454029 
   57000    326.56828   -108.43905   0.29548585   -108.14356    1099.2863     4.317145     4.317145     4.317145    1099.2863   -3162.7438   -1427.1884    7887.7912    755.45932    2827.0369    5304.3771    80.461832 
   57100    154.42525    -108.2844   0.13972721   -108.14468   -4417.4196    4.3145003    4.3145003    4.3145003   -4417.4196     -5946.06    3129.7147   -10435.913   -1802.4129    6071.0867    4277.6958    80.314047 
   57200    517.20448   -108.61079   0.46797748   -108.14281   -5909.1624    4.3192296    4.3192296    4.3192296   -5909.1624   -5448.1031   -4114.0209   -8165.3633   -4839.9726   -1464.1902    -1197.164    80.578445 
   57300    661.60805   -108.74225   0.59863686   -108.14361    3026.1979    4.3146642    4.3146642    4.3146642    3026.1979    1981.2917    1766.5727    5330.7293    5186.1086   -212.76436    1157.4652    80.323202 
   57400    684.45665    -108.7643   0.61931076   -108.14499   -1124.8947    4.3176519    4.3176519    4.3176519   -1124.8947     317.1697   -5714.6721    2022.8183   -2824.7109    4574.6128    3791.5678    80.490175 
   57500    627.66281   -108.71078    0.5679225   -108.14286    6822.6355    4.3159579    4.3159579    4.3159579    6822.6355    4266.1862    1049.5639    15152.156   -1405.2736    1751.6016   -1403.3468    80.395475 
   57600    305.87413   -108.42141   0.27676134   -108.14465   -4026.6441    4.3150416    4.3150416    4.3150416   -4026.6441   -731.13709   -3812.1576   -7536.6376    2430.5314    985.16047     4947.501    80.344282 
   57700    252.96376   -108.37349   0.22888693    -108.1446   -12060.381    4.3197697    4.3197697    4.3197697   -12060.381   -12872.218   -4180.3739   -19128.552    -2375.413    3757.4116    1245.3208    80.608674 
   57800    522.61419   -108.61523    0.4728723   -108.14236    5136.4267    4.3133496    4.3133496    4.3133496    5136.4267   -2756.1166    6618.9115    11546.485    833.37406   -3340.5884   -2499.6695    80.249805 
   57900    587.44747   -108.67624   0.53153481   -108.14471   -3448.3708    4.3184678    4.3184678    4.3184678   -3448.3708    1172.7423   -7029.6033   -4488.2513    1078.1383    4788.5087    7618.2408    80.535814 
   58000    647.56595    -108.7306   0.58593128   -108.14467    5405.7904    4.3170998    4.3170998    4.3170998    5405.7904    8047.8305    1630.3943    6539.1464   -5472.4248    5753.5387    1891.6307    80.459304 
   58100    691.67852   -108.76741   0.62584526   -108.14157    2758.1852    4.3147692    4.3147692    4.3147692    2758.1852    5032.4301   -2201.6335     5443.759   -90.932878    639.69473    944.88299    80.329062 
   58200    272.51265   -108.39171   0.24657517   -108.14514   -9268.3036    4.3186978    4.3186978    4.3186978   -9268.3036   -8541.6619   -4198.8896   -15064.359    2366.9324   -307.16335    4794.6646    80.548686 
   58300    313.51518    -108.4274   0.28367512   -108.14372   -2225.5248    4.3156553    4.3156553    4.3156553   -2225.5248   -12358.775    3859.1782     1823.022    -4962.107    2109.9995    733.44743    80.378566 
   58400    495.74541   -108.59093   0.44856087   -108.14237    1641.8375    4.3160136    4.3160136    4.3160136    1641.8375    -1297.104    4869.0957    1353.5209    5032.8995   -797.21179    -345.5762    80.398586 
   58500    470.17473   -108.57141   0.42542398   -108.14599   -2278.6013    4.3183121    4.3183121    4.3183121   -2278.6013    7405.1649   -1693.6414   -12547.327   -2819.0555    4059.0868    8232.4349    80.527101 
   58600    793.97218   -108.86197   0.71840271   -108.14356    4776.5702    4.3136331    4.3136331    4.3136331    4776.5702    10047.896    1752.6989    2529.1151   -5256.8304    3391.1846   -1260.1455    80.265626 
   58700    646.98225   -108.72911   0.58540314   -108.14371   -1892.0565    4.3190754    4.3190754    4.3190754   -1892.0565   -388.02856   -5050.9138   -237.22714    4022.7254    -2697.186    1532.2097    80.569811 
   58800    295.71273   -108.41288   0.26756709   -108.14531    -6302.086    4.3164714    4.3164714    4.3164714    -6302.086   -9852.1996   -5502.6408   -3551.4175    1618.4493     3639.478    6198.9155     80.42417 
   58900    342.33393    -108.4527   0.30975094   -108.14294    5011.6198    4.3144717    4.3144717    4.3144717    5011.6198   -2841.5127     11846.44    6029.9321    -2894.386    2208.7823   -171.90746    80.312451 
   59000    397.83696   -108.50365   0.35997124   -108.14367   -4422.0966     4.319449     4.319449     4.319449   -4422.0966    4664.2544     746.9806   -18677.525    1065.6924    1226.5087    6433.4097    80.590721 
   59100    488.40578   -108.58779   0.44191981   -108.14587    1089.9564    4.3148914    4.3148914    4.3148914    1089.9564    11893.384    6170.5146   -14794.029   -1736.8815    2117.4171    6948.1165    80.335889 
   59200    865.10786   -108.92425   0.78276777   -108.14148    3400.3666    4.3169119    4.3169119    4.3169119    3400.3666    4408.7346    484.01383    5308.3514   -4669.9463    1324.7382   -2049.9406    80.448798 
   59300    602.08641   -108.68905   0.54478044   -108.14427   -3186.9695    4.3176852    4.3176852    4.3176852   -3186.9695    2323.9167   -10582.057   -1302.7688    5258.5779    529.23901    3940.4877    80.492038 
   59400    275.95445   -108.39519   0.24968939    -108.1455     389.7422    4.3151018    4.3151018    4.3151018     389.7422    -5556.159    3001.5149    3723.8707   -862.02783    6739.8197    5670.9492    80.347644 
   59500    419.36846   -108.52138   0.37945339   -108.14193   -2575.4732    4.3178572    4.3178572    4.3178572   -2575.4732   -3325.2173    6392.7079    -10793.91    -1161.887   -643.08747   -3130.3071    80.501661 
   59600    281.65275   -108.39993   0.25484532   -108.14508   -4182.8431     4.316293     4.316293     4.316293   -4182.8431    4979.3578    8212.4627    -25740.35    986.90025    1200.9761    8599.4269    80.414201 
   59700    593.83328    -108.6833   0.53731284   -108.14599   -504.86332    4.3147549    4.3147549    4.3147549   -504.86332   -1876.5866    5932.9027   -5570.9061    3137.8194    2326.7138    1921.3708    80.328268 
   59800    848.09029   -108.90954   0.76736992   -108.14217    976.01497    4.3198977    4.3198977    4.3198977    976.01497    5045.3568   -7188.6068    5071.2949    -1169.557   -1224.9701   -2231.5768    80.615842 
   59900    515.01063    -108.6114   0.46599244   -108.14541    2408.3387     4.313625     4.313625     4.313625    2408.3387    2729.8916   -109.53738     4604.662    574.46398     5133.271    8789.9368    80.265177 
   60000    378.35803   -108.48671    0.3423463   -108.14436   -1820.5636    4.3182874    4.3182874    4.3182874   -1820.5636    -7545.047    5933.2895   -3849.9332    -2813.035    4817.9617    3266.8514    80.525722 
   60100    355.19972   -108.46347   0.32139217   -108.14208   -2239.9562    4.3168185    4.3168185    4.3168185   -2239.9562    784.82083      12825.8    -20330.49   -3448.5559   -2588.2099   -415.83933    80.443574 
   60200    291.77842   -108.40908   0.26400724   -108.14507   -5016.7187    4.3151719    4.3151719    4.3151719   -5016.7187   -1299.2635    9418.2691   -23169.162    3160.7966    2216.7487    5419.2749    80.351557 
   60300      648.781   -108.73053   0.58703068    -108.1435    -1227.522    4.3191439    4.3191439    4.3191439    -1227.522   -1260.3479   -2679.7328    257.51464    3386.5648    2982.3809   -266.05915    80.573645 
   60400    797.89125   -108.86442   0.72194877   -108.14247    5639.9554    4.3140266    4.3140266    4.3140266    5639.9554    10816.785    1362.8158    4740.2659    718.97191   -2592.9904      -2365.6    80.287595 
   60500    482.83509   -108.58297   0.43687934    -108.1461   -279.58899    4.3181196    4.3181196    4.3181196   -279.58899   -3226.8714    2665.0195   -276.91508   -1452.5143    4983.6091    8776.7485    80.516337 
   60600    457.95876   -108.55747   0.41437071    -108.1431   -1171.5955     4.316151     4.316151     4.316151   -1171.5955   -3179.2995    7596.1746   -7931.6617    2170.4076     1097.601   -1414.7376    80.406267 
   60700    316.93883   -108.43021   0.28677292   -108.14343   -4750.7464    4.3158242    4.3158242    4.3158242   -4750.7464    3035.1565    7332.2754   -24619.671   -1831.6457   -3030.3159    572.72554       80.388 
   60800    304.97007    -108.4214   0.27594332   -108.14546   -5793.2935    4.3177553    4.3177553    4.3177553   -5793.2935    -4741.119    1476.7583    -14115.52    3732.4662    4034.1646    6157.6712     80.49596 
   60900    659.24725   -108.73997   0.59650077   -108.14347    4429.4453    4.3156186    4.3156186    4.3156186    4429.4453    5178.3063    7261.2373    848.79239    113.41187      1838.29   -915.58288    80.376515 
   61000    687.03177   -108.76569   0.62164078   -108.14405    4650.2714    4.3168899    4.3168899    4.3168899    4650.2714    8027.2781    8331.5317   -2407.9956   -2018.8246   -1889.3491    1667.3839     80.44757 
   61100    571.11554   -108.66117   0.51675734   -108.14442   -399.61318     4.316698     4.316698     4.316698   -399.61318   -3610.6257    4047.4776   -1635.6915    1527.2388     4348.907    3483.5058    80.436841 
   61200    492.51387   -108.58785    0.4456369   -108.14221   -3633.7573    4.3164635    4.3164635    4.3164635   -3633.7573    494.32261    1485.1837   -12880.778    4298.1486   -924.38494   -3812.6739    80.423729 
   61300    266.88577   -108.38484   0.24148385   -108.14335   -5854.7582    4.3171669    4.3171669    4.3171669   -5854.7582   -149.06641    7575.7661   -24990.974    479.14482    235.18119    2276.6271    80.463054 
   61400    318.09847   -108.43222   0.28782218    -108.1444    -124.7228    4.3162681    4.3162681    4.3162681    -124.7228   -5654.3221    12738.708   -7458.5546     2632.075    4794.0938    4671.7065    80.412809 
   61500    623.77424   -108.70739   0.56440404   -108.14298    4995.8144    4.3162746    4.3162746    4.3162746    4995.8144    6630.6891    12562.604   -4205.8498   -184.52374   -325.41387   -1661.4853    80.413171 
   61600    718.75082   -108.79424   0.65034085    -108.1439    2161.0575    4.3167187    4.3167187    4.3167187    2161.0575    5461.4285    2788.8737   -1767.1298   -1193.9339    570.44808     4032.438    80.437997 
   61700    676.68606   -108.75562   0.61227977   -108.14334   -3383.1025    4.3161705    4.3161705    4.3161705   -3383.1025   -3542.1806   -5339.8401   -1267.2869     6328.542      363.418   -870.40417    80.407356 
   61800    384.55767   -108.49149   0.34795586   -108.14353   -820.81348     4.316024     4.316024     4.316024   -820.81348    4830.8568    9108.2361   -16401.533    1683.9482   -2282.9549   -3298.0028    80.399168 
   61900     214.4154   -108.33814   0.19400756   -108.14414    -4855.434    4.3181553    4.3181553    4.3181553    -4855.434   -6441.6935    13650.794   -21775.403   -2955.5707    1808.5085    4129.4114    80.518334 
   62000    346.48304    -108.4573   0.31350514    -108.1438    2558.4499    4.3144283    4.3144283    4.3144283    2558.4499    1834.6083    9885.8993    -4045.158    3766.1538    3592.4343    473.28184    80.310026 
   62100     655.9321   -108.73725   0.59350115   -108.14375   -940.80248    4.3179086    4.3179086    4.3179086   -940.80248    6143.8248   -3325.0331   -5641.1991    1873.9226   -1484.2647   -2010.8599    80.504534 
   62200    805.54008   -108.87213   0.72886959   -108.14326   -2028.5867    4.3169832    4.3169832    4.3169832   -2028.5867   -3250.9743   -2581.0065   -253.77932    2248.2742    5104.4123     2955.273    80.452782 
   62300     600.9189   -108.68731   0.54372405   -108.14359    4308.8555    4.3137816    4.3137816    4.3137816    4308.8555      6440.42     6402.803    83.343403    7761.6195    -1089.603   -4292.8721     80.27392 
   62400    307.52506   -108.42221   0.27825514   -108.14396   -6787.5027    4.3207573    4.3207573    4.3207573   -6787.5027    -6423.838    9855.3486   -23794.019   -2173.0121    -1236.086   -1791.9414    80.663977 
   62500    224.49149   -108.34586   0.20312462   -108.14274    2884.6538    4.3127413    4.3127413    4.3127413    2884.6538    4315.7889    12999.005   -8660.8325   -2229.4267     4018.053    4129.4195    80.215859 
   62600    441.79271   -108.54304   0.39974333    -108.1433   -3959.4923    4.3181338    4.3181338    4.3181338   -3959.4923    877.31585   -5050.6548    -7705.138    6398.3849    -1788.433   -3780.0962    80.517128 
   62700    667.25782   -108.74755    0.6037489    -108.1438   -917.53069    4.3172713    4.3172713    4.3172713   -917.53069   -1418.3047    2926.5685   -4260.8559    556.36802   -1224.6649   -1307.9141    80.468894 
   62800    788.37963   -108.85638   0.71334246   -108.14304    6529.6951    4.3136696    4.3136696    4.3136696    6529.6951     6102.188    9483.7916    4003.1056   -262.81346    3583.1244    4670.8896    80.267664 
   62900    520.25227   -108.61541   0.47073518   -108.14467    -3007.854    4.3197903    4.3197903    4.3197903    -3007.854    -2063.359    2150.0405   -9110.2436    7042.0307    -91.25134   -3943.9482     80.60983 
   63000    299.77212   -108.41514   0.27124011    -108.1439    787.82931    4.3128809    4.3128809    4.3128809    787.82931    6307.8075    8799.4602    -12743.78   -1202.5377   -1544.2197    340.25257    80.223645 
   63100      332.388   -108.44351   0.30075164   -108.14275   -4964.3709    4.3195491    4.3195491    4.3195491   -4964.3709   -3381.7768    1035.8012   -12547.137    4182.5476    5132.9409    1252.7444    80.596324 
   63200    421.33797   -108.52503   0.38123545   -108.14379   -614.56069    4.3153282    4.3153282    4.3153282   -614.56069   -51.386616    4997.2781   -6789.5736    9332.2923   -4035.3805   -5502.8821    80.360289 
   63300     673.5785   -108.75355   0.60946798   -108.14409    2057.8472    4.3161647    4.3161647    4.3161647    2057.8472    3274.2856     7327.201   -4427.9451    -3608.661   -763.78671   -274.49547    80.407028 
   63400    748.54378   -108.81991   0.67729814   -108.14262    2272.4541    4.3182194    4.3182194    4.3182194    2272.4541    5624.7549    468.70131    723.90612   -20.853678    3540.4065    2533.3392    80.521921 
   63500    472.48684   -108.57172   0.42751602   -108.14421   -512.56262    4.3134209    4.3134209    4.3134209   -512.56262    8113.4854   -3502.2186   -6148.9547    7128.0731     544.9977   -2909.1462    80.253786 
   63600    357.22544   -108.46669   0.32322508   -108.14347   -6933.5305    4.3197204    4.3197204    4.3197204   -6933.5305   -6480.2991    2490.1496   -16810.442   -578.06528    33.563196   -1072.7235    80.605913 
   63700    322.90405   -108.43515   0.29217037   -108.14298      2824.76    4.3137059    4.3137059    4.3137059      2824.76    5391.2013    12891.418   -9808.3391    4287.0467    1290.2485   -754.25426    80.269692 
   63800    395.37848    -108.5027   0.35774675   -108.14495   -6447.1474    4.3185019    4.3185019    4.3185019   -6447.1474   -1368.7384   -3213.2547   -14759.449     5778.449   -2835.1008   -5650.7215    80.537724 
   63900    713.38612   -108.78856   0.64548675   -108.14308      1929.54    4.3161804    4.3161804    4.3161804      1929.54    5296.1922    2173.6209   -1681.1931   -4991.8218   -840.31232     1434.542    80.407909 
   64000    726.80422   -108.80072   0.65762773   -108.14309    1773.5375    4.3147051    4.3147051    4.3147051    1773.5375    8692.0749   -6942.3335     3570.871    6685.4513    3292.0341   -920.95685    80.325482 
   64100    489.63749   -108.58737   0.44303429   -108.14433   -8007.2057    4.3191541    4.3191541    4.3191541   -8007.2057   -9151.3085   -4410.9176   -10459.391    7270.2261    -945.4313   -705.77426    80.574219 
   64200    334.90066   -108.44583   0.30302515    -108.1428    4987.6729    4.3143184    4.3143184    4.3143184    4987.6729    4208.5149    20580.543   -9826.0392   -2335.2637    1608.0359   -857.61452    80.303888 
   64300    302.00537   -108.41629   0.27326081   -108.14303   -5430.9815    4.3179598    4.3179598    4.3179598   -5430.9815    1891.5291    3599.9298   -21784.404     2767.525    214.89171   -3002.7865    80.507395 
   64400      435.115    -108.5382   0.39370119    -108.1445   -2346.3572     4.316112     4.316112     4.316112   -2346.3572    2048.6984   -790.88506   -8296.8849    2337.8887   -137.74444   -1154.5759    80.404087 
   64500    778.11782   -108.84625   0.70405736   -108.14219    1766.1926    4.3161782    4.3161782    4.3161782    1766.1926    5237.0166   -4535.6388       4597.2   -2131.3741    734.29913   -1296.5987    80.407784 
   64600     688.0557   -108.76599   0.62256726   -108.14342    -1418.317    4.3170376    4.3170376    4.3170376    -1418.317   -1211.3381    -3162.262    118.64925    7709.8102   -878.84967   -3772.3369    80.455825 
   64700    421.17916   -108.52565   0.38109175   -108.14455    2914.3366    4.3163093    4.3163093    4.3163093    2914.3366    3768.8146    8066.2852     -3092.09    2716.1317    -1897.042   -782.40114    80.415111 
   64800    338.66844   -108.44969   0.30643432   -108.14325    1902.3206    4.3154717    4.3154717    4.3154717    1902.3206    6535.9222    20298.668   -21127.628   -3673.6958    762.87466    1773.2896    80.368304 
   64900    313.84356   -108.42784   0.28397225   -108.14387   -5952.3513    4.3173072    4.3173072    4.3173072   -5952.3513    -578.0756   -1244.0141   -16034.964    6646.1565    392.11484   -2597.9891    80.470902 
   65000     570.2288   -108.65952     0.515955   -108.14356   -2873.8715     4.316635     4.316635     4.316635   -2873.8715   -702.41573   -6807.4468   -1111.7519    3122.0495   -513.28813    2807.2171    80.433317 
   65100    735.49348    -108.8081   0.66548996   -108.14261    4969.4224    4.3148192    4.3148192    4.3148192    4969.4224    4154.7521    3646.1732     7107.342   -174.89176    1012.6934   -2108.2913     80.33186 
   65200    585.83422   -108.67395   0.53007511   -108.14387    185.91397    4.3195618    4.3195618    4.3195618    185.91397    8502.6376   -9942.4616    1997.5659    3238.3672   -2084.4195   -4647.2148    80.597034 
   65300    390.07241   -108.49653   0.35294571   -108.14359    5896.6339     4.313684     4.313684     4.313684    5896.6339    8807.3843    18221.543   -9339.0254   -2692.6506   -3546.5748   -885.75281    80.268468 
   65400    356.56683   -108.46516   0.32262916   -108.14253   -6883.8084    4.3174691    4.3174691    4.3174691   -6883.8084   -3384.2733    9102.2348   -26369.387   -2079.8687    2687.1219   -840.52729    80.479954 
   65500    426.08019   -108.52826   0.38552631   -108.14274   -9689.4209    4.3187862    4.3187862    4.3187862   -9689.4209   -5214.2306   -9606.9483   -14247.084    7856.7211   -1982.5969   -2707.5968     80.55363 
   65600    564.22487   -108.65377   0.51052252   -108.14325    4937.3019    4.3123052    4.3123052    4.3123052    4937.3019    3592.0352    3640.1119    7579.7587    1326.3279   -1665.2953    1472.7095    80.191526 
   65700    648.21429   -108.72981   0.58651791   -108.14329   -1820.0902    4.3205052    4.3205052    4.3205052   -1820.0902    6879.7208   -10796.638   -1543.3532   -1326.0019    1325.2882    312.56484    80.649857 
   65800    538.61526   -108.63077   0.48735041   -108.14342    4946.6136    4.3142798    4.3142798    4.3142798    4946.6136    10561.834   -103.13814    4381.1448    2751.4059   -2290.9881    -4311.509    80.301733 
   65900    439.82701   -108.54134   0.39796472   -108.14338   -3719.5829    4.3151994    4.3151994    4.3151994   -3719.5829   -7041.8877    16074.966   -20191.828   -1866.6757   -2079.8342     1876.852    80.353097 
   66000    412.58296   -108.51589   0.37331373   -108.14257   -12469.733    4.3210144    4.3210144    4.3210144   -12469.733   -6811.2065   -2316.9455   -28281.046    731.86272    2405.5651   -1331.1416    80.678377 
   66100    446.59547   -108.54688   0.40408896    -108.1428    6488.3974     4.311265     4.311265     4.311265    6488.3974    10552.888    8180.5056    731.79868    4389.0382   -4304.4728   -1233.0538    80.133505 
   66200     515.8542   -108.61031   0.46675572   -108.14356   -1213.9462    4.3197583    4.3197583    4.3197583   -1213.9462   -761.06856    237.53026   -3118.3002   -3142.1152   -2784.1567   -58.755918    80.608037 
   66300    592.80325   -108.67923   0.53638084   -108.14285    3198.7555     4.315851     4.315851     4.315851    3198.7555    11135.472   -5690.5419    4151.3361   -2501.7713    2490.9964    351.70798    80.389499 
   66400    561.98516   -108.65164   0.50849598   -108.14314    3173.9968    4.3140084    4.3140084    4.3140084    3173.9968    1844.2049    9334.2225   -1656.4371    3673.9246   -4987.8145   -1749.7762    80.286583 
   66500    458.58514   -108.55814   0.41493747    -108.1432   -10581.593     4.320799     4.320799     4.320799   -10581.593   -5675.4868    4505.4711   -30574.763    623.14717    998.73031    323.38905    80.666308 
   66600    445.76348   -108.54537   0.40333617   -108.14203    3804.8786    4.3128885    4.3128885    4.3128885    3804.8786    16299.692     9258.006   -14143.062   -9.0722098    659.20022   -288.82581    80.224071 
   66700    448.15285   -108.54822   0.40549812   -108.14272    1694.8527    4.3180994    4.3180994    4.3180994    1694.8527   -2027.2416    10255.238   -3143.4379   -775.85126    -4648.159   -2286.3361    80.515208 
   66800    501.45262   -108.59728   0.45372486   -108.14356    -1162.461    4.3166697    4.3166697    4.3166697    -1162.461   -3494.6311    5167.4244   -5160.1761     -1641.68    335.40099    2086.1463    80.435257 
   66900    607.42089   -108.69278   0.54960719   -108.14317    2363.7155    4.3146516    4.3146516    4.3146516    2363.7155    6996.6488   -7559.3116    7653.8093   -611.29203    1694.8815    202.64027    80.322498 
   67000    529.72629   -108.62276   0.47930748   -108.14345   -4499.0744    4.3184916    4.3184916    4.3184916   -4499.0744    655.43817   -275.76338   -13876.898    3746.2344   -6852.0924    2061.0769    80.537144 
   67100    438.81165   -108.54051     0.397046   -108.14346   -1845.4943     4.314979     4.314979     4.314979   -1845.4943    11612.378    6517.1805   -23666.041   -2570.3486    1535.3546    133.71575    80.340782 
   67200    466.24811   -108.56489   0.42187109   -108.14301    1863.2078    4.3168778    4.3168778    4.3168778    1863.2078    1500.4284    12908.084   -8818.8892   -3689.0465   -1734.4805   -677.37003    80.446889 
   67300    449.63822    -108.5505   0.40684211   -108.14366   -2082.8738    4.3172384    4.3172384    4.3172384   -2082.8738   -16936.034    18523.118   -7835.7058     -430.096   -6727.0279   -2219.0446    80.467053 
   67400    563.85175   -108.65316   0.51018491   -108.14298   -2889.7552    4.3153923    4.3153923    4.3153923   -2889.7552    -2992.838   -4456.9085    -1219.519    717.34745    3765.8826   -135.69798    80.363869 
   67500    569.24052   -108.65738   0.51506078   -108.14232   -1248.3121    4.3175078    4.3175078    4.3175078   -1248.3121    7977.8292   -14591.386    2868.6204   -328.58388   -2532.3568    1102.9718    80.482118 
   67600    460.61046   -108.56003   0.41677002   -108.14326   -4156.8351    4.3163469    4.3163469    4.3163469   -4156.8351    2959.1177    2337.1145   -17766.738   -743.62569   -3951.1552    796.96466    80.417216 
   67700    436.38107   -108.53818   0.39484676   -108.14333    339.07674    4.3160278    4.3160278    4.3160278    339.07674    7343.0932    11074.369   -17400.232   -4602.9083    2922.8742    1627.5953    80.399377 
   67800    480.73363     -108.578   0.43497789   -108.14302    393.02397    4.3169926    4.3169926    4.3169926    393.02397   -13879.794    22014.007   -6955.1419   -2067.4829    -4614.893   -586.14785    80.453308 
   67900    560.36536   -108.65009   0.50703036   -108.14306   -4985.9556    4.3164534    4.3164534    4.3164534   -4985.9556   -15074.083    11097.175   -10980.959    1555.1951   -3266.9989    1430.9743    80.423168 
   68000    574.59262   -108.66271   0.51990347    -108.1428    2335.5561    4.3162188    4.3162188    4.3162188    2335.5561    10743.802   -7430.2297    3693.0963   -3725.8268    3805.7631    310.37219    80.410056 
   68100    491.70062   -108.58844   0.44490106   -108.14354   -1806.2775    4.3172287    4.3172287    4.3172287   -1806.2775   -533.67905   -550.86463   -4334.2888   -1764.7183   -9045.7959    284.87437    80.466511 
   68200    380.93807   -108.48837   0.34468077   -108.14369    2066.3364    4.3147879    4.3147879    4.3147879    2066.3364    11207.834    8768.1319   -13776.957   -897.18464   -351.16607    1340.1909    80.330108 
   68300    484.02537   -108.58065   0.43795633   -108.14269   -1740.0644    4.3184696    4.3184696    4.3184696   -1740.0644   -3149.9474    9513.4736   -11583.719   -1616.6864    1326.3959    408.41834    80.535915 
   68400    534.26049   -108.62647   0.48341012   -108.14306   -1504.0289    4.3151481    4.3151481    4.3151481   -1504.0289   -10901.574    12914.499   -6525.0119    220.42324   -7765.2842     45.53532     80.35023 
   68500    604.39052    -108.6903   0.54686525   -108.14344    2323.3594     4.316222     4.316222     4.316222    2323.3594    1576.5174    13023.312   -7629.7514   -298.07029     3235.973    2123.9622    80.410236 
   68600    529.74127   -108.62241   0.47932104   -108.14309    1822.3404    4.3186385    4.3186385    4.3186385    1822.3404    2596.5204     3327.462   -456.96124   -7107.1764    554.25976    1033.2893    80.545365 
   68700    392.42918    -108.4982   0.35507817   -108.14312    2319.2683    4.3131881    4.3131881    4.3131881    2319.2683    3830.2283    6628.1863   -3500.6095   -909.60718   -8452.7299   -2401.3566    80.240791 
   68800    461.58858   -108.56014   0.41765504   -108.14248   -7179.3088    4.3198574    4.3198574    4.3198574   -7179.3088    2108.1119   -7266.4409   -16379.597    967.06346    3795.2388    2125.4278    80.613583 
   68900    455.41634   -108.55532   0.41207028   -108.14325   -465.42194    4.3139266    4.3139266    4.3139266   -465.42194    1014.5488    704.67061   -3115.4853   -2870.9948   -1723.5026     1191.962    80.282015 
   69000    542.34094   -108.63484   0.49072148   -108.14412   -2777.1806      4.31749      4.31749      4.31749   -2777.1806   -13827.872    18791.115   -13294.785   -802.87294    -7844.823    992.05379    80.481119 
   69100    587.35024   -108.67443   0.53144684   -108.14298    5008.7826    4.3173251    4.3173251    4.3173251    5008.7826    1790.3703    20836.564   -7600.5863   -598.47487    6511.9985    3485.3662    80.471898 
   69200    548.93732   -108.64005   0.49669002   -108.14336   -407.84679     4.313487     4.313487     4.313487   -407.84679   -6025.3431    3833.6963    968.10639   -5256.8918   -5909.0684   -55.590791    80.257473 
   69300     453.0476   -108.55312   0.40992699   -108.14319   -8622.9064    4.3207098    4.3207098    4.3207098   -8622.9064   -5415.5384   -8099.9457   -12353.235    1926.6879   -4223.7017   -695.29324    80.661312 
   69400    455.55815   -108.55421   0.41219859   -108.14201    -846.1542    4.3130889    4.3130889    4.3130889    -846.1542     9243.538   -5774.1172   -6007.8834   -1594.2628    4107.2703    1887.7815    80.235253 
   69500    346.44128   -108.45772   0.31346735   -108.14425   -1814.6489    4.3176287    4.3176287    4.3176287   -1814.6489   -8734.4437    10020.443   -6729.9463   -6107.0846   -6839.4787    2039.2476    80.488881 
   69600    554.79104   -108.64538   0.50198659    -108.1434    3038.6535    4.3172594    4.3172594    4.3172594    3038.6535   -5403.4128    26967.321   -12447.947     -964.276   -1606.1277   -1280.4285    80.468226 
   69700    688.43365    -108.7651   0.62290923   -108.14219    3406.0498    4.3141643    4.3141643    4.3141643    3406.0498    -1845.491    13077.788   -1014.1477    198.54404    3202.5095    2271.7731    80.295285 
   69800    550.22943   -108.64151   0.49785915   -108.14365    -8636.954      4.31974      4.31974      4.31974    -8636.954   -14830.772   -3492.4493   -7587.6407   -3361.1006     -8463.55   -1308.2556    80.607014 
   69900    473.62906   -108.57104   0.42854953   -108.14249    2459.5249    4.3135659    4.3135659    4.3135659    2459.5249    8144.6535    6167.8518   -6933.9308    1318.0356    1716.3579    1442.9846    80.261875 
   70000    319.23371   -108.43225   0.28884937    -108.1434   -1109.9375    4.3184775    4.3184775    4.3184775   -1109.9375    3264.4964    753.50332   -7347.8121   -3088.9955    1424.0162     2743.067    80.536359 
   70100    368.34584    -108.4776   0.33328705   -108.14431    525.81473    4.3154864    4.3154864    4.3154864    525.81473    -3531.209    10171.157   -5062.5041   -3497.9836   -10445.764     861.3163    80.369126 
   70200    657.03838   -108.73682   0.59450213   -108.14232    1807.2322    4.3162552    4.3162552    4.3162552    1807.2322    1120.6246    11371.777    -7070.705    2223.0551    4610.3432    752.88465    80.412087 
   70300    661.25948   -108.74178   0.59832147   -108.14346   -2797.3105    4.3166515    4.3166515    4.3166515   -2797.3105   -14366.079     9059.019   -3084.8712   -606.36029   -4239.4555    686.85435    80.434238 
   70400    487.98444   -108.58638   0.44153858   -108.14484    1501.9142    4.3160377    4.3160377    4.3160377    1501.9142   -5716.7975    16985.116   -6762.5759   -4141.1636   -7500.6351   -845.20401    80.399935 
   70500    471.25787   -108.56877   0.42640403   -108.14236   -1139.7607    4.3179929    4.3179929    4.3179929   -1139.7607    6039.5353    1339.1548   -10797.972   -914.74097    6941.7064   -520.79773    80.509249 
   70600    335.12276   -108.44693   0.30322611   -108.14371    217.85867    4.3134304    4.3134304    4.3134304    217.85867    4266.7263   -4824.3751    1211.2249   -30.720655   -5069.8742    1446.3977    80.254313 
   70700    433.38572   -108.53601    0.3921365   -108.14388   -6591.8127    4.3202268    4.3202268    4.3202268   -6591.8127   -6635.3176   -1793.9861   -11346.134   -2198.1153   -5787.5611   -1703.4121    80.634266 
   70800    643.39208     -108.724   0.58215467   -108.14185    4005.6578    4.3131371    4.3131371    4.3131371    4005.6578   -6599.6807    17950.574    666.08051     2919.487    5235.3873    862.48138    80.237944 
   70900    511.99254   -108.60844   0.46326161   -108.14518    -2040.157    4.3181911    4.3181911    4.3181911    -2040.157   -21911.601    24496.012   -8704.8819   -4163.7177   -9643.3456    2550.7455    80.520335 
   71000    574.13617   -108.66343   0.51949047   -108.14394   -627.04023    4.3164331    4.3164331    4.3164331   -627.04023   -4919.2977    12667.541   -9629.3636   -3411.6267   -4301.8768    263.60671    80.422033 
   71100    570.69296   -108.65853   0.51637498   -108.14216    1739.4198    4.3143004    4.3143004    4.3143004    1739.4198    10826.213   -2860.4056    -2747.548    697.47005    5613.0471    106.88477    80.302884 
   71200    293.14883   -108.40978   0.26524722   -108.14453   -7613.7549    4.3206595    4.3206595    4.3206595   -7613.7549    -8057.223   -5354.0466   -9429.9953    -122.2412   -12488.886   -429.30178      80.6585 
   71300     436.2522   -108.53775   0.39473016   -108.14302    6220.6114    4.3109443    4.3109443    4.3109443    6220.6114    2827.1303    14098.564    1736.1403    -3600.147    1486.3113   -905.88387     80.11563 
   71400    539.82839    -108.6317   0.48844807   -108.14325   -3406.2703    4.3207657    4.3207657    4.3207657   -3406.2703   -20967.978    16407.016   -5657.8492    851.83329    1283.1867   -76.822976    80.664445 
   71500    532.20048   -108.62671   0.48154618   -108.14516   -3229.7564    4.3145471    4.3145471    4.3145471   -3229.7564   -17658.504    13392.332   -5423.0974   -3485.9646   -11476.115    2227.5002    80.316661 
   71600    714.71317   -108.78892   0.64668749   -108.14223    3244.4449    4.3143636    4.3143636    4.3143636    3244.4449    6932.7819    7651.5324   -4850.9796    511.93376    3813.4715   -446.84329    80.306411 
   71700     480.1759   -108.57817   0.43447325    -108.1437   -4822.8361    4.3214678    4.3214678    4.3214678   -4822.8361   -4791.3046    1101.9617   -10779.166    1812.1094   -3314.8403    -2197.762    80.703772 
   71800    252.47072   -108.37329   0.22844082   -108.14485    6011.2801    4.3102283    4.3102283    4.3102283    6011.2801    7194.0844    10250.407    589.34886   -3780.4481   -10705.083    798.03204    80.075715 
   71900    525.32591   -108.61667   0.47532592   -108.14134   -6398.9397    4.3219664    4.3219664    4.3219664   -6398.9397   -11728.014   -2800.4979   -4668.3068   -3408.3921    3135.3612   -1748.1022    80.731711 
   72000     487.6685   -108.58497    0.4412527   -108.14372   -1932.8523    4.3129927    4.3129927    4.3129927   -1932.8523    -17310.15    9611.8977    1899.6954    1034.2841   -5339.8766   -41.941861    80.229886 
   72100    556.50911   -108.64875   0.50354114   -108.14521   -2252.2199    4.3161604    4.3161604    4.3161604   -2252.2199     -11282.7    10652.861   -6126.8212   -1545.6264   -7958.6972    675.68365     80.40679 
   72200    687.74999    -108.7642   0.62229065   -108.14191     3085.003    4.3196896    4.3196896    4.3196896     3085.003    643.44876    19414.244   -10802.684    107.70834    5234.1825    1162.3673    80.604192 
   72300    369.03669   -108.47897   0.33391215   -108.14506    6147.7917    4.3109807    4.3109807    4.3109807    6147.7917    7214.8269    12421.913   -1193.3645   -1003.0295   -9613.7837   -1919.3422    80.117656 
   72400    412.96927   -108.51818   0.37366327   -108.14452   -9396.4305    4.3212282    4.3212282    4.3212282   -9396.4305   -5217.4477   -12450.761   -10521.083   -3183.6052   -4152.4491    2727.0319    80.690354 
   72500    557.39114   -108.64555   0.50433922   -108.14121    2238.5652    4.3135948    4.3135948    4.3135948    2238.5652   -6661.0362    4919.9438    8456.7881     1297.867    1616.4085   -1789.0164    80.263491 
   72600    392.44011   -108.50007   0.35508806   -108.14499   -6247.9566     4.317493     4.317493     4.317493   -6247.9566   -24167.237    11526.959   -6103.5919    1846.8854   -11409.338    -2309.263    80.481287 
   72700     557.0035   -108.64792   0.50398848   -108.14393    2380.1748    4.3171085    4.3171085    4.3171085    2380.1748   -3882.7611    18821.256   -7797.9708    -4308.858   -737.52891    474.33914    80.459787 
   72800    645.15551   -108.72608   0.58375026   -108.14233    6555.7307    4.3138618    4.3138618    4.3138618    6555.7307    5959.3303    15997.821   -2289.9588   -2451.1064   -2991.4856   -2197.4627    80.278395 
   72900    407.39676   -108.51399   0.36862115   -108.14537   -8029.2177    4.3197586    4.3197586    4.3197586   -8029.2177    1378.2902   -7830.7117   -17635.232    -603.0715   -10576.397   -295.37748    80.608054 
   73000    518.94982   -108.61216    0.4695567   -108.14261    17.928944    4.3136743    4.3136743    4.3136743    17.928944   -485.45116   -2624.5905    3163.8285   -1622.5535    1713.7668    1693.8373     80.26793 
   73100    492.89939   -108.58865   0.44598573   -108.14266   -4361.6283    4.3179214    4.3179214    4.3179214   -4361.6283   -19357.765    7332.3416   -1059.4619    2035.0515   -3077.1023   -308.54297    80.505251 
   73200    335.58985   -108.44921   0.30364875   -108.14556   -1371.0036    4.3165949    4.3165949    4.3165949   -1371.0036    -10290.91    11730.196   -5552.2965   -3310.3288   -9808.8723   -1821.3673    80.431075 
   73300    624.81973   -108.70792   0.56535002   -108.14257    2377.8438    4.3151172    4.3151172    4.3151172    2377.8438    1835.6411    7332.2307   -2034.3403     -3971.46    3894.2358    3160.5442    80.348501 
   73400    572.50603   -108.66126   0.51801549   -108.14325   -1570.6083    4.3181116    4.3181116    4.3181116   -1570.6083    4383.9248     2708.252   -11804.002    974.17734   -8218.9016   -3098.7837    80.515891 
   73500    461.40741   -108.56256   0.41749112   -108.14507   -1316.5452    4.3139883    4.3139883    4.3139883   -1316.5452    532.22059    5165.1121   -9646.9684    537.70143   -7628.7382    334.16417    80.285455 
   73600    554.31004   -108.64374   0.50155137   -108.14219   -2778.7485    4.3188821    4.3188821    4.3188821   -2778.7485   -9928.8889    873.14611    719.49717   -2755.2857    3640.0848    1255.6242    80.558995 
   73700    422.99945   -108.52605   0.38273879   -108.14332    1610.6025    4.3154054    4.3154054    4.3154054    1610.6025   -4234.0647    8225.5619    840.31032   -1541.1906   -8911.8865   -3790.1527    80.364604 
   73800     412.3377   -108.51721   0.37309182   -108.14412    -50.32819    4.3153164    4.3153164    4.3153164    -50.32819   -1844.4413    1815.2088   -121.75209   -5047.0588   -4894.6314   -152.37328     80.35963 
   73900    586.68396   -108.67294   0.53084397   -108.14209   -946.51682    4.3188379    4.3188379    4.3188379   -946.51682   -2507.1227    4343.6761   -4676.1039    541.00354    890.21438    891.06098    80.556521 
   74000    535.30265   -108.62756   0.48435308   -108.14321    1512.9871    4.3142231    4.3142231    4.3142231    1512.9871    1742.5504    14389.832   -11593.421    1604.7322   -8137.6286   -1319.1059    80.298566 
   74100    486.17081   -108.58382   0.43989756   -108.14392    -1789.695    4.3174905    4.3174905    4.3174905    -1789.695    179.31835    5688.9226   -11237.326    -3430.296   -2206.8143    1987.6982     80.48115 
   74200    561.23108   -108.65026   0.50781368   -108.14245    736.07932    4.3167906    4.3167906    4.3167906    736.07932    4523.0701   -3659.1345    1344.3023   -2848.3274    1886.1285    2837.6856    80.442018 
   74300    412.62172   -108.51742   0.37334881   -108.14407    2511.3737    4.3143507    4.3143507    4.3143507    2511.3737    2583.7953    2194.2596    2756.0662    1003.4353   -8545.8329   -3593.5846    80.305691 
   74400    473.64597   -108.57161   0.42856483   -108.14305   -7953.9137    4.3195656    4.3195656    4.3195656   -7953.9137   -16092.426   -1912.9854   -5856.3296   -425.92828    516.71671    1213.3085    80.597252 
   74500    535.98481   -108.62702   0.48497032   -108.14205    2294.0603    4.3141717    4.3141717    4.3141717    2294.0603   -4989.3293    13405.189    -1533.679   -120.96608   -2503.1555   -441.55449    80.295699 
   74600    463.04722   -108.56298   0.41897485     -108.144    168.93953    4.3163261    4.3163261    4.3163261    168.93953     10615.94    13875.227   -23984.348    -2374.304   -7143.8784   -4376.0936    80.416053 
   74700    537.92974   -108.62991   0.48673013   -108.14318   -3330.6931    4.3189822    4.3189822    4.3189822   -3330.6931    10033.786   -8321.9254    -11703.94   -6967.4909    774.24011    2463.4672    80.564596 
   74800    555.20641   -108.64465   0.50236243   -108.14228    4441.7745    4.3132923    4.3132923    4.3132923    4441.7745    12995.825   -4057.3222     4386.821    290.26867   -4886.0916   -2711.8099    80.246603 
   74900    483.41851    -108.5806   0.43740722   -108.14319   -9286.8346    4.3189342    4.3189342    4.3189342   -9286.8346   -18445.351    -3835.449   -5579.7038      648.467   -5674.3744   -1910.8673    80.561912 
   75000    471.92078   -108.57001   0.42700384     -108.143   -2241.3582    4.3155936    4.3155936    4.3155936   -2241.3582   -12268.977    2096.4387    3448.4637   -1091.3094    3932.0072    4334.5723    80.375118 
   75100    422.23026   -108.52533   0.38204281   -108.14329    4786.2406    4.3156132    4.3156132    4.3156132    4786.2406    14308.423     14667.95   -14617.651   -1862.4184   -3754.7277   -1367.8585    80.376213 
   75200    469.22308   -108.56861    0.4245629   -108.14405   -4492.0862    4.3182349    4.3182349    4.3182349   -4492.0862    11433.194    1305.8381   -26215.291   -1795.9786   -3965.4221   -1868.7186    80.522786 
   75300    620.25481   -108.70401   0.56121959   -108.14279       735.75    4.3141353    4.3141353    4.3141353       735.75    10213.999   -8137.1996    130.45096   -3180.2384    2489.0239    2185.3642    80.293668 
   75400    579.34226   -108.66719   0.52420105   -108.14298   -4229.9899    4.3185014    4.3185014    4.3185014   -4229.9899   -8590.8003   -3521.0181    -578.1514    2851.2204   -7489.6376   -4775.8984    80.537696 
   75500    488.37742   -108.58483   0.44189415   -108.14294   -3036.6544    4.3157198    4.3157198    4.3157198   -3036.6544   -8925.1597    -2048.578    1863.7744   -3018.5043    -2174.738   -2453.4334    80.382167 
   75600    389.47144   -108.49585   0.35240194   -108.14345    8866.4233    4.3151723    4.3151723    4.3151723    8866.4233    12075.019     10019.58    4504.6708   -4407.6632    3497.4064    3802.4258    80.351578 
   75700    408.83828   -108.51394   0.36992547   -108.14401   -3626.8692    4.3185346    4.3185346    4.3185346   -3626.8692    4104.6955    12569.148   -27554.451   -1956.9237   -6055.5567   -5411.1248    80.539552 
   75800    529.54504   -108.62214   0.47914348     -108.143   -1832.4369    4.3144538    4.3144538    4.3144538   -1832.4369    6077.7054    1913.2722   -13488.288     -450.607   -1530.8509   -531.69219     80.31145 
   75900    650.31684   -108.73055   0.58842034   -108.14213   -3410.6417    4.3182334    4.3182334    4.3182334   -3410.6417   -1611.6525    -8431.239   -189.03362    2307.5736    3475.7734    987.69027    80.522699 
   76000    522.15817   -108.61616   0.47245968    -108.1437    1787.2893    4.3145298    4.3145298    4.3145298    1787.2893    2113.0731   -1118.6301    4367.4247   -372.00397   -6700.8948   -4829.7494    80.315694 
   76100    469.36169   -108.56832   0.42468832   -108.14364    3677.4006     4.317795     4.317795     4.317795    3677.4006    5977.1579     335.4909    4719.5529    -3106.026     942.2027    193.49272     80.49818 
   76200    418.27218   -108.52134   0.37846146   -108.14288    1487.7454    4.3161125    4.3161125    4.3161125    1487.7454   -2010.3175    14516.045   -8042.4916   -2597.5945    1603.2595    399.10341    80.404111 
   76300    403.49959   -108.50852   0.36509491   -108.14343    -6505.747    4.3153295    4.3153295    4.3153295    -6505.747    -1787.746    10955.771   -28685.266    1479.1209   -6954.4708   -5944.0325    80.360363 
   76400     607.1087   -108.69186   0.54932471   -108.14253   -5049.9799    4.3181605    4.3181605    4.3181605   -5049.9799    2357.2697   -2932.3149   -14574.894   -2180.0436    989.99308   -126.96392    80.518625 
   76500    532.08811   -108.62538    0.4814445   -108.14394    6763.7436    4.3138485    4.3138485    4.3138485    6763.7436    11705.467    986.53063    7599.2329    884.88195    1557.1302   -237.43062    80.277652 
   76600    520.96343   -108.61551   0.47137866   -108.14413   -2389.2472    4.3192192    4.3192192    4.3192192   -2389.2472    3929.6801   -4577.5433   -6519.8783   -4629.6916   -6690.6308   -6333.1737    80.577864 
   76700    520.99228   -108.61369   0.47140476   -108.14228     6149.249    4.3140243    4.3140243    4.3140243     6149.249   -387.25802    9581.1121    9253.8931   -1678.1331    2971.9931    1875.8328    80.287468 
   76800    408.72307   -108.51327   0.36982122   -108.14345   -8495.6641    4.3169171    4.3169171    4.3169171   -8495.6641   -11064.901     7732.867   -22154.958    3240.3048   -988.04432   -5487.2892    80.449086 
   76900    448.45676    -108.5491    0.4057731   -108.14332   -9066.7604    4.3184092    4.3184092    4.3184092   -9066.7604    1926.2185    3373.5109   -32500.011    1180.8659   -5295.6265   -4846.2204    80.532535 
   77000     559.7894   -108.64858   0.50650922   -108.14207    7148.1041    4.3136189    4.3136189    4.3136189    7148.1041    12718.377    6527.3186    2198.6168   -3459.8692    3442.1959    2672.9535    80.264837 
   77100    497.72172   -108.59455   0.45034907    -108.1442   -529.75149    4.3179955    4.3179955    4.3179955   -529.75149    2937.6776   -300.79174   -4226.1403   -611.69419   -2244.8147   -3052.1824    80.509394 
   77200    547.11935   -108.63839   0.49504509   -108.14335    1494.8833    4.3169372    4.3169372    4.3169372    1494.8833    1793.5867    255.97598    2435.0872   -2721.3325   -5091.9864   -2541.0096     80.45021 
   77300    573.01418   -108.66032   0.51847527   -108.14184    397.85527    4.3138314    4.3138314    4.3138314    397.85527     -7697.77    4980.5527    3910.7831   -825.81527    2363.6043    575.84272    80.276699 
   77400     363.3111   -108.47323   0.32873151    -108.1445   -11950.381    4.3193866    4.3193866    4.3193866   -11950.381   -7214.5878    3940.1158   -32576.672    3741.2192   -3001.8709   -6272.8079    80.587229 
   77500    446.29556   -108.54771    0.4038176   -108.14389    4180.1497    4.3143448    4.3143448    4.3143448    4180.1497    13732.889    16184.829   -17377.269    -4653.741    -2855.306   -4408.6627    80.305361 
   77600    542.47013   -108.63386   0.49083837   -108.14303    6267.7981    4.3158883    4.3158883    4.3158883    6267.7981    3641.5043    12129.231    3032.6588   -1271.6842    3749.2633    2299.8217    80.391585 
   77700    505.80867   -108.60232   0.45766631   -108.14466   -4934.3421    4.3188222    4.3188222    4.3188222   -4934.3421   -1805.2844   -5932.9295   -7064.8122    1899.3184   -5980.7266    -8198.901    80.555644 
   77800    652.46997   -108.73264   0.59036854   -108.14227    3642.4936    4.3128683    4.3128683    4.3128683    3642.4936   -716.95854     -1051.33    12695.769    1153.5203   -777.57227    123.45262    80.222943 
   77900    500.79637   -108.59603   0.45313108    -108.1429   -7355.2604    4.3198495    4.3198495    4.3198495   -7355.2604   -10922.548    1695.8066    -12839.04   -1175.5371    1258.8426    473.19039    80.613141 
   78000    293.27424   -108.41015    0.2653607   -108.14479   -511.20678    4.3146571    4.3146571    4.3146571   -511.20678    7637.0317    18728.929   -27899.582    72.401435   -4235.7545   -5851.7952    80.322805 
   78100    492.54167   -108.58823   0.44566206   -108.14257    6991.6894    4.3162238    4.3162238    4.3162238    6991.6894    9922.0943    21170.047   -10117.073   -6125.0577   -239.38386    495.17384    80.410334 
   78200    570.39447   -108.65936    0.5161049   -108.14325   -2403.2832    4.3176809    4.3176809    4.3176809   -2403.2832   -1874.1702   -2696.3598   -2639.3195   -603.57079    1084.5561   -2429.4109    80.491798 
   78300    556.32021   -108.64789   0.50337022   -108.14452   -1845.5072    4.3148341    4.3148341    4.3148341   -1845.5072    754.69874   -7308.2394    1017.0192    3776.0893   -5963.3813   -6742.8057    80.332691 
   78400    620.84462    -108.7037   0.56175326   -108.14195   -1220.1097     4.318166     4.318166     4.318166   -1220.1097   -5914.7104    262.51699    1991.8644   -2184.8185    1556.1953    2501.6665    80.518929 
   78500    369.17201   -108.47794   0.33403459    -108.1439   -836.16617    4.3140479    4.3140479    4.3140479   -836.16617   -455.60433    11361.998   -13414.892   -364.22552    21.913656   -1485.0274    80.288788 
   78600    336.65766   -108.44997   0.30461492   -108.14536   -1625.3037    4.3178724    4.3178724    4.3178724   -1625.3037    10241.048    13562.345   -28679.304    46.252805    -5349.645   -6743.2058     80.50251 
   78700    603.89243   -108.68883   0.54641456   -108.14242    1586.0014    4.3158552    4.3158552    4.3158552    1586.0014    3980.8165     5878.886   -5101.6984   -496.27124    2798.6204    2935.2353    80.389737 
   78800     554.9229   -108.64613    0.5021059   -108.14402   -1974.6612    4.3154736    4.3154736    4.3154736   -1974.6612   -1113.2084    2557.0073   -7367.7823    2049.3193   -3113.9933   -6464.7154    80.368415 
   78900      534.594   -108.62783   0.48371188   -108.14412    -2299.297    4.3188652    4.3188652    4.3188652    -2299.297   -4709.1528    951.11618   -3139.8544    710.61302   -3398.9954   -3895.5179    80.558048 
   79000    554.67299   -108.64369   0.50187978   -108.14181     4754.429     4.312422     4.312422     4.312422     4754.429    6251.9402    4046.5849    3964.7618   -6050.2326    1145.3805    5860.4749    80.198042 
   79100    352.51488   -108.46345   0.31896287   -108.14449    -7311.395    4.3204598    4.3204598    4.3204598    -7311.395    3402.2472    1040.6537   -26377.086   -412.24894   -2847.2195   -5418.4245    80.647313 
   79200    434.79529   -108.53691   0.39341191    -108.1435    1360.3181    4.3141439    4.3141439    4.3141439    1360.3181    10732.976    9717.6536   -16369.676    1970.6955   -4283.0877   -1748.1894    80.294144 
   79300    599.86627   -108.68472   0.54277161   -108.14195    2028.8084     4.315845     4.315845     4.315845    2028.8084    1674.1281    14984.475   -10572.178    209.35379    1512.4193    4534.0031    80.389162 
   79400    509.87095   -108.60555   0.46134195   -108.14421   -5066.8815    4.3194031    4.3194031    4.3194031   -5066.8815   -9573.9592    6088.3596   -11715.045    2519.0843   -4891.5494   -7113.6772    80.588156 
   79500    559.42445   -108.64936     0.506179   -108.14318    3836.6387    4.3113669    4.3113669    4.3113669    3836.6387    10371.192    -6464.693    7603.4169    -1481.118   -394.46964   -229.38904    80.139192 
   79600    544.49375   -108.63512   0.49266938   -108.14245   -7623.5973    4.3213841    4.3213841    4.3213841   -7623.5973    2062.0236   -14165.489   -10767.327   -636.10984    896.19275    2501.6862    80.699083 
   79700    329.49419   -108.44287   0.29813327   -108.14474    2405.7741    4.3122937    4.3122937    4.3122937    2405.7741    9934.9893    12270.218   -14987.885    3769.3999   -5462.8533   -7943.1057    80.190883 
   79800    457.35547   -108.55788   0.41382484   -108.14405    -496.8106    4.3180153    4.3180153    4.3180153    -496.8106    245.91819    15379.502   -17115.852    1125.4574    67.423291    4193.0717      80.5105 
   79900    619.92082   -108.70303   0.56091738   -108.14211   -1495.8971    4.3173693    4.3173693    4.3173693   -1495.8971   -4223.2583    14740.942   -15005.375   -3371.7868   -1721.4089    4330.9486     80.47437 
   80000    517.31914   -108.61197   0.46808123   -108.14389   -389.80544    4.3131863    4.3131863    4.3131863   -389.80544    4460.0878   -7492.4257    1862.9216    453.80553   -4166.3984   -5872.4744    80.240689 
   80100    580.75747   -108.66791   0.52548157   -108.14243   -6531.3009    4.3209576    4.3209576    4.3209576   -6531.3009    4284.7395   -19642.653   -4235.9891    327.83461    543.56659    4919.8389    80.675192 
   80200    426.95992   -108.52868   0.38632231   -108.14236    9334.0314    4.3112052    4.3112052    4.3112052    9334.0314     14924.35    14558.215   -1480.4703      2220.05    -1170.766   -810.61461    80.130175 
   80300    325.85178   -108.43977   0.29483754   -108.14493   -4446.9644    4.3196028    4.3196028    4.3196028   -4446.9644   -4294.7303    9557.6324   -18603.795    4310.1487   -6372.8563   -3487.8551    80.599331 
   80400    548.29293   -108.63873   0.49610696   -108.14262    564.13316    4.3156142    4.3156142    4.3156142    564.13316    3913.2037    13541.928   -15762.732   -2048.0685    2133.4614    5836.5211    80.376266 
   80500    651.91221   -108.73223   0.58986387   -108.14236   -245.22793    4.3141848    4.3141848    4.3141848   -245.22793    683.85329    6361.6223   -7781.1594    427.71314   -3371.4928   -1695.9337    80.296428 
   80600    505.19627   -108.60166    0.4571122   -108.14454   -5281.7385    4.3201368    4.3201368    4.3201368   -5281.7385   -264.04052   -7883.7581   -7697.4169    2517.8683   -3542.8026   -3206.3047    80.629227 
   80700    484.44901   -108.58068   0.43833964   -108.14234    10529.122    4.3117159    4.3117159    4.3117159    10529.122    15827.149    9358.2419    6401.9761    3047.6078    1877.2099    5730.5335    80.158652 
   80800     422.7027   -108.52537   0.38247028    -108.1429   -4398.6445    4.3196896    4.3196896    4.3196896   -4398.6445   -2841.7549    2564.0345   -12918.213    -332.9806    -4933.285   -2109.5372     80.60419 
   80900    373.51011   -108.48187   0.33795979   -108.14391    -3946.252    4.3151282    4.3151282    4.3151282    -3946.252    2688.5108   -976.19644    -13551.07    422.04324   -2962.8184   -222.42623    80.349115 
   81000    631.10531   -108.71375   0.57103735   -108.14271   -1527.2898    4.3149489    4.3149489    4.3149489   -1527.2898    1966.6642    12955.037   -19503.571   -2176.6548    1096.7352    7087.6695    80.339104 
   81100    587.38365   -108.67496   0.53147707   -108.14349   -3224.5344    4.3202272    4.3202272    4.3202272   -3224.5344   -5856.0212    12222.637   -16040.219    1835.8618   -4270.5981   -5308.8831    80.634291 
   81200    493.68813   -108.59069    0.4466994   -108.14399    5845.6565    4.3115166    4.3115166    4.3115166    5845.6565    10079.316    4477.1962    2980.4577    4634.2361   -3264.9282    4598.2089    80.147538 
   81300    505.00576   -108.59925   0.45693982   -108.14231   -4722.9982    4.3202076    4.3202076    4.3202076   -4722.9982    8094.8652   -15522.219   -6741.6409   -593.80873   -209.45764    5210.1837    80.633194 
   81400     390.5104   -108.49636   0.35334201   -108.14302   -2228.0269    4.3143355    4.3143355    4.3143355   -2228.0269    1905.7308   -4415.7587   -4174.0528    702.33448   -7157.8261   -5401.2425    80.304842 
   81500    380.36792   -108.48889   0.34416488   -108.14472   -2210.7174    4.3157206    4.3157206    4.3157206   -2210.7174    3054.6791    10437.063   -20123.895   -345.12456    816.77563    3587.7266    80.382216 
   81600    610.49415   -108.69542   0.55238794   -108.14303   -1870.8358     4.319023     4.319023     4.319023   -1870.8358   -973.84306    19422.582   -24061.246    3465.1264   -352.02983     3727.903     80.56688 
   81700    653.26421   -108.73415   0.59108719   -108.14306    4544.7183     4.312478     4.312478     4.312478    4544.7183    4696.9319    11584.314   -2647.0914    1078.1354   -4135.0512   -3428.7591    80.201165 
   81800    497.40707   -108.59372   0.45006437   -108.14366   -3644.3389    4.3201653    4.3201653    4.3201653   -3644.3389    8883.8655   -15611.448   -4205.4338    1697.8647    599.01911     8529.336    80.630822 
   81900    468.69831   -108.56573   0.42408808   -108.14164    496.97412    4.3140966    4.3140966    4.3140966    496.97412    6115.6478   -5615.1514    990.42598     -4752.84   -3947.9561     1559.848    80.291506 
   82000    311.75587   -108.42584   0.28208327   -108.14376    2060.8395    4.3158236    4.3158236    4.3158236    2060.8395    812.23164    12245.435    -6875.148    533.88324    -4985.002   -4084.2808    80.387968 
   82100    436.80666   -108.53932   0.39523185   -108.14409   -6562.3466    4.3184898    4.3184898    4.3184898   -6562.3466    477.72789    8761.2182   -28925.986    1622.4048    1449.2393    8364.5073    80.537048 
   82200    678.21138   -108.75618   0.61365991   -108.14252    3528.4254    4.3132058    4.3132058    4.3132058    3528.4254    6219.2637    16164.734   -11798.721    901.73609   -3232.1541    401.54816     80.24178 
   82300    632.79788   -108.71622   0.57256882   -108.14365   -906.86905    4.3188206    4.3188206    4.3188206   -906.86905   -1564.8134    3873.5898   -5029.3835    860.50472   -5352.2936   -1724.4448    80.555554 
   82400    475.65384   -108.57479   0.43038159   -108.14441    2348.8452     4.314239     4.314239     4.314239    2348.8452    10986.139   -5874.9604    1935.3573   -1336.6124    2268.5977    7327.0554    80.299458 
   82500    426.24539   -108.52894   0.38567579   -108.14326    1446.3072    4.3167612    4.3167612    4.3167612    1446.3072   -2325.6594    3763.3523    2901.2287     1249.983   -5313.4815   -2464.2467    80.440371 
   82600    365.04986   -108.47378   0.33030478   -108.14348    -7378.321    4.3169993    4.3169993    4.3169993    -7378.321    1008.4792   -3321.6448   -19821.797    799.19874   -2089.7432    1604.7049    80.453684 
   82700    438.50028   -108.54071   0.39676427   -108.14394   -4346.3606    4.3147122    4.3147122    4.3147122   -4346.3606    10487.394    1664.3912   -25190.867      2188.19     2095.295    8815.4384    80.325879 
   82800     658.8604   -108.73873   0.59615074   -108.14258    62.904448    4.3188168    4.3188168    4.3188168    62.904448    -7078.599    20825.617   -13558.305   -5198.7796   -5834.5741    -2583.867    80.555343 
   82900    571.10001   -108.66082   0.51674329   -108.14408    8657.3415    4.3132709    4.3132709    4.3132709    8657.3415     10941.89    11509.179    3520.9551   -1792.7736   -2909.9972    992.44887    80.245413 
   83000     564.7528   -108.65467   0.51100021   -108.14367   -3457.2853    4.3190601    4.3190601    4.3190601   -3457.2853   -1162.6637   -8052.8693   -1156.3227   -1769.6834    640.85367    5336.4724    80.568956 
   83100    444.23612   -108.54405   0.40195417   -108.14209    906.58946    4.3148341    4.3148341    4.3148341    906.58946    1084.7125    2035.2111   -400.15519    1319.7613   -4507.4576   -2130.6318     80.33269 
   83200    304.71316   -108.41909   0.27571087   -108.14338   -8867.0259    4.3157218    4.3157218    4.3157218   -8867.0259    7067.2805   -6919.3296   -26749.029    1549.4169   -473.63017    3814.4841    80.382282 
   83300    401.44536   -108.50737   0.36323619   -108.14413   -2885.4069     4.318232     4.318232     4.318232   -2885.4069    1955.7263     15377.42   -25989.367    294.90958    851.74745    4845.2563    80.522625 
   83400    625.26378   -108.70902   0.56575181   -108.14327    9211.3551    4.3130498    4.3130498    4.3130498    9211.3551    2781.7339    22201.096    2651.2348    -1303.674   -6529.2763    -4237.811     80.23307 
   83500    685.74738   -108.76487   0.62047864   -108.14439   -2354.9723    4.3185802    4.3185802    4.3185802   -2354.9723    3304.5802   -5745.3205   -4624.1765   -865.47061   -489.12422    6594.3858    80.542105 
   83600    611.22393   -108.69615   0.55304826    -108.1431    2076.9153    4.3155171    4.3155171    4.3155171    2076.9153   -379.58366    1744.8211    4865.5086     3209.438   -1339.8707    3645.0246    80.370842 
   83700    417.43821   -108.52059   0.37770686   -108.14288   -2770.5804    4.3146109    4.3146109    4.3146109   -2770.5804   -1865.1068    4178.3931   -10625.028   -1853.9175   -2519.0404   -1275.7324    80.320226 
   83800    206.98083   -108.33179    0.1872806   -108.14451   -7547.5269    4.3195751    4.3195751    4.3195751   -7547.5269    7933.4423    1450.7894   -32026.812   -1338.8854    1149.5784    3753.4047    80.597781 
   83900    442.42363   -108.54325    0.4003142   -108.14294    4788.1829    4.3132956    4.3132956    4.3132956    4788.1829    5950.8316    17148.222   -8734.5047   -3654.2924   -2446.4392    599.38078     80.24679 
   84000    648.69057   -108.72973   0.58694886   -108.14278    819.14161    4.3177579    4.3177579    4.3177579    819.14161    3922.4008    4662.4109   -6127.3869    -511.2361   -3522.0721   -197.39492    80.496102 
   84100    681.55309   -108.76053   0.61668356   -108.14385   -366.03679    4.3170454    4.3170454    4.3170454   -366.03679      1906.69    498.49484   -3503.2952    777.86466    1293.5034    7183.0728    80.456263 
   84200    628.18206   -108.71081   0.56839233   -108.14242    4032.6946    4.3137778    4.3137778    4.3137778    4032.6946   -3651.2275    13495.975    2253.3363    2721.4028   -2442.0326    98.769402    80.273705 
   84300    361.48246   -108.47077   0.32707692   -108.14369    -8557.479    4.3190393    4.3190393    4.3190393    -8557.479   -438.23076   -3606.3138   -21627.893   -1259.8311    -2505.405    1264.3215    80.567796 
   84400     219.5738   -108.34337   0.19867499    -108.1447   -2026.0996    4.3135613    4.3135613    4.3135613   -2026.0996    14290.483    752.86268   -21121.644   -2157.7328    1095.3136    5823.2455    80.261619 
   84500    479.32727   -108.57712   0.43370539   -108.14342    359.52034    4.3171811    4.3171811    4.3171811    359.52034    4312.2508    8740.1373   -11973.827    2669.9023   -4454.1413    -497.5842    80.463851 
   84600       629.39   -108.71354    0.5694853   -108.14406    256.55535     4.316688     4.316688     4.316688    256.55535    1677.6508    9568.0094   -10475.994   -142.50724   -87.970925    2729.6171    80.436281 
   84700     645.7906   -108.72941   0.58432491   -108.14508    2796.5259    4.3145169    4.3145169    4.3145169    2796.5259   -378.29487    8630.4663    137.40614    670.49376    2630.3265    2629.1341    80.314972 
   84800    697.33784   -108.77309   0.63096593   -108.14213    -4764.971    4.3186218    4.3186218    4.3186218    -4764.971   -10873.541    3108.2066   -6529.5782   -3125.5219   -2195.8657   -2984.9578    80.544434 
   84900    317.15021   -108.43076   0.28696418   -108.14379   -2630.1059    4.3142845    4.3142845    4.3142845   -2630.1059    11521.993   -340.18265   -19072.128   -1990.0258   -1082.3573    5057.7497    80.301994 
   85000    199.22775   -108.32552   0.18026546   -108.14526   -4355.4673    4.3169711    4.3169711    4.3169711   -4355.4673    6496.4067    3221.2467   -22784.055   -828.39928    655.48955    4348.3319     80.45211 
   85100    500.78392   -108.59583   0.45311981   -108.14271    3173.9668    4.3170233    4.3170233    4.3170233    3173.9668    4585.8602    17953.397   -13017.356    4374.8729   -2962.1773   -901.70236    80.455026 
   85200    651.25672   -108.73358   0.58927076   -108.14431    2728.8108    4.3141215    4.3141215    4.3141215    2728.8108    4997.7556    7815.6966   -4627.0198    848.77699    1232.3814    5003.4794    80.292895 
   85300    711.21435   -108.78801   0.64352169   -108.14449   -5201.6618    4.3188013    4.3188013    4.3188013   -5201.6618   -8815.7305   -2905.3666   -3883.8884    -1193.788    1708.6267    855.14761    80.554476 
   85400    635.11898   -108.71684     0.574669   -108.14217    5962.6326     4.313064     4.313064     4.313064    5962.6326    3331.9637    17419.327   -2863.3925    1313.4788   -2215.2426    850.07092    80.233867 
   85500    214.82846   -108.33962   0.19438131   -108.14524   -5086.2507    4.3182976    4.3182976    4.3182976   -5086.2507    6541.7767    4778.2127   -26578.742   -1476.7025    792.73428    4819.3046    80.526294 
   85600    201.47132   -108.32768   0.18229549   -108.14539    -1428.178    4.3157114    4.3157114    4.3157114    -1428.178    9437.7872     4026.938   -17749.259    2778.4017   -411.86767   -550.93251    80.381698 
   85700    652.28664    -108.7327   0.59020266   -108.14249    2315.4057    4.3145901    4.3145901    4.3145901    2315.4057    6258.0214    8675.1536   -7986.9581   -1284.4191   -323.80415    -1497.898    80.319062 
   85800    665.70854   -108.74729   0.60234708   -108.14494   -3631.4934    4.3192422    4.3192422    4.3192422   -3631.4934   -1292.2928   -2046.9802   -7555.2071   -2615.2738    1660.6863    6254.6269    80.579147 
   85900    684.75507    -108.7634   0.61958078   -108.14382    5371.1943    4.3130057    4.3130057    4.3130057    5371.1943    -5966.332    18859.247    3220.6675   -2546.6869   -634.95183   -1056.0158    80.230612 
   86000    518.72887   -108.61182   0.46935678   -108.14247    -1335.084    4.3187776    4.3187776    4.3187776    -1335.084    1255.3975    10595.866   -15856.515    4088.7747   -795.34758    4148.9871    80.553149 
   86100    173.73798   -108.30204   0.15720178   -108.14484   -5960.7707     4.314721     4.314721     4.314721   -5960.7707    11330.697   -7396.5529   -21816.456    126.61102    2411.3129    4132.1906    80.326375 
   86200    349.08874   -108.46036   0.31586283   -108.14449   -2889.7747     4.316288     4.316288     4.316288   -2889.7747    7085.1875    408.18923   -16162.701    522.75609   -783.98217   -2335.9259    80.413921 
   86300    626.51514   -108.70997   0.56688406   -108.14309    1644.4692    4.3172261    4.3172261    4.3172261    1644.4692    2244.7092    10946.266   -8257.5681    611.07387    1880.4741    4570.3209    80.466365 
   86400     665.5252   -108.74751   0.60218118   -108.14532    1840.5717    4.3138861    4.3138861    4.3138861    1840.5717   -3236.2691    11479.694   -2721.7104   -2562.1848    1239.0829     2795.824    80.279752 
   86500    701.90251   -108.77843   0.63509615   -108.14333   -927.03419    4.3181932    4.3181932    4.3181932   -927.03419   -5015.5457    6146.5004   -3912.0573    4154.6783   -2884.3541   -3711.8708    80.520452 
   86600    456.96394   -108.55666   0.41347058   -108.14319   -4063.2499    4.3151259    4.3151259    4.3151259   -4063.2499    5720.9875   -3829.5961   -14081.141    933.11431    847.96174    3590.3751    80.348987 
   86700    141.17943   -108.27306   0.12774211   -108.14531   -2574.1689    4.3164892    4.3164892    4.3164892   -2574.1689    11539.289    4345.7683   -23607.564   -2784.6657    1572.6002    934.13249    80.425167 
   86800    397.23389   -108.50264   0.35942557   -108.14321    2313.8581    4.3164228    4.3164228    4.3164228    2313.8581    2280.1512    18167.617   -13506.194   -3143.4726   -737.53593   -1094.6205    80.421455 
   86900     601.5731   -108.68801   0.54431599   -108.14369    1445.7683    4.3156183    4.3156183    4.3156183    1445.7683     444.9997    9072.5572    -5180.252    2331.9561    2996.9387    7465.4437    80.376495 
   87000    754.72835   -108.82696   0.68289408   -108.14407   -3535.0057    4.3169611    4.3169611    4.3169611   -3535.0057   -7572.1141    536.73469   -3569.6376   -1679.3252    2082.3212    -949.8879    80.451547 
   87100    727.44445   -108.80052   0.65820703   -108.14231    1315.2264    4.3153375    4.3153375    4.3153375    1315.2264   -755.30136    5829.8064   -1128.8258    4096.9165   -1702.8151   -2976.0893    80.360807 
   87200    287.74513   -108.40516   0.26035784   -108.14481   -1519.5768     4.316989     4.316989     4.316989   -1519.5768    2585.4476    10777.935   -17922.113    942.81535    2780.7413    4831.1983    80.453107 
   87300    192.87415   -108.31934   0.17451658   -108.14483    273.91626    4.3149217    4.3149217    4.3149217    273.91626    8905.7099    13546.134   -21630.095   -2135.0268    820.29025   -2145.3812    80.337582 
   87400    469.33032   -108.56718   0.42465994   -108.14252   -2855.2757    4.3168521    4.3168521    4.3168521   -2855.2757    5328.1507   -2978.5585   -10915.419    3372.8855    155.67795   -320.41615    80.445452 
   87500     613.1695   -108.69978   0.55480865   -108.14497   -5818.1868    4.3160307    4.3160307    4.3160307   -5818.1868   -6521.8132   -5283.2904    -5649.457    2046.0901    2008.5597    3769.7151    80.399544 
   87600    742.76474   -108.81664   0.67206915   -108.14457    4124.6534     4.315765     4.315765     4.315765    4124.6534   -232.70874    10959.857    1646.8123    -381.6505    -551.5738   -4576.7867    80.384692 
   87700    679.66674   -108.75787   0.61497675   -108.14289    2989.4115    4.3172917    4.3172917    4.3172917    2989.4115   -4255.9896    17387.012   -4162.7874   -2805.1625    1110.8001    1913.3493    80.470035 
   87800    211.41332    -108.3374   0.19129122   -108.14611    1381.8779    4.3150758    4.3150758    4.3150758    1381.8779    8175.3171    11061.763   -15091.446   -318.90555    4001.7088     4155.529     80.34619 
   87900    347.17229   -108.45686   0.31412879   -108.14274   -6805.4503    4.3174054    4.3174054    4.3174054   -6805.4503    9050.2062   -7170.8812   -22295.676   -2353.8471    196.58538   -2180.5988    80.476392 
   88000    460.17419   -108.55881   0.41637528   -108.14243   -3218.2763    4.3162044    4.3162044    4.3162044   -3218.2763    3629.8268    -5244.115   -8040.5406    5251.3316    2064.9682    479.16472    80.409249 
   88100    486.51999   -108.58636   0.44021351   -108.14614    41.396644    4.3156048    4.3156048    4.3156048    41.396644    -4697.755    6253.4152   -1431.4703    1484.5145    1435.1301    1689.1697    80.375744 
   88200    822.94721   -108.88742   0.74461993    -108.1428     4258.381     4.316872     4.316872     4.316872     4258.381   -1543.7743    11817.132    2501.7854   -220.28842   -1539.1331   -3809.0281    80.446568 
   88300    593.69065   -108.68175   0.53718378   -108.14457    4295.1315    4.3155525    4.3155525    4.3155525    4295.1315    2678.4165    10792.492   -585.51356   -293.94875    4710.3343     4591.971    80.372822 
   88400    312.23014   -108.42865   0.28251239   -108.14614   -7767.9561    4.3159606    4.3159606    4.3159606   -7767.9561     2994.169   -1644.4319   -24653.605    2390.4685    2322.4073   -211.29065    80.395624 
   88500      405.061   -108.50921   0.36650771    -108.1427   -2479.8712     4.317194     4.317194     4.317194   -2479.8712    9604.3346    1212.6789   -18256.627    1144.8214   -1184.6942   -2522.1739     80.46457 
   88600    355.49188   -108.46602   0.32165653   -108.14437    231.97407    4.3153387    4.3153387    4.3153387    231.97407    -3707.494    11177.841    -6774.425    -628.0367    2950.5643    4087.9642    80.360879 
   88700    499.87445   -108.59808   0.45229691   -108.14578   -2005.2943    4.3170338    4.3170338    4.3170338   -2005.2943    21.028332   -3980.3209   -2056.5902   -596.62238    529.84212    1205.9547    80.455615 
   88800    831.69605   -108.89427   0.75253607   -108.14173    3532.4273    4.3162705    4.3162705    4.3162705    3532.4273    2043.0554    137.64015    8416.5863   -4144.3227   -58.490856   -828.25339    80.412943 
   88900    535.43194   -108.62949   0.48447007   -108.14502   -140.20421    4.3158623    4.3158623    4.3158623   -140.20421    1477.8805    9138.4833   -11036.976    3281.6557    4963.0373    2399.2936    80.390133 
   89000    381.67777    -108.4897   0.34535006   -108.14435   -4179.1555    4.3173442    4.3173442    4.3173442   -4179.1555    3723.7001    9081.9079   -25343.075    1717.1728    622.08043   -3310.8908     80.47297 
   89100    419.85683   -108.52152   0.37989529   -108.14163    1411.1176    4.3155926    4.3155926    4.3155926    1411.1176    2005.1021    13971.217   -11742.966   -608.53307    -478.5941   -1443.8723    80.375064 
   89200    308.88536   -108.42421   0.27948597   -108.14472   -4401.7995    4.3159422    4.3159422    4.3159422   -4401.7995    216.07951   -7307.9416   -6113.5365    -968.8071    4085.1151    4628.5732    80.394597 
   89300    606.34255   -108.69277   0.54863148   -108.14414   -4649.1497    4.3170527    4.3170527    4.3170527   -4649.1497    1258.1026   -18014.257    2808.7054    1938.4505    706.09557    -1312.664     80.45667 
   89400    694.59847   -108.77144    0.6284873   -108.14295    6240.0339     4.315344     4.315344     4.315344    6240.0339    1886.6253    10830.775    6002.7016   -1314.2594    2013.4893     308.5966    80.361175 
   89500    509.66696   -108.60666   0.46115737    -108.1455   -1155.9705    4.3162234    4.3162234    4.3162234   -1155.9705   -4061.0774    20333.537   -19740.371    2606.2771    3131.2804     2410.335    80.410313 
   89600    491.91917   -108.58828    0.4450988   -108.14319   -1168.9342      4.31717      4.31717      4.31717   -1168.9342    2281.4294    14015.468     -19803.7   -1875.4703   -1415.1385   -967.73944    80.463229 
   89700     413.6807   -108.51706   0.37430699   -108.14275   -4687.6699    4.3155422    4.3155422    4.3155422   -4687.6699   -3731.7375    -2308.777   -8022.4953    -7771.337     1957.741    1571.2856    80.372245 
   89800     332.0251   -108.44488   0.30042328   -108.14446   -5820.4064    4.3170669    4.3170669    4.3170669   -5820.4064    2975.3976   -14799.565   -5637.0516    2978.4782    3259.6614    1504.0857    80.457463 
   89900      582.196   -108.66951   0.52678318   -108.14273    5415.4052    4.3164615    4.3164615    4.3164615    5415.4052    2925.6474    5041.6248    8278.9436    199.41015    1089.7134   -4000.2442    80.423619 
   90000     595.1178   -108.68229   0.53847509   -108.14382     5260.046    4.3149393    4.3149393    4.3149393     5260.046    -3760.682    18118.401    1422.4192   -1656.9565    4364.5342    355.26562    80.338565 
   90100    576.48721   -108.66546   0.52161774   -108.14384   -4393.2213    4.3183858    4.3183858    4.3183858   -4393.2213    43.131609    8668.6845    -21891.48    1420.1387    318.87571    1372.2473     80.53123 
   90200    560.29464   -108.64865   0.50696636   -108.14168   -1896.9655    4.3147395    4.3147395    4.3147395   -1896.9655   -969.89343    8770.7399   -13491.743   -1539.5809   -1114.2869    808.94761    80.327404 
   90300     261.9903   -108.38151   0.23705432   -108.14445    -2869.238    4.3167768    4.3167768    4.3167768    -2869.238   -1981.4679    2315.5214   -8941.7675   -4085.9894    4201.1961    1083.4477    80.441246 
   90400    429.24588   -108.53227   0.38839069   -108.14388    91.616724    4.3171692    4.3171692    4.3171692    91.616724    3229.9116    683.21157    -3638.273    4739.7149    104.82914    1493.3148    80.463186 
   90500    607.22285     -108.692   0.54942799   -108.14258    7131.5407     4.314169     4.314169     4.314169    7131.5407     4574.604    3779.9997    13040.018   -2827.0266    2006.6591   -2634.6883    80.295545 
   90600    589.81388    -108.6783     0.533676   -108.14462   -8255.7306    4.3188342    4.3188342    4.3188342   -8255.7306   -11620.921   -3539.2652   -9607.0054   -7805.5542      4775.21    3784.5947    80.556317 
   90700    599.96269   -108.68543   0.54285885   -108.14257    616.99818    4.3148361    4.3148361    4.3148361    616.99818    3329.1825    16817.214   -18295.402    2490.7336   -1869.5774    1005.9675    80.332802 
   90800    408.45288   -108.51276   0.36957675   -108.14318   -646.26438    4.3166495    4.3166495    4.3166495   -646.26438   -3263.6688    16169.007   -14844.132   -3614.5835    1593.6973   -1358.6099    80.434127 
   90900     304.3013   -108.42034   0.27533821     -108.145   -3483.5301    4.3168559    4.3168559    4.3168559   -3483.5301   -2945.6574    2080.7416   -9585.6746   -913.69599    4947.2425    349.28313    80.445667 
   91000    563.09308   -108.65212   0.50949845   -108.14262    4045.5775    4.3153897    4.3153897    4.3153897    4045.5775    11022.627   -5368.2299    6482.3352    755.17393   -1259.2811    607.62005    80.363725 
   91100    630.51843    -108.7136   0.57050633   -108.14309   -4080.8098    4.3174734    4.3174734    4.3174734   -4080.8098   -10946.496   -9598.1946    8302.2614   -5041.9571    2325.5568    1496.6194    80.480194 
   91200    490.83326   -108.58895   0.44411625   -108.14483   -600.89524    4.3153251    4.3153251    4.3153251   -600.89524   -4444.5886    12750.815   -10108.912   -4566.7449    2730.6687    4022.5738    80.360116 
   91300    562.30188   -108.65087   0.50878255   -108.14208    1103.2673    4.3165481    4.3165481    4.3165481    1103.2673    3932.4128    19645.586   -20268.196    4198.9372   -1690.3158    849.39556    80.428458 
   91400    356.43371   -108.46641   0.32250871    -108.1439   -2429.4167    4.3169702    4.3169702    4.3169702   -2429.4167    -1762.339    7148.0732   -12673.984    -4847.141    5328.5816   -2187.0384    80.452058 
   91500    398.05544    -108.5048   0.36016892   -108.14463   -865.97444    4.3154909    4.3154909    4.3154909   -865.97444    3234.5677    1216.5251   -7049.0161   -3405.7014    3528.7103    3222.5014    80.369378 
   91600    650.11436    -108.7303   0.58823713   -108.14206    2180.0278    4.3166873    4.3166873    4.3166873    2180.0278    2071.2537   -3730.0471     8198.877   -891.70922   -249.90795    367.03486    80.436244 
   91700    535.58487   -108.62913   0.48460844   -108.14452   -1831.1522     4.316565     4.316565     4.316565   -1831.1522   -14695.337    5241.9124    3959.9677    -6511.117     4507.215    2222.2066    80.429404 
   91800    498.75842   -108.59524    0.4512871   -108.14395   -791.50005    4.3158133    4.3158133    4.3158133   -791.50005    -351.5801    13123.479   -15146.399    1092.4408   -90.996702    1102.1377    80.387395 
   91900    521.37038   -108.61361   0.47174688   -108.14186   -918.58307    4.3165541    4.3165541    4.3165541   -918.58307      8533.58    7568.9161   -18858.245   -569.31109    1162.1739   -311.11235    80.428796 
   92000    328.01134   -108.44176   0.29679155   -108.14497   -1865.6259    4.3157637    4.3157637    4.3157637   -1865.6259   -4572.5475    13732.083   -14756.413   -5587.5371    6535.4887    1300.2043    80.384621 
   92100     465.1594   -108.56545     0.420886   -108.14456    1220.3502    4.3170381    4.3170381    4.3170381    1220.3502    3583.6432    5275.5302   -5198.1227   -2924.7015   -863.55639    5310.1735    80.455855 
   92200    699.49108   -108.77507   0.63291423   -108.14216     1080.999    4.3162232    4.3162232    4.3162232     1080.999   -8612.4098    3467.8418     8387.565    3099.5168    2132.2621   -937.64014    80.410299 
   92300    525.94505   -108.62031   0.47588614   -108.14442   -2263.2888    4.3158715    4.3158715    4.3158715   -2263.2888   -9116.3138    4378.6294   -2052.1821    -4887.548    5156.1486    1451.1536    80.390643 
   92400    518.16477   -108.61178   0.46884637   -108.14293   -5031.5652    4.3175267    4.3175267    4.3175267   -5031.5652     4589.337   -480.16691   -19203.866    913.03305   -2583.0974    1167.5351    80.483176 
   92500    365.37148   -108.47329   0.33059579    -108.1427    2914.2345     4.315594     4.315594     4.315594    2914.2345    4882.3596    23006.151   -19145.807    -2611.331    5817.1912    -289.8074    80.375141 
   92600    333.82283   -108.44689   0.30204991   -108.14484   -971.19772     4.316224     4.316224     4.316224   -971.19772   -4021.5871    18601.274    -17493.28   -6780.6989    4542.6201    3346.3797    80.410343 
   92700    617.34317   -108.70173   0.55858507   -108.14315   -992.11101    4.3171476    4.3171476    4.3171476   -992.11101   -613.27984   -1371.8169   -991.23627    819.13584   -2268.7426    4226.6307    80.461975 
   92800    704.57841    -108.7804   0.63751735   -108.14288    792.10014    4.3151244    4.3151244    4.3151244    792.10014   -10148.176    4201.5329    8322.9436    494.64246    6612.1196   -2662.2529    80.348908 
   92900    535.06403   -108.62804   0.48413718    -108.1439   -5927.7514    4.3176326    4.3176326    4.3176326   -5927.7514   -10327.146    293.90302    -7750.011   -4849.7646    2838.0698    3888.9545    80.489098 
   93000    355.64106   -108.46523   0.32179151   -108.14344    3834.0794    4.3149862    4.3149862    4.3149862    3834.0794    10895.783    15904.214   -15297.759   -977.40509   -1228.0931    3846.4791    80.341184 
   93100    329.17687   -108.44172   0.29784615   -108.14387   -1148.2399    4.3166251    4.3166251    4.3166251   -1148.2399   -4204.5521    21831.395   -21071.563    1450.4987     6741.853   -321.47865    80.432765 
   93200    466.93423   -108.56613    0.4224919   -108.14364   -3986.0788    4.3171929    4.3171929    4.3171929   -3986.0788    265.19526    1775.3832   -13998.815   -4497.0495    481.82696    4067.7545    80.464509 
   93300    720.89215   -108.79496   0.65227836   -108.14268   -891.25046    4.3150294    4.3150294    4.3150294   -891.25046   -5313.4818   -1006.4587    3646.1891    3644.7306   -1141.9618   -351.82648    80.343596 
   93400    623.40078   -108.70769   0.56406613   -108.14362   -1261.0436    4.3179276    4.3179276    4.3179276   -1261.0436   -15761.752    7808.1028    4170.5184   -583.93441    6394.9714   -2324.4742    80.505593 
   93500    468.17907   -108.56679   0.42361826   -108.14317    2216.3674    4.3153852    4.3153852    4.3153852    2216.3674   -145.19039    9578.7991   -2784.5067   -6971.7476    244.94246    6239.3254    80.363476 
   93600    319.74767   -108.43256   0.28931441   -108.14324    1164.7495    4.3165565    4.3165565    4.3165565    1164.7495     6943.623    10564.929   -14014.303    1335.8923    3713.5442    4496.5111    80.428931 
   93700    365.94275   -108.47451   0.33111269    -108.1434   -4371.2679    4.3165511    4.3165511    4.3165511   -4371.2679   -1455.8989    9474.6106   -21132.516    -491.9534    6915.3563   -2956.7962     80.42863 
   93800    594.66359   -108.68109   0.53806412   -108.14303     -1044.47    4.3160195    4.3160195    4.3160195     -1044.47    2928.3919    3920.7865   -9982.5884   -2603.3249   -1840.5773     4610.074    80.398919 
   93900    636.54754   -108.71977   0.57596159   -108.14381     1324.284    4.3167773    4.3167773    4.3167773     1324.284   -11016.943    9737.0853    5252.7093    2820.9012    4201.8002   -1116.0084    80.441275 
   94000     596.3254    -108.6833   0.53956776   -108.14373    1010.2048    4.3156801    4.3156801    4.3156801    1010.2048   -12100.074     7556.945    7573.7433    170.17476    4004.4242    408.70826    80.379948 
   94100    464.76793   -108.56383   0.42053179    -108.1433    2774.3438    4.3164166    4.3164166    4.3164166    2774.3438    9914.6661   -2258.9782    667.34364   -3438.2327   -896.58765    5768.4986    80.421108 
   94200    315.29065    -108.4295   0.28528161   -108.14421   -4136.8992    4.3160096    4.3160096    4.3160096   -4136.8992    1320.2121    4345.9664   -18076.876    5544.1963    5752.8746   -545.16752    80.398362 
   94300    400.83261   -108.50665   0.36268177   -108.14397    -4468.282    4.3173763    4.3173763    4.3173763    -4468.282    3371.0881    9625.0463    -26400.98     1219.168    2693.7355   -2517.3332    80.474765 
   94400     629.2236   -108.71196   0.56933474   -108.14263    2053.9928    4.3157487    4.3157487    4.3157487    2053.9928   -1419.9834    10918.331   -3336.3691    -4940.238   -1775.8758    6577.6631    80.383786 
   94500    591.88908   -108.67984   0.53555368   -108.14429    1457.2351    4.3163421    4.3163421    4.3163421    1457.2351   -10386.646    5091.7896    9666.5615    3379.0371    7798.7844    515.64788    80.416946 
   94600    626.02578   -108.70918   0.56644128   -108.14273   -142.41506    4.3177165    4.3177165    4.3177165   -142.41506   -3523.6585   -7534.4782    10630.892   -3316.4118    3154.1948    133.57416    80.493788 
   94700    420.62048   -108.52331   0.38058625   -108.14272    3024.6163    4.3143346    4.3143346    4.3143346    3024.6163     11803.19    1098.1679   -3827.5087   -1210.9117   -50.296998     3704.592    80.304793 
   94800    262.75281   -108.38216   0.23774426   -108.14441    -10163.84    4.3180229    4.3180229    4.3180229    -10163.84   -3850.0451    5401.6372   -32043.113    5222.1017    7920.7828   -3643.2936    80.510924 
   94900    475.53693   -108.57357    0.4302758   -108.14329   -695.79146    4.3160472    4.3160472    4.3160472   -695.79146    2753.3854    11638.654   -16479.414    350.18811   -1128.3452    1725.9805    80.400465 
   95000    613.97088   -108.69904   0.55553375   -108.14351    3043.6936    4.3152774    4.3152774    4.3152774    3043.6936   -589.86416    5256.7947    4464.1503    -3475.122    2285.9669     6928.399    80.357454 
   95100    652.40244   -108.73489   0.59030744   -108.14458   -4778.5085    4.3179904    4.3179904    4.3179904   -4778.5085   -14468.991   -7172.5489    7306.0146    5602.6803    7980.7354   -2879.5781     80.50911 
   95200    589.37447   -108.67604   0.53327841   -108.14276    6369.3562    4.3147847    4.3147847    4.3147847    6369.3562    9105.8057   -10.615109    10012.878   -82.564963   -370.33009   -1800.5908    80.329931 
   95300    366.34184   -108.47514   0.33147379   -108.14367   -6702.1427    4.3170178    4.3170178    4.3170178   -6702.1427   -4148.5422     2913.119   -18871.005    -1317.444    1385.8591    2838.4821    80.454721 
   95400    233.67346   -108.35616   0.21143265   -108.14473   -6859.4713    4.3174014    4.3174014    4.3174014   -6859.4713   -2970.8243     7627.618   -25235.208    5270.3921     5596.109   -2443.8347    80.476168 
   95500    547.04791   -108.63774   0.49498045   -108.14276    4541.1429    4.3145263    4.3145263    4.3145263    4541.1429    6058.9697    7590.9998   -26.540752   -4995.0662   -1103.1543    3816.4608    80.315497 
   95600    649.21248   -108.73121    0.5874211   -108.14379   -1094.7645    4.3182209    4.3182209    4.3182209   -1094.7645   -4356.9181   -3699.5362    4772.1607   -187.60314    5391.1389    3103.3684    80.522001 
   95700    657.65414   -108.73904   0.59505929   -108.14398    2413.6325    4.3159305    4.3159305    4.3159305    2413.6325   -1155.2078   -1462.3086    9858.4138    5270.8039    5588.9348   -5114.1414    80.393944 
   95800    579.27641   -108.66628   0.52414147   -108.14214    2359.2462    4.3153245    4.3153245    4.3153245    2359.2462    2840.0411    3505.3432    732.35444    827.27434   -2515.1399    609.15097    80.360085 
   95900    239.69053   -108.36113   0.21687703   -108.14426    -7486.168    4.3179876    4.3179876    4.3179876    -7486.168   -6482.9815    1282.3277    -17257.85   -310.13478    5528.4312    3166.3659     80.50895 
   96000    311.52608   -108.42611   0.28187535   -108.14423   -951.66749    4.3151841    4.3151841    4.3151841   -951.66749    3300.1552    2506.2646   -8661.4223    5495.9533    2593.9481   -2931.3473    80.352239 
   96100    580.15803    -108.6676   0.52493917   -108.14266    3429.9665    4.3165612    4.3165612    4.3165612    3429.9665    9786.6753    1185.9587   -682.73449   -3361.9621    276.12962    1904.7208    80.429195 
   96200    687.74987   -108.76655   0.62229053   -108.14426   -1884.6595    4.3165634    4.3165634    4.3165634   -1884.6595   -5918.3948    1162.7851   -898.36882    3251.1421    4954.0956   -1008.4799    80.429314 
   96300    660.47727   -108.74169   0.59761372   -108.14408    3629.6943    4.3156345    4.3156345    4.3156345    3629.6943    782.02694    3201.7755    6905.2806    4792.3356    526.09595   -2703.8706    80.377405 
   96400    489.24009   -108.58591   0.44267471   -108.14323   -3311.4985    4.3170438    4.3170438    4.3170438   -3311.4985   -7505.9886    158.07346   -2586.5802   -5731.9183   -2620.2427    4582.2307    80.456171 
   96500    215.51518   -108.33955   0.19500266   -108.14455   -6074.1498    4.3170748    4.3170748    4.3170748   -6074.1498   -4955.6389   -2806.2704    -10460.54     2407.717    7758.8788    1569.3024    80.457903 
   96600    342.79461   -108.45376   0.31016777   -108.14359    1932.0281    4.3152756    4.3152756    4.3152756    1932.0281    9714.2629    1050.2644   -4968.4431    2495.4182    1341.4842   -4526.6136    80.357353 
   96700    637.25648   -108.71902   0.57660306   -108.14242   -2480.7696     4.317411     4.317411     4.317411   -2480.7696    1507.9248    1199.5934   -10149.827    90.051307   -553.27847    383.20668    80.476705 
   96800    668.29062   -108.74882    0.6046834   -108.14414    1444.6124    4.3167903    4.3167903    4.3167903    1444.6124   -4085.4246    8074.5439    344.71785    5259.4103    6026.6623   -2105.0241    80.441998 
   96900    670.35201   -108.74946   0.60654859   -108.14291    2138.7179    4.3148594    4.3148594    4.3148594    2138.7179   -5667.4331    3063.5006    9020.0862    3495.9967   -2291.4277   -1554.3564    80.334101 
   97000    416.62956   -108.52046   0.37697518   -108.14349   -4026.1886    4.3179166    4.3179166    4.3179166   -4026.1886   -7391.0402   -3813.8149   -873.71053   -5924.1857    2379.2932    4410.9321    80.504982 
   97100     216.6101    -108.3404   0.19599337   -108.14441   -1062.2741    4.3157124    4.3157124    4.3157124   -1062.2741    560.95646    3543.7386   -7291.5174    5360.6019    5832.2747   -3818.7107    80.381758 
   97200    405.39829   -108.51026   0.36681289   -108.14345    -1152.191    4.3157506    4.3157506    4.3157506    -1152.191    9347.1553   -3.2997992   -12800.429    2173.1494   -2436.8421   -2746.4185    80.383891 
   97300    619.62771   -108.70452   0.56065217   -108.14387   -1907.5961    4.3177939    4.3177939    4.3177939   -1907.5961   -6644.9337    9482.4041   -8560.2586   -2525.2793   -130.31734    2904.5643    80.498117 
   97400    697.36034   -108.77547   0.63098629   -108.14448    3777.5268    4.3147167    4.3147167    4.3147167    3777.5268   -4900.4749    5223.4783    11009.577    5884.9743     5756.208   -706.89209     80.32613 
   97500    660.41346   -108.74044   0.59755598   -108.14289   -935.52373    4.3176328    4.3176328    4.3176328   -935.52373   -6921.6373   -5258.2075    9373.2736   -137.10549   -1568.8069   -2099.1264     80.48911 
   97600    375.04579   -108.48268   0.33934932   -108.14333    -1266.763    4.3169563    4.3169563    4.3169563    -1266.763   -6327.7105    5980.5031   -3453.0817   -573.47549    4687.0982    1485.1805    80.451282 
   97700    221.07422   -108.34376    0.2000326   -108.14373   -347.70846    4.3142227    4.3142227    4.3142227   -347.70846    8300.0442    3304.4362   -12647.606    7624.5172    3538.0178   -5819.6197    80.298548 
   97800    414.04229   -108.51774   0.37463416    -108.1431   -7309.0879    4.3197466    4.3197466    4.3197466   -7309.0879   -4340.2065     357.0365   -17944.094    1450.9773   -4293.3665    -49.73238    80.607384 
   97900    626.93966   -108.71059   0.56726818   -108.14332    3418.7816    4.3140244    4.3140244    4.3140244    3418.7816   -3895.4788    9426.2414    4725.5823   -3014.1286    3571.0849     3366.461    80.287475 
   98000    742.83327    -108.8159   0.67213115   -108.14377     155.8288    4.3168251    4.3168251    4.3168251     155.8288   -7109.5335   -4617.5195    12194.539    6078.2641    2343.0739   -3307.8165    80.443944 
   98100    632.03409   -108.71525   0.57187773   -108.14337     260.1696    4.3176094    4.3176094    4.3176094     260.1696   -6887.4947    5324.1716     2343.832   -1142.0544   -1891.1688   -2504.1404    80.487801 
   98200    339.06203   -108.45082   0.30679045   -108.14403    1126.6486    4.3139788    4.3139788    4.3139788    1126.6486   -711.53964    13829.577    -9738.092     2394.948    2663.3445    1627.6943    80.284928 
   98300    217.35049   -108.34056   0.19666329    -108.1439   -7978.2548    4.3190474    4.3190474    4.3190474   -7978.2548    -650.4604   -6437.3092   -16846.995    6040.3108    137.46033   -1158.7417    80.568247 
   98400    448.35774   -108.54874   0.40568351   -108.14306   -1028.2526    4.3145197    4.3145197    4.3145197   -1028.2526   -4039.0509    2870.9827   -1916.6896   -2814.4229    -3933.788    698.48128    80.315132 
   98500    639.40295   -108.72243   0.57854522   -108.14388    2223.8293    4.3169088    4.3169088    4.3169088    2223.8293   -6813.1805    5056.0632     8428.605    1250.0858    6442.7679    738.28077    80.448622 
   98600    756.86726   -108.82807   0.68482941   -108.14324     548.9471    4.3176769    4.3176769    4.3176769     548.9471   -5635.4509   -86.579587    7368.8718    5581.3122   -424.39983   -7138.2735    80.491574 
   98700    589.28366   -108.67638   0.53319624   -108.14318    4531.4319    4.3146915    4.3146915    4.3146915    4531.4319   -6151.3055    21895.601   -2149.9996    303.32635   -3174.7083    55.552842    80.324725 
   98800     300.1619   -108.41547    0.2715928   -108.14387    -4438.498    4.3177764    4.3177764    4.3177764    -4438.498   -2253.7108    3560.3949   -14622.178    3192.3609    3957.7411    976.95451    80.497141 
   98900    292.68479   -108.40786   0.26482735   -108.14304   -6311.8749    4.3160394    4.3160394    4.3160394   -6311.8749   -2192.6844   -9596.8766   -7146.0636    3449.6455   -3017.1884    -740.6451    80.400026 
   99000    410.37305   -108.51505   0.37131416   -108.14374    2388.5881    4.3160355    4.3160355    4.3160355    2388.5881   -5850.0798     12727.74    288.10353   -2586.9042   -934.49451   -1548.5454    80.399809 
   99100    683.54637   -108.76237   0.61848712   -108.14388   -1097.3769    4.3167556    4.3167556    4.3167556   -1097.3769   -5446.1268     803.1136    1350.8823    4778.1471    5299.9536    844.29282    80.440059 
   99200      705.692   -108.78263   0.63852495   -108.14411    5392.6765    4.3157997    4.3157997    4.3157997    5392.6765   -2479.5856    11666.001    6991.6135    4025.4368   -4690.3813   -2415.6027    80.386632 
   99300     562.6884   -108.65308   0.50913229   -108.14394   -1085.0976    4.3169713    4.3169713    4.3169713   -1085.0976   -9066.5432    10435.028    -4623.778   -1342.5942   -4308.9321    2907.3899     80.45212 
   99400    348.71441   -108.45883   0.31552413    -108.1433   -4545.9073    4.3164021    4.3164021    4.3164021   -4545.9073   -1109.1434    -5903.336   -6625.2425    3253.6059      4772.07   -1486.7497    80.420301 
   99500    289.02216   -108.40462   0.26151332    -108.1431   -2027.9428    4.3166063    4.3166063    4.3166063   -2027.9428   -6368.9723    5365.4802   -5080.3363    943.07958   -4640.4839   -4806.9264    80.431713 
   99600    438.85522   -108.54074   0.39708542   -108.14365    -2074.075    4.3163804    4.3163804    4.3163804    -2074.075    -7505.598    9611.2367   -8327.8638    -147.8157    1082.7619   -772.64857    80.419084 
   99700    627.01925   -108.71082   0.56734019   -108.14348    1375.6734    4.3172087    4.3172087    4.3172087    1375.6734    -1953.715   -1130.8132    7211.5483    6056.2986    3428.0639    1409.1083    80.465393 
   99800    716.65596   -108.79181   0.64844537   -108.14336    2127.8649    4.3156328    4.3156328    4.3156328    2127.8649   -7584.0419    4865.3595    9102.2772    1046.6948   -7386.2905    1793.5784    80.377307 
   99900    550.14439   -108.64136   0.49778221   -108.14358    -202.3902    4.3164396    4.3164396    4.3164396    -202.3902   -4948.5452    9027.4068   -4686.0322    73.875342   -319.67069   -356.46104    80.422396 
  100000    416.75281   -108.51999    0.3770867   -108.14291    -2768.214     4.317166     4.317166     4.317166    -2768.214   -4708.6784    2391.1447   -5987.1083    2883.5453    2689.8841   -557.85843    80.463004 
Loop time of 23.9454 on 1 procs for 100000 steps with 8 atoms

Pair  time (%) = 7.68098 (32.0771)
Kspce time (%) = 5.86019 (24.4732)
Neigh time (%) = 0 (0)
Comm  time (%) = 1.21581 (5.07745)
Outpt time (%) = 0.0290368 (0.121263)
Other time (%) = 9.15934 (38.251)

Nlocal:    8 ave 8 max 8 min
Histogram: 1 0 0 0 0 0 0 0 0 0
Nghost:    2189 ave 2189 max 2189 min
Histogram: 1 0 0 0 0 0 0 0 0 0
Neighs:    2344 ave 2344 max 2344 min
Histogram: 1 0 0 0 0 0 0 0 0 0

Total # of neighbors = 2344
Ave neighs/atom = 293
Neighbor list builds = 0
Dangerous builds = 0
unfix 20
unfix 21
print "seeds:7711939"
seeds:7711939
