LAMMPS (10 Feb 2015)
# ---- initialize simulations
clear
units metal
dimension 3
boundary p p p
atom_style charge
atom_modify map array
# ---- create atoms
read_data /Users/eugeneragasa/pyflamestk_git/pypospack/tests/tests_integration/workflow/WorkflowLammpsThermalExpansion/MgO_NaCl_unit.npt.T1000/lammps.structure
  triclinic box = (0 0 0) to (4.2565 4.2565 4.2565) with tilt (0 0 0)
  1 by 1 by 1 MPI processor grid
  reading atoms ...
  8 atoms
# ---- define interatomic potential
include potential.mod
mass 1 24.305
mass 2 15.999

group Mg type 1
4 atoms in group Mg
group O type 2
4 atoms in group O

set group Mg charge 2.0
  4 settings made for charge
set group O charge -2.0
  4 settings made for charge

variable R_cut equal 10.0

pair_style buck/coul/long ${R_cut}
pair_style buck/coul/long 10
pair_coeff 1 1 0.0 0.5 0.0 ${R_cut}
pair_coeff 1 1 0.0 0.5 0.0 10
pair_coeff 1 2 821.6 0.3242 0.0 ${R_cut}
pair_coeff 1 2 821.6 0.3242 0.0 10
pair_coeff 2 2 2274.0 0.149 27.88 ${R_cut}
pair_coeff 2 2 2274.0 0.149 27.88 10

kspace_style pppm 1.0e-5

neighbor 1.0 bin
neigh_modify every 1 delay 0 check yes
# ---- define settings
compute eng all pe/atom
compute eatoms all reduce sum c_eng
# ---- run minimization
reset_timestep 0
fix 1 all box/relax iso 0.0 vmax 0.001
thermo 10
thermo_style custom step pe lx ly lz xy xz yz press pxx pyy pzz pxy pxz pyz c_eatoms
min_style cg
minimize 1e-25 1e-25 5000 10000
PPPM initialization ...
  G vector (1/distance) = 0.354854
  grid = 8 8 8
  stencil order = 5
  estimated absolute RMS force accuracy = 5.34408e-05
  estimated relative force accuracy = 3.71126e-06
  using double precision FFTs
  3d grid and FFT values/proc = 3375 512
Neighbor list info ...
  1 neighbor list requests
  update every 1 steps, delay 0 steps, check yes
  master list distance cutoff = 11
Memory usage per processor = 4.06549 Mbytes
Step PotEng Lx Ly Lz Xy Xz Yz Press Pxx Pyy Pzz Pxy Pxz Pyz eatoms 
       0   -162.12848       4.2565       4.2565       4.2565            0            0            0    -64012.53    -64012.53    -64012.53    -64012.53 -3.8759874e-11 -1.4292379e-10 -3.6687737e-10   -162.12848 
      10   -162.17871     4.213935     4.213935     4.213935            0            0            0   -4821.7526   -4821.7526   -4821.7526   -4821.7526 8.9106085e-11 8.5332225e-11 -4.2335946e-10   -162.17871 
      14   -162.17896    4.2106915    4.2106915    4.2106915            0            0            0    -1.347652    -1.347652    -1.347652    -1.347652 2.5597609e-11 1.0162971e-11 2.8091283e-10   -162.17896 
Loop time of 0.017107 on 1 procs for 14 steps with 8 atoms

Minimization stats:
  Stopping criterion = linesearch alpha is zero
  Energy initial, next-to-last, final = 
        -162.128476026     -162.178964554     -162.178964554
  Force two-norm initial, final = 9.24344 0.000276677
  Force max component initial, final = 9.24344 0.000190436
  Final line search alpha, max atom move = 0.125 2.38044e-05
  Iterations, force evaluations = 14 33

Pair  time (%) = 0.00464606 (27.1588)
Kspce time (%) = 0.00328875 (19.2246)
Neigh time (%) = 0 (0)
Comm  time (%) = 0.000664949 (3.887)
Outpt time (%) = 0.000138044 (0.806946)
Other time (%) = 0.00836921 (48.9227)

Nlocal:    8 ave 8 max 8 min
Histogram: 1 0 0 0 0 0 0 0 0 0
Nghost:    2189 ave 2189 max 2189 min
Histogram: 1 0 0 0 0 0 0 0 0 0
Neighs:    2344 ave 2344 max 2344 min
Histogram: 1 0 0 0 0 0 0 0 0 0

Total # of neighbors = 2344
Ave neighs/atom = 293
Neighbor list builds = 0
Dangerous builds = 0
unfix 1
# ---- define output variables ----
variable natoms equal "count(all)"
variable tot_energy equal "c_eatoms"
variable length_x equal "lx"
variable length_y equal "ly"
variable length_z equal "lz"
variable tilt_xy equal "xy"
variable tilt_xz equal "xz"
variable tilt_yz equal "yz"
variable tot_press equal "press"
variable press_xx equal "pxx"
variable press_yy equal "pyy"
variable press_zz equal "pzz"
variable press_xy equal "pxy"
variable press_xz equal "pxz"
variable press_yz equal "pyz"

# ---- output ----
print "pypospack:output_section:begin"
pypospack:output_section:begin
print "tot_energy = ${tot_energy}"
tot_energy = -162.17896455406
print "num_atoms = ${natoms}"
num_atoms = 8
print "xx = ${length_x}"
xx = 4.21069146013408
print "yy = ${length_y}"
yy = 4.21069146013408
print "zz = ${length_z}"
zz = 4.21069146013408
print "xy = ${tilt_xy}"
xy = 0
print "xz = ${tilt_xz}"
xz = 0
print "yz = ${tilt_yz}"
yz = 0
print "tot_press = ${tot_press}"
tot_press = -1.34765197939399
print "pxx = ${press_xx}"
pxx = -1.34765197919426
print "pyy = ${press_yy}"
pyy = -1.3476519793348
print "pzz = ${press_zz}"
pzz = -1.34765197965291
print "pxy = ${press_xy}"
pxy = 2.55976090046832e-11
print "pxz = ${press_xz}"
pxz = 1.01629705561986e-11
print "pyz = ${press_yz}"
pyz = 2.80912827691917e-10
print "pypospack:output_section:done"
pypospack:output_section:done
print "pypospack:lammps_sim:done"
pypospack:lammps_sim:done
#------------------------------------------------------------------------------
# RUN THERMOSTAT
# running using an NPT Nose-Hoover style thermostat
#------------------------------------------------------------------------------
variable tempdamp equal 0.1
variable pressdamp equal 1.0
# set initial velocities
velocity all create 1000 4528288 mom yes dist gaussian loop all
# fix for Nose-Hoover style thermostat
fix 20 all npt temp 1000 1000 0.1 aniso 0.0 0.0 1.0 drag 1.0 couple xyz
variable boxx equal lx
variable boxy equal ly
variable boxz equal lz
variable boxp equal press
variable boxt equal temp
# calculate averages every 10000 steps
reset_timestep 0
fix 21 all ave/time 10 10 100 v_boxx v_boxy v_boxz v_boxp v_boxt file lattice.out
thermo_style custom step temp pe ke etotal press lx ly lz press pxx pyy pzz pxy pxz pyz vol
thermo_modify flush yes
thermo 100
run 100000
PPPM initialization ...
  G vector (1/distance) = 0.355384
  grid = 8 8 8
  stencil order = 5
  estimated absolute RMS force accuracy = 5.2136e-05
  estimated relative force accuracy = 3.62065e-06
  using double precision FFTs
  3d grid and FFT values/proc = 3375 512
Memory usage per processor = 3.06549 Mbytes
Step Temp PotEng KinEng TotEng Press Lx Ly Lz Press Pxx Pyy Pzz Pxy Pxz Pyz Volume 
       0         1000   -162.17896   0.90482102   -161.27414    12945.087    4.2106915    4.2106915    4.2106915    12945.087    3837.0558     18167.92    16830.284    3185.1605   -2406.3012    3283.4813    74.655234 
     100    472.62911   -161.58051   0.42764475   -161.15286    4907.0099    4.2402868    4.2402868    4.2402868    4907.0099   -18828.416    12585.435    20964.011   -6505.0894    2257.3139    4441.1542    76.240493 
     200    904.86557   -161.72025   0.81874139    -160.9015   -22837.836    4.2560775    4.2560775    4.2560775   -22837.836   -35500.733   -20352.115   -12660.659   -4279.1935    2409.8036    462.96316    77.095421 
     300    1150.9535   -161.73028    1.0414069   -160.68887   -3668.2868    4.2485527    4.2485527    4.2485527   -3668.2868   -26781.263    11953.599    3822.8035   -2355.5151   -5578.3941    4464.8254    76.687228 
     400    1025.1841   -161.46239   0.92760808   -160.53478    2786.7875    4.2575782    4.2575782    4.2575782    2786.7875    -46948.59    19951.436    35357.516   -1751.4812   -2007.1454     2169.529       77.177 
     500    958.75508    -161.2941   0.86750174    -160.4266   -3390.4122    4.2393987    4.2393987    4.2393987   -3390.4122   -31650.719    1205.5367    20273.946    13244.859   -12652.708    1908.2667    76.192596 
     600    1156.6219   -161.42313    1.0465358   -160.37659   -10583.693    4.2394024    4.2394024    4.2394024   -10583.693   -23174.357    -16801.72    8224.9986    3896.4579    2277.1931    11992.155    76.192801 
     700    717.79689   -161.04001   0.64947771   -160.39053    1555.9549    4.2781177    4.2781177    4.2781177    1555.9549   -54778.522    27621.914    31824.473    920.38919     938.9603   -2169.0751    78.299356 
     800     730.4814   -161.05187   0.66095492   -160.39092   -11763.606    4.2677747    4.2677747    4.2677747   -11763.606   -35804.584   -19228.457    19742.223    -4118.792   -4170.4821    7742.9198    77.732824 
     900    891.27708   -161.16678   0.80644624   -160.36034      2677.12    4.2246838    4.2246838    4.2246838      2677.12    20340.145   -16222.366    3913.5813   -1690.2109   -5191.4761    37647.962    75.401958 
    1000    885.50578   -161.18635   0.80122424   -160.38512    -1886.671    4.2491186    4.2491186    4.2491186    -1886.671   -2421.5526   -10862.103    7623.6429   -5009.9792   -627.43137    16242.658    76.717873 
    1100    753.32668     -161.047   0.68162581   -160.36537       -16585    4.2808506    4.2808506    4.2808506       -16585   -60265.143   -15126.825    25636.969   -2158.2054     6008.771    11657.755    78.449507 
    1200    741.38756   -161.02326   0.67082305   -160.35244    17396.304    4.2547212    4.2547212    4.2547212    17396.304   -10889.886    63807.927   -729.13019    5697.5572      727.585    19183.652    77.021739 
    1300    721.63398   -161.01636   0.65294959   -160.36341    9006.6162    4.2520199    4.2520199    4.2520199    9006.6162   -21133.897    6822.8522    41330.893    2294.6343   -3001.7976    11652.942    76.875133 
    1400    930.05599   -161.21015   0.84153421   -160.36862   -23990.392    4.2603953    4.2603953    4.2603953   -23990.392    -38772.93   -16127.965   -17070.282    1593.5812   -1737.2285    4258.1213      77.3303 
    1500    824.39673   -161.10646   0.74593149   -160.36053    2035.3035    4.2438466    4.2438466    4.2438466    2035.3035    1562.3805   -5723.7525    10267.282   -4756.9349    3181.8509    17996.856    76.432672 
    1600    776.86439   -161.07715   0.70292323   -160.37423    5916.8813    4.2578659    4.2578659    4.2578659    5916.8813   -29015.564    10884.486    35881.722   -4072.5385    1106.5353    15520.605    77.192649 
    1700    774.78248   -161.07822   0.70103947   -160.37718   -23652.929    4.2714093    4.2714093    4.2714093   -23652.929   -55676.333    45480.279   -60762.733     4013.209   -98.238571   -4552.3159    77.931594 
    1800      627.857   -160.95033   0.56809821   -160.38223    20158.009    4.2320005    4.2320005    4.2320005    20158.009   -13572.899    56173.256    17873.669    8096.4314    3651.6166    15224.814    75.794402 
    1900      1151.33   -161.42069    1.0417476   -160.37894    10304.409    4.2352243    4.2352243    4.2352243    10304.409   -23041.118    17908.448    36045.896    4198.6961    5099.2089   -7820.1582    75.967745 
    2000    1019.6934   -161.30542   0.92264003   -160.38278   -32530.454     4.287078     4.287078     4.287078   -32530.454   -95907.044    27717.789   -29402.108   -1153.1738    6865.3549    8931.6327    78.792369 
    2100    815.33495   -161.11064   0.73773219   -160.37291   -10159.896    4.2732523    4.2732523    4.2732523   -10159.896   -57071.308    27645.509   -1053.8892    358.46113    5510.3597    9529.3193    78.032515 
    2200    707.95035   -161.00008   0.64056836   -160.35952    29289.216    4.2334657    4.2334657    4.2334657    29289.216   -35345.778    108002.58    15210.849   -8843.9084    9733.0765    1772.3992    75.873156 
    2300    548.47315   -160.89971   0.49627003   -160.40344    15233.004    4.2619721    4.2619721    4.2619721    15233.004   -50136.199    94981.925    853.28664   -5846.9023    8745.5567    10010.475     77.41619 
    2400    1008.0376   -161.30222   0.91209359   -160.39013   -37435.217    4.2806732    4.2806732    4.2806732   -37435.217   -83895.869    39493.034   -67902.816     2862.668    -5165.772    8051.4524    78.439752 
    2500    752.67414   -161.05493   0.68103538   -160.37389    27058.656    4.2405327    4.2405327    4.2405327    27058.656   -25938.814    70418.688    36696.094   -12611.866   -11391.027   -17132.222    76.253756 
    2600     898.9552    -161.1849   0.81339355   -160.37151    2950.0226    4.2426674    4.2426674    4.2426674    2950.0226    -13075.36   -2134.9957    24060.423    4254.1784   -11861.478   -12034.718    76.368972 
    2700    899.39723   -161.18051   0.81379351   -160.36672   -25533.503    4.2578897    4.2578897    4.2578897   -25533.503   -39790.504   -1835.3844    -34974.62   -2371.1689   -9097.1672   -8451.9371    77.193945 
    2800    698.40604   -160.99589   0.63193247   -160.36396    22028.898    4.2381944    4.2381944    4.2381944    22028.898   -10376.664     74364.28    2099.0783   -13074.982   -1520.0072   -5418.0843    76.127686 
    2900    964.96895   -161.25586   0.87312419   -160.38274   -15521.466    4.2561897    4.2561897    4.2561897   -15521.466   -32046.676    14124.596   -28642.317     2312.333    -1068.221   -8627.8675    77.101519 
    3000    581.03373   -160.89808   0.52573153   -160.37235    2122.9726    4.2698002    4.2698002    4.2698002    2122.9726   -41384.417    35426.668    12326.667    3207.4784   -473.19706   -12032.946    77.843554 
    3100    804.59154   -161.10282   0.72801133   -160.37481    17664.429       4.2474       4.2474       4.2474    17664.429   -17671.848    83821.121   -13155.985    1026.7348   -7260.1256   -20527.317    76.624821 
    3200    869.84804   -161.17839   0.78705678   -160.39133   -15997.411    4.2536744    4.2536744    4.2536744   -15997.411   -23971.905   -10943.299    -13077.03    13582.216   -3980.2042   -10443.275    76.964903 
    3300    1033.1232    -161.3136    0.9347916   -160.37881   -17041.521    4.2598364    4.2598364    4.2598364   -17041.521   -29939.767   -22019.705    834.90833    -6647.701   -3952.2708    -13102.67    77.299868 
    3400    1074.0904   -161.34242   0.97185957   -160.37056    9143.4421    4.2529741    4.2529741    4.2529741    9143.4421   -35849.705    58071.268    5208.7629   -1350.7121    1819.7489   -15926.843    76.926896 
    3500    862.79945   -161.16045   0.78067907   -160.37977   -2809.0552    4.2678296    4.2678296    4.2678296   -2809.0552   -42732.876     30248.57    4057.1401   -5434.9448     6746.725    1842.7107    77.735826 
    3600    978.31085   -161.26909   0.88519622    -160.3839   -17725.609    4.2644153    4.2644153    4.2644153   -17725.609   -57912.917    38552.383   -33816.292   -15089.699   -406.64557    2842.9514    77.549404 
    3700    882.68242   -161.18002    0.7986696   -160.38135    22434.929    4.2464617    4.2464617    4.2464617    22434.929   -5939.5907    50182.931    23061.446     9782.753    2320.8921   -2694.1946     76.57405 
    3800    752.47648   -161.07014   0.68085654   -160.38928    6576.6385    4.2600036    4.2600036    4.2600036    6576.6385   -21676.708    79337.488   -37930.865   -33.095555    1202.5522   -20279.095    77.308972 
    3900    1096.4476   -161.37142   0.99208886   -160.37933   -10639.677    4.2636101    4.2636101    4.2636101   -10639.677   -13821.643    -885.3525   -17212.035    10153.553   -756.25545    1466.9093    77.505486 
    4000    1308.1519   -161.54773    1.1836433   -160.36409   -5186.6017    4.2489912    4.2489912    4.2489912   -5186.6017   -39704.676    25995.229   -1850.3578    4399.8075   -7255.0778   -9108.1631    76.710975 
    4100     1175.029   -161.44207     1.063191   -160.37888    4329.0887    4.2582025    4.2582025    4.2582025    4329.0887   -27519.306    39075.263    1431.3093   -409.18186   -3021.4145    5283.8963    77.210955 
    4200    1074.2201   -161.34736   0.97197695   -160.37538   -7562.8698    4.2678512    4.2678512    4.2678512   -7562.8698   -17277.466     1386.483   -6797.6263    4640.6042    4085.4556    4172.2891    77.737004 
    4300    1255.2386   -161.49254    1.1357663   -160.35678    6713.8789    4.2482378    4.2482378    4.2482378    6713.8789    21485.323    14657.299   -16000.985   -1432.4671    2822.2253    3665.6389    76.670178 
    4400    1173.8359   -161.42438    1.0621114   -160.36227    1055.4507    4.2592182    4.2592182    4.2592182    1055.4507    -17941.75    11805.871    9302.2315   -8245.3758    3176.3055    3532.2236    77.266219 
    4500    1160.6446   -161.41958    1.0501757    -160.3694   -31010.156    4.2756083    4.2756083    4.2756083   -31010.156   -55093.952    12135.031   -50071.546    154.66458    4845.1428   -8629.7616    78.161652 
    4600    1135.8667   -161.39591    1.0277561   -160.36815      17631.9    4.2381987    4.2381987    4.2381987      17631.9    13075.325    25647.437    14172.938   -808.02869    5646.6514    6539.6583    76.127918 
    4700    1031.2558   -161.29791   0.93310194   -160.36481    12247.861    4.2317933    4.2317933    4.2317933    12247.861    33694.123    11870.759   -8821.2994    9614.2369    -5820.128    17465.536    75.783268 
    4800    971.17803   -161.24944   0.87874229    -160.3707   -18211.271    4.2717729    4.2717729    4.2717729   -18211.271   -20175.556   -9607.4355   -24850.822   -11646.505    -5542.129    10574.416    77.951501 
    4900     978.7735   -161.23905   0.88561483   -160.35344   -16479.848     4.271733     4.271733     4.271733   -16479.848   -41713.872    25233.331   -32959.003   -2269.7687    2224.9206    7879.3684    77.949317 
    5000    1270.7142   -161.48895    1.1497689   -160.33918    6240.0022    4.2463176    4.2463176    4.2463176    6240.0022   -5000.8891    1959.8689    21761.027     10016.16   -2605.5467    6760.7642    76.566256 
    5100    995.20209    -161.2589   0.90047977   -160.35842    996.79332    4.2581853    4.2581853    4.2581853    996.79332   -12021.826    27843.286   -12831.081    1043.8069   -1854.6412    1712.8819    77.210022 
    5200      959.375   -161.22385   0.86806266   -160.35579   -18628.498    4.2783646    4.2783646    4.2783646   -18628.498   -24102.686   -11297.656   -20485.151   -3134.8436     5053.658    11753.476    78.312913 
    5300    1177.4113   -161.41322    1.0653464   -160.34787   -9670.3963    4.2565555    4.2565555    4.2565555   -9670.3963   -34299.511     24908.01   -19619.688   -3344.4636    6716.4705    8801.6934    77.121402 
    5400    1041.2044   -161.28526   0.94210365   -160.34316    37562.009    4.2333202    4.2333202    4.2333202    37562.009     12048.82    64402.045    36235.161   -2208.2897    2005.5399    -3170.719    75.865329 
    5500    1236.7706   -161.48008     1.119056   -160.36102   -24593.251     4.253696     4.253696     4.253696   -24593.251   -22758.571   -8473.7633   -42547.418   -11999.623     2270.973    11851.346    76.966075 
    5600    860.54121   -161.14015   0.77863577   -160.36152   -7900.1052    4.2622086    4.2622086    4.2622086   -7900.1052   -6947.3567   -4439.9193    -12313.04   -8535.2283    7664.5638     18980.93    77.429081 
    5700    1001.7037   -161.27304    0.9063626   -160.36668     15649.89    4.2512409    4.2512409    4.2512409     15649.89   -12387.648     62578.64   -3241.3208    1287.7658     5745.146    15164.115    76.832886 
    5800     712.4927   -161.02521   0.64467837   -160.38053    3036.8999    4.2640128    4.2640128    4.2640128    3036.8999   -18081.134     22550.16    4641.6741    542.81123    9825.4633     13537.66    77.527449 
    5900    962.07377   -161.23672   0.87050456   -160.36621   -36460.659    4.2592163    4.2592163    4.2592163   -36460.659   -24487.972   -26717.258   -58176.748    1730.8995    13910.153    8146.9999    77.266115 
    6000    546.76918   -160.84846   0.49472825   -160.35373     39451.41    4.2386929    4.2386929    4.2386929     39451.41    11000.595    93224.335    14129.299    6314.2894    8435.2013    249.42325     76.15455 
    6100    920.49581    -161.1979   0.83288395   -160.36502     2505.216     4.261073     4.261073     4.261073     2505.216   -6242.3825    30756.774   -16998.744    1040.8733   -2057.5803     6968.525    77.367209 
    6200    1055.8411   -161.32081   0.95534722   -160.36547   -7358.3073    4.2642035    4.2642035    4.2642035   -7358.3073   -38007.446    11674.938     4257.586    5369.3152   -1245.8308     540.0527    77.537855 
    6300    521.18939    -160.8392   0.47158312   -160.36762    21986.072    4.2526513    4.2526513    4.2526513    21986.072   -13088.609    52428.659    26618.167    -5551.246    9135.9628     7583.634    76.909382 
    6400    833.47036   -161.13127   0.75414149   -160.37713   -31215.916    4.2557047    4.2557047    4.2557047   -31215.916    -24451.69   -17967.704   -51228.354    2282.5272    19838.639   -85.719406    77.075164 
    6500    841.51013   -161.13297   0.76141605   -160.37156    7152.4636    4.2397678    4.2397678    4.2397678    7152.4636   -4146.0623    19240.651     6362.802    4932.6445    21779.937   -1654.2176    76.212503 
    6600    833.54061   -161.11767   0.75420506   -160.36347    46160.649     4.234334     4.234334     4.234334    46160.649     27031.83    59744.811    51705.306   -14820.359    20108.128    -3067.908    75.919847 
    6700    1199.4339   -161.46402     1.085273   -160.37874   -20969.661    4.2695632    4.2695632    4.2695632   -20969.661   -29945.289    -7702.283    -25261.41    -2757.515    3646.6658    9632.0368    77.830594 
    6800    863.78039   -161.14578   0.78156665   -160.36422   -7736.9479    4.2752925    4.2752925    4.2752925   -7736.9479   -26903.227    8157.1699    -4464.787    -3786.325    9465.4412   -6088.8797    78.144334 
    6900    1320.5264    -161.5343      1.19484   -160.33946   -4332.0378     4.242762     4.242762     4.242762   -4332.0378   -14668.791    5176.7683   -3504.0911   -1213.1855    14149.805   -16719.356    76.374082 
    7000    1001.0822   -161.26091   0.90580018   -160.35511   -14669.836    4.2537518    4.2537518    4.2537518   -14669.836   -4224.3489   -24087.533   -15697.627   -2763.1499    4077.9806    -8152.571    76.969105 
    7100    1089.7573     -161.343   0.98603526   -160.35697   -16097.117    4.2612658    4.2612658    4.2612658   -16097.117   -17043.763   -17404.312   -13843.277   -3378.1972    867.70326   -3685.0568    77.377708 
    7200    1226.8741   -161.45989    1.1101014   -160.34979    27110.358    4.2402169    4.2402169    4.2402169    27110.358    24751.827    21797.201    34782.047    6203.7101    1912.8579   -7507.6836    76.236722 
    7300    812.07147   -161.10661   0.73477933   -160.37183    6111.1418    4.2670299    4.2670299    4.2670299    6111.1418   -13150.313    21679.359    9804.3802    3114.5783   -1237.8619   -2557.6469    77.692134 
    7400    1425.8079   -161.65065     1.290101   -160.36055   -38839.033    4.2729955    4.2729955    4.2729955   -38839.033   -51122.362   -46496.126   -18898.611    1313.0438   -10775.685   -7393.9901    78.018446 
    7500    1178.8219   -161.40867    1.0666228   -160.34204    24960.349    4.2367463    4.2367463    4.2367463    24960.349    12133.327    26064.482    36683.238    1332.7847   -3244.9972   -2875.5418     76.04968 
    7600    1008.3853   -161.27322    0.9124082   -160.36081   -3637.1952    4.2584603    4.2584603    4.2584603   -3637.1952    -6309.404   -20344.255    15742.074   -3261.2001    10021.437   -3340.8109    77.224983 
    7700    887.95477   -161.15253   0.80344014   -160.34909   -5877.6279    4.2731823    4.2731823    4.2731823   -5877.6279    13209.561   -3326.3905   -27516.054   -4178.8455    7197.8425   -3833.4562    78.028679 
    7800    1072.1798   -161.30117   0.97013081   -160.33104    23253.059    4.2433206    4.2433206    4.2433206    23253.059    19332.347    46190.898    4235.9309    2901.4324    -6169.066   -1226.4362    76.404255 
    7900    1129.1654   -161.37014    1.0216925   -160.34845   -17344.462    4.2552549    4.2552549    4.2552549   -17344.462   -10424.309   -26057.088    -15551.99   -8750.0469    12336.199      12865.5    77.050727 
    8000    907.75018   -161.17968   0.82135144   -160.35833   -11038.498    4.2672589    4.2672589    4.2672589   -11038.498   -28102.776   -20724.334    15711.617   -5995.2831   -3008.0367    538.08199    77.704647 
    8100    1424.8963   -161.63692    1.2892761   -160.34765    6588.2009     4.247162     4.247162     4.247162    6588.2009   -1091.4723   -12747.526    33603.601    948.98807   -7559.1282    11979.785    76.611943 
    8200    826.26397   -161.10596     0.747621   -160.35834   -3221.4301     4.254402     4.254402     4.254402   -3221.4301    14799.077   -2514.9021   -21948.465    788.91068    14501.314   -8953.2716    77.004403 
    8300    913.25157    -161.1881   0.82632921   -160.36177   -8301.1655     4.254812     4.254812     4.254812   -8301.1655    19128.937   -8243.9434    -35788.49   -3657.8413    3031.4041   -18492.691    77.026671 
    8400    1094.4523   -161.35225   0.99028341   -160.36197    24637.332    4.2417418    4.2417418    4.2417418    24637.332    43625.652     13645.23    16641.114    1014.8139    1548.2223   -12902.741    76.319004 
    8500    925.79105   -161.21442    0.8376752   -160.37674     7535.832    4.2676643    4.2676643    4.2676643     7535.832    8899.2149   -12426.894    26135.175     3611.059    16700.038   -7731.3667    77.726794 
    8600    1055.9382   -161.30753    0.9554351   -160.35209   -32116.723    4.2752207    4.2752207    4.2752207   -32116.723   -26178.153   -51431.661   -18740.357    637.57053    3718.3687   -3766.4056    78.140396 
    8700    981.80619   -161.22763   0.88835887   -160.33927    5982.4133    4.2312211    4.2312211    4.2312211    5982.4133    32309.093    -11502.35   -2859.5037   -6477.7636   -8045.8815    -14901.39    75.752535 
    8800    1221.0415    -161.4546     1.104824   -160.34977    1164.1264    4.2347458    4.2347458    4.2347458    1164.1264   -7418.7397    23125.865   -12214.746   -114.54875    19665.849   -3702.5454    75.941999 
    8900    1237.5177   -161.46914     1.119732   -160.34941   -31933.655    4.2732097    4.2732097    4.2732097   -31933.655   -31359.063   -19933.752   -44508.151    4395.8703    5551.8843   -416.80809    78.030181 
    9000    935.19235   -161.19229   0.84618169   -160.34611    10960.234    4.2615221    4.2615221    4.2615221    10960.234    3721.2619    6957.1011    22202.338    3993.0277   -950.18189   -3712.9893    77.391671 
    9100      1081.53   -161.32904   0.97859106   -160.35045      20605.9    4.2539325    4.2539325    4.2539325      20605.9    1520.9999    24511.882    35784.817    3909.5256    15954.755   -3599.6948    76.978912 
    9200    1191.4201   -161.43013     1.078022    -160.3521   -20856.895    4.2678895    4.2678895    4.2678895   -20856.895   -9935.4485   -28241.873   -24393.364   -8506.0778    4117.1584    9842.4371    77.739099 
    9300    812.97852   -161.08951   0.73560005   -160.35391   -15857.834    4.2340929    4.2340929    4.2340929   -15857.834   -27646.275   -14331.739   -5595.4885   -29028.533    20000.181    4311.9541    75.906883 
    9400    835.17895   -161.10629   0.75568746    -160.3506     10054.68    4.2224437    4.2224437    4.2224437     10054.68   -4979.0603    27890.326    7252.7727   -16828.652    34563.582    3456.2576    75.282081 
    9500    1009.1895   -161.28876   0.91313582   -160.37562   -16245.413    4.2734209    4.2734209    4.2734209   -16245.413   -20800.099    12103.074   -40039.213   -7777.6624    7110.6748    2320.1954    78.041752 
    9600    876.75563   -161.15094   0.79330692   -160.35763    -9698.513    4.2734228    4.2734228    4.2734228    -9698.513   -20164.206   -16611.309    7679.9765    -12022.09   -1665.9035    6150.6483    78.041855 
    9700      936.211   -161.17729   0.84710339   -160.33019    22601.577    4.2361398    4.2361398    4.2361398    22601.577    29465.717   -6103.8633    44442.877   -12740.574   -2352.0323    15354.125    76.017022 
    9800    1285.4065   -161.51626    1.1630628    -160.3532   -17512.894    4.2546548    4.2546548    4.2546548   -17512.894   -36121.414   -15857.689   -559.57865   -7627.6951    1946.0007    14506.012    77.018136 
    9900    964.85778   -161.22428    0.8730236   -160.35125    -15565.24    4.2714918    4.2714918    4.2714918    -15565.24   -43042.691   -5657.3707    2004.3424   -5313.7377   -5428.6878     3003.341    77.936112 
   10000     1276.832   -161.49831    1.1553044     -160.343    8150.9018     4.242825     4.242825     4.242825    8150.9018    -12229.26    14082.982    22598.984   -7583.7447    1253.6318   -2440.3809    76.377488 
   10100    999.03083   -161.26192   0.90394409   -160.35798    18569.936    4.2411886    4.2411886    4.2411886    18569.936    19471.405   -4093.3632    40331.767   -594.63406     5303.367    1684.7109    76.289147 
   10200    1212.4294   -161.45319    1.0970316   -160.35616   -28707.619    4.2694013    4.2694013    4.2694013   -28707.619   -20948.661   -41313.146   -23861.051    20248.337    3833.2167   -2969.0864     77.82174 
   10300    1123.1914   -161.36031    1.0162872   -160.34403   -2250.7512    4.2584112    4.2584112    4.2584112   -2250.7512   -9583.6081    3753.1655   -921.81105    7906.2267    1285.2047   -635.76944    77.222307 
   10400    1070.0952   -161.31191    0.9682446   -160.34367    19669.058     4.237972     4.237972     4.237972    19669.058      377.091    28452.891    30177.193   -872.68917    2369.5848    1602.5486    76.115703 
   10500    1228.3979   -161.47132    1.1114803   -160.35984   -533.90784    4.2526587    4.2526587    4.2526587   -533.90784    9018.3501    5398.7144   -16018.788   -83.063919   -400.50609    8309.4338    76.909783 
   10600    946.63878   -161.21364   0.85653866    -160.3571   -6137.8577    4.2668322    4.2668322    4.2668322   -6137.8577   -5471.3095    12151.765   -25094.028    1611.2708   -4148.7291    16700.347    77.681339 
   10700    1088.2525   -161.32883   0.98467371   -160.34415   -20417.011    4.2608638    4.2608638    4.2608638   -20417.011   -12733.093   -30979.855   -17538.085    -13772.55   -3913.3868    5019.0902    77.355811 
   10800     448.1586   -160.75901   0.40550332    -160.3535    14839.753    4.2576977    4.2576977    4.2576977    14839.753   -3361.9784    33471.005    14410.232   -29373.381   -3966.8271    4946.2142    77.183499 
   10900    997.55251   -161.25913   0.90260648   -160.35653   -5802.3965    4.2484452    4.2484452    4.2484452   -5802.3965   -33939.651   -4001.0122    20533.474   -17902.051    11136.481    6120.5302    76.681403 
   11000    688.41961   -160.98055   0.62289653   -160.35765    8398.4153    4.2435117    4.2435117    4.2435117    8398.4153    20681.314    2754.0674    1759.8644   -15622.252    9018.1801     6685.251    76.414574 
   11100    521.86979    -160.8343   0.47219875   -160.36211   -1894.1516    4.2604746    4.2604746    4.2604746   -1894.1516     30708.67    -13039.85   -23351.275   -15741.612    6131.6815    17402.463    77.334616 
   11200    1115.3428   -161.36596    1.0091856   -160.35677   -18711.297    4.2645328    4.2645328    4.2645328   -18711.297   -9639.5648   -21051.844   -25442.483   -11483.921    365.37406    3610.4174    77.555815 
   11300    634.31358   -160.93124   0.57394026    -160.3573    27118.079    4.2553234    4.2553234    4.2553234    27118.079    33466.902    46104.812    1782.5226   -17152.524   -4804.6094     6545.664    77.054447 
   11400     834.9766   -161.10794   0.75550438   -160.35243    8792.9599    4.2531645    4.2531645    4.2531645    8792.9599    7394.9408    2879.6335    16104.305   -23484.906   -1648.7482    12409.454    76.937231 
   11500    1181.2145    -161.4202    1.0687877   -160.35141     61.09625    4.2426946    4.2426946    4.2426946     61.09625   -848.14115    1975.4058   -943.97586   -7081.4428    2887.7864   -12683.733    76.370442 
   11600     987.8714    -161.2493    0.8938468   -160.35545    5526.8182    4.2421226    4.2421226    4.2421226    5526.8182    26541.955    13397.099   -23358.599   -492.90985     4713.435    20516.481    76.339558 
   11700    1173.7133   -161.41915    1.0620005   -160.35715   -31892.023     4.263396     4.263396     4.263396   -31892.023   -14434.671   -51534.424   -29706.976   -5015.4078    12750.909    9358.8549    77.493809 
   11800    1190.3865   -161.42517    1.0770867   -160.34808   -25183.755    4.2715514    4.2715514    4.2715514   -25183.755   -17356.982    -25648.52   -32545.763   -5043.2006    6026.8363   -17250.129    77.939374 
   11900    1126.8935   -161.36728    1.0196369   -160.34765    21748.792    4.2486551    4.2486551    4.2486551    21748.792    27106.837    38188.349   -48.810494   -9691.3683    86.852116    2664.9508     76.69277 
   12000    1231.8038   -161.46106    1.1145619    -160.3465    19263.706    4.2359758    4.2359758    4.2359758    19263.706    27317.711    11446.631    19026.775   -13597.223   -1924.8902   -1906.6811    76.008196 
   12100    1022.8908   -161.28054   0.92553312     -160.355    10868.712    4.2512269    4.2512269    4.2512269    10868.712    22537.018    39739.952   -29670.834   -9613.5949   -7524.2398   -13276.876    76.832126 
   12200    1255.3853   -161.48907     1.135899   -160.35317   -19214.038    4.2716689    4.2716689    4.2716689   -19214.038   -5986.7684   -5219.4075   -46435.939    -5837.744     5186.126    9372.4348    77.945805 
   12300    1170.0855   -161.40038    1.0587179   -160.34167   -30344.898    4.2733769    4.2733769    4.2733769   -30344.898   -9939.8677   -46954.755   -34140.071   -2355.9972    8441.0536    125.67403    78.039342 
   12400     954.0382   -161.20362   0.86323381   -160.34039    3406.5291    4.2536796    4.2536796    4.2536796    3406.5291        48202   -7245.3848   -30737.028    11028.071    6137.1452    -15560.51    76.965184 
   12500    1460.1926   -161.65807    1.3212129   -160.33685   -11913.563    4.2482815    4.2482815    4.2482815   -11913.563   -1871.6265   -836.26232   -33032.801     1867.114   -13173.129   -6965.6342     76.67254 
   12600    1064.3751   -161.30732   0.96306893   -160.34425    6777.2437    4.2573908    4.2573908    4.2573908    6777.2437   -24928.045    51777.145    -6517.369   -3667.5326   -5695.7068     -6010.12     77.16681 
   12700    919.10283   -161.18644   0.83162356   -160.35482    1948.3591    4.2711916    4.2711916    4.2711916    1948.3591   -18906.133    23209.558    1541.6522    4139.4489    8848.2263    4663.0302    77.919682 
   12800    1111.9003   -161.36491    1.0060708   -160.35884   -18168.875    4.2770628    4.2770628    4.2770628   -18168.875    14874.117   -13288.256   -56092.485    3621.3795    6802.8597    9688.3882    78.241449 
   12900    1300.0856   -161.52862    1.1763448   -160.35228   -9139.6623    4.2574595    4.2574595    4.2574595   -9139.6623     23647.58   -8957.1174   -42109.449   -8581.2005   -5049.3919     4237.044    77.170549 
   13000    823.62715   -161.09632   0.74523515   -160.35109    20720.111    4.2467748    4.2467748    4.2467748    20720.111    48790.983    18203.963   -4834.6141   -6046.9519   -5975.2105    17632.944    76.590995 
   13100     1272.302   -161.50652    1.1512056   -160.35532   -24010.448    4.2602757    4.2602757    4.2602757   -24010.448   -27325.586   -18760.798    -25944.96    -6603.944   -10159.604     1221.396    77.323786 
   13200    1181.8497   -161.42596    1.0693625    -160.3566   -27036.161    4.2718379    4.2718379    4.2718379   -27036.161   -45052.267    8228.4832     -44284.7   -6666.3728    3397.2627   -5397.7364    77.955059 
   13300    992.27242   -161.24951   0.89782894   -160.35168   -5511.1199    4.2636055    4.2636055    4.2636055   -5511.1199    5060.9743     506.4256   -22100.759   -7526.7758     13069.68    8002.8658    77.505235 
   13400    1088.5354   -161.32544   0.98492969   -160.34051    5325.1654    4.2519291    4.2519291    4.2519291    5325.1654      53570.5   -23272.257   -14322.747    7381.4328   -10741.012   -11640.701    76.870204 
   13500    1051.5363   -161.29503   0.95145213   -160.34357    38032.477    4.2408977    4.2408977    4.2408977    38032.477    80531.817    20493.038    13072.576    13275.454   -4428.3574   -9817.5597    76.273451 
   13600    938.82595   -161.20607   0.84946945    -160.3566    15148.046    4.2525472    4.2525472    4.2525472    15148.046     52399.17   -13244.994    6289.9614    2552.4124   -5880.2783    566.22274    76.903734 
   13700    856.79351   -161.12589   0.77524477   -160.35065   -6201.8767    4.2748502    4.2748502    4.2748502   -6201.8767    2915.5919   -50692.461    29171.239     6910.726    505.04518   -4787.0882    78.120085 
   13800    1398.1737   -161.59985    1.2650969   -160.33476   -35301.377    4.2721285    4.2721285    4.2721285   -35301.377   -44433.092   -36829.051   -24641.988   -9760.8307    10197.767   -2770.2786    77.970965 
   13900    1071.9804   -161.30045   0.96995041    -160.3305   -13325.258    4.2426543    4.2426543    4.2426543   -13325.258    2931.7506   -4065.9875   -38841.537   -6998.7253    799.85866    19339.101    76.368267 
   14000    585.26717   -160.87328   0.52956203   -160.34372     9440.699    4.2396509    4.2396509    4.2396509     9440.699    36299.609   -187.67237     -7789.84    5065.4547    3479.2459     35117.86      76.2062 
   14100    1050.4002   -161.29937   0.95042413   -160.34894    2425.9101    4.2604142    4.2604142    4.2604142    2425.9101    1182.6365    18880.612   -12785.518    14176.966   -4421.6008    16617.803     77.33133 
   14200    816.41922   -161.08236   0.73871326   -160.34364    16974.758    4.2728986    4.2728986    4.2728986    16974.758    620.84416    10017.353    40286.078    3665.6342   -3409.7649      16823.2    78.013142 
   14300    574.01164   -160.85919   0.51937779   -160.33981    14633.372     4.273069     4.273069     4.273069    14633.372    5368.1383    1616.8336    36915.146   -5065.0141    -9312.382    20527.449    78.022475 
   14400    1377.0221   -161.57868    1.2459586   -160.33272   -20927.993    4.2583052    4.2583052    4.2583052   -20927.993   -25556.382   -13735.733   -23491.864   -12546.577    10272.151    2737.9178    77.216542 
   14500    1140.6163   -161.36963    1.0320536   -160.33758   -1160.0148     4.245209     4.245209     4.245209   -1160.0148    44808.112    -15504.54   -32783.616   -11007.646   -2983.7839    22482.036    76.506304 
   14600    1062.6653   -161.30957   0.96152188   -160.34805   -22010.373    4.2515014    4.2515014    4.2515014   -22010.373    17873.285   -37984.911   -45919.492    10453.002   -17285.607    28029.521    76.847012 
   14700    1020.0798   -161.27583   0.92298967   -160.35284    -23079.49    4.2686588    4.2686588    4.2686588    -23079.49    11409.918   -38177.677   -42470.709    4288.0529    2700.3685   -5569.1273    77.781146 
   14800    1165.2907   -161.40144    1.0543795   -160.34706   -15150.117    4.2750769    4.2750769    4.2750769   -15150.117    21828.621   -40995.522   -26283.451    8877.6204   -8761.9356   -6725.7918    78.132514 
   14900    912.68533   -161.17083   0.82581687   -160.34501    7359.6727    4.2614717    4.2614717    4.2614717    7359.6727    75327.285   -56826.459    3578.1924    7910.8097   -3722.7455   -186.59592    77.388926 
   15000    998.67071   -161.25467   0.90361824   -160.35105    934.81442    4.2515188    4.2515188    4.2515188    934.81442    82439.355   -51301.594   -28333.317   -6117.5738   -2193.4631   -3746.0371    76.847955 
   15100    860.32853   -161.14604   0.77844333    -160.3676    12664.709    4.2566505    4.2566505    4.2566505    12664.709    55631.863   -6772.4098   -10865.328   -10538.777    3253.1907    1208.2663    77.126563 
   15200    785.47685   -161.07921   0.71071596    -160.3685    14179.683    4.2666223    4.2666223    4.2666223    14179.683    43884.929    5017.3257   -6363.2066   -10796.195    6143.0369    12205.518    77.669872 
   15300    837.64026   -161.11364   0.75791451   -160.35572    7932.0009     4.262301     4.262301     4.262301    7932.0009    31973.714    34815.823   -42993.534   -9178.3094   -3510.9245    8083.0326    77.434117 
   15400    994.40563   -161.24659   0.89975911   -160.34683    1043.6811    4.2465492    4.2465492    4.2465492    1043.6811    33951.811    10801.257   -41622.024    465.23891    8119.6888    7859.4809    76.578785 
   15500     814.3978   -161.08997   0.73688424   -160.35308    2562.4066     4.244537     4.244537     4.244537    2562.4066    62687.584   -27104.509   -27895.855   -886.80446    1796.0973    25899.487    76.469978 
   15600    830.15055   -161.10781   0.75113766   -160.35667   -18792.906    4.2549098    4.2549098    4.2549098   -18792.906    45143.595   -54652.049   -46870.265    16193.036   -11423.755    6270.7227    77.031982 
   15700    1316.9384   -161.54727    1.1915935   -160.35567   -27318.566    4.2614755    4.2614755    4.2614755   -27318.566   -1696.0485   -29978.377   -50281.271    7511.1135    -475.0991   -11853.301    77.389135 
   15800    804.78136   -161.08721   0.72818309   -160.35903    8356.6724    4.2687801    4.2687801    4.2687801    8356.6724    23334.328    54896.383   -53160.694    10200.591   -9320.2251   -9749.0701    77.787776 
   15900    729.84441   -161.01898   0.66037856    -160.3586    18642.012    4.2583946    4.2583946    4.2583946    18642.012    46792.442    31961.986   -22828.393    7929.4504    4462.5798   -19822.196    77.221406 
   16000    742.61294    -161.0277   0.67193179   -160.35576    23745.037     4.243003     4.243003     4.243003    23745.037    78544.894    16660.928   -23970.712    2239.8707     12808.86   -17349.851    76.387101 
   16100    854.59563   -161.13409   0.77325608   -160.36083    10035.456    4.2567754    4.2567754    4.2567754    10035.456    40972.502    15316.127   -26182.262   -11217.272    -9128.374    2922.2859    77.133352 
   16200    1051.3681   -161.30533   0.95129991   -160.35403   -14615.367    4.2740379    4.2740379    4.2740379   -14615.367   -31755.284    16054.628   -28145.446    6859.1331   -5895.2775    4687.1001    78.075561 
   16300     712.7069   -161.00679   0.64487218   -160.36192    9755.4613    4.2583813    4.2583813    4.2583813    9755.4613    11941.331    30505.472    -13180.42    8624.9865    3304.9988   -483.23937    77.220681 
   16400    958.99829   -161.23028   0.86772181   -160.36256   -12408.428    4.2491155    4.2491155    4.2491155   -12408.428    12456.471   -27314.233    -22367.52     -10857.5   -5393.0618   -25486.867    76.717709 
   16500     989.1541   -161.25667   0.89500742   -160.36166    -28574.63    4.2531585    4.2531585    4.2531585    -28574.63    23041.572   -42002.239   -66763.225   -2887.4085    5008.6411   -19851.136    76.936904 
   16600     1053.944   -161.31134   0.95363066   -160.35771   -12563.268    4.2544323    4.2544323    4.2544323   -12563.268    10346.925   -11481.507   -36555.222   -11732.137   -7767.0524     -4302.98     77.00605 
   16700    742.36927   -161.03245   0.67171132   -160.36074    7798.8011    4.2603507    4.2603507    4.2603507    7798.8011   -18342.365    65096.956   -23358.188   -2750.2871   -9100.8438   -12436.979    77.327868 
   16800    793.06698   -161.07666   0.71758367   -160.35908    19548.013    4.2553232    4.2553232    4.2553232    19548.013    9227.7707    49321.362    94.907015   -13612.409   -9795.9755   -515.80161    77.054435 
   16900    653.57161   -160.94603   0.59136533   -160.35466    18277.899    4.2431733    4.2431733    4.2431733    18277.899    80932.377    -21332.65   -4766.0304   -8904.4327   -12095.324    3033.0014    76.396295 
   17000    1008.4994   -161.27349   0.91251142   -160.36098   -15888.111    4.2441231    4.2441231    4.2441231   -15888.111    36444.373   -44661.575    -39447.13    -2859.964   -14858.132    3102.2902    76.447612 
   17100    1048.0371    -161.3131   0.94828603   -160.36482   -34233.015    4.2621841    4.2621841    4.2621841   -34233.015   -16374.723   -33990.132   -52334.189    7323.5264   -8040.5712    3975.0757    77.427748 
   17200    1038.4123   -161.29072   0.93957728   -160.35115   -4495.9921    4.2647613    4.2647613    4.2647613   -4495.9921    15273.806   -958.11195    -27803.67    6629.5183    2954.8132    5362.6993    77.568285 
   17300    490.26635   -160.79232    0.4436033   -160.34872    42679.782    4.2608561    4.2608561    4.2608561    42679.782     99379.32    39740.123   -11080.096    14486.735    14285.146   -9174.6957    77.355393 
   17400    996.55822     -161.249   0.90170682   -160.34729   -10316.628    4.2666221    4.2666221    4.2666221   -10316.628    43321.919   -20009.524   -54262.281      16448.7    12996.215   -3158.7713    77.669864 
   17500    1027.6031   -161.27706    0.9297969   -160.34726   -10534.182    4.2486427    4.2486427    4.2486427   -10534.182    25941.608   -14678.773    -42865.38    14284.647    9087.7268    13061.569    76.692098 
   17600    653.23188   -160.94436   0.59105793   -160.35331    21516.073    4.2381267    4.2381267    4.2381267    21516.073    70395.059   -16911.688    11064.848    1321.1888   -10869.492    3647.4168    76.124036 
   17700    792.30955   -161.08866   0.71689833   -160.37176    3809.5829     4.271452     4.271452     4.271452    3809.5829    54224.219    -49956.91    7161.4399   -14998.611   -5881.5241   -1936.0599    77.933932 
   17800    1210.1616   -161.45444    1.0949797   -160.35946    -31251.28    4.2789237    4.2789237    4.2789237    -31251.28   -7051.7425   -70170.898   -16531.198   -12599.007   -2465.3755    3820.6681     78.34362 
   17900    1115.8437    -161.3648    1.0096389   -160.35516    2327.9202    4.2340255    4.2340255    4.2340255    2327.9202    29616.957   -7637.4278   -14995.769    -1449.648     8646.409   -4690.6942    75.903255 
   18000    1062.1201   -161.32424   0.96102858   -160.36322    12800.289    4.2321853    4.2321853    4.2321853    12800.289    42774.549    22960.021   -27333.705   -2002.7791     9272.139   -11940.255    75.804332 
   18100    1194.9881   -161.45326    1.0812503   -160.37201   -32242.344    4.2748428    4.2748428    4.2748428   -32242.344   -7928.4884   -23490.764   -65307.779    700.34062    4500.2807   -9699.7201     78.11968 
   18200    1348.0271   -161.57847    1.2197233   -160.35874    -36741.11    4.2751266    4.2751266    4.2751266    -36741.11   -19578.112    -46023.75   -44621.467    5273.4345    3923.5813    4404.3734    78.135238 
   18300    1086.5057   -161.33754    0.9830932   -160.35445    6059.4368    4.2482904    4.2482904    4.2482904    6059.4368    21269.778   -13263.958    10172.491   -234.24026   -6663.9699   -3726.7533    76.673023 
   18400    1407.5988   -161.63408     1.273625   -160.36045    9300.3011    4.2453658    4.2453658    4.2453658    9300.3011    42025.074     905.7689    -15029.94   -756.73258    6379.8493    1999.3124    76.514782 
   18500    1169.0976   -161.42939    1.0578241   -160.37156    -1135.967    4.2606724    4.2606724    4.2606724    -1135.967    57437.299   -46899.873   -13945.328   -6161.6125    3828.3827    -2354.385    77.345389 
   18600    665.43964    -160.9744   0.60210377    -160.3723    3726.0732    4.2661466    4.2661466    4.2661466    3726.0732    80496.999    -54599.78       -14719   -4267.2625    12141.304   -13536.331    77.643897 
   18700    1032.1412   -161.30128   0.93390306   -160.36738    5653.7185     4.254038     4.254038     4.254038    5653.7185    85205.013   -43470.879   -24772.978    3198.0147   -4804.0042    2561.0673     76.98464 
   18800    880.91113   -161.16539   0.79706691   -160.36832      7358.38    4.2574357    4.2574357    4.2574357      7358.38    65182.318   -43875.884    768.70597    15079.568    22748.447    12608.831    77.169254 
   18900    1047.4054   -161.31475   0.94771438   -160.36703   -9892.5615    4.2669684    4.2669684    4.2669684   -9892.5615    55738.147   -59326.654   -26089.177     10414.74    7038.3925   -7087.5232    77.688777 
   19000    888.46087    -161.1666   0.80389807    -160.3627    7272.1133    4.2571885    4.2571885    4.2571885    7272.1133    42780.804   -30736.263    9771.7989    11271.772     658.4906    11306.666    77.155809 
   19100     1362.919   -161.58138    1.2331978   -160.34818   -16190.064    4.2475812    4.2475812    4.2475812   -16190.064   -4838.9531   -29113.416   -14617.823    2100.5908   -20066.329    22236.968    76.634633 
   19200    1047.2241   -161.30474   0.94755033   -160.35719    1373.8302    4.2543426    4.2543426    4.2543426    1373.8302    438.68279    -22819.34    26502.148   -74.843973    2308.0212     12627.21    77.001178 
   19300     590.0718   -160.89509   0.53390937   -160.36118    18566.307    4.2722196    4.2722196    4.2722196    18566.307    16061.177    2078.5311    37559.214    6394.9958   -9888.5046    5793.9926    77.975954 
   19400    1230.2787   -161.45808    1.1131821    -160.3449   -16578.391    4.2701462    4.2701462    4.2701462   -16578.391   -14935.319     7970.985   -42770.838    8359.7444   -5474.8086    -5226.295     77.86248 
   19500    733.53714   -161.00171   0.66371982   -160.33799    21328.517     4.245099     4.245099     4.245099    21328.517    12897.373    15779.336    35308.843    4189.2378    2788.4529   -398.24886    76.500357 
   19600    953.54158   -161.20199   0.86278446    -160.3392   -14893.378    4.2416588    4.2416588    4.2416588   -14893.378    10607.012   -34203.551   -21083.596   -1196.1807   -901.91779   -3280.9546    76.314524 
   19700    1074.0912   -161.32333   0.97186032   -160.35147   -14807.265    4.2603115    4.2603115    4.2603115   -14807.265   -1833.2176   -39327.218   -3261.3581   -9590.7617   -1353.4425   -14899.318    77.325737 
   19800    981.24462    -161.2427   0.88785075   -160.35485   -1272.8197     4.266476     4.266476     4.266476   -1272.8197   -37303.071   -18320.484    51805.096   -2614.1295    4525.2055   -7947.6482    77.661883 
   19900    1090.6054    -161.3381    0.9868027    -160.3513     11138.36    4.2427679    4.2427679    4.2427679     11138.36   -8850.5204     17120.59    25145.011    4409.9354    8966.1633    -777.7498    76.374402 
   20000    809.31861   -161.08303   0.73228848   -160.35075    15979.047    4.2351149    4.2351149    4.2351149    15979.047   -16429.822    60714.421    3652.5426   -2845.4198    21227.288   -15968.208    75.961861 
   20100    1086.4875   -161.34178   0.98307671    -160.3587    2160.9869    4.2518528    4.2518528    4.2518528    2160.9869    -17192.71    35713.987   -12038.315   -267.10685    22830.146    2929.1176    76.866069 
   20200    1141.7637   -161.38681    1.0330918   -160.35372   -19432.793    4.2631519    4.2631519    4.2631519   -19432.793   -33412.004    -25282.03    395.65536   -8603.2743    5213.1779    1277.6226    77.480502 
   20300    1090.5325   -161.32797   0.98673671   -160.34123   -19764.709     4.264961     4.264961     4.264961   -19764.709   -35158.186    -35514.33     11378.39   -3250.3934    1923.7022    2446.8527    77.579182 
   20400     1259.137   -161.48348    1.1392936   -160.34419   -12854.224    4.2628935    4.2628935    4.2628935   -12854.224   -21816.146    1640.7205   -18387.245     6094.452   -10456.912    6875.1468    77.466413 
   20500     1223.445   -161.45289    1.1069987   -160.34589   -12774.905    4.2569757    4.2569757    4.2569757   -12774.905   -10219.505   -23716.031   -4389.1788    15346.833   -9604.7606    8589.1736     77.14424 
   20600    1130.1821   -161.36955    1.0226125   -160.34694    -13512.89    4.2496156    4.2496156    4.2496156    -13512.89   -27312.843   -25444.442    12218.615    19621.321    1059.5318    8525.5331    76.744798 
   20700    1370.1692    -161.5894    1.2397579   -160.34964   -17222.353    4.2582157    4.2582157    4.2582157   -17222.353   -11398.792   -14781.035   -25487.231    1161.3769   -3811.3992   -7395.9297    77.211673 
   20800    1176.8972   -161.41835    1.0648814   -160.35347    8386.9686    4.2645626    4.2645626    4.2645626    8386.9686    1295.0336    22084.584     1781.288   -3446.9299    2932.1773    12609.826    77.557446 
   20900    1146.6274   -161.38545    1.0374926   -160.34796    12522.916    4.2563387    4.2563387    4.2563387    12522.916    9618.1406    15335.887     12614.72   -9941.6376    8256.0638     5706.016    77.109613 
   21000    945.66086   -161.20268   0.85565382   -160.34702    11614.033    4.2521747    4.2521747    4.2521747    11614.033   -2749.1993    24443.902    13147.397   -5233.3371    8612.4737    -1718.925    76.883526 
   21100    1373.1901    -161.5907    1.2424913   -160.34821   -19962.987    4.2558406    4.2558406    4.2558406   -19962.987   -40138.012    19644.809   -39395.759    9226.4675    3512.0349     6783.598    77.082548 
   21200    1090.6114   -161.33056   0.98680813   -160.34375    1456.5378    4.2580921    4.2580921    4.2580921    1456.5378   -4860.6196    13144.663   -3914.4295    1546.3938   -421.94419   -5742.5651    77.204949 
   21300    1017.6126   -161.25902   0.92075728   -160.33827   -12289.623    4.2620176    4.2620176    4.2620176   -12289.623   -17998.338   -14697.575   -4172.9571    7853.3497    12082.722   -1647.4966    77.418671 
   21400    818.58366   -161.07742    0.7406717   -160.33675    3017.1907     4.265132     4.265132     4.265132    3017.1907    2197.4389   -11730.982    18585.115    9388.1862    12237.211    3743.8832    77.588513 
   21500    1193.5624     -161.415    1.0799604   -160.33504   -9019.3439    4.2562843    4.2562843    4.2562843   -9019.3439   -23530.142    -6717.946    3190.0563   -2368.6242    6945.3871   -3527.3934    77.106661 
   21600    1025.8227   -161.27229   0.92818591   -160.34411   -14036.813    4.2532446    4.2532446    4.2532446   -14036.813   -33944.364    10108.889   -18274.964   -9015.6957     1836.387     8668.845    76.941575 
   21700    1242.1508   -161.47482    1.1239242    -160.3509   -40336.453    4.2559741    4.2559741    4.2559741   -40336.453   -39295.155    -31938.03   -49776.173   -10539.821   -8402.1665   -5420.1336    77.089803 
   21800    1391.1198   -161.61311    1.2587144   -160.35439   -12796.017    4.2489518    4.2489518    4.2489518   -12796.017   -2773.6488     -10928.1   -24686.301   -8703.1881   -11815.796   -11234.347     76.70884 
   21900    1232.5073   -161.47251    1.1151985   -160.35731   -14814.328    4.2615554    4.2615554    4.2615554   -14814.328    10865.634   -34201.291   -21107.328    -5399.174   -7516.2976   -707.61412    77.393489 
   22000    1016.5398   -161.26825    0.9197866   -160.34847   -6745.6077    4.2666245    4.2666245    4.2666245   -6745.6077   -5136.8992   -10892.984   -4206.9398    2852.0845   -12307.244    -4565.699    77.669994 
   22100    1411.7003   -161.61968    1.2773361   -160.34234   -1417.0884    4.2515446    4.2515446    4.2515446   -1417.0884    10024.149    2109.2757    -16384.69    6335.9055    662.16267    11320.156    76.849354 
   22200    968.03217   -161.23076   0.87589585   -160.35486    3634.0235    4.2593033    4.2593033    4.2593033    3634.0235   -11718.331    21778.038    842.36324    11828.426    7045.6689    11487.266    77.270853 
   22300    831.51153    -161.1024    0.7523691   -160.35003    -22320.86    4.2642122    4.2642122    4.2642122    -22320.86   -36056.127    14317.683   -45224.136   -7767.2542    4557.9651   -1810.4937    77.538329 
   22400    468.24391   -160.76991   0.42367693   -160.34624    30851.911     4.241307     4.241307     4.241307    30851.911    36787.561    67482.334   -11714.162   -7576.7984    11528.548    11461.722    76.295534 
   22500    806.52109   -161.08642   0.72975723   -160.35666    8067.8625    4.2525991    4.2525991    4.2525991    8067.8625    42666.426    34975.794   -53438.632   -10650.158    14974.739   -1451.8943    76.906547 
   22600    590.23298   -160.89093   0.53405521   -160.35688   -7321.1872    4.2715684    4.2715684    4.2715684   -7321.1872    3744.6094    6825.7114   -32533.882   -6470.0957    12207.905   -580.63146    77.940303 
   22700    884.34441   -161.14988   0.80017341   -160.34971    6147.6415    4.2550452    4.2550452    4.2550452    6147.6415    5859.4985    -7317.455    19900.881    6768.7532    9365.6188    2635.0462    77.039338 
   22800    1140.8549   -161.38486    1.0322695   -160.35259    11651.325    4.2471789    4.2471789    4.2471789    11651.325    1234.2605    29777.232    3942.4817    10415.518    11031.001   -11394.949     76.61286 
   22900    1119.2737   -161.37168    1.0127424   -160.35894    -23894.44    4.2534086    4.2534086    4.2534086    -23894.44   -17655.018   -10337.856   -43690.446   -860.31229    16620.686    12799.211    76.950479 
   23000    911.69314    -161.1867   0.82491911   -160.36178   -17453.473    4.2475494    4.2475494    4.2475494   -17453.473     4282.047   -25190.996   -31451.469    19758.382    11289.338    5404.1629    76.632909 
   23100    1280.6297   -161.52355    1.1587407   -160.36481   -17190.447    4.2572385    4.2572385    4.2572385   -17190.447   -8311.8524   -13974.433   -29285.055   -3323.3884    4536.9787    12409.096    77.158528 
   23200    1366.8638   -161.59048    1.2367671   -160.35371   -31489.211    4.2655455    4.2655455    4.2655455   -31489.211   -39515.993   -18200.392   -36751.249      3236.73   -3424.5044    -9326.975    77.611079 
   23300    824.04282   -161.09108   0.74561126   -160.34547     6245.884    4.2443928    4.2443928    4.2443928     6245.884    27681.151   -29355.081    20411.582   -11872.157   -9321.0669    -29436.69    76.462188 
   23400    1140.1419   -161.38235    1.0316244   -160.35073    -3470.653    4.2446117    4.2446117    4.2446117    -3470.653   -5115.8931   -10404.869    5108.8028   -18471.427   -5345.4972   -13469.394    76.474015 
   23500    1017.4431   -161.27961   0.92060392   -160.35901   -6159.6227    4.2695286    4.2695286    4.2695286   -6159.6227   -24169.084    15304.848   -9614.6325    3922.9835   -981.11616   -14863.255    77.828704 
   23600    1076.7628   -161.31628   0.97427759     -160.342   -11816.789    4.2704014    4.2704014    4.2704014   -11816.789   -28310.425    12556.828    -19696.77   -1469.2833    368.88468   -2212.2464     77.87644 
   23700    1006.4154   -161.24982   0.91062584   -160.33919    11553.001    4.2558815    4.2558815    4.2558815    11553.001   -12664.069    43169.482    4153.5908    5466.6908    418.79861    7406.9779    77.084768 
   23800    1032.6348   -161.28162   0.93434969   -160.34727    2326.2345    4.2608816    4.2608816    4.2608816    2326.2345   -8264.6151    26678.046   -11434.727    18172.495    402.75722   -4902.2465    77.356781 
   23900    1102.6547   -161.34384   0.99770514   -160.34614   -5077.5107    4.2575065    4.2575065    4.2575065   -5077.5107     2824.345   -11919.704   -6137.1726   -839.19919   -9056.5906    5441.8598      77.1731 
   24000    947.64036   -161.20595   0.85744491    -160.3485   -14233.398    4.2614357    4.2614357    4.2614357   -14233.398   -10809.608   -47551.675    15661.089   -6017.0035   -18453.277     9294.954    77.386968 
   24100     972.5732    -161.2301   0.88000467    -160.3501   -11417.926      4.26664      4.26664      4.26664   -11417.926   -37147.537   -21292.282    24186.039    8557.0144   -7209.4855     -12901.1    77.670842 
   24200     1153.862    -161.3888    1.0440386   -160.34477    26517.596    4.2361802    4.2361802    4.2361802    26517.596    -1557.709    34148.938    46961.559    8156.1676    408.87992    4425.9174    76.019196 
   24300    781.42681   -161.05452    0.7070514   -160.34747    35007.318    4.2306844    4.2306844    4.2306844    35007.318    28408.968    28110.821    48502.166    2790.0827   -1052.3277   -6755.4017     75.72371 
   24400    975.10321   -161.23657   0.88229388   -160.35428   -12507.949    4.2668283    4.2668283    4.2668283   -12507.949   -16476.723   -10246.333   -10800.789    5057.4205    1022.3228   -4164.4066    77.681122 
   24500    1395.9639   -161.60086    1.2630975   -160.33777   -24054.823    4.2719916    4.2719916    4.2719916   -24054.823   -41783.075   -21429.121   -8952.2739    740.01707    1435.1783    9958.0002    77.963471 
   24600    1178.1912   -161.40467    1.0660522   -160.33862    10632.727    4.2512701    4.2512701    4.2512701    10632.727    10118.902     14000.13     7779.149    1018.9326     3324.783   -1990.5823    76.834469 
   24700    1310.2427   -161.53064    1.1855352   -160.34511   -8618.8716    4.2471753    4.2471753    4.2471753   -8618.8716   -2798.9885    3753.2703   -26810.897    1735.1852   -2789.6662    19940.698    76.612665 
   24800    1448.3764   -161.65842    1.3105214   -160.34789    8406.5599    4.2394812    4.2394812    4.2394812    8406.5599   -11775.222    37374.351    -379.4488   -973.41439   -836.89684     35.40133    76.197047 
   24900    1225.8133   -161.46955    1.1091416   -160.36041   -1967.2964    4.2518057    4.2518057    4.2518057   -1967.2964   -38604.406    37456.476   -4753.9585    3849.1659    6105.1964   -12522.564    76.863515 
   25000    1060.5819   -161.32059    0.9596368   -160.36096   -25665.818    4.2773257    4.2773257    4.2773257   -25665.818   -52907.878   -10492.059   -13597.516   -5554.0195    5129.4019    604.23011     78.25588 
   25100    1063.1344   -161.31661   0.96194636   -160.35466    1824.9055     4.262768     4.262768     4.262768    1824.9055   -17639.438    51338.288   -28224.133   -4704.7704    8117.2373    1878.7245    77.459573 
   25200    1424.8026   -161.62784    1.2891913   -160.33865    17811.544    4.2265879    4.2265879    4.2265879    17811.544    30982.513    39582.593   -17130.474   -1879.9999    13036.185    14565.582    75.503957 
   25300    749.17059    -161.0308    0.6778653   -160.35294   -1759.8622    4.2363366    4.2363366    4.2363366   -1759.8622    25580.148   -4949.4481   -25910.286    -10362.38    10716.503    21648.491    76.027615 
   25400    952.98366   -161.21492   0.86227965   -160.35264   -25249.535    4.2668388    4.2668388    4.2668388   -25249.535   -6733.9105   -30966.179   -38048.515    1123.8925    5950.9978    10021.761    77.681696 
   25500    708.43065   -160.99201   0.64100294   -160.35101    26471.224     4.264942     4.264942     4.264942    26471.224    22805.122    82775.551   -26167.001   -2740.8902    166.54831    11831.683    77.578142 
   25600    822.68901   -161.09223   0.74438631   -160.34784    14608.351    4.2507964    4.2507964    4.2507964    14608.351     38447.18    30530.128   -25152.255    7726.8663   -2510.3458     928.4525     76.80879 
   25700    853.31211   -161.12372   0.77209473   -160.35162   -18875.165    4.2395883    4.2395883    4.2395883   -18875.165   -39.334315   -8075.6659   -48510.494   -1270.3363    972.22822   -3721.8219    76.202825 
   25800      773.689   -161.05873   0.70005007   -160.35868    3522.1494    4.2343124    4.2343124    4.2343124    3522.1494    26868.386    13297.141   -29599.079   -13376.318   -10548.916    9767.9516    75.918686 
   25900    834.69338   -161.12123   0.75524811   -160.36598    6969.0787    4.2515671    4.2515671    4.2515671    6969.0787    25769.499     22266.27   -27128.532    7285.3551   -18897.397    7387.2089    76.850574 
   26000    555.52037   -160.86309    0.5026465   -160.36044    7331.7103    4.2682546    4.2682546    4.2682546    7331.7103    34345.336    31055.445    -43405.65   -11094.625   -23685.714    -351.7987    77.759054 
   26100    684.62096   -160.96988   0.61945943   -160.35042    -3192.961    4.2608191    4.2608191    4.2608191    -3192.961    28932.577    15161.742   -53673.202    8648.0363    -20411.13   -2303.6502    77.353378 
   26200    866.41826   -161.13032   0.78395345   -160.34637   -12513.137    4.2361424    4.2361424    4.2361424   -12513.137    2109.7435     12089.79   -51738.944    10037.893   -10692.633   -28302.932     76.01716 
   26300    631.35895   -160.92434   0.57126685   -160.35307    5064.1459    4.2300983    4.2300983    4.2300983    5064.1459    37201.335    2129.3137   -24138.211    -6889.682   -3606.1586   -21295.902    75.692244 
   26400    855.97114   -161.13414   0.77450067   -160.35964   -9347.7369    4.2524262    4.2524262    4.2524262   -9347.7369    35482.644    -33507.56   -30018.295    8603.1113   -6615.6061   -2830.2479     76.89717 
   26500    664.03002   -160.95393   0.60082832    -160.3531    7419.6539     4.262103     4.262103     4.262103    7419.6539    27382.441    7281.8401    -12405.32   -7049.3579    7789.8268    -4141.142    77.423327 
   26600    693.52949   -160.97514   0.62752005   -160.34762    12610.659    4.2544136    4.2544136    4.2544136    12610.659     8147.669    42713.381   -13029.074   -18997.679    9940.3708   -666.97222    77.005038 
   26700    921.66192   -161.18158   0.83393908   -160.34764    3580.8672    4.2527916    4.2527916    4.2527916    3580.8672    23215.552    28409.978   -40882.928   -10304.366    18237.663   -7284.0068    76.916993 
   26800    736.28961   -161.01394   0.66621031   -160.34773    7870.0282    4.2529206    4.2529206    4.2529206    7870.0282    69710.397   -7203.1363   -38897.176   -347.31207    13453.476   -17627.894    76.923994 
   26900    773.50511   -161.04901   0.69988368   -160.34912    10352.231    4.2448648    4.2448648    4.2448648    10352.231    66527.601   -8870.1643   -26600.744   -6180.7455    3833.9236   -11902.966    76.487695 
   27000    977.48648   -161.24308   0.88445031   -160.35863   -12329.823    4.2525254    4.2525254    4.2525254   -12329.823   -1488.8035   -6941.9025   -28558.764   -3142.7977    13423.843    13133.454    76.902554 
   27100    791.79475   -161.07346   0.71643253   -160.35703   -10417.268    4.2552366    4.2552366    4.2552366   -10417.268   -17536.956    31886.677   -45601.523    839.76043    25290.206    11353.553    77.049735 
   27200    891.15638   -161.15939   0.80633702   -160.35305    6396.1208    4.2465631    4.2465631    4.2465631    6396.1208    -10159.64    52351.874   -23003.871    8242.3094    20912.885    6344.8472    76.579537 
   27300     1024.132   -161.28501    0.9266562   -160.35835   -7623.3276     4.252292     4.252292     4.252292   -7623.3276    42916.751   -27483.618   -38303.115    11704.486    19272.712     19916.57     76.88989 
   27400    828.82735   -161.10723   0.74994041   -160.35729   -2532.0685    4.2518803    4.2518803    4.2518803   -2532.0685    28527.735    -4925.356   -31198.584   -1155.9662    4601.8998    9396.7055    76.867561 
   27500     912.4223   -161.17458   0.82557887     -160.349    11412.765    4.2409653    4.2409653    4.2409653    11412.765   -9188.8408     30731.78    12695.354   -2111.4514    1085.2226    -2389.658    76.277096 
   27600    710.01622   -160.99981    0.6424376   -160.35737    13231.599    4.2508907    4.2508907    4.2508907    13231.599   -13024.427    75862.604   -23143.381   -15206.898   -11850.874    4675.3311    76.813902 
   27700    946.53462   -161.21715   0.85644442    -160.3607   -18609.144    4.2656961    4.2656961    4.2656961   -18609.144    6723.1321   -12205.486   -50345.079   -8309.8616   -14209.199     209.9867    77.619304 
   27800    871.50513    -161.1442   0.78855615   -160.35564   -720.70575    4.2493668    4.2493668    4.2493668   -720.70575     63115.55   -15946.212   -49331.455   -4465.9673   -6269.0977    23012.692    76.731321 
   27900    572.31054   -160.87034    0.5178386    -160.3525    24555.589    4.2409915    4.2409915    4.2409915    24555.589    50171.689    30926.151   -7431.0717   -13895.105   -6201.0007    13599.327    76.278508 
   28000     778.8472   -161.06437   0.70471732   -160.35965   -514.03331    4.2563425    4.2563425    4.2563425   -514.03331    -14083.01    24492.874   -11951.963    6758.3696   -15504.374    7368.1817    77.109823 
   28100     643.8096   -160.94163   0.58253245   -160.35909    2403.1224    4.2536096    4.2536096    4.2536096    2403.1224   -31827.519    59945.854   -20908.968   -4269.1318   -19690.036    17328.542    76.961387 
   28200    773.42239   -161.05436   0.69980883   -160.35455   -4144.8115    4.2457897    4.2457897    4.2457897   -4144.8115     1281.275    6883.1738   -20598.883   -10891.406   -28236.455   -716.98791    76.537705 
   28300     648.7319   -160.94341   0.58698626   -160.35642     -12124.3    4.2495969    4.2495969    4.2495969     -12124.3    34048.924   -28220.737   -42201.089   -249.66169   -22187.441    -5136.182    76.743785 
   28400    831.38305   -161.10715   0.75225286    -160.3549    6729.5576    4.2371215    4.2371215    4.2371215    6729.5576    21649.132    -943.8588   -516.60044     7309.969   -14991.445    13884.689    76.069881 
   28500    751.30657   -161.04539   0.67979797   -160.36559    16355.467    4.2434672    4.2434672    4.2434672    16355.467   -4988.6749    51978.673    2076.4022   -2155.8505   -11767.787   -8709.7988    76.412172 
   28600    835.84068    -161.1221   0.75628621   -160.36581   -19147.989    4.2693678    4.2693678    4.2693678   -19147.989    -42850.39    17408.611   -32002.189      4582.32    710.64793    7853.2217    77.819906 
   28700    1277.6333   -161.50649    1.1560294   -160.35046   -36722.399    4.2592175    4.2592175    4.2592175   -36722.399   -4122.0239   -42779.122   -63266.053    7204.3989   -489.31929    -1199.331    77.266183 
   28800    1001.8622   -161.24862   0.90650594   -160.34211    13527.591    4.2376621    4.2376621    4.2376621    13527.591    69024.826    2090.5222   -30532.576   -82.905724   -1595.3988   -13593.755    76.099002 
   28900    1068.0878   -161.31916   0.96642833   -160.35274   -12050.808    4.2561618    4.2561618    4.2561618   -12050.808    11781.997   -8253.7878   -39680.633    2592.0377      1064.51     -2945.06    77.100002 
   29000    987.81533     -161.245   0.89379607    -160.3512   -6901.7396    4.2549635    4.2549635    4.2549635   -6901.7396   -35793.684     43436.38   -28347.915   -12276.199    12238.973   -3410.8915      77.0349 
   29100    941.87059   -161.19988   0.85222431   -160.34766     12543.89    4.2382156    4.2382156    4.2382156     12543.89     4828.211    32828.862   -25.404152   -14579.976    31368.818    -2234.801    76.128824 
   29200    959.62504   -161.22562    0.8682889   -160.35733   -30297.582     4.258145     4.258145     4.258145   -30297.582   -42874.712    3058.5335   -51076.568    9904.7189    32775.019    6373.6142    77.207826 
   29300    676.33804   -160.96512   0.61196487   -160.35316   -15617.912    4.2603565    4.2603565    4.2603565   -15617.912   -19005.361    15154.021   -43002.397    2402.9439    17261.628   -15776.749    77.328185 
   29400    797.35064   -161.06923   0.72145962   -160.34777    34943.403    4.2335153    4.2335153    4.2335153    34943.403    31457.487    65937.548    7435.1748     5874.917    11242.485   -7247.3028    75.875822 
   29500    814.02633    -161.1008   0.73654813   -160.36425    19623.699    4.2424795    4.2424795    4.2424795    19623.699    10917.434    52457.661        -4504    6433.8325    1249.1416   -4550.0499    76.358829 
   29600    541.72738   -160.85322   0.49016632   -160.36305   -9472.6223    4.2553177    4.2553177    4.2553177   -9472.6223   -10505.446    6022.2441   -23934.665   -14716.988    8703.6998    6728.7811    77.054136 
   29700    996.31274   -161.25435   0.90148471   -160.35287    -3034.553    4.2400976    4.2400976    4.2400976    -3034.553    3496.9262    14646.098   -27246.683    9170.3414    8297.5584    16465.712     76.23029 
   29800    952.35722   -161.22373   0.86171283   -160.36201    2672.0193    4.2545136    4.2545136    4.2545136    2672.0193    47662.609    10723.621   -50370.172   -1383.8164   -1383.7387   -1757.5962    77.010468 
   29900    999.99349   -161.25467   0.90481513   -160.34986   -17558.051    4.2717023    4.2717023    4.2717023   -17558.051    12397.186   -9942.9175   -55128.423    -12174.15   -2065.6934    -6178.537    77.947633 
   30000    1394.2562   -161.59856    1.2615523   -160.33701   -4457.0296    4.2491932    4.2491932    4.2491932   -4457.0296   -11843.696     20685.53   -22212.923    529.44493   -7365.8267   -1698.4975    76.721913 
   30100    1450.4209   -161.64881    1.3123713   -160.33644    866.81461    4.2388404    4.2388404    4.2388404    866.81461    9175.1712    5089.7504   -11664.478   -11011.475   -7886.2823   -8100.1597      76.1625 
   30200    1374.7726   -161.59392    1.2439232      -160.35   -23957.785    4.2559685    4.2559685    4.2559685   -23957.785   -18537.386   -13871.423   -39464.548   -7098.9476   -5406.1573   -2431.2273    77.089496 
   30300    1242.2043   -161.47706    1.1239725   -160.35308   -13362.094    4.2572395    4.2572395    4.2572395   -13362.094   -16781.385   -16357.798   -6947.0989   -3540.1055   -6603.6251    5486.9081    77.158586 
   30400    1304.7915   -161.52937    1.1806028   -160.34877   -4223.2881    4.2529088    4.2529088    4.2529088   -4223.2881   -6461.0155    -8140.545    1931.6962   -6205.8512   -3372.9461   -4642.4988    76.923353 
   30500    1305.5991   -161.52858    1.1813335   -160.34724   -4621.6183     4.247523     4.247523     4.247523   -4621.6183    10700.486    4915.3545   -29480.696    13644.527   -14586.624    927.45769    76.631483 
   30600    1110.2372   -161.35562     1.004566   -160.35105   -5448.7544    4.2398204    4.2398204    4.2398204   -5448.7544    5792.2776    9843.0422   -31981.583   -107.22431   -10446.987   -6939.3891    76.215339 
   30700    990.64646   -161.25893   0.89635774   -160.36257    1197.5856    4.2509261    4.2509261    4.2509261    1197.5856   -4977.5122    22453.027   -13882.758   -800.92439   -7716.0889   -14085.548    76.815819 
   30800    1104.7591   -161.35389   0.99960929   -160.35428    2483.0091    4.2659424    4.2659424    4.2659424    2483.0091    43816.878   -19794.859   -16572.991    16784.309   -12440.201   -2805.6439    77.632749 
   30900    894.24104   -161.15296   0.80912808   -160.34383     18290.37    4.2562138    4.2562138    4.2562138     18290.37    48102.139   -3822.0169    10590.987   -4677.5386    2454.7182    -10800.27    77.102829 
   31000    1096.2081   -161.33046   0.99187211   -160.33859    14727.093    4.2484116    4.2484116    4.2484116    14727.093    29326.977    1802.9307    13051.371   -11191.601    5172.7955   -14577.402    76.679583 
   31100    1404.2256   -161.61511    1.2705728   -160.34454   -2781.9578    4.2496386    4.2496386    4.2496386   -2781.9578    31472.809   -18823.044   -20995.639    2087.3848    6844.0281   -4282.0905    76.746044 
   31200    1075.5035   -161.32508   0.97313813   -160.35194    3941.0537    4.2484375    4.2484375    4.2484375    3941.0537    18892.777    19498.351   -26567.967   -3550.8795    11371.548   -2054.3834    76.680988 
   31300    1160.9526   -161.40128    1.0504543   -160.35083   -25998.325    4.2555313    4.2555313    4.2555313   -25998.325   -42749.584   -9278.2324   -25967.158    7707.2455    7609.9802    8197.9344    77.065745 
   31400    1178.5618   -161.41477    1.0663874   -160.34839    -18146.76    4.2595329    4.2595329    4.2595329    -18146.76   -47284.424    7999.0528    -15154.91    5186.2989     18276.09     16869.88     77.28335 
   31500    895.78028   -161.15528   0.81052082   -160.34476    6686.7083    4.2537738    4.2537738    4.2537738    6686.7083    -6786.283    34217.543   -7371.1352    11118.956    15737.604    7800.0991    76.970299 
   31600    1052.7481   -161.29605   0.95254857    -160.3435   -2804.1313    4.2503102    4.2503102    4.2503102   -2804.1313    3545.4668    721.67651   -12679.537    3726.6372    9402.8918    2724.6367    76.782433 
   31700    1050.8893   -161.29676   0.95086676   -160.34589    8500.7889     4.247799     4.247799     4.247799    8500.7889    14386.176    6245.3064    4870.8847    34.554427    15596.485        12353    76.646421 
   31800    1053.1338   -161.30423    0.9528976   -160.35134     9931.452    4.2463106    4.2463106    4.2463106     9931.452    11933.504   -9357.2167    27218.069    7528.8434    9430.3582    5043.3734    76.565877 
   31900    1303.4721   -161.53143     1.179409   -160.35202   -30894.584    4.2575834    4.2575834    4.2575834   -30894.584   -39667.706   -22089.551   -30926.495   -8674.1815    14576.903    2146.2805    77.177285 
   32000     1191.263   -161.42575    1.0778798   -160.34787   -10188.756    4.2551134    4.2551134    4.2551134   -10188.756   -49766.051    37123.437   -17923.654   -2824.7051    7211.0789    12169.904    77.043039 
   32100    1218.6097   -161.44981    1.1026237   -160.34718    3766.4179    4.2494139    4.2494139    4.2494139    3766.4179   -23378.122    28542.605    6134.7712    10192.759   -5288.2285    7876.6658     76.73387 
   32200    1134.6433   -161.37723    1.0266491   -160.35058   -521.82717    4.2499785    4.2499785    4.2499785   -521.82717    -297.7192    9820.9743   -11088.737   -3656.1114   -14147.437      15369.1    76.764458 
   32300    1050.7939   -161.30115   0.95078036   -160.35037    4285.9107    4.2534706    4.2534706    4.2534706    4285.9107   -1769.1818    13632.454    994.45987    8918.8441   -9581.1272    14656.143    76.953841 
   32400    1278.6657   -161.50653    1.1569636   -160.34957    2374.6114    4.2542485    4.2542485    4.2542485    2374.6114   -7972.3852   -6082.7533    21178.973    14478.462   -4021.1206    415.80642    76.996073 
   32500    1212.9511   -161.44443    1.0975036   -160.34693   -11519.683    4.2564123    4.2564123    4.2564123   -11519.683    660.96906   -31361.698   -3858.3193     -9155.49   -11523.504   -6090.2041    77.113617 
   32600     900.3112   -161.15793   0.81462049   -160.34331    -17556.62    4.2490477    4.2490477    4.2490477    -17556.62   -1906.3537   -23583.633   -27179.873    3362.3419   -3055.9166   -27402.457    76.714033 
   32700     845.7464   -161.11026   0.76524911   -160.34501    5296.0582    4.2340267    4.2340267    4.2340267    5296.0582    34905.319   -18918.403   -98.741447    10336.554   -2487.8734   -40118.728    75.903321 
   32800    953.48743   -161.21592   0.86273546   -160.35319    5134.7932    4.2450292    4.2450292    4.2450292    5134.7932     23569.16   -19644.719    11479.938   -9920.3844   -2820.1801   -40542.281    76.496584 
   32900    660.65713   -160.94621   0.59777645   -160.34844    4703.1813    4.2575908    4.2575908    4.2575908    4703.1813    30277.591   -27397.775    11229.728    1148.7779    1527.1942   -31537.184    77.177686 
   33000    776.01422     -161.042   0.70215397   -160.33984    15209.807    4.2497264    4.2497264    4.2497264    15209.807    24854.489    1339.0054    19435.927    5124.4673   -4088.9549   -19341.241    76.750801 
   33100    1248.4847   -161.47262    1.1296552   -160.34296    -1335.492    4.2492845    4.2492845    4.2492845    -1335.492   -10235.707   -577.96754    6807.1985   -8110.4174    -4643.281   -2935.3397    76.726863 
   33200    962.06288   -161.21853   0.87049471   -160.34804    9822.3684    4.2514589    4.2514589    4.2514589    9822.3684    29804.591    4173.5987   -4511.0844   -3851.0767   -8091.4023    2590.3559    76.844709 
   33300    1067.5262   -161.31302    0.9659201    -160.3471    6554.5117    4.2537985    4.2537985    4.2537985    6554.5117   -203.56952    14772.269    5094.8354    7949.1491   -1146.0421     2027.871     76.97164 
   33400     1170.172   -161.41146    1.0587962   -160.35266   -5608.3198    4.2570496    4.2570496    4.2570496   -5608.3198    3757.1467   -30122.813    9540.7072    12907.884    488.34713   -6356.1195    77.148257 
   33500    1169.4673    -161.4089    1.0581586   -160.35074   -11646.172    4.2500968    4.2500968    4.2500968   -11646.172    10276.384   -44600.043   -614.85757    26184.958   -3227.2749   -5948.4042     76.77087 
   33600    1108.9914   -161.35886    1.0034388   -160.35542   -7284.6026    4.2491756    4.2491756    4.2491756   -7284.6026    22926.675   -18669.319   -26111.164    3287.8448   -2170.8503     1156.883     76.72096 
   33700    1135.6987   -161.38577     1.027604   -160.35817   -14410.589    4.2618966    4.2618966    4.2618966   -14410.589    21875.751   -30341.228   -34766.289    4912.3761    8231.9226    10371.231    77.412079 
   33800    1334.2318   -161.56285     1.207241   -160.35561    -15676.28    4.2613137    4.2613137    4.2613137    -15676.28   -3017.5427   -36660.515   -7350.7842   -8695.6838    2918.0835     8784.708    77.380319 
   33900    1192.0991   -161.43179    1.0786363   -160.35315   -17106.084    4.2615958    4.2615958    4.2615958   -17106.084   -2916.3141    -45744.59   -2657.3498   -5883.6242    3405.1013   -2826.1116     77.39569 
   34000    959.30826   -161.22191   0.86800228   -160.35391    2141.6389    4.2617824    4.2617824    4.2617824    2141.6389     48797.58   -14905.256   -27467.407    1679.4442    -1828.789    -11349.82    77.405856 
   34100    1234.4102   -161.46764    1.1169203   -160.35072   -4021.0597    4.2560126    4.2560126    4.2560126   -4021.0597    15490.588   -12771.859   -14781.907    1878.2765    6129.2522   -9306.5216    77.091895 
   34200    925.52192   -161.19264   0.83743169   -160.35521   -2074.0949    4.2511873    4.2511873    4.2511873   -2074.0949    22656.371   -43484.833    14606.178   -1691.1868   -5121.4842   -614.38386     76.82998 
   34300    825.32231   -161.10512   0.74676897   -160.35835   -8528.2045    4.2529219    4.2529219    4.2529219   -8528.2045    5276.1042   -44251.996    13391.278   -14837.404    1214.7508    -12689.69    76.924062 
   34400    693.98067   -160.99112   0.62792829   -160.36319    300.42415    4.2593049    4.2593049    4.2593049    300.42415    39684.153   -55987.344    17204.464   -4579.5487   -757.65287   -9042.7276    77.270937 
   34500    686.79927   -160.97643   0.62143041     -160.355     19122.78     4.259012     4.259012     4.259012     19122.78    42719.767    -43165.68    57814.253   -2305.7366   -8466.0968     -8101.38    77.254997 
   34600    980.34602   -161.23354   0.88703768   -160.34651      20080.3    4.2532361    4.2532361    4.2532361      20080.3    6811.7299    1626.2415    51802.929      5465.78   -4754.3701   -383.41527    76.941113 
   34700    1061.3424    -161.3042   0.96032487   -160.34388   -3213.6553    4.2602625    4.2602625    4.2602625   -3213.6553   -29491.228   -18247.329    38097.591    8893.5938    6137.7389    6009.4355    77.323068 
   34800    1273.2161   -161.49603    1.1520327     -160.344    -14010.62    4.2519771    4.2519771    4.2519771    -14010.62   -35039.222   -5326.7068   -1665.9306    4297.1292    7991.8671   -1045.0964    76.872808 
   34900    1147.4141   -161.38691    1.0382044   -160.34871    -13029.56    4.2481105    4.2481105    4.2481105    -13029.56    13213.667   -14596.277    -37706.07    3383.5084    11788.999    -2861.973    76.663286 
   35000    1285.4089   -161.51488     1.163065   -160.35181    -47935.08    4.2689552    4.2689552    4.2689552    -47935.08   -35004.133   -49064.129   -59736.979    281.73131     14196.93    5958.4899    77.797348 
   35100    1087.2943   -161.32863   0.98380677   -160.34482   -22913.718     4.261959     4.261959     4.261959   -22913.718   -11655.162   -36105.788   -20980.205    9026.2164   -4741.0386   -956.43559    77.415479 
   35200     928.8455   -161.18218   0.84043893   -160.34174    16244.815    4.2421768    4.2421768    4.2421768    16244.815     39909.94   -7967.6148    16792.122    16451.059   -497.94018    7249.9037    76.342483 
   35300    898.47943   -161.17526   0.81296307    -160.3623   -2388.5883    4.2581536    4.2581536    4.2581536   -2388.5883    8409.5656   -2502.7986   -13072.532    19285.756    5510.8772    902.24444    77.208298 
   35400    975.44866   -161.24414   0.88260645   -160.36153   -12045.719    4.2552501    4.2552501    4.2552501   -12045.719   -37940.015    11945.751   -10142.894    20317.505    12065.967    876.84866    77.050467 
   35500    1059.7765   -161.31125   0.95890801   -160.35234    10721.955     4.234728     4.234728     4.234728    10721.955    2268.0144    23873.424    6024.4256    26859.529    7864.4983    5779.7513    75.941041 
   35600    914.70878   -161.18707   0.82764773   -160.35942   -13675.822    4.2547563    4.2547563    4.2547563   -13675.822    19795.587   -37126.356   -23696.696    12215.559   -3737.2606    242.84959    77.023646 
   35700    1172.8531   -161.40869    1.0612221   -160.34747   -17423.308    4.2519952    4.2519952    4.2519952   -17423.308    13463.352   -36742.014   -28991.263      4547.04    1868.5277   -3460.5021    76.873789 
   35800    1428.2745   -161.63245    1.2923328   -160.34012    13053.994    4.2339603    4.2339603    4.2339603    13053.994    29488.384   -270.76462    9944.3615    1508.2191     2702.571   -11928.014    75.899751 
   35900    1338.5684   -161.56485    1.2111648   -160.35368    -24083.75    4.2605626    4.2605626    4.2605626    -24083.75   -19927.519   -22357.544   -29966.188   -11525.582   -2739.1942   -202.37842    77.339412 
   36000    1423.4227   -161.63641    1.2879428   -160.34846   -24702.416    4.2562287    4.2562287    4.2562287   -24702.416   -27856.771   -22369.615   -23880.861   -14397.938    5963.0812   -4120.5876    77.103637 
   36100    1568.7433   -161.75394    1.4194319    -160.3345    20535.626    4.2297232    4.2297232    4.2297232    20535.626    7151.6588    28740.344    25714.875   -12760.556    2620.9809    3057.2786    75.672108 
   36200    1501.2211   -161.70712    1.3583364   -160.34878   -32474.306    4.2542996    4.2542996    4.2542996   -32474.306   -20850.058   -40721.879   -35850.981    165.47845   -9067.7528    6568.1945    76.998846 
   36300    1006.5667   -161.25658   0.91076269   -160.34581   -26885.401    4.2560979    4.2560979    4.2560979   -26885.401   -6249.4436   -40476.811   -33929.948    8209.0883    6194.4753   -7547.2315    77.096531 
   36400    1246.4732   -161.46975    1.1278351   -160.34191   -1002.1721    4.2398571    4.2398571    4.2398571   -1002.1721     762.0929    2320.8153   -6089.4246     18372.13   -5729.2733   -8112.7881    76.217315 
   36500    1183.0293   -161.42435    1.0704298   -160.35392   -11694.124    4.2579482    4.2579482    4.2579482   -11694.124   -39720.391    1182.5257    3455.4946    14482.728    -16195.93    -1302.736    77.197124 
   36600    1021.2462   -161.27641   0.92404507   -160.35237   -13896.697     4.258408     4.258408     4.258408   -13896.697    -37545.06    14443.775   -18588.807    3220.9213   -5365.0108   -1506.2136    77.222138 
   36700    901.21573   -161.16436   0.81543893   -160.34892    30132.531    4.2437003    4.2437003    4.2437003    30132.531    27373.952    36071.098    26952.542    2750.9593   -1632.4403   -9535.5696    76.424766 
   36800    1087.3628   -161.34154   0.98386868   -160.35768   -6.0659431    4.2588081    4.2588081    4.2588081   -6.0659431    7649.9788   -6580.2575   -1087.9192    -1820.081   -830.50965   -1648.5747    77.243904 
   36900    862.30368   -161.13603   0.78023049    -160.3558   -5960.1116    4.2544933    4.2544933    4.2544933   -5960.1116   -4797.8285   -4891.2927   -8191.2137    12234.888   -6010.5022    5919.8267    77.009362 
   37000    484.29442   -160.78535   0.43819977   -160.34715    28488.866    4.2324121    4.2324121    4.2324121    28488.866    25105.291    42209.217    18152.091    22640.124   -6346.3223    7083.6527     75.81652 
   37100    764.67973   -161.04772   0.69189829   -160.35583    7695.1434    4.2473406    4.2473406    4.2473406    7695.1434     16667.14   -6017.6027    12435.893    33895.944     4872.007    2287.1739    76.621609 
   37200    641.14996   -160.93021   0.58012596   -160.35008    14811.324    4.2610864    4.2610864    4.2610864    14811.324    32270.516   -25836.989    38000.446    33446.796   -5011.7289    10173.305    77.367937 
   37300    737.13012   -161.01067   0.66697083    -160.3437   -2385.2119    4.2552731    4.2552731    4.2552731   -2385.2119    6826.2574   -19688.665    5706.7719    28304.304   -9547.0626    795.58924    77.051714 
   37400    862.35017   -161.12373   0.78027256   -160.34346   -13103.307    4.2515552    4.2515552    4.2515552   -13103.307   -23732.531   -1115.2082   -14462.181     10556.24   -1600.3881   -3098.9291     76.84993 
   37500    1169.7602   -161.40279    1.0584236   -160.34436    1313.5653    4.2444438    4.2444438    4.2444438    1313.5653   -7584.2873    22233.575   -10708.592    10916.175   -18727.831    9120.7534    76.464943 
   37600     929.9847   -161.19019    0.8414697   -160.34872    4306.6893    4.2477281    4.2477281    4.2477281    4306.6893     16579.54    7180.4491   -10839.921    2120.5542   -3782.8719   -2382.2727    76.642582 
   37700    1052.8972    -161.2981    0.9526835   -160.34542   -17980.175    4.2576051    4.2576051    4.2576051   -17980.175    9073.9553   -19095.161   -43919.321    -5648.561    5663.5112   -2885.7822    77.178463 
   37800    1344.6857    -161.5576    1.2166999    -160.3409   -9587.9037     4.254282     4.254282     4.254282   -9587.9037   -13515.716   -6918.1056   -8329.8897   -3766.1856   -11674.583     14389.43    76.997889 
   37900    1287.4272   -161.50607    1.1648912   -160.34118   -9828.3722    4.2487292    4.2487292    4.2487292   -9828.3722   -18207.386    1385.2746   -12663.006   -16367.378   -4092.3683   -2558.0931    76.696784 
   38000    1151.1055   -161.38278    1.0415445   -160.34123    -12355.34    4.2403687    4.2403687    4.2403687    -12355.34   -13043.813    4231.8992   -28254.108   -10853.607   -14566.658    1459.3082    76.244909 
   38100    1067.3886   -161.31101   0.96579568   -160.34521    15110.985    4.2340472    4.2340472    4.2340472    15110.985    10541.251    13773.782    21017.921   -3359.6786   -17912.349    7470.8852    75.904424 
   38200    1192.3689   -161.43687    1.0788805   -160.35799   -3242.7894    4.2526487    4.2526487    4.2526487   -3242.7894    -12004.68    13707.426   -11431.115    953.54886   -8225.1875    10460.947    76.909239 
   38300    758.49343    -161.0355    0.6863008    -160.3492   -3540.5086    4.2645964    4.2645964    4.2645964   -3540.5086   -16614.998     16687.51   -10694.038    14393.057    535.26808     7414.502    77.559287 
   38400    729.07025   -160.99981   0.65967808   -160.34013    2343.9429    4.2501507    4.2501507    4.2501507    2343.9429    45089.283   -20646.992   -17410.462    17962.473    7286.2685      4301.76    76.773792 
   38500    823.36623   -161.09689   0.74499907   -160.35189    7058.4991    4.2461865    4.2461865    4.2461865    7058.4991    10510.055     8020.737    2644.7049    23641.339    5164.3924    19450.096    76.559165 
   38600    769.25779   -161.05187   0.69604061   -160.35583    3866.3004    4.2504041    4.2504041    4.2504041    3866.3004   -13705.794    33269.671   -7964.9757    31655.463   -3756.4788    9882.9723    76.787526 
   38700    635.18371   -160.93247   0.57472757   -160.35774     7370.088    4.2465534    4.2465534    4.2465534     7370.088    24921.343    12051.043   -14862.122    35071.019    4244.4376    3581.8155    76.579014 
   38800    849.42305   -161.12504   0.76857583   -160.35647    11884.348    4.2481542    4.2481542    4.2481542    11884.348     50854.23     3124.155   -18325.342    20710.843   -4871.3517    16360.045    76.665647 
   38900    992.66551   -161.25061   0.89818461   -160.35242     4735.284    4.2579303    4.2579303    4.2579303     4735.284    17943.803    5265.4188   -9003.3696     19671.41   -15008.564    4639.5988     77.19615 
   39000     803.5115   -161.07358   0.72703409   -160.34655   -11315.383    4.2565596    4.2565596    4.2565596   -11315.383   -18342.077    13664.312   -29268.384    17262.861    6429.5646   -9249.9968    77.121624 
   39100    649.46783    -160.9314   0.58765214   -160.34375    6880.1166     4.243496     4.243496     4.243496    6880.1166    4254.2244    12682.936     3703.189    8694.9566    2614.9043   -13397.801     76.41373 
   39200    759.61981   -161.03623   0.68731997   -160.34891    5473.8031    4.2430222    4.2430222    4.2430222    5473.8031    31299.739   -531.39091   -14346.939    6697.5748   -6036.7789   -21566.608    76.388138 
   39300    618.54781   -160.91116   0.55967506   -160.35148    9264.1465    4.2486033    4.2486033    4.2486033    9264.1465    46767.647    1907.9498   -20883.157    12890.098   -1778.1344   -26483.769    76.689967 
   39400    543.35588   -160.83911   0.49163982   -160.34747    9316.4973    4.2532219    4.2532219    4.2532219    9316.4973    44037.732     20752.36     -36840.6    11929.103    4258.7312   -30506.159    76.940347 
   39500    739.31707   -161.02005   0.66894962    -160.3511   -1726.0476    4.2588162    4.2588162    4.2588162   -1726.0476    23260.798    419.85934     -28858.8    10836.713    722.28795   -18240.182    77.244346 
   39600    1079.4527   -161.32793   0.97671145   -160.35122   -1971.3319    4.2456128    4.2456128    4.2456128   -1971.3319   -1389.3513   -8334.9093    3810.2649    13204.423   -6709.0954    4231.0017    76.528141 
   39700    1091.7522   -161.32988   0.98784037   -160.34204    2383.0523    4.2363941    4.2363941    4.2363941    2383.0523   -3659.6317    15777.321   -4968.5324    7228.4462   -8778.7043    8065.0787     76.03071 
   39800     1075.553   -161.32242   0.97318295   -160.34923   -19308.772    4.2529186    4.2529186    4.2529186   -19308.772    -9027.973     -28643.7   -20254.643    12996.129    3598.9506     2842.093    76.923886 
   39900    1367.9643   -161.58327    1.2377629   -160.34551   -20815.025    4.2557964    4.2557964    4.2557964   -20815.025   -15088.978   -35338.739   -12017.359     8470.327    -11076.76    16250.413    77.080144 
   40000    1300.4361   -161.52099    1.1766619   -160.34433    -14968.29    4.2474193    4.2474193    4.2474193    -14968.29    -3202.745   -17508.547   -24193.577   -436.45332    -9839.536    4463.5787    76.625868 
   40100    1014.2307   -161.26384   0.91769729   -160.34614   -7767.0179    4.2490099    4.2490099    4.2490099   -7767.0179    22448.079   -19370.827   -26378.305   -2139.4461    7299.3687   -6755.9237    76.711986 
   40200    1172.6689   -161.40862    1.0610554   -160.34756    15586.994    4.2478992    4.2478992    4.2478992    15586.994     28384.08   -6501.0656    24877.969   -7472.4446   -7864.0689    7996.5202    76.651842 
   40300    1188.8142   -161.42149    1.0756641   -160.34583    23293.162    4.2499139    4.2499139    4.2499139    23293.162    33563.879    5747.8337    30567.773   -9913.2893   -1913.9322   -5837.4312    76.760961 
   40400    1085.7167   -161.32618   0.98237926   -160.34381   -2834.4469     4.252828     4.252828     4.252828   -2834.4469    28515.653   -16807.208   -20211.786   -12274.779     6274.721   -7552.4383     76.91897 
   40500    908.85376   -161.16919   0.82234998   -160.34684   -7035.7214    4.2533986    4.2533986    4.2533986   -7035.7214    17527.796   -26834.211   -11800.749   -19238.688   -676.67352   -4525.1063    76.949934 
   40600     1142.535   -161.38379    1.0337897      -160.35   -28684.684    4.2528183    4.2528183    4.2528183   -28684.684   -27557.518   -38903.322    -19593.21   -13450.625   -6414.1229   -31197.304    76.918442 
   40700    1096.9642   -161.34126   0.99255625    -160.3487   -4406.1597    4.2411693    4.2411693    4.2411693   -4406.1597   -23464.439    5281.8713    4964.0887   -7845.6642   -2939.5435   -20003.568    76.288106 
   40800    597.65527   -160.90148   0.54077105   -160.36071    25131.926    4.2470373    4.2470373    4.2470373    25131.926   -12524.274    47740.079    40179.974   -9025.5315   -3422.7704   -10689.989    76.605197 
   40900    689.04671   -160.98365   0.62346395   -160.36019   -4060.2743    4.2639381    4.2639381    4.2639381   -4060.2743   -24386.541     1975.197    10230.521   -2895.8108   -4172.1721   -7415.5766    77.523374 
   41000    635.50603   -160.92505   0.57501921   -160.35003    12537.882    4.2469158    4.2469158    4.2469158    12537.882   -15157.478   -4096.5909    56867.714    4660.1634   -5315.1554   -13594.421    76.598622 
   41100    723.28705   -160.99623   0.65444533   -160.34178    13328.116    4.2339924    4.2339924    4.2339924    13328.116   -6850.9727    6592.5104    40242.812    8152.4938   -3400.9292   -7635.3485    75.901475 
   41200    889.77475   -161.14973    0.8050869   -160.34465   -14687.291    4.2485557    4.2485557    4.2485557   -14687.291   -36352.967   -7739.4265    30.521357    10275.097   -7339.1711    6753.3453    76.687388 
   41300    1029.4881   -161.27522   0.93150247   -160.34372     97.33374     4.253968     4.253968     4.253968     97.33374   -40797.875    9935.4169    31154.459    1715.4017   -1363.8894   -704.65611     76.98084 
   41400    970.01991   -161.22748    0.8776944   -160.34979    9402.7905    4.2571954    4.2571954    4.2571954    9402.7905   -2382.3584    17406.086    13184.644    -8300.315   -9100.6175    6783.2687    77.156189 
   41500    893.07572   -161.16352   0.80807368   -160.35544    2961.4834    4.2552217    4.2552217    4.2552217    2961.4834   -3920.2223   -7197.0074     20001.68   -2015.8085   -10742.476    2210.0781    77.048921 
   41600    1245.8656   -161.47799    1.1272854   -160.35071    13537.935    4.2358059    4.2358059    4.2358059    13537.935   -7102.4523   -2615.9608    50332.217    5642.2489    256.02532   -930.02243    75.999049 
   41700    1398.4541   -161.61708    1.2653506   -160.35173   -6667.4663    4.2460498    4.2460498    4.2460498   -6667.4663   -12234.262   -27914.688    20146.551    8264.1506    10087.685    22600.598    76.551772 
   41800    1294.9298   -161.51418    1.1716797    -160.3425   -46304.702    4.2737845    4.2737845    4.2737845   -46304.702   -24361.656   -54982.844   -59569.606    4638.2663     1013.586   -763.55548    78.061674 
   41900    911.65416   -161.15638   0.82488384    -160.3315    475.39853    4.2648484    4.2648484    4.2648484    475.39853    40546.149   -27877.749   -11242.204   -3289.0229    10674.922   -2175.7403    77.573039 
   42000    1205.8438   -161.42152    1.0910728   -160.33044    18072.016    4.2470874    4.2470874    4.2470874    18072.016    34073.013   -9580.5199    29723.554    -2443.221    5899.8831   -462.90558    76.607906 
   42100    1379.5276   -161.58783    1.2482256    -160.3396   -36238.219    4.2599438    4.2599438    4.2599438   -36238.219   -41829.734   -30810.154    -36074.77    450.29385    -11567.51   -19982.976    77.305714 
   42200    1038.9925   -161.27744   0.94010228   -160.33734   -18098.301    4.2548423    4.2548423    4.2548423   -18098.301   -41964.715   -10892.538   -1437.6494   -10042.301    -6498.279   -5176.3702    77.028319 
   42300    1075.8228   -161.31762    0.9734271    -160.3442    31637.274    4.2396505    4.2396505    4.2396505    31637.274    6360.3765    57340.522    31210.924   -21476.656   -1360.0898   -9171.8469    76.206176 
   42400    1092.2232   -161.34396    0.9882665   -160.35569   -1862.7865    4.2632293    4.2632293    4.2632293   -1862.7865   -24794.136    25018.815   -5813.0393   -20310.076    1131.8807    -6616.029    77.484719 
   42500    751.09071   -161.01937   0.67960266   -160.33977   -6162.9604    4.2694468    4.2694468    4.2694468   -6162.9604   -17603.179    4673.3822   -5559.0846   -18954.122    2885.4852    8940.2269    77.824228 
   42600    1169.9135   -161.38888    1.0585623   -160.33032     3980.634    4.2479743    4.2479743    4.2479743     3980.634   -8160.4686    9510.9454    10591.425   -14535.204   -14552.068    768.06228    76.655907 
   42700    1082.2272   -161.32105   0.97922188   -160.34182   -9314.8489    4.2505908    4.2505908    4.2505908   -9314.8489    5190.1532   -23814.555   -9320.1446   -14467.623   -8632.2562   -21.225532    76.797645 
   42800    752.75594   -161.03078    0.6811094   -160.34967    -693.9551    4.2498112    4.2498112    4.2498112    -693.9551    14879.353   -7921.1465   -9040.0718   -16874.444    -2407.673      5738.32    76.755397 
   42900    970.24237   -161.23136   0.87789568   -160.35346    6970.6457    4.2509472    4.2509472    4.2509472    6970.6457    8226.9118    3298.0428    9386.9826   -12733.523   -4723.3346   -5436.8052     76.81696 
   43000    1047.7298   -161.30426   0.94800797   -160.35625   -10308.104    4.2704001    4.2704001    4.2704001   -10308.104   -32057.187    4653.6266   -3520.7507   -9680.9378    13870.788    3352.6141    77.876368 
   43100    810.75958    -161.0745    0.7335923    -160.3409   -12254.029    4.2634515    4.2634515    4.2634515   -12254.029   -33910.575    29263.777   -32115.289   -1454.5627    3422.0662    12726.998    77.496835 
   43200    549.53817   -160.83239   0.49723368   -160.33516    26260.235    4.2400901    4.2400901    4.2400901    26260.235    26422.636    51164.684    1193.3832    6438.4387   -12738.429    27318.682    76.229882 
   43300    710.27284   -160.98979   0.64266979   -160.34712    13214.685     4.249278     4.249278     4.249278    13214.685    1169.0159     16941.02    21534.018    2314.0994    1015.1806    32383.744    76.726507 
   43400    1068.5718   -161.30793   0.96686622   -160.34107   -24463.805    4.2607929    4.2607929    4.2607929   -24463.805   -36097.999   -31590.149   -5703.2663   -13469.598    -883.3705    12411.219     77.35195 
   43500    1120.5061    -161.3514    1.0138574   -160.33754   -28431.312    4.2586629    4.2586629    4.2586629   -28431.312   -15716.938    -21037.38   -48539.619   -7198.5793     8025.006   -9189.4584    77.236006 
   43600     1165.886   -161.39579    1.0549182   -160.34087   -19102.757    4.2686289    4.2686289    4.2686289   -19102.757   -30641.128    6646.5465   -33313.689   -4066.1688    9847.6414    5339.9152    77.779508 
   43700     1054.977    -161.2924   0.95456536   -160.33783    1426.3135    4.2631761    4.2631761    4.2631761    1426.3135   -2763.8452    28926.453   -21883.667    3155.0272   -8888.7303    7718.8481    77.481822 
   43800    799.36712   -161.05836   0.72328417   -160.33507    25716.445    4.2445507    4.2445507    4.2445507    25716.445    43694.561    58384.839   -24930.063    16852.761   -5314.0898   -9304.3231    76.470719 
   43900    884.36055   -161.15458   0.80018801   -160.35439    9411.9929    4.2625731    4.2625731    4.2625731    9411.9929    22179.797    40489.534   -34433.352    10936.395    3265.2583   -9007.9444    77.448949 
   44000    1038.8538   -161.28478   0.93997673   -160.34481   -13219.343    4.2742467    4.2742467    4.2742467   -13219.343   -12015.989   -28793.095    1151.0556    5460.9854    7478.3336    -6687.051    78.087001 
   44100    1087.4129    -161.3145   0.98391402   -160.33059    -20022.19    4.2528262    4.2528262    4.2528262    -20022.19   -37582.311   -43033.744    20549.484    1033.6351    7318.9524   -13046.326    76.918873 
   44200    958.24082   -161.20982   0.86703643   -160.34278   -17264.421    4.2564567    4.2564567    4.2564567   -17264.421   -37462.569   -24101.303    9770.6096   -5585.2974    4862.7674    2634.2862    77.116027 
   44300    802.95091    -161.0658   0.72652686   -160.33927    6820.0886    4.2641666    4.2641666    4.2641666    6820.0886   -10526.949    1393.7613    29593.454    6302.2175   -7063.1467    9738.7823    77.535841 
   44400    931.12211   -161.16713   0.84249885   -160.32463    24008.692    4.2461538    4.2461538    4.2461538    24008.692   -6812.4814    30585.522    48253.036    3388.2844    828.99085    10789.351    76.557399 
   44500    946.54341   -161.19619   0.85645236   -160.33974    5131.8417    4.2611018    4.2611018    4.2611018    5131.8417   -25778.853    10620.054    30554.324   -10732.589    4759.0997    13055.405    77.368776 
   44600    1254.7029   -161.46896    1.1352816   -160.33368   -30331.432    4.2724891    4.2724891    4.2724891   -30331.432   -7883.9523   -58074.524    -25035.82   -6441.8866    6624.7029   -2962.7825    77.990711 
   44700     908.4078   -161.14678   0.82194646   -160.32484    11173.474    4.2434173    4.2434173    4.2434173    11173.474    94009.896     -44191.7   -16297.773    443.42725   -2723.8218   -4147.0433    76.409478 
   44800     663.3282   -160.94875   0.60019329   -160.34856    12627.633    4.2565729    4.2565729    4.2565729    12627.633    110090.94   -47746.113   -24461.927   -1469.9557   -9837.9632    1169.0439    77.122343 
   44900     817.0041   -161.07827   0.73924248   -160.33903    1438.0626    4.2795566    4.2795566    4.2795566    1438.0626    80175.105   -66230.957   -9629.9601    8453.7879   -16248.093   -6468.9979    78.378386 
   45000    948.46686   -161.18832   0.85819274   -160.33012    13630.106    4.2596477    4.2596477    4.2596477    13630.106    63442.597   -57245.917    34693.637   -8211.1705   -2068.6299   -10150.497    77.289598 
   45100      975.441   -161.21859   0.88259952   -160.33599    -6954.473    4.2585668    4.2585668    4.2585668    -6954.473    23540.655   -26645.178   -17758.896   -11244.064    6099.1215   -10228.875    77.230774 
   45200    1114.4123   -161.34622    1.0083437   -160.33788   -23034.228    4.2619227    4.2619227    4.2619227   -23034.228   -26291.541    104.35949   -42915.503     3992.742    9785.2238   -4473.2337    77.413501 
   45300    1148.5341   -161.37324    1.0392178   -160.33402    3479.9655    4.2445288    4.2445288    4.2445288    3479.9655   -25817.397    7193.7912    29063.503    6545.7863    6276.4448    3740.7587    76.469536 
   45400    802.45555   -161.08152   0.72607865   -160.35544    1846.1956    4.2633952    4.2633952    4.2633952    1846.1956   -26188.451   -16645.228    48372.266    12517.717   -622.44449   -6939.0187    77.493769 
   45500    875.77942   -161.13761   0.79242362   -160.34518   -11651.446     4.277648     4.277648     4.277648   -11651.446   -444.58474   -64195.907    29686.153    1019.9457   -19588.854    -6348.529    78.273567 
   45600    1160.2523   -161.38181    1.0498206   -160.33199    14739.483    4.2471151    4.2471151    4.2471151    14739.483    18703.887   -7024.2741    32538.837   -8802.4273   -5271.7917   -23577.344    76.609408 
   45700    1400.8967   -161.59829    1.2675608   -160.33073   -17068.506    4.2489835    4.2489835    4.2489835   -17068.506   -23885.225    15581.394   -42901.688   -7119.0475    8548.6263   -24000.475    76.710557 
   45800    1127.8635   -161.35871    1.0205146    -160.3382   -13507.365    4.2707007    4.2707007    4.2707007   -13507.365   -2504.5691    -20718.42   -17299.106    8522.9756   -10354.513   -4528.7008    77.892815 
   45900     1171.815   -161.39213    1.0602829   -160.33184   -2194.6732     4.265008     4.265008     4.265008   -2194.6732   -18606.321   -25412.322    37434.624    17405.503   -4927.0331    7193.3475    77.581748 
   46000     1168.398   -161.38913    1.0571911   -160.33194   -20980.841    4.2610105    4.2610105    4.2610105   -20980.841   -45000.826   -11160.034   -6781.6618    13638.283    5433.8518    19367.055    77.363802 
   46100    1104.7925   -161.33639   0.99963945   -160.33675   -22464.335    4.2621105    4.2621105    4.2621105   -22464.335   -1444.2925    3567.9668   -69516.679   -6679.7424    2932.7498    15534.734    77.423735 
   46200    1107.8098   -161.34345    1.0023696   -160.34108    8116.8475    4.2530568    4.2530568    4.2530568    8116.8475    33906.492    4909.2156   -14465.165   -14088.368   -6053.9019   -1979.6495    76.931385 
   46300    1145.5168   -161.38418    1.0364876   -160.34769   -11983.666    4.2646555    4.2646555    4.2646555   -11983.666   -23018.707    -15312.19    2379.8984   -13862.773   -4298.1504   -7565.7282    77.562512 
   46400    1207.8934   -161.43414    1.0929273   -160.34122   -21963.164    4.2752366    4.2752366    4.2752366   -21963.164   -50020.102     3621.798    -19491.19   -7678.1069      9160.05   -11822.898    78.141271 
   46500    1154.9399   -161.37528    1.0450139   -160.33027     22612.02    4.2556249    4.2556249    4.2556249     22612.02     23011.46    42961.352     1863.248    8988.8042    5093.5676    4621.0594     77.07083 
   46600    995.40454   -161.22653   0.90066295   -160.32587    28444.951    4.2448789    4.2448789    4.2448789    28444.951    56852.869    42756.516   -14274.533    13992.039    239.11335    20180.317    76.488458 
   46700    883.95365   -161.13682   0.79981984     -160.337    10954.324    4.2620809    4.2620809    4.2620809    10954.324    31593.798    19236.005   -17966.833    2927.7424   -9528.1224     21170.58    77.422123 
   46800     1451.509   -161.64179    1.3133558   -160.32843   -26186.319    4.2684598    4.2684598    4.2684598   -26186.319   -43259.444   -6442.5852   -28856.927   -12984.713    508.08753    6445.1554    77.770265 
   46900    1359.7786   -161.55172    1.2303562   -160.32136   -23177.286    4.2562238    4.2562238    4.2562238   -23177.286   -2887.4655   -29179.052    -37465.34   -18208.319    4017.0658   -11334.407    77.103369 
   47000    929.66927   -161.17792    0.8411843   -160.33673    3035.4563    4.2598906    4.2598906    4.2598906    3035.4563    66696.706   -24652.481   -32937.856   -8215.0817   -2616.7471    2143.3941    77.302822 
   47100     673.6471   -160.94887   0.60953005   -160.33934    33570.233    4.2672711    4.2672711    4.2672711    33570.233    92010.664    24150.586   -15450.552    17060.474   -8252.2473    8578.9036    77.705312 
   47200    795.75416   -161.05129   0.72001509   -160.33127    21002.094    4.2583603    4.2583603    4.2583603    21002.094    85215.073    19890.394   -42099.185    9624.3494   -5311.4827   -3230.7283    77.219541 
   47300     980.5116   -161.21702    0.8871875   -160.32983    3926.9744    4.2566138    4.2566138    4.2566138    3926.9744    60660.544   -22438.382   -26441.238   -5459.6847    4297.9496   -16448.703    77.124569 
   47400    1147.1732   -161.37025    1.0379864   -160.33226   -16956.638    4.2650325    4.2650325    4.2650325   -16956.638   -5502.5332   -58914.919    13547.539   -17285.431    11291.573   -6809.9472    77.583085 
   47500    946.18713   -161.18865      0.85613   -160.33252   -10851.417     4.261049     4.261049     4.261049   -10851.417   -4822.0954   -30870.551    3138.3965   -18920.736   -2112.2677    14559.501    77.365898 
   47600    714.54045    -160.9795   0.64653122   -160.33297   -1105.4753    4.2594399    4.2594399    4.2594399   -1105.4753   -11945.892     19321.45   -10691.984    651.29487   -828.62345    1122.3976    77.278287 
   47700    1054.0654   -161.28638    0.9537405   -160.33264    4970.6077    4.2558039    4.2558039    4.2558039    4970.6077    6818.6856    22437.758   -14344.621    10157.077   -14612.601   -4237.8279    77.080555 
   47800    1000.0388   -161.24104   0.90485612   -160.33618    12316.419    4.2593163    4.2593163    4.2593163    12316.419    51060.045     938.1436   -15048.931    11985.924   -722.07831   -2467.4497    77.271559 
   47900     813.0542   -161.07218   0.73566853   -160.33651    -2692.002    4.2728553    4.2728553    4.2728553    -2692.002     75741.54   -43388.699   -40428.846   -2734.7431    9482.8104   -13611.113     78.01077 
   48000    937.00707   -161.18433   0.84782369   -160.33651    11414.153    4.2625941    4.2625941    4.2625941    11414.153    63833.978   -21060.798   -8530.7193   -7454.2449    21198.965   -2191.9347    77.450092 
   48100    1049.2467   -161.28831   0.94938044   -160.33893    4148.0851    4.2505018    4.2505018    4.2505018    4148.0851    50875.818   -38053.315     -378.248    14637.666     18661.66    6685.0972    76.792817 
   48200    956.63388   -161.21356   0.86558244   -160.34798   -16646.329    4.2641752    4.2641752    4.2641752   -16646.329    20125.868   -47666.687   -22398.169    18825.843    15775.921   -10917.613     77.53631 
   48300    1246.6397   -161.47381    1.1279858   -160.34583   -26489.146    4.2657357    4.2657357    4.2657357   -26489.146    -8208.563   -28377.436   -42881.439    20778.301   -725.36888   -9707.4838    77.621465 
   48400    1313.1317   -161.52171    1.1881491   -160.33356   -3662.8217    4.2472055    4.2472055    4.2472055   -3662.8217   -23444.414    7502.8483    4953.1004    16857.435   -7403.4948    942.66921    76.614295 
   48500    748.86283   -161.01791   0.67758682   -160.34032    18075.512    4.2475505    4.2475505    4.2475505    18075.512   -16486.017    34783.405    35929.146    10949.043   -3917.0145    13576.147    76.632968 
   48600    510.02625   -160.80559   0.46148247   -160.34411    17149.123    4.2639774    4.2639774    4.2639774    17149.123    6399.2279    16659.105    28389.037    2827.7667    3676.7205    26661.064    77.525521 
   48700    870.01301   -161.12061   0.78720605    -160.3334    4689.3224    4.2671498    4.2671498    4.2671498    4689.3224    8755.2961    -12397.14    17709.811    1443.0806    11678.479    20501.637    77.698685 
   48800    889.02997   -161.13356     0.804413   -160.32915   -15858.412    4.2586026    4.2586026    4.2586026   -15858.412   -3091.5528    -36759.94   -7723.7435    15536.681   -3786.3422    13638.712    77.232722 
   48900    844.51161   -161.09535   0.76413186   -160.33121   -19290.462    4.2501854    4.2501854    4.2501854   -19290.462    13326.766    -53446.08   -17752.072    12257.262    4386.6095    20813.538    76.775673 
   49000    883.41154   -161.14208   0.79932933   -160.34275    6047.6303    4.2524043    4.2524043    4.2524043    6047.6303    30182.116   -40814.825      28775.6    9439.9493     4947.553    19834.118     76.89598 
   49100    721.01487    -160.9977    0.6523894   -160.34531      5197.46    4.2657389    4.2657389    4.2657389      5197.46   -15719.829   -21612.699    52924.908   -3723.6659    7280.3834    13823.604    77.621637 
   49200    1007.5776   -161.24729   0.91167743   -160.33562   -13641.676    4.2662524    4.2662524    4.2662524   -13641.676   -16870.342   -27814.875    3760.1884   -5589.1182    1883.6739   -1933.5238    77.649675 
   49300      1537.32   -161.71618    1.3909994   -160.32518   -6381.3245    4.2498265    4.2498265    4.2498265   -6381.3245   -2438.8548   -14319.905    -2385.214    15043.182   -12115.575   -15691.723    76.756224 
   49400    1462.7743   -161.65428    1.3235489   -160.33073   -10877.768    4.2474151    4.2474151    4.2474151   -10877.768   -3137.0369   -6653.5708   -22842.696    11994.642   -8131.6389    -19198.28    76.625643 
   49500    857.27488   -161.11523   0.77568033   -160.33955   -6100.2976    4.2585939    4.2585939    4.2585939   -6100.2976   -5954.5059   -11834.966   -511.42116    7604.5407    11804.413     291.1726    77.232249 
   49600    799.84522   -161.06463   0.72371676   -160.34092    10642.925    4.2619648    4.2619648    4.2619648    10642.925     35870.62    900.26165   -4842.1079    3201.0775    9795.1749    14946.178    77.415795 
   49700    891.89897   -161.14996   0.80700893   -160.34295    10143.174    4.2608217    4.2608217    4.2608217    10143.174    39390.849    592.08079   -9553.4072   -2622.7301    13800.485    21663.468     77.35352 
   49800    899.90872    -161.1514   0.81425632   -160.33714    -4679.434    4.2562176    4.2562176    4.2562176    -4679.434    15715.415    4475.4443   -34229.162    5949.1285   -5326.0302    14642.106    77.103035 
   49900     1079.574   -161.31682   0.97682122   -160.33999    -12025.79     4.256907     4.256907     4.256907    -12025.79   -5927.3935    3360.6749   -33510.652    5450.7895   -11417.616    11813.402    77.140508 
   50000    1239.7782   -161.46447    1.1217774   -160.34269    -15714.09    4.2626107    4.2626107    4.2626107    -15714.09    -24953.23     248.6277   -22437.667   -2306.3142   -6399.6397    14807.352    77.450999 
   50100    888.43061   -161.14689   0.80387069   -160.34302    16030.968    4.2541933    4.2541933    4.2541933    16030.968    13126.942    52934.163   -17968.201   -3423.8645   -1378.6267    15213.301    76.993073 
   50200    669.07381   -160.95204   0.60539204   -160.34665    7674.5417    4.2533364    4.2533364    4.2533364    7674.5417    7717.5414     32956.39   -17650.306     2130.845    5149.7279    12059.684    76.946556 
   50300    1172.5493   -161.40106    1.0609473   -160.34011   -17892.112    4.2501262    4.2501262    4.2501262   -17892.112    1346.5847   -26929.789   -28093.133    9083.5588   -5435.8736   -5612.5744    76.772461 
   50400    1501.2355   -161.69184    1.3583494   -160.33349   -16152.552    4.2458154    4.2458154    4.2458154   -16152.552   -4161.0117   -23502.365   -20794.279    12591.418   -7068.5333   -18693.136    76.539094 
   50500    954.76955   -161.20262   0.86389556   -160.33872    2312.6405    4.2530969    4.2530969    4.2530969    2312.6405    22754.584     1720.124   -17536.786    4991.8106    2018.6051   -10316.423    76.933559 
   50600    731.47755   -161.00284   0.66185626   -160.34099    17539.645     4.260294     4.260294     4.260294    17539.645     30102.79    16558.939    5957.2062    2592.0163    10992.046   -3276.9897    77.324781 
   50700    962.53919   -161.20707   0.87092568   -160.33614    16704.707    4.2581584    4.2581584    4.2581584    16704.707    32861.385     9159.335    8093.4001    2632.1986    11305.318   -3503.0773    77.208557 
   50800    998.23338   -161.23844   0.90322254   -160.33522   -7809.1304    4.2540486    4.2540486    4.2540486   -7809.1304    19825.383   -26194.154   -17058.621    17532.654    -2113.345   -13585.327    76.985218 
   50900    1014.2452   -161.25806   0.91771037   -160.34035    -34611.73    4.2539168    4.2539168    4.2539168    -34611.73    -37066.34   -41664.252   -25104.599    31215.223   -3570.7594     -11566.4    76.978065 
   51000    1092.2269   -161.33332   0.98826984   -160.34506   -9012.7588    4.2486543    4.2486543    4.2486543   -9012.7588   -33003.077   -15416.311    21381.112    17085.568    5449.6578    10384.671    76.692729 
   51100    627.96095   -160.91991   0.56819227   -160.35172    25952.758    4.2577727    4.2577727    4.2577727    25952.758    4679.5297    8062.1782    65116.567     2527.388    6081.0122    22191.415     77.18758 
   51200    506.16365   -160.80199   0.45798751     -160.344    7380.3811    4.2692364    4.2692364    4.2692364    7380.3811     2838.085    21713.402   -2410.3435    5906.6427    7780.3371    29308.834    77.812724 
   51300    1003.0509   -161.24568   0.90758155   -160.33809    8915.5026    4.2458229    4.2458229    4.2458229    8915.5026    14524.941    -3282.156    15503.723    15896.604   -1306.6605    22696.286      76.5395 
   51400    1220.9309   -161.44028    1.1047239   -160.33555   -21571.953    4.2427541    4.2427541    4.2427541   -21571.953   -23293.804   -27642.111   -13779.945    25080.064   -1263.8377    8656.2995    76.373657 
   51500    870.22656   -161.12851   0.78739928   -160.34111    -35021.93    4.2670223    4.2670223    4.2670223    -35021.93   -24798.526   -20880.061   -59387.202    17206.556   -10653.436    12907.249    77.691719 
   51600    827.46504   -161.08316   0.74870775   -160.33445    9166.7732    4.2669339    4.2669339    4.2669339    9166.7732    13356.094    41651.606    -27507.38   -5750.6288    -407.8217    13537.394    77.686894 
   51700    727.10616   -160.99667   0.65790094   -160.33877    28812.639    4.2581777    4.2581777    4.2581777    28812.639    40156.188    51099.227   -4817.4991    -8012.563    11832.302   -3971.7911    77.209605 
   51800    922.72202    -161.1696   0.83489827    -160.3347   -17596.144    4.2588847    4.2588847    4.2588847   -17596.144   -29724.357    3569.7119   -26633.785    12721.627    948.91697   -8209.4989    77.248074 
   51900    1205.0693   -161.41602     1.090372   -160.32565   -11223.666    4.2498685    4.2498685    4.2498685   -11223.666    -31870.85   -4715.2693    2915.1229    26273.856   -4101.7381   -17558.751    76.758501 
   52000    1212.8129   -161.43223    1.0973786   -160.33485    17366.618    4.2501135    4.2501135    4.2501135    17366.618    23542.128   -9140.1926    37697.919    15439.554    12617.295   -6196.1811    76.771774 
   52100    830.68062   -161.09477   0.75161728   -160.34315    9577.5509    4.2669624    4.2669624    4.2669624    9577.5509    7364.0729    2452.7221    18915.858    3370.5066    7564.2808    6040.7688    77.688449 
   52200    982.88507   -161.22116   0.88933507   -160.33182   -16949.707    4.2657575    4.2657575    4.2657575   -16949.707   -37542.902   -12382.889   -923.33146    2452.7753    588.29206    2321.8973    77.622654 
   52300    1507.7165    -161.6861    1.3642136   -160.32189   -5840.9503    4.2390987    4.2390987    4.2390987   -5840.9503   -22918.878   -4256.8509    9652.8777    -709.1194    469.21722    17242.725    76.176424 
   52400    1243.0347   -161.45848    1.1247239   -160.33376     5641.701    4.2433876    4.2433876    4.2433876     5641.701    17216.803   -2623.3633    2331.6636    5043.8892   -11947.145    6139.2327     76.40787 
   52500    930.10996    -161.1763   0.84158304   -160.33472   -21958.381    4.2750233    4.2750233    4.2750233   -21958.381    35720.677   -51669.019   -49926.799    9031.3345   -1451.1345     5572.962    78.129576 
   52600    929.81359    -161.1698   0.84131488   -160.32849    12010.071     4.267753     4.267753     4.267753    12010.071      83078.5   -24809.553   -22238.734   -176.85503    10545.257    1909.1779    77.731638 
   52700    819.18621   -161.07629    0.7412169   -160.33507    33010.647    4.2562626    4.2562626    4.2562626    33010.647     117143.6   -23356.571    5244.9156    -18122.97    16270.038    2884.2092    77.105479 
   52800      357.745   -160.67126    0.3236952   -160.34757    24940.308      4.26891      4.26891      4.26891    24940.308     113136.8   -10879.404   -27436.468   -19024.375    19626.857    9152.1924    77.794875 
   52900    1038.8697   -161.28078   0.93999112   -160.34079    -2830.362    4.2675712    4.2675712    4.2675712    -2830.362    73148.357   -27564.683    -54074.76    3324.8508   -9136.1585   -14584.004    77.721708 
   53000    1155.8663   -161.38312    1.0458522   -160.33726    11130.381    4.2605445    4.2605445    4.2605445    11130.381    63116.045   -15462.921    -14261.98    5917.4571    -13452.86   -10020.149    77.338422 
   53100    769.56612   -161.04002    0.6963196    -160.3437     15905.59    4.2634407    4.2634407    4.2634407     15905.59    51168.071   -13208.017    9756.7161    14543.082   -17284.078   -461.67912    77.496246 
   53200    1119.5432    -161.3539    1.0129862   -160.34091    -8479.365    4.2661501    4.2661501    4.2661501    -8479.365     53164.97   -31477.153   -47125.912    1358.7768    1980.6257   -2068.9482    77.644089 
   53300      1422.64   -161.62859    1.2872346   -160.34136   -28985.411    4.2678636    4.2678636    4.2678636   -28985.411     4062.343   -43131.042   -47887.536    7651.1254    19921.657    9292.4275    77.737684 
   53400     1056.191   -161.29454   0.95566381   -160.33887   -28778.821    4.2633392    4.2633392    4.2633392   -28778.821   -48442.584   -39503.556    1609.6768   -3956.9942    13082.046   -8506.8302    77.490714 
   53500    721.19285   -160.99059   0.65255045   -160.33804    19427.796    4.2507881    4.2507881    4.2507881    19427.796   -24844.371    7973.8106     75153.95   -20353.419    -806.6882   -4695.7566    76.808339 
   53600    661.74097   -160.94967   0.59875714   -160.35092    27384.437    4.2627806    4.2627806    4.2627806    27384.437   -11992.446   -5253.1494    99398.907   -11937.686    -17260.32     3257.328    77.460261 
   53700    505.40056   -160.80002   0.45729705   -160.34272    9287.4187    4.2690039    4.2690039    4.2690039    9287.4187     -30631.3   -23035.868    81529.424    4245.0018   -4746.6578   -4055.5715    77.800011 
   53800    748.56964   -161.00742   0.67732154    -160.3301    3543.8583    4.2522123    4.2522123    4.2522123    3543.8583   -21129.221   -8746.2825    40507.079    2593.2046    13921.916    10679.835    76.885564 
   53900    1383.1796   -161.58659    1.2515299   -160.33506   -29926.869    4.2621087    4.2621087    4.2621087   -29926.869   -39527.131   -21127.745   -29125.729   -2527.3938     21418.81    92.182345    77.423635 
   54000    1359.5819   -161.56153    1.2301782   -160.33135   -46216.407     4.278169     4.278169     4.278169   -46216.407   -38414.627   -54729.124    -45505.47   -1394.2745    16206.457    12986.046    78.302172 
   54100     800.3833   -161.05062   0.72420363   -160.32641    -2142.333    4.2663019    4.2663019    4.2663019    -2142.333   -11729.207   -59327.278    64629.485   -724.86802   -1149.6478    8775.6955    77.652376 
   54200     538.5994   -160.82717   0.48733606   -160.33983    43173.541    4.2608408    4.2608408    4.2608408    43173.541    25890.512   -38127.679    141757.79   -2879.0249   -22827.059   -5454.9497     77.35456 
   54300    735.96405   -161.01393   0.66591574   -160.34801     19168.65    4.2709332    4.2709332    4.2709332     19168.65    20882.719    -66170.28    102793.51    6282.0923   -27168.627     787.8629    77.905538 
   54400    680.93351   -160.95631   0.61612295   -160.34018    6673.3616    4.2673665    4.2673665    4.2673665    6673.3616   -4491.2668   -30411.134    54922.485    2764.3985   -10810.964    828.56883    77.710523 
   54500    1041.7031   -161.27465    0.9425549   -160.33209   -5513.5054    4.2620805    4.2620805    4.2620805   -5513.5054   -16181.167   -6824.7298     6465.381   -1164.0733    8584.2806    7626.4695    77.422101 
   54600    1410.2215    -161.6063    1.2759981    -160.3303    -33870.11    4.2655022    4.2655022    4.2655022    -33870.11   -28322.193   -39147.684   -34140.452    3911.2746    24050.167   -7654.2195    77.608716 
   54700    1071.8058   -161.30079   0.96979241   -160.33099   -18466.504    4.2595194    4.2595194    4.2595194   -18466.504   -22317.589   -24173.534   -8908.3895   -658.93064    16614.979   -13518.954    77.282616 
   54800    932.82362   -161.18827   0.84403842   -160.34423    7154.3373     4.257784     4.257784     4.257784    7154.3373    10977.217   -13164.426    23650.221    4249.3298    8679.9687   -2848.1295    77.188196 
   54900    568.22633   -160.86021   0.51414313   -160.34607    28115.257    4.2711707    4.2711707    4.2711707    28115.257    51066.488   -15402.489    48681.771    9033.8729   -8651.2915    6548.2881    77.918535 
   55000    1028.3039   -161.25149   0.93043095   -160.32106   -8606.5027    4.2649259    4.2649259    4.2649259   -8606.5027    10841.946    -38988.79    2327.3358   -4458.0085    1120.8798   -2563.0507    77.577264 
   55100    1313.6036   -161.50103    1.1885761   -160.31246   -24350.278    4.2530001    4.2530001    4.2530001   -24350.278   -42355.618   -23431.469    -7263.748   -3671.0824    13133.668   -12493.992    76.928307 
   55200    1091.6862   -161.31408   0.98778059    -160.3263   -10007.854     4.257039     4.257039     4.257039   -10007.854    -11137.97   -2676.5612   -16209.031    14365.423    17050.025   -14294.724    77.147684 
   55300    851.08686   -161.10126   0.77008128   -160.33118    27785.381    4.2520927    4.2520927    4.2520927    27785.381    44081.248    38977.646    297.24994    15094.292    2820.8534   -1459.7422    76.879078 
   55400    687.92873   -160.95882   0.62245237   -160.33637    26360.458    4.2584576    4.2584576    4.2584576    26360.458    37515.865    62017.326   -20451.818    15245.083   -3528.3872   -3791.1936    77.224833 
   55500    1108.0397   -161.34416    1.0025776   -160.34159   -13224.595    4.2742085    4.2742085    4.2742085   -13224.595   -4771.3272   -4359.0284   -30543.428   -236.55722   -877.71896    -12080.42    78.084912 
   55600    1233.0034   -161.44906    1.1156474   -160.33341   -28725.467    4.2612231    4.2612231    4.2612231   -28725.467   -17613.285    -42300.81   -26262.307   -9738.9295    1856.1205    -16914.97    77.375384 
   55700    769.33259   -161.02572   0.69610829   -160.32961    2962.2633    4.2416215    4.2416215    4.2416215    2962.2633    23912.632   -7419.4432    -7606.399   -8076.1462    742.58576   -7759.6263    76.312508 
   55800    845.48097     -161.108   0.76500894   -160.34299    1173.4039    4.2571686    4.2571686    4.2571686    1173.4039    15277.634    1825.4969    -13582.92    4235.9309   -10044.406   -1392.8924     77.15473 
   55900    1049.5378   -161.28306   0.94964386   -160.33342   -6809.3037    4.2692586    4.2692586    4.2692586   -6809.3037    4318.8994    25783.643   -50530.453    12901.289    7986.2709    10318.331    77.813937 
   56000    843.54216   -161.09314   0.76325467   -160.32989    17919.726    4.2564089    4.2564089    4.2564089    17919.726    28616.238    63241.077   -38098.138    18827.752    16106.366    2490.1286     77.11343 
   56100    1250.8709   -161.46119    1.1318143   -160.32938   -1423.9268    4.2561326    4.2561326    4.2561326   -1423.9268   -25830.774    36679.961   -15120.968    3980.8787    4885.9071   -4141.7636    77.098414 
   56200    1363.0616   -161.56089    1.2333268   -160.32756   -14385.996    4.2628219    4.2628219    4.2628219   -14385.996   -38241.944   -10936.766    6020.7234   -10431.817   -7821.6797    1130.7572    77.462513 
   56300    1234.5288   -161.44159    1.1170276   -160.32457   -20480.703    4.2630765    4.2630765    4.2630765   -20480.703   -7657.7667   -20805.753   -32978.588   -10712.145   -13200.455    678.17714     77.47639 
   56400    967.14916   -161.21293   0.87509688   -160.33783   -5836.2868    4.2673939    4.2673939    4.2673939   -5836.2868    3300.9874   -8819.3089   -11990.539   -3550.6412     -3107.91   -10873.382    77.712018 
   56500    735.90256   -161.00782    0.6658601   -160.34196    14686.347    4.2603437    4.2603437    4.2603437    14686.347    37241.666      6.02502    6811.3511     7952.108   -801.20157   -19586.744     77.32749 
   56600    397.37898   -160.69952   0.35955685   -160.33996    28835.731    4.2424549    4.2424549    4.2424549    28835.731    67591.784    17110.082    1805.3271    2372.2242   -3842.5459   -17009.931    76.357502 
   56700    654.89496   -160.94112   0.59256272   -160.34855    8349.8644    4.2533833    4.2533833    4.2533833    8349.8644    28424.625     26025.63   -29400.663    572.91152   -3813.0856   -12523.552    76.949103 
   56800    1110.3435   -161.34923    1.0046621   -160.34457   -21845.558    4.2723526    4.2723526    4.2723526   -21845.558   -24338.423   -12434.436   -28763.816   -10180.307   -2829.1666     1180.468    77.983236 
   56900    1172.4299   -161.38777    1.0608392   -160.32693   -29849.042    4.2641749    4.2641749    4.2641749   -29849.042   -48327.128   -17911.491   -23308.507   -16448.836   -6802.8859    8420.5397     77.53629 
   57000    726.98569   -160.98592   0.65779193   -160.32813    5008.4719    4.2512518    4.2512518    4.2512518    5008.4719   -6894.4913    33265.972   -11346.066     -5491.48    377.28185   -2872.2055    76.833476 
   57100    743.18562    -161.0155   0.67244997   -160.34305    29622.054    4.2544656    4.2544656    4.2544656    29622.054    20864.579    52174.781    15826.803    9221.7931   -3911.4863   -5697.8008    77.007861 
   57200    950.48287   -161.20589   0.86001688   -160.34587    624.60387    4.2614609    4.2614609    4.2614609    624.60387   -25281.586    33987.607     -6832.21    461.10436   -19766.852    734.40322    77.388339 
   57300     959.2134   -161.20321   0.86791645   -160.33529   -15376.085    4.2565824    4.2565824    4.2565824   -15376.085   -8538.7669    1607.2727   -39196.761   -10926.767   -19865.036    7631.9572    77.122861 
   57400    1198.6871   -161.42078    1.0845973   -160.33618   -23619.926    4.2598665    4.2598665    4.2598665   -23619.926    -18275.02   -20118.268   -32466.491   -8235.0705   -21963.528    11051.762     77.30151 
   57500    934.39847   -161.18368   0.84546337   -160.33821   -5861.6917    4.2626772    4.2626772    4.2626772   -5861.6917   -17921.017    3547.9496   -3212.0078     1556.918   -15692.084   -7825.5224     77.45462 
   57600    477.53861   -160.77047   0.43208697   -160.33839    21547.638    4.2560906    4.2560906    4.2560906    21547.638    13471.158    18395.608    32776.147    5039.9418    9749.7661   -8668.0513    77.096135 
   57700     744.1193    -161.0163   0.67329478     -160.343    4561.9732    4.2542559    4.2542559    4.2542559    4561.9732   -11480.224   -24072.151    49238.295   -15613.573    359.33238    7003.7195    76.996473 
   57800     1239.897   -161.45992    1.1218849   -160.33804   -16381.373    4.2531096    4.2531096    4.2531096   -16381.373   -33585.742   -23740.603    8182.2277   -23872.061   -18358.804    9974.1166     76.93425 
   57900    815.40951   -161.07879   0.73779966   -160.34099   -4557.4923     4.255769     4.255769     4.255769   -4557.4923    13594.355    7778.7121   -35045.544   -16698.197   -10224.111    6984.6105    77.078657 
   58000    692.97129   -160.96593   0.62701498   -160.33891   -780.53956    4.2593993    4.2593993    4.2593993   -780.53956    25760.759    12478.073   -40580.451   -8350.6287   -3699.3938    4953.9566    77.276074 
   58100    869.39559    -161.1237    0.7866474   -160.33706     13289.16    4.2503569    4.2503569    4.2503569     13289.16    3694.0035    22394.372    13779.104   -6012.4095    9720.4514   -7733.0122    76.784968 
   58200    949.14257    -161.1982   0.85880414    -160.3394    10857.538    4.2418941    4.2418941    4.2418941    10857.538   -12058.891    19309.375    25322.132   -10387.208    3745.9874   -835.06287    76.327223 
   58300    1142.6532   -161.37496    1.0338967   -160.34107   -17349.774    4.2545097    4.2545097    4.2545097   -17349.774   -19204.704   -14567.276   -18277.341   -19653.996   -6233.2673     9448.911    77.010253 
   58400    1357.3065   -161.56275    1.2281194   -160.33463   -27309.708    4.2657192    4.2657192    4.2657192   -27309.708   -4400.9334   -59553.623   -17974.568   -11816.575   -705.38274    12085.863    77.620564 
   58500    1081.1016   -161.30736   0.97820348   -160.32916    14269.816    4.2556547    4.2556547    4.2556547    14269.816    28197.395    -21242.67    35854.721    -4824.619    7377.5315   -3587.8242    77.072448 
   58600    812.59583   -161.06633   0.73525378   -160.33107    25117.154    4.2517343    4.2517343    4.2517343    25117.154    9227.8406    26090.935    40032.686    982.77568    12426.047    -19661.58    76.859643 
   58700    978.19141   -161.21998   0.88508815   -160.33489   -7062.8543    4.2598842    4.2598842    4.2598842   -7062.8543   -14476.064   -10290.969    3578.4703    12533.175    10699.505   -1196.9076    77.302471 
   58800    1225.5224   -161.44335    1.1088785   -160.33447   -21819.056    4.2583713    4.2583713    4.2583713   -21819.056   -26086.845   -48211.659     8841.337    10477.747    9144.0521    9147.6802    77.220141 
   58900    1401.3331   -161.60191    1.2679557   -160.33396   -14601.456    4.2560161    4.2560161    4.2560161   -14601.456   -12400.302   -22019.027   -9385.0399   -313.97198     -7648.11    16010.629    77.092085 
   59000     880.6282    -161.1319   0.79681091   -160.33509    6517.2249    4.2656355    4.2656355    4.2656355    6517.2249   -3859.3626    46667.996   -23256.959    10174.075    1975.4602   -547.25373    77.615994 
   59100    845.25575   -161.09211   0.76480516    -160.3273     13109.77    4.2641968    4.2641968    4.2641968     13109.77   -14397.996    53963.099   -235.79403     9625.976    12511.012   -11825.675    77.537486 
   59200    1192.5168    -161.4036    1.0790143   -160.32459   -6849.5392    4.2562935    4.2562935    4.2562935   -6849.5392   -26560.198    20025.028   -14013.448    10541.047   -8932.5679   -13006.691    77.107161 
   59300    1187.4504    -161.4026    1.0744301   -160.32817   -20705.563    4.2522515    4.2522515    4.2522515   -20705.563   -24218.005   -8541.2293   -29357.455   -3217.6112   -15247.663    6984.1202    76.887694 
   59400    1408.3889   -161.60237    1.2743399   -160.32803   -16048.411    4.2457764    4.2457764    4.2457764   -16048.411    4816.2103   -21127.306   -31834.138   -3570.0279   -13766.061    8214.8748    76.536985 
   59500    1007.5797   -161.25105   0.91167926   -160.33937    13498.972    4.2527714    4.2527714    4.2527714    13498.972    10835.791    9353.0405    20308.083   -1351.6077   -22338.277    1019.9066    76.915897 
   59600    771.02373   -161.03864   0.69763847     -160.341    12052.698    4.2657529    4.2657529    4.2657529    12052.698   -16280.312    32338.851    20099.554   -7390.5263   -14044.926   -8411.8925    77.622406 
   59700    947.08066   -161.19347   0.85693849   -160.33653    88.005916    4.2572797    4.2572797    4.2572797    88.005916   -11442.353     8217.252    3489.1186   -2937.2451   -14513.228   -8586.3686    77.160767 
   59800    1088.5224   -161.31708   0.98491796   -160.33217   -6838.0294     4.242765     4.242765     4.242765   -6838.0294    2932.7164   -31054.994    7608.1894   -2549.7651   -6300.6366     7405.582    76.374244 
   59900    1191.8562   -161.41712    1.0784166    -160.3387   -20357.542    4.2478502    4.2478502    4.2478502   -20357.542   -16731.851   -21317.116   -23023.658   -12525.907   -2577.3944    963.42429     76.64919 
   60000    934.22523   -161.18574   0.84530662   -160.34043     4776.323    4.2552246    4.2552246    4.2552246     4776.323   -341.84806    25603.963   -10933.146   -8722.8609   -2996.3859    428.14134    77.049084 
   60100    815.67667   -161.07761   0.73804139   -160.33957    19890.101    4.2561281    4.2561281    4.2561281    19890.101    34836.072    17698.175    7136.0561   -21696.203    6880.3037     -3599.71    77.098169 
   60200    1057.0981   -161.29138    0.9564846    -160.3349   -6902.7799    4.2627638    4.2627638    4.2627638   -6902.7799    15374.742   -4030.6011   -32052.481   -14050.185    6821.3268    4180.7291    77.459342 
   60300    1237.5889   -161.45015    1.1197965   -160.33035    -14108.48    4.2569409    4.2569409    4.2569409    -14108.48    -12708.62   -14060.582   -15556.237    1253.2431    1544.4101    10017.901    77.142349 
   60400     1041.385   -161.27393   0.94226703   -160.33167   -3510.8113    4.2468448    4.2468448    4.2468448   -3510.8113   -17472.092   -36387.584    43327.242    859.00986    11721.714    4392.7294     76.59478 
   60500    856.44432   -161.11664   0.77492881   -160.34171   -8543.4735    4.2496164    4.2496164    4.2496164   -8543.4735   -19232.306   -42521.771    36123.656    9613.9825   -4058.1122    -10182.38     76.74484 
   60600    867.20487    -161.1292   0.78466519   -160.34453    11574.335    4.2515648    4.2515648    4.2515648    11574.335    619.19529    5332.1761    28771.633     8606.088   -3541.9893   -5861.9199    76.850448 
   60700    1035.9556   -161.27521   0.93735439   -160.33786    2752.4002    4.2582584    4.2582584    4.2582584    2752.4002    10627.016    6032.4003   -8402.2161    2411.9638   -6768.2349   -2717.5046    77.213997 
   60800    1046.7258   -161.27735   0.94709947   -160.33025   -3145.7049    4.2585379    4.2585379    4.2585379   -3145.7049   -6404.6161     5449.924   -8482.4226    8551.3561   -17122.957    7845.1596    77.229205 
   60900    1188.5392   -161.40293    1.0754153   -160.32751    2166.4161    4.2504273    4.2504273    4.2504273    2166.4161    15246.387   -5160.0042   -3587.1346   -280.58579   -15465.823    9645.0733     76.78878 
   61000     1122.811   -161.35069     1.015943   -160.33475   -9134.7604    4.2517828    4.2517828    4.2517828   -9134.7604   -4012.6545   -4943.0874   -18448.539   -3479.4767   -24120.965     2078.507    76.862272 
   61100    688.62037   -160.96281   0.62307818   -160.33974   -2457.7495    4.2481533    4.2481533    4.2481533   -2457.7495   -17338.744   -18759.889    28725.384   -10906.079   -36560.147   -6737.4223    76.665602 
   61200    747.71586   -161.01657   0.67654902   -160.34002    3069.5352     4.249024     4.249024     4.249024    3069.5352   -21805.901   -35477.412    66491.919   -18125.705   -20055.447   -10194.977    76.712753 
   61300    1019.1789   -161.26898   0.92217451    -160.3468    1094.5134    4.2620305    4.2620305    4.2620305    1094.5134   -7645.5586   -18847.295    29776.394   -1154.7645   -8739.8287    8642.5344    77.419375 
   61400    1178.2542   -161.40011    1.0661092     -160.334   -9025.2253     4.263507     4.263507     4.263507   -9025.2253    6555.6564   -9841.6799   -23789.652   -4457.7481    3341.0177    9785.2074    77.499866 
   61500    1230.3902   -161.43872    1.1132829   -160.32544    1749.9215    4.2480311    4.2480311    4.2480311    1749.9215    20092.902    5865.7869   -20708.925   -16810.918    11390.242   -3785.2907    76.658982 
   61600    1367.1245    -161.5727     1.237003    -160.3357    4539.9215    4.2467925    4.2467925    4.2467925    4539.9215    15771.565    16062.264   -18214.064   -7227.2373    631.03209    885.28516    76.591951 
   61700    1324.4422   -161.53948    1.1983832    -160.3411   -7282.9661    4.2574846    4.2574846    4.2574846   -7282.9661    11802.836    -14120.37   -19531.365   -13938.533   -5437.9588   -3498.7956    77.171911 
   61800    1247.3743   -161.46213    1.1286505   -160.33348    -5183.275    4.2487392    4.2487392    4.2487392    -5183.275    39988.097   -38021.578   -17516.344   -5904.2121    1326.7948    2159.5335    76.697326 
   61900    1342.2455   -161.55005    1.2144919   -160.33556   -21258.496    4.2533706    4.2533706    4.2533706   -21258.496    3217.5146   -31079.511   -35913.492    5879.4167    5549.8882    10749.482    76.948414 
   62000    1187.2647   -161.41349    1.0742621   -160.33923   -12380.566     4.261075     4.261075     4.261075   -12380.566   -27844.918    15012.463   -24309.243    4128.2087    2641.9885   -8718.7195    77.367319 
   62100    898.49215   -161.14898   0.81297458     -160.336    18391.005    4.2465652    4.2465652    4.2465652    18391.005   -10941.692    34879.599    31235.109    8400.4746   -8775.0694    -13131.54    76.579654 
   62200    919.41453   -161.17063   0.83190558   -160.33873    11834.673    4.2485371    4.2485371    4.2485371    11834.673   -3969.3301    34199.679    5273.6702   -1356.8991   -14403.831    -9348.324    76.686381 
   62300    1227.2137   -161.45223    1.1104087   -160.34182    -29235.21    4.2683837    4.2683837    4.2683837    -29235.21   -42406.965    3583.5454    -48882.21   -9814.3396    -18575.39    -5024.497    77.766107 
   62400    871.34045   -161.12957   0.78840715   -160.34116    2131.6739    4.2602224    4.2602224    4.2602224    2131.6739   -2667.5557    16607.133   -7544.5555    2047.6468   -6630.8274   -1485.4717    77.320882 
   62500    488.34343   -160.77677    0.4418634   -160.33491    28447.002    4.2455786    4.2455786    4.2455786    28447.002    39149.499     1270.279    44921.229    10416.784    12399.435   -10768.747    76.526288 
   62600    704.18134   -160.97711   0.63715808   -160.33995    17298.805    4.2505131    4.2505131    4.2505131    17298.805    10950.635   -11716.846    52662.626    13238.833    12848.343   -7737.2971    76.793434 
   62700    1087.5204   -161.32374   0.98401131   -160.33972    3323.3422    4.2516893    4.2516893    4.2516893    3323.3422    306.96806   -11783.648    21446.706    11955.648    2015.9201   -668.46365    76.857201 
   62800    1170.9356   -161.39522    1.0594871   -160.33573    -16494.31    4.2512835    4.2512835    4.2512835    -16494.31   -1797.6473   -21639.794   -26045.487   -8776.9419   -10438.495    4791.8026    76.835194 
   62900    1287.8341    -161.5005    1.1652593   -160.33524   -36397.678    4.2623092    4.2623092    4.2623092   -36397.678   -38156.474   -37338.372   -33698.188   -8503.8283   -14561.011    543.77581    77.434566 
   63000    1421.0633   -161.61747    1.2858079   -160.33166   -6771.4788     4.257342     4.257342     4.257342   -6771.4788   -16986.962   -26943.338    23615.864    1173.7381    2434.9065   -6216.9594    77.164155 
   63100    798.66553   -161.05751   0.72264935   -160.33487    30275.869    4.2511665    4.2511665    4.2511665    30275.869    30020.632   -27448.022    88254.997      2522.97    24717.578   -5922.5184    76.828853 
   63200    669.94445   -160.95139   0.60617981   -160.34522    21141.793    4.2591947    4.2591947    4.2591947    21141.793    19218.366   -46381.571    90588.584    1121.6446     26025.05   -5018.5786    77.264943 
   63300    915.05676   -161.17363   0.82796258   -160.34567    30578.291    4.2590023    4.2590023    4.2590023    30578.291    -3210.871   -2722.6771     97668.42   -6247.0777    15879.962    13555.549    77.254469 
   63400      816.623   -161.08486   0.73889765   -160.34596     21485.19    4.2641208    4.2641208    4.2641208     21485.19   -2345.1871   -9245.1877    76045.943   -1459.1398   -654.26235    2669.6036    77.533338 
   63500    804.44177   -161.06028   0.72787582   -160.33241   -12977.882    4.2722063    4.2722063    4.2722063   -12977.882   -18631.367   -63754.256    43451.977    18864.242   -24701.518   -5091.3373    77.975227 
   63600    1117.8109   -161.33739    1.0114188   -160.32598      24583.7    4.2520028    4.2520028    4.2520028      24583.7    33788.586   -9648.1137    49610.629   -3518.3509   -26787.799   -4627.1347    76.874204 
   63700    1063.0935   -161.30353   0.96190937   -160.34163    17959.674    4.2558915    4.2558915    4.2558915    17959.674    23116.775   -32780.882    63543.128   -2081.0348   -18514.764   -4170.2129    77.085315 
   63800    1090.1478   -161.32824    0.9863886   -160.34185   -29070.091     4.276454     4.276454     4.276454   -29070.091   -35561.707   -64546.636    12898.071    3927.3241    2416.2007    5360.6768    78.208041 
   63900    1501.2065   -161.69035    1.3583232   -160.33203   -28328.214     4.264931     4.264931     4.264931   -28328.214   -29562.096   -20731.184   -34691.362   -7686.5456    7750.8016     10190.14    77.577542 
   64000    1296.2709   -161.50141    1.1728931   -160.32851   -5004.5168    4.2508139    4.2508139    4.2508139   -5004.5168    10102.612     2239.588    -27355.75   -20669.555   -3873.1292   -3974.6322    76.809736 
   64100    719.62011   -160.98742    0.6511274   -160.33629     12469.75     4.251674     4.251674     4.251674     12469.75    47068.032   -11238.284    1579.5024    -28153.79    -6513.415   -2614.6071    76.856368 
   64200    1017.9626   -161.26108   0.92107398   -160.34001    3483.7448    4.2590278    4.2590278    4.2590278    3483.7448    18933.165    -23710.47    15228.539   -10573.966   -22327.947    1844.5919    77.255859 
   64300    1164.7134   -161.38813    1.0538572   -160.33427   -273.93036    4.2640628    4.2640628    4.2640628   -273.93036   -829.46772   -14499.625    14507.301    4915.1542   -13858.484    6287.8378    77.530176 
   64400    1137.8049   -161.35662    1.0295098   -160.32711   -4486.3434    4.2546679    4.2546679    4.2546679   -4486.3434   -9635.7227    22002.716   -25826.023    7485.7214    2238.3534    18783.428    77.018844 
   64500     1115.729   -161.34647     1.009535   -160.33693   -7220.9468    4.2573388    4.2573388    4.2573388   -7220.9468   -37984.475    46686.111   -30364.477    2874.3254   -1351.1347    4138.7146    77.163984 
   64600    961.63231   -161.21715   0.87010512   -160.34705    12291.762    4.2679277    4.2679277    4.2679277    12291.762    2558.2024    41195.905   -6878.8217   -17906.784   -6849.1953   -7247.7558    77.741184 
   64700     902.8937   -161.15039   0.81695719   -160.33344   -1338.1302    4.2700095    4.2700095    4.2700095   -1338.1302   -7055.1159    20717.584   -17676.858   -13096.316    3219.8433   -8233.3867    77.855002 
   64800    1160.3691   -161.37104    1.0499263   -160.32112   -27214.956    4.2638925    4.2638925    4.2638925   -27214.956   -48097.736    12449.241   -45996.374    4696.5182    16124.858    5284.7252    77.520887 
   64900    1263.8177   -161.46666    1.1435289   -160.32313   -16059.887    4.2558407    4.2558407    4.2558407   -16059.887   -16500.653   -14595.946   -17083.062    1192.5523    10348.074     14523.17    77.082554 
   65000    763.59558   -161.02326   0.69091733   -160.33234    27086.687    4.2544556    4.2544556    4.2544556    27086.687    40355.092    8396.4801    32508.488     1050.508   -11243.304    2045.1491    77.007316 
   65100    537.05025   -160.82037   0.48593436   -160.33443    33378.235    4.2660456    4.2660456    4.2660456    33378.235    58657.502    1085.6655    40391.537   -4811.2336   -15905.079   -11664.046    77.638385 
   65200    1029.5916   -161.25637    0.9315961   -160.32478   -963.28439    4.2713718    4.2713718    4.2713718   -963.28439   -6819.2023    7118.4988   -3189.1497   -13478.189    2151.0906   -10921.149    77.929544 
   65300    1546.6838   -161.71586     1.399472   -160.31639     -29674.7    4.2521351    4.2521351    4.2521351     -29674.7   -27290.082   -24334.144   -37399.873    3531.4139     13181.48    1087.3644     76.88138 
   65400    1324.6505   -161.52746    1.1985716   -160.32889    -27506.77    4.2519421    4.2519421    4.2519421    -27506.77   -4415.6432   -53657.213   -24447.452   -1907.3453    8229.0195    5110.1392    76.870913 
   65500    1101.7727   -161.33803    0.9969071   -160.34112   -7604.7011    4.2770289    4.2770289    4.2770289   -7604.7011   -542.99808   -51424.014    29152.909    4325.5743   -10805.882   -6668.8534    78.239588 
   65600    566.69321   -160.83537   0.51275593   -160.32262    25273.263    4.2781692    4.2781692    4.2781692    25273.263    64469.429   -59077.862    70428.221   -2477.1666   -31994.061    -2836.759    78.302184 
   65700    853.04887    -161.0887   0.77185655   -160.31684    16565.472    4.2610199    4.2610199    4.2610199    16565.472    56771.784   -63476.269    56400.902    -4822.987   -17524.056      10673.6    77.364313 
   65800      1361.05   -161.55476    1.2315066   -160.32325   -15604.193     4.261581     4.261581     4.261581   -15604.193   -29632.781    -26614.54    9434.7434    14044.524    9346.3418    7206.7199    77.394883 
   65900    1402.4364   -161.59168    1.2689539   -160.32273   -41042.896    4.2663516    4.2663516    4.2663516   -41042.896   -34782.263   -45081.435   -43264.991     3909.982    16859.715    -1212.918    77.655089 
   66000    1217.5946   -161.42836    1.1017052   -160.32666   -21448.915    4.2644115    4.2644115    4.2644115   -21448.915   -26402.283   -35555.681   -2388.7797   -2690.0362    13398.007   -8892.4613    77.549197 
   66100    815.32071   -161.07509   0.73771931   -160.33737    17846.644    4.2681489    4.2681489    4.2681489    17846.644    12759.665   -10993.163    51773.429    9372.1654   -10972.618    8653.6891    77.753274 
   66200    568.12437   -160.84591   0.51405087   -160.33186    35554.267    4.2631774    4.2631774    4.2631774    35554.267    24918.533    18132.883    63611.386    7644.9808   -16545.593    11101.831    77.481891 
   66300    1143.4384   -161.35577    1.0346071   -160.32117   -1214.4641    4.2556587    4.2556587    4.2556587   -1214.4641   -1548.0122    -19784.76    17689.379   -16833.632   -233.64306   -5781.4542    77.072663 
   66400     1439.884   -161.62307    1.3028373   -160.32023   -21931.486    4.2592815    4.2592815    4.2592815   -21931.486   -40155.158   -6497.4861   -19141.814   -16509.256    7997.7296   -9169.6904    77.269664 
   66500    1055.5214    -161.2798   0.95505793   -160.32474   -6496.7166    4.2642378    4.2642378    4.2642378   -6496.7166   -39196.786    36263.694   -16557.058    -1584.795    2869.1638    9103.3653    77.539721 
   66600    647.63239   -160.91342   0.58599139   -160.32743    25231.663    4.2650712    4.2650712    4.2650712    25231.663    34733.697    37575.273    3386.0191     13423.12   -10810.616    16565.099    77.585196 
   66700    1112.0815   -161.32895    1.0062347   -160.32272   -9564.5907    4.2666565    4.2666565    4.2666565   -9564.5907   -27219.223    26937.125   -28411.674    7568.3327    4345.2098    7343.4741    77.671741 
   66800    1332.3297   -161.52013    1.2055199   -160.31461     -24752.3    4.2601494    4.2601494    4.2601494     -24752.3   -45080.212   -29479.835     303.1453   -8510.1657    14616.529   -4420.8778    77.316913 
   66900    737.44561   -160.99272   0.66725628   -160.32546     13351.72    4.2625267    4.2625267    4.2625267     13351.72    26749.773   -194.21708    13499.604    12451.511    138.98919    4757.0688    77.446417 
   67000    494.27921   -160.77558   0.44723422   -160.32835    26799.545    4.2695936    4.2695936    4.2695936    26799.545    69728.521   -25878.082    36548.195    22055.501   -18761.237    11212.238    77.832258 
   67100    1083.1246   -161.30053   0.98003393    -160.3205   -1866.4214    4.2574134    4.2574134    4.2574134   -1866.4214    14029.395   -36344.031    16715.372    10836.109    5298.8695    946.44027    77.168042 
   67200    1249.0846   -161.44748     1.130198   -160.31728   -34330.174    4.2574198    4.2574198    4.2574198   -34330.174   -46833.114   -20108.859   -36048.551    4494.8613    11459.119   -13477.118    77.168385 
   67300    787.99602   -161.03586   0.71299536   -160.32286   -6146.2765    4.2692101    4.2692101    4.2692101   -6146.2765   -11938.199    6095.3997    -12596.03    20736.403   -277.59534    2703.8521    77.811285 
   67400    913.73613   -161.14614   0.82676765   -160.31937    27671.289    4.2649555    4.2649555    4.2649555    27671.289    37243.614    35319.883    10450.371    13558.467   -8233.3691    13567.566    77.578884 
   67500    1165.4909   -161.36803    1.0545606   -160.31347   -8590.5372    4.2687317    4.2687317    4.2687317   -8590.5372     16361.24   -22600.402   -19532.449   -5272.8435    6295.2279   -11251.091    77.785127 
   67600    1284.7302   -161.47012    1.1624509   -160.30767    -29716.47    4.2674925    4.2674925    4.2674925    -29716.47   -33912.089   -31324.573   -23912.748   -15083.017    6985.6573   -10118.076    77.717405 
   67700    901.77176   -161.12759   0.81594204   -160.31164    35944.085    4.2495299    4.2495299    4.2495299    35944.085    21812.448    25792.682    60227.124     13015.05   -10470.686    5435.3369    76.740155 
   67800    835.74548   -161.08052   0.75620008   -160.32432    20469.973    4.2604811    4.2604811    4.2604811    20469.973    19406.002    16505.491    25498.425    2798.4104    -11807.51    9988.7161    77.334969 
   67900    1112.8322   -161.32611    1.0069139    -160.3192   -33714.273    4.2774154    4.2774154    4.2774154   -33714.273   -46717.621   -18537.751   -35887.446   -16143.261     4046.428   -122.99215    78.260803 
   68000    1171.6179   -161.37424    1.0601045   -160.31413   -19878.294    4.2577138    4.2577138    4.2577138   -19878.294    16732.362    -26972.99   -49394.254   -5015.3887   -1641.4895    8148.6408    77.184374 
   68100    729.72766   -160.98732   0.66027292   -160.32704    28086.726    4.2449574    4.2449574    4.2449574    28086.726    31061.265    50283.063    2915.8488    3105.6524   -5005.1117    28439.857    76.492702 
   68200    477.35246   -160.77067   0.43191854   -160.33875    4709.5122    4.2687111    4.2687111    4.2687111    4709.5122    19653.837    28942.572   -34467.873    19555.008   -9480.8782    24128.306    77.784003 
   68300    1114.9219    -161.3377    1.0088047    -160.3289   -15959.563    4.2666223    4.2666223    4.2666223   -15959.563   -29337.263   -7795.7779   -10745.647   -951.18972    5266.1037    2273.7778    77.669872 
   68400     1540.901   -161.70575    1.3942396   -160.31151   -17145.204    4.2560036    4.2560036    4.2560036   -17145.204   -20399.599   -24785.047   -6250.9644   -9267.5162    6605.2339   -5535.5592    77.091403 
   68500    824.12225   -161.06516   0.74568313   -160.31947    13528.987    4.2638216    4.2638216    4.2638216    13528.987    25476.384     20500.11   -5389.5344    11914.868   -5046.7854    2299.8585     77.51702 
   68600    1065.5504   -161.28149   0.96413242   -160.31736    8090.8354    4.2638316    4.2638316    4.2638316    8090.8354     12517.49     24066.63   -12311.613    4364.7933   -6818.2889    2316.6018    77.517568 
   68700    1592.9783   -161.75269    1.4413602   -160.31133   -16635.714    4.2545541    4.2545541    4.2545541   -16635.714   -30323.352    -24764.69    5180.9022   -5681.8012    1301.6457   -11522.722    77.012663 
   68800    1297.6154   -161.49269    1.1741097   -160.31858   -31538.198    4.2580274    4.2580274    4.2580274   -31538.198   -32263.291   -40473.581   -21877.721   -6175.0813    7784.2906    -9637.073    77.201431 
   68900    682.13722   -160.94496    0.6172121   -160.32774    9679.1712    4.2627886    4.2627886    4.2627886    9679.1712    23259.572   -131.77962    5909.7215    5990.3458    198.31677    8924.0884    77.460695 
   69000    752.88189   -161.00495   0.68122336   -160.32373    27872.173    4.2583378    4.2583378    4.2583378    27872.173    42045.496    39557.369    2013.6522    7848.0131   -9740.3633    28512.902    77.218318 
   69100     798.4488   -161.04789   0.72245325   -160.32543    5965.5335    4.2599136    4.2599136    4.2599136    5965.5335    22622.963    22994.697   -27721.059    -5072.845   -3330.4287    18067.134    77.304073 
   69200     1349.915   -161.54559    1.2214314   -160.32416   -44887.767     4.270341     4.270341     4.270341   -44887.767    -27467.25   -40310.802   -66885.248   -17215.095    3350.3771    3090.1401    77.873134 
   69300    1470.4159    -161.6498    1.3304632   -160.31934   -20251.349     4.266931     4.266931     4.266931   -20251.349    -36672.48    3991.3444    -28072.91   -14156.028   -2361.0335    4039.1852    77.686735 
   69400    672.33324   -160.93234   0.60834125     -160.324     23202.88    4.2631237    4.2631237    4.2631237     23202.88    12877.469    57876.196   -1145.0231    10303.878   -8919.1322    8260.4326    77.478966 
   69500    788.40178    -161.0372    0.7133625   -160.32383    9747.9331    4.2675776    4.2675776    4.2675776    9747.9331    18667.519    44370.346   -33794.066     12550.48    3416.6982    -4524.901    77.722056 
   69600    1292.1778   -161.49365    1.1691897   -160.32446   -6766.8953    4.2620076    4.2620076    4.2620076   -6766.8953   -14291.578    30981.214   -36990.322    11371.208    11889.854   -783.74197    77.418126 
   69700    1386.0882   -161.57491    1.2541617   -160.32075   -10228.868    4.2486063    4.2486063    4.2486063   -10228.868   -3328.7135   -30178.189    2820.2972      -6557.2    15022.418   -14374.245     76.69013 
   69800    1142.5225   -161.36876    1.0337784   -160.33498   -15711.385    4.2638252    4.2638252    4.2638252   -15711.385   -19701.363    -36305.48    8872.6871   -3156.0076   -788.82106    252.03503     77.51722 
   69900    876.53735   -161.11617   0.79310942   -160.32306    -5888.991    4.2786757    4.2786757    4.2786757    -5888.991   -5189.0809    8221.1681    -20699.06    14126.441   -16375.124    9832.6961    78.329997 
   70000    1044.2471   -161.25559   0.94485675   -160.31073    12519.416    4.2495563    4.2495563    4.2495563    12519.416    37159.822    5934.6598   -5536.2342    11127.209   -17878.469   -5339.2285    76.741583 
   70100    1267.6222   -161.46089    1.1469712   -160.31392   -13309.164    4.2480533    4.2480533    4.2480533   -13309.164   -2298.6029   -24879.947   -12748.942   -5364.4494   -5401.7726   -10615.852    76.660188 
   70200    1173.8854   -161.38676    1.0621562    -160.3246   -36590.024    4.2726111    4.2726111    4.2726111   -36590.024    -68212.51   -1691.6723   -39865.889   -1026.7604   -6225.4933    1399.7393    77.997394 
   70300    888.71511   -161.12578    0.8041281   -160.32165    25875.888    4.2601549    4.2601549    4.2601549    25875.888   -40655.243    85584.773    32698.135    12602.783    -13631.72     18947.09    77.317208 
   70400     647.5983   -160.91397   0.58596055   -160.32801    37422.755    4.2592469    4.2592469    4.2592469    37422.755   -22586.131    85593.183    49261.212    5170.3803   -885.07708     22876.95     77.26778 
   70500    1148.4237   -161.36494    1.0391179   -160.32582   -19760.245    4.2737016    4.2737016    4.2737016   -19760.245   -42803.616    5943.4136   -22420.533   -11158.378    7065.6643   -3553.0144     78.05713 
   70600    1383.2053   -161.56516    1.2515532   -160.31361   -8992.6297     4.258057     4.258057     4.258057   -8992.6297    27754.561   -43085.975   -11646.475   -12192.887    267.40395   -12211.494    77.203044 
   70700     866.4485   -161.10929   0.78398081    -160.3253    35186.504    4.2505652    4.2505652    4.2505652    35186.504    104122.93   -7101.0253    8537.6044    11465.124   -18004.447    4314.5447    76.796257 
   70800    862.18429   -161.11347   0.78012246   -160.33335    6171.9279    4.2704093    4.2704093    4.2704093    6171.9279    56803.041   -22245.032   -16042.226    8500.7287   -23393.372    3117.4825    77.876873 
   70900    1286.8374   -161.48259    1.1643576   -160.31823   -15602.812    4.2658226    4.2658226    4.2658226   -15602.812    37365.573   -30468.023   -53705.986   -1081.5008   -1835.7923   -8088.5552    77.626208 
   71000    1055.7629   -161.27269   0.95527645   -160.31742    9040.5756     4.257572     4.257572     4.257572    9040.5756    43458.455    -23045.51    6708.7817   -16640.704    21192.029     3704.705    77.176663 
   71100    781.34045   -161.03642   0.70697326   -160.32945    18478.859     4.268784     4.268784     4.268784    18478.859    22639.177    688.24909    32109.152   -15767.548    12629.073    14407.327    77.787988 
   71200    1320.1138   -161.51222    1.1944667   -160.31775   -31075.587    4.2702138    4.2702138    4.2702138   -31075.587   -10104.811    -39740.89   -43381.062    8624.6541   -6022.6925   -1536.4506    77.866181 
   71300    1299.8968   -161.49075     1.176174   -160.31458   -14664.434    4.2588864    4.2588864    4.2588864   -14664.434   -28194.666   -14595.588   -1203.0476    12252.831   -8805.8827     3388.381    77.248166 
   71400    859.38888   -161.10668   0.77759312   -160.32908    11043.048    4.2644777    4.2644777    4.2644777    11043.048   -51145.416    46927.462      37347.1   -1337.9347    9640.0908    19330.654    77.552811 
   71500    831.47338    -161.0814   0.75233459   -160.32907    4827.2772    4.2726858    4.2726858    4.2726858    4827.2772   -44548.525    2896.6782    56133.679   -11100.977    20376.562    15244.538    78.001485 
   71600    1210.7619   -161.41966    1.0955228   -160.32414   -1001.9513    4.2622807    4.2622807    4.2622807   -1001.9513   -8915.2368   -12080.359    17989.742    -2098.851    13537.847   -6663.4618    77.433008 
   71700    1573.7428   -161.74308    1.4239555   -160.31912   -35328.858     4.260597     4.260597     4.260597   -35328.858   -36236.366   -25751.678   -43998.531    10796.976   -5091.0161   -20055.791    77.341282 
   71800     1048.124   -161.27459   0.94836466   -160.32622     -3488.44    4.2690256    4.2690256    4.2690256     -3488.44    5968.9688   -30263.516    13829.227    2225.2017    8377.9725   -7282.4598    77.801199 
   71900    1116.7386   -161.33108    1.0104486   -160.32063    1975.4838    4.2686458    4.2686458    4.2686458    1975.4838   -22498.949   -19394.543    47819.943   -11665.988    9847.3206    6492.6956    77.780435 
   72000    959.46644     -161.188    0.8681454   -160.31985    16479.271     4.261779     4.261779     4.261779    16479.271   -35915.027    16759.354    68593.486   -6196.1157    810.00556    15281.922    77.405668 
   72100    1229.8272   -161.43417    1.1127735    -160.3214   -19635.368    4.2654222    4.2654222    4.2654222   -19635.368   -51661.664   -30056.014    22811.574    8024.7401    -13716.34    2734.5864    77.604353 
   72200    1265.2133   -161.46688    1.1447916   -160.32209   -16575.176    4.2651764    4.2651764    4.2651764   -16575.176   -14305.484   -28052.678   -7367.3658    1332.1691   -14811.513   -8110.3881    77.590935 
   72300    901.40698   -161.14553   0.81561198   -160.32992    23859.259     4.264457     4.264457     4.264457    23859.259    53162.729    28059.934   -9644.8871    -13019.13    825.69751    8526.0009     77.55168 
   72400    452.39061   -160.74273   0.40933253    -160.3334    28116.253    4.2745576    4.2745576    4.2745576    28116.253     42631.19    55307.855   -13590.285   -17763.002    11126.267    11900.015    78.104046 
   72500    1165.8585   -161.37771    1.0548933   -160.32282   -22894.581    4.2681053    4.2681053    4.2681053   -22894.581   -42954.111    20980.219    -46709.85    7061.0916    5021.0801   -3677.8878    77.750889 
   72600    1373.6088   -161.55632    1.2428701   -160.31345    -5548.295    4.2536387    4.2536387    4.2536387    -5548.295   -14928.478     2040.151   -3756.5582    18197.552    309.11433   -14853.984    76.962968 
   72700    1094.5297   -161.31953   0.99035343   -160.32918   -14997.567    4.2699594    4.2699594    4.2699594   -14997.567   -15574.204   -52172.525    22754.027    7850.8343    12034.184    4963.0924     77.85226 
   72800    819.80998   -161.06929    0.7417813   -160.32751    1613.6569    4.2763874    4.2763874    4.2763874    1613.6569    19016.323   -17726.447    3551.0944   -11422.403    14899.713    8610.4286    78.204389 
   72900    1087.9699   -161.31118   0.98441799   -160.32676    14479.889      4.26273      4.26273      4.26273    14479.889    38998.916   -14989.204    19429.956   -6208.6697    3651.5896    8065.3112    77.457502 
   73000    1425.3409   -161.61339    1.2896784   -160.32371   -25778.956    4.2596749    4.2596749    4.2596749   -25778.956   -44377.673   -49732.718    16773.524    3907.0904   -13554.989   -11152.946    77.291079 
   73100    1077.9887   -161.30637   0.97538687   -160.33099   -15298.778    4.2612807    4.2612807    4.2612807   -15298.778   -35473.317    5033.8399   -15456.856    1218.8414   -13037.403   -13049.378    77.378522 
   73200    963.80756   -161.21076   0.87207334   -160.33868    6386.3734    4.2662336    4.2662336    4.2662336    6386.3734    56322.436    20999.526   -58162.841   -14823.473   -10539.141   -668.79392    77.648646 
   73300    732.28645   -161.00116   0.66258817   -160.33857    10900.202    4.2676601    4.2676601    4.2676601    10900.202     82154.31   -3446.1408   -46007.565   -17075.206    10321.553    4929.7223    77.726566 
   73400    596.78024   -160.87306   0.53997931   -160.33308    9149.5363    4.2558641    4.2558641    4.2558641    9149.5363    63615.138   -14084.784   -22081.745    3259.3529    16456.604    2449.6122    77.083822 
   73500    1023.7079    -161.2588   0.92627243   -160.33252   -16298.735    4.2531346    4.2531346    4.2531346   -16298.735    57510.685   -42970.371   -63436.517    1639.0003    31.979552   -4823.9071    76.935606 
   73600    1026.3224   -161.26682   0.92863804   -160.33818   -1964.2297     4.262462     4.262462     4.262462   -1964.2297        29029   -10460.007   -24461.682    21440.149   -11838.677   -6837.7553    77.442893 
   73700    795.14945   -161.05244   0.71946793   -160.33297   -10260.685    4.2663259    4.2663259    4.2663259   -10260.685   -57678.363    28835.369   -1939.0616    11655.997    205.74781    6442.0853    77.653686 
   73800    983.13784   -161.21814   0.88956378   -160.32858   -1717.0605     4.256615     4.256615     4.256615   -1717.0605   -34369.544    62762.478   -33544.115    684.00349    9255.8065    2194.9384    77.124632 
   73900    828.52033   -161.08982    0.7496626   -160.34016    28264.994     4.257514     4.257514     4.257514    28264.994    23453.077    101911.04   -40569.133   -10260.635    5214.0426   -9692.3382    77.173512 
   74000    485.01073   -160.77774    0.4388479   -160.33889    20186.828    4.2666116    4.2666116    4.2666116    20186.828   -2120.1807    86299.826   -23619.163    -18138.26   -1373.2237   -5428.6306    77.669289 
   74100    928.68417   -161.16902   0.84029295   -160.32872   -5906.2761     4.264898     4.264898     4.264898   -5906.2761   -32911.997     62672.68   -47479.511   -11145.969    6729.6597    9520.6883    77.575744 
   74200    1319.1677   -161.52072    1.1936106   -160.32711   -3132.0053    4.2613155    4.2613155    4.2613155   -3132.0053    -11881.44    9304.9833   -6819.5594    9069.6692    8909.3639    16658.088    77.380418 
   74300    1064.0188   -161.29035   0.96274654    -160.3276   -9941.5181    4.2586178    4.2586178    4.2586178   -9941.5181   -36704.101   -36746.179    43625.725    13034.553   -6847.3716    6917.2024    77.233547 
   74400    711.15332   -160.97565   0.64346647   -160.33219     19253.71     4.249254     4.249254     4.249254     19253.71   -8846.8668   -16707.143     83315.14   -1694.8598   -13644.113   -9289.5463    76.725206 
   74500    923.29192   -161.18034   0.83541394   -160.34493     27090.37    4.2581586    4.2581586    4.2581586     27090.37    2820.6615   -6108.2358    84558.685    426.99845   -10378.466   -12117.018    77.208568 
   74600    1231.7322   -161.44851    1.1144972   -160.33402   -36801.012     4.274984     4.274984     4.274984   -36801.012   -67580.415    -52630.73    9808.1103   -1374.8358    5584.9418    3376.5517     78.12742 
   74700    1237.1131   -161.43995    1.1193659   -160.32058   -38479.427     4.261417     4.261417     4.261417   -38479.427    -43038.31   -30099.002   -42300.967     902.2451    18016.539    3436.7495    77.385946 
   74800    1137.1387    -161.3509     1.028907   -160.32199    16729.707    4.2487424    4.2487424    4.2487424    16729.707    18648.939    23024.916    8515.2672   -7903.9868   -89.871501   -8873.1636    76.697499 
   74900    820.01541   -161.06915   0.74196718   -160.32719    28478.041    4.2529947    4.2529947    4.2529947    28478.041    23715.467    42044.154    19674.502   -16819.834   -4042.5007   -16998.104    76.928017 
   75000    879.71737   -161.12124   0.79598676   -160.32525   -5780.5025     4.258392     4.258392     4.258392   -5780.5025   -30099.711    17277.855   -4519.6513    3754.9221    4429.2493   -5566.6102    77.221267 
   75100    1378.3794   -161.57386    1.2471866   -160.32668   -40783.904    4.2713449    4.2713449    4.2713449   -40783.904   -53469.226    -52338.75   -16543.736    11115.973    4666.0844    2748.2574     77.92807 
   75200    1148.3035   -161.36457    1.0390092   -160.32556    -2552.709     4.263571     4.263571     4.263571    -2552.709   -3639.7996   -6704.9581    2686.6306   -167.66278   -6215.5878    -12556.38    77.503352 
   75300    462.19786   -160.73946   0.41820634   -160.32125    31678.388    4.2460001    4.2460001    4.2460001    31678.388    745.30233    53090.816    41199.046    -14054.15   -2752.9994   -21185.894    76.549082 
   75400    1026.1268   -161.25189   0.92846108   -160.32343   -9038.3971    4.2567979    4.2567979    4.2567979   -9038.3971   -32636.899    6917.9732   -1396.2651   -9828.1082   -5166.6248   -8860.1295    77.134574 
   75500    1562.0965   -161.73269    1.4134177   -160.31927   -40396.415    4.2678385    4.2678385    4.2678385   -40396.415   -27919.013   -54824.997   -38445.236    10570.753    13363.056    4449.5445    77.736311 
   75600    1004.6977   -161.22969   0.90907158   -160.32062   -9151.4993    4.2623146    4.2623146    4.2623146   -9151.4993   -23563.641   -2324.7172   -1566.1394   -3404.2021    1042.2871   -541.49131    77.434856 
   75700    674.74375   -160.93388   0.61052233   -160.32335    21887.953     4.259444     4.259444     4.259444    21887.953    10258.955    27117.694    28287.211   -15431.274   -12708.185    -4846.689     77.27851 
   75800    1410.4722   -161.59684    1.2762249   -160.32061    7253.8577    4.2526987    4.2526987    4.2526987    7253.8577    13548.912   -9692.0597    17904.721   -3497.6182    4339.0812    5593.8786    76.911956 
   75900    1424.8814   -161.60922    1.2892626   -160.31996   -26969.394    4.2574114    4.2574114    4.2574114   -26969.394   -44874.098   -9588.7273   -26445.356    3850.7064     12181.69    16305.889     77.16793 
   76000    975.67843   -161.20945   0.88281434   -160.32664   -18747.645    4.2650869    4.2650869    4.2650869   -18747.645   -39653.524    -26965.47    10376.059   -40.696352    2909.7176     6035.292     77.58605 
   76100    902.78576   -161.14727   0.81685952   -160.33041     24539.67    4.2565651    4.2565651    4.2565651     24539.67    24096.323    4026.4914    45496.197   -13787.668   -510.43891    -10030.32    77.121923 
   76200    831.17643   -161.08029    0.7520659   -160.32823    17284.125    4.2550952    4.2550952    4.2550952    17284.125   -19088.025    9680.4974    61259.903   -11287.351   -2111.8298   -7294.7594    77.042051 
   76300    988.18767   -161.22212   0.89413297   -160.32799   -24094.339    4.2607735    4.2607735    4.2607735   -24094.339   -64964.349   -21447.092    14128.423    12992.449    19228.185    7493.0477    77.350893 
   76400    1195.5319   -161.41287    1.0817424   -160.33112   -16439.226    4.2588457    4.2588457    4.2588457   -16439.226    18637.058   -26377.228   -41577.508    3089.7976     21182.14    13328.621    77.245951 
   76500    907.82316   -161.15797   0.82141747   -160.33655     11423.15    4.2533107    4.2533107    4.2533107     11423.15    50181.886    15018.742   -30931.179   -12107.693    4706.8857    1615.1825    76.945164 
   76600    505.03844   -160.79714   0.45696939   -160.34018    28260.833    4.2527688    4.2527688    4.2527688    28260.833    45814.922    40543.674   -1576.0972   -10409.351   -1993.7863   -8829.3274     76.91576 
   76700    955.52217   -161.20313   0.86457654   -160.33856    5560.0954    4.2547004    4.2547004    4.2547004    5560.0954    35353.533    395.84402   -19069.091   -5577.4031    5065.0514   -2140.9083    77.020608 
   76800    1442.9207   -161.63841     1.305585   -160.33283   -29141.202    4.2555975    4.2555975    4.2555975   -29141.202   -10115.008   -25730.838   -51577.759    9093.1041     18495.68    5865.5383    77.069342 
   76900    1076.5689   -161.30889   0.97410213   -160.33478    -29307.05    4.2597059    4.2597059    4.2597059    -29307.05   -57646.343   -13947.038   -16327.768    9166.9553   -1486.3765    6068.2826    77.292763 
   77000    820.35145   -161.07455   0.74227123   -160.33228    12365.259    4.2563466    4.2563466    4.2563466    12365.259    20138.339    11482.781    5474.6562   -8038.9057   -18176.716   -5811.5021    77.110047 
   77100    980.67277   -161.21806   0.88733333   -160.33073    26340.194    4.2493487    4.2493487    4.2493487    26340.194    69693.676    19205.822   -9878.9155   -12034.081   -12838.052   -2071.3583    76.730338 
   77200    1135.7796    -161.3603    1.0276773   -160.33263   -11609.651    4.2573787    4.2573787    4.2573787   -11609.651   -10332.084   -891.31421   -23605.556    3965.2031   -53.572602    6619.0411     77.16615 
   77300    1238.9908   -161.45307    1.1210649     -160.332   -52246.135    4.2673392    4.2673392    4.2673392   -52246.135   -75421.261   -38341.256   -42975.887    4399.9978    7454.5375    16506.211    77.709032 
   77400    1205.6692   -161.42336    1.0909148   -160.33245   -12159.521    4.2553877    4.2553877    4.2553877   -12159.521    8818.1418   -39362.472   -5934.2337   -383.07766   -4532.2998    12663.053    77.057939 
   77500    753.64192   -161.01765   0.68191105   -160.33574    35524.208    4.2469399    4.2469399    4.2469399    35524.208    48684.561    18908.111    38979.953   -14705.955    -16519.01   -3682.3586    76.599928 
   77600    676.04718   -160.95002    0.6117017   -160.33831    19219.832    4.2576178    4.2576178    4.2576178    19219.832    8421.2305    18841.675    30396.592   -15472.059    -10828.15   -683.60859    77.179153 
   77700    1250.5614   -161.45926    1.1315343   -160.32772   -25067.739    4.2643751    4.2643751    4.2643751   -25067.739   -23776.658   -10450.299    -40976.26    8022.0472    9021.0196    8902.1429    77.547214 
   77800    1244.5932   -161.44881    1.1261341   -160.32267   -12689.509    4.2614376    4.2614376    4.2614376   -12689.509   -32286.241    2736.6591   -8518.9441    12379.707    14141.482    768.06197     77.38707 
   77900    623.70152   -160.89313   0.56433824   -160.32879    16319.455    4.2631108    4.2631108    4.2631108    16319.455    -45621.28    30741.114    63838.531   -6824.1011   -1866.6438   -14187.322    77.478261 
   78000    806.65106   -161.05681   0.72987483   -160.32694    19677.623    4.2602383    4.2602383    4.2602383    19677.623   -16802.755    24955.368    50880.257   -15363.433   -236.07055   -12599.732    77.321749 
   78100    1382.8437    -161.5707    1.2512261   -160.31947   -20338.937    4.2578096    4.2578096    4.2578096   -20338.937    -36835.59   -21388.444    -2792.777    6435.4815    15137.665    5393.6772    77.189586 
   78200     1241.111   -161.44398    1.1229833     -160.321   -35828.896    4.2620636    4.2620636    4.2620636   -35828.896   -56545.843   -15785.695    -35155.15    2333.3806    5121.4415    6940.9089    77.421179 
   78300    797.66328   -161.05125    0.7217425   -160.32951    15794.784    4.2611911    4.2611911    4.2611911    15794.784   -4713.8904    49221.865    2876.3779   -7154.0568   -8117.0182   -7571.0354    77.373641 
   78400    792.51413   -161.04461   0.71708344   -160.32753    29064.565    4.2591702    4.2591702    4.2591702    29064.565    26658.176    49970.137    10565.383   -6936.4137   -12757.065   -14691.382    77.263606 
   78500    1057.4823   -161.27834   0.95683225   -160.32151   -25961.078    4.2627049    4.2627049    4.2627049   -25961.078   -30078.752   -9424.3206   -38380.162    1914.5341    280.95772    3557.6133    77.456132 
   78600    1238.3002   -161.43867    1.1204401   -160.31823   -22327.478    4.2587904    4.2587904    4.2587904   -22327.478   -53791.533   -17882.996    4692.0943    12819.218    6482.2626    10720.138     77.24294 
   78700    872.44365   -161.11774   0.78940535   -160.32833    25497.221    4.2577319    4.2577319    4.2577319    25497.221    13488.158     10375.56    52627.944   -8369.5572    -17763.25   -14251.533    77.185361 
   78800    588.52236    -160.8642    0.5325074   -160.33169     26615.53    4.2602085    4.2602085    4.2602085     26615.53   -9521.4423     22369.31    66998.723   -14984.241   -18776.342   -11124.881    77.320126 
   78900    1073.8354   -161.29551   0.97162884   -160.32388   -22360.805    4.2661245    4.2661245    4.2661245   -22360.805   -56172.838   -16823.562    5913.9837    4995.4442     5600.702    13480.736    77.642688 
   79000    1430.9589   -161.61211    1.2947617   -160.31735   -37833.489    4.2668818    4.2668818    4.2668818   -37833.489   -28377.019   -42051.566   -43071.881    5222.1469    5600.3825    13381.244    77.684047 
   79100    828.20377   -161.07327   0.74937617    -160.3239    12550.946    4.2558649    4.2558649    4.2558649    12550.946    29428.026    5027.1578    3197.6556   -13214.094   -1410.8429    3639.3488    77.083867 
   79200    578.36817   -160.85429   0.52331968   -160.33097    29927.927    4.2577996    4.2577996    4.2577996    29927.927     34061.21    36493.115    19229.455   -21098.315   -6962.6634   -6925.6939    77.189043 
   79300    1116.1241   -161.34023    1.0098926   -160.33034   -9091.2277    4.2678505    4.2678505    4.2678505   -9091.2277    30540.082   -9683.2858   -48130.479   -11253.273    3667.0482    -1551.281     77.73697 
   79400    1360.9171   -161.55489    1.2313864    -160.3235    -38543.94    4.2634838    4.2634838    4.2634838    -38543.94   -31337.276   -54621.339   -29673.205    9711.5021    16614.126    12788.816      77.4986 
   79500    805.91152   -161.05519   0.72920568   -160.32598   -5323.5504    4.2573306    4.2573306    4.2573306   -5323.5504   -40075.706   -20032.789    44137.843    9598.1993    5039.1763    1729.5814    77.163539 
   79600    766.72807   -161.02329   0.69375167   -160.32953     33885.67    4.2518845    4.2518845    4.2518845     33885.67    23598.499    -7983.521    86042.033   -9563.1896   -16281.931    -13784.91    76.867786 
   79700    990.18336   -161.22925   0.89593871   -160.33331    23510.262    4.2499842    4.2499842    4.2499842    23510.262    27679.123   -25508.373    68360.035    1823.3849   -3684.5256     -3929.77    76.764768 
   79800    1095.6228   -161.32752   0.99134256   -160.33617   -29213.341    4.2652207    4.2652207    4.2652207   -29213.341    -59954.62   -43295.561    15610.156    5775.5181    2810.1987    12307.609    77.593354 
   79900    1241.6299   -161.45832    1.1234528   -160.33487   -23178.112    4.2613869    4.2613869    4.2613869   -23178.112    -19776.45   -22644.664   -27113.224     -1096.71    4480.2957    11078.963    77.384308 
   80000    1077.1441   -161.31295   0.97462265   -160.33833    24305.821    4.2482536    4.2482536    4.2482536    24305.821    62850.145    16916.207   -6848.8889   -7743.8627   -48.556521    6945.0122    76.671029 
   80100    623.06878   -160.90691   0.56376573   -160.34315    23228.912    4.2551942    4.2551942    4.2551942    23228.912    45873.233    27380.115    -3566.613   -14690.848   -11708.211   -8061.5732     77.04743 
   80200    713.62986   -160.98493   0.64570729   -160.33923     7550.037    4.2519087    4.2519087    4.2519087     7550.037    29729.684    16815.542   -23895.115   -5681.4612    1558.4645    1717.0703    76.869098 
   80300    1471.9921   -161.66739    1.3318894    -160.3355   -17351.375    4.2534904    4.2534904    4.2534904   -17351.375    4495.6376   -16136.289   -40413.474    9356.3333    5966.0358    12014.081    76.954918 
   80400    1208.9797   -161.43109    1.0939103   -160.33718   -21354.122    4.2649274    4.2649274    4.2649274   -21354.122    -39307.01    -26916.27    2160.9152    10190.579    3913.9969    7042.8848     77.57735 
   80500    864.04453   -161.11264   0.78180565   -160.33083    3796.9909    4.2592236    4.2592236    4.2592236    3796.9909   -17016.019   -9618.6611    38025.653    3682.6173   -10424.012   -8595.1147    77.266512 
   80600    1191.8696   -161.41069    1.0784286   -160.33226    15412.875     4.253882     4.253882     4.253882    15412.875    44753.191   -17920.091    19405.523   -8334.9175   -12213.405   -10438.223    76.976175 
   80700     1394.289   -161.59755     1.261582   -160.33597   -24775.616    4.2623374    4.2623374    4.2623374   -24775.616   -17445.477   -27230.026   -29651.345   -6377.9376    2130.4057    -8050.682    77.436101 
   80800    1224.9508     -161.438    1.1083612   -160.32964   -39607.932    4.2602895    4.2602895    4.2602895   -39607.932    -80874.78   -5263.3437   -32685.673    8195.1854    6153.0832   -2723.0959    77.324536 
   80900    1155.8427   -161.37403    1.0458307    -160.3282     8962.612    4.2412722    4.2412722    4.2412722     8962.612   -32843.678    20765.557    38965.957     19679.63   -1918.2962    6360.6883    76.293659 
   81000    959.45573   -161.20604    0.8681357   -160.33791    32126.316    4.2407647    4.2407647    4.2407647    32126.316    133.35607    31013.717    65231.876    17057.586   -9838.7219    7870.7937    76.266275 
   81100    710.52929   -160.98129   0.64290184   -160.33839    1930.3561    4.2613312    4.2613312    4.2613312    1930.3561   -52933.714    9898.1803    48826.601    5556.9578   -4534.9901    2398.7302    77.381272 
   81200    1150.6198   -161.36889    1.0411049   -160.32779   -15599.333    4.2640076    4.2640076    4.2640076   -15599.333   -28353.973    -8960.423   -9483.6031   -95.590144    7124.7092   -4600.5436    77.527168 
   81300    1365.0336   -161.56001    1.2351111    -160.3249   -1311.5111    4.2549649    4.2549649    4.2549649   -1311.5111    32044.476   -10838.636   -25140.374    3670.1794    489.50972   -5767.4001    77.034973 
   81400    571.06096   -160.84978   0.51670796   -160.33308    21429.191    4.2547458    4.2547458    4.2547458    21429.191    47962.591   -838.14531    17163.127    25087.485   -11684.798    2301.7956    77.023074 
   81500    798.23712   -161.05417   0.72226172   -160.33191     16215.45    4.2537276    4.2537276    4.2537276     16215.45     50343.89    5325.4292   -7022.9697    29014.046   -13004.194    1338.8964    76.967791 
   81600     1313.176    -161.5222    1.1881892   -160.33401   -2491.1274    4.2589747    4.2589747    4.2589747   -2491.1274    65314.527   -40888.323   -31899.587    2013.8956    9660.5141   -9838.2154    77.252968 
   81700    1045.3178   -161.27837   0.94582551   -160.33254   -13400.991    4.2687765    4.2687765    4.2687765   -13400.991   -1835.5881   -6528.9554   -31838.429   -14015.032    10379.393   -4638.2927     77.78758 
   81800    703.87502   -160.96825   0.63688091   -160.33137    14974.611    4.2627889    4.2627889    4.2627889    14974.611   -29933.219    51063.542     23793.51    -9183.763    15788.856    13930.876     77.46071 
   81900    1305.8886   -161.51447    1.1815954   -160.33288    1078.0071    4.2598652    4.2598652    4.2598652    1078.0071   -11866.517   -11992.366    27092.904    6505.8987    13704.755    7725.9693    77.301436 
   82000    1346.2109   -161.55001    1.2180799   -160.33193   -38116.131    4.2681825    4.2681825    4.2681825   -38116.131   -37473.694   -37576.149   -39298.551    12810.244   -8696.1903   -8479.1814    77.755109 
   82100    818.87465     -161.075   0.74093499   -160.33406   -6395.7825    4.2607605    4.2607605    4.2607605   -6395.7825   -43516.583    45820.313   -21491.078    7683.2002   -4404.0256    4892.3264    77.350189 
   82200    870.41984   -161.12691   0.78757417   -160.33934    20500.435    4.2552412    4.2552412    4.2552412    20500.435    -22793.06    79231.066    5063.2986   -2656.5806    6164.3598    19404.665    77.049984 
   82300    837.45939   -161.10147   0.75775086   -160.34372     15496.15    4.2629708    4.2629708    4.2629708     15496.15   -7627.3787    83748.334   -29632.506   -17748.054    7069.5381     13245.44     77.47063 
   82400    631.97648   -160.90743    0.5718256    -160.3356    4536.5815    4.2634363    4.2634363    4.2634363    4536.5815   -31826.669    80774.033   -35337.619    -10081.35    1152.2372    1282.0717    77.496008 
   82500    1199.0691    -161.4178    1.0849429   -160.33286     -193.358    4.2582549    4.2582549    4.2582549     -193.358   -31830.968    42619.804    -11368.91    217.72694   -8304.6479    -9912.026    77.213807 
   82600    1364.1998    -161.5718    1.2343567   -160.33744   -7879.8557    4.2614347    4.2614347    4.2614347   -7879.8557   -20276.177    -17965.16     14601.77    16114.876   -4485.8445   -13660.021    77.386914 
   82700    709.75752   -160.97503   0.64220352   -160.33283   -555.86473    4.2675036    4.2675036    4.2675036   -555.86473    -6617.841   -42573.285    47523.532    11377.049    5710.6635   -3063.4786    77.718012 
   82800    1083.5378   -161.30687   0.98040774   -160.32646    11639.656    4.2546548    4.2546548    4.2546548    11639.656     1802.518    -22119.73     55236.18   -3080.1517    10099.357    9894.9779    77.018135 
   82900    1178.5192   -161.39788    1.0663489   -160.33153     23686.51    4.2537739    4.2537739    4.2537739     23686.51    16101.938    10803.811    44153.782   -8880.4987    9311.4944    11839.373    76.970305 
   83000     966.3448   -161.20415   0.87436908   -160.32978   -27602.791    4.2710002    4.2710002    4.2710002   -27602.791   -71186.349    1155.5268    -12777.55   -2877.3807   -3703.1975    5892.3769    77.909205 
   83100    1096.6849   -161.31288   0.99230356   -160.32058     -24211.4    4.2588693    4.2588693    4.2588693     -24211.4   -20432.998   -11058.947   -41142.255    9645.4284     6306.325   -9231.6045    77.247236 
   83200    1095.1276   -161.32003   0.99089443   -160.32914    13237.921    4.2485814    4.2485814    4.2485814    13237.921    45426.779   -20069.424     14356.41    2355.5058    21778.631   -4157.3241    76.688781 
   83300    448.04393    -160.7482   0.40539956    -160.3428     16847.87     4.262149     4.262149     4.262149     16847.87    34738.184   -18122.567    33927.992    -5330.436    23019.235     -2665.19    77.425832 
   83400     602.1585   -160.88087   0.54484566   -160.33603    1912.0873    4.2583196    4.2583196    4.2583196    1912.0873    9180.7517   -30427.195    26982.705    31.919902    20612.322   -14153.304    77.217325 
   83500    1290.8663   -161.49945     1.168003   -160.33145   -3752.5039    4.2556122    4.2556122    4.2556122   -3752.5039     22297.15   -25055.534   -8499.1273    2004.7613    3575.6041   -12575.093    77.070137 
   83600    1203.4812   -161.41772     1.088935   -160.32878   -27708.866     4.270014     4.270014     4.270014   -27708.866   -41985.184   -2005.4303   -39135.983    9009.2667   -3325.2754   -2677.3151    77.855251 
   83700    660.16132   -160.92307   0.59732784   -160.32574    11345.049     4.249503     4.249503     4.249503    11345.049   -48243.459     66150.65    16127.955   -4832.6928    7213.2161    14003.074    76.738697 
   83800    825.36689   -161.08103   0.74680931   -160.33422    37342.576    4.2421442    4.2421442    4.2421442    37342.576   -1442.7013     88060.56    25409.869   -6106.5091    7788.6131    20498.176    76.340728 
   83900    1128.0366   -161.36172    1.0206712   -160.34105   -8364.0425    4.2704974    4.2704974    4.2704974   -8364.0425   -34804.601    29307.798   -19595.324    8782.7351    419.29936    10666.411    77.881696 
   84000    1078.6623   -161.30236    0.9759963   -160.32637   -40626.978    4.2703231    4.2703231    4.2703231   -40626.978   -49658.811   -28176.421   -44045.701    11827.658   -7277.0899    941.01446    77.872159 
   84100    1163.2337   -161.37622    1.0525183    -160.3237   -6702.3445    4.2543795    4.2543795    4.2543795   -6702.3445    6977.7192   -28201.675    1116.9225    14052.303   -6100.1382    960.70122    77.003185 
   84200    852.43234   -161.10797   0.77129869   -160.33668    23194.266    4.2638247    4.2638247    4.2638247    23194.266    56924.995   -3267.5788     15925.38   -9960.6444    13794.982    10412.718    77.517193 
   84300    713.01944   -160.96867   0.64515497   -160.32351   -971.45571    4.2675689    4.2675689    4.2675689   -971.45571    6782.5137   -7819.6675   -1877.2133   -15005.512    12468.771    3432.7379     77.72158 
   84400    1112.7364   -161.32331    1.0068272   -160.31648   -14496.756    4.2568702    4.2568702    4.2568702   -14496.756   -17224.165   -26588.514     322.4109    7430.3524    -4757.719   -14914.085    77.138506 
   84500    1445.1979   -161.63372    1.3076455   -160.32608   -13573.188    4.2583055    4.2583055    4.2583055   -13573.188   -15840.895    3926.7706   -28805.438   -8929.1921   -50.504731   -8512.8998    77.216558 
   84600    789.40434   -161.04827   0.71426964     -160.334   -2798.2154    4.2617279    4.2617279    4.2617279   -2798.2154   -35057.973    55718.512   -29055.185   -10661.199    721.84531    1805.1867    77.402883 
   84700    690.06786   -160.96301   0.62438791   -160.33862     9925.642    4.2584691    4.2584691    4.2584691     9925.642   -20575.035    58719.415   -8367.4547   -9127.1359    3636.3775    5049.1091    77.225462 
   84800    1250.0863   -161.47243    1.1311044   -160.34132    1514.8333    4.2609258    4.2609258    4.2609258    1514.8333   -18751.036    27215.195    -3919.659   -8098.6796    13062.001    10732.443    77.359192 
   84900    1171.7325   -161.39724    1.0602081   -160.33703   -7038.6026    4.2549149    4.2549149    4.2549149   -7038.6026   -31265.443    14090.402   -3940.7664    14117.265   -10905.048    362.62752    77.032262 
   85000    1196.9028   -161.41662    1.0829828   -160.33364   -26938.123    4.2578541    4.2578541    4.2578541   -26938.123   -24839.028   -17345.226   -38630.115     7602.553   -6167.3332   -4355.5433    77.192004 
   85100    1217.2545   -161.43606    1.1013975   -160.33466   -11020.235    4.2628903    4.2628903    4.2628903   -11020.235    27599.394   -52617.504   -8042.5941     4000.118    6243.6965    3234.1022    77.466238 
   85200    812.86288   -161.07087   0.73549542   -160.33537    26621.126      4.25257      4.25257      4.25257    26621.126    77695.023   -15986.897    18155.253   -264.02273    5133.6572    18726.672    76.904969 
   85300    604.40506   -160.88346    0.5468784   -160.33658    8862.7842     4.257085     4.257085     4.257085    8862.7842     37345.84    11648.534   -22406.021   -16302.611    8530.7216    18047.067    77.150185 
   85400    1089.8372    -161.3204    0.9861076   -160.33429   -19808.854     4.261892     4.261892     4.261892   -19808.854     22293.21   -35459.747   -46260.025    2315.5103   -17983.223    2851.9442    77.411828 
   85500    1333.4142    -161.5367    1.2065012    -160.3302    -16841.18    4.2606988    4.2606988    4.2606988    -16841.18    -13494.29   -35463.742   -1565.5078     4171.733   -7571.6765    2160.7958    77.346829 
   85600    831.47239   -161.08465   0.75233369   -160.33232   -12355.087    4.2604221    4.2604221    4.2604221   -12355.087   -72195.067    23797.256     11332.55   -2894.1025    4974.7406    11598.541    77.331761 
   85700    921.69441   -161.17278   0.83396848   -160.33881     5315.235    4.2548664    4.2548664    4.2548664     5315.235   -25494.001    20865.118    20574.588   -6146.5044    4547.3354    14557.584    77.029627 
   85800    1100.6044   -161.33876   0.99584998   -160.34291    489.67157    4.2616528    4.2616528    4.2616528    489.67157    -1617.028     -22121.3    25207.343   -2590.8003    20490.892    13038.327    77.398797 
   85900     1141.662   -161.36505    1.0329998   -160.33205   -17991.878    4.2600027    4.2600027    4.2600027   -17991.878    -56748.62    -30700.72    33473.705     9355.682    3904.6715   -4611.3717    77.308922 
   86000    1219.5486   -161.43235    1.1034732   -160.32888   -12415.577    4.2556917    4.2556917    4.2556917   -12415.577   -14828.187   -21083.226   -1335.3189    10618.572   -6227.5091   -12448.836    77.074459 
   86100     1310.376   -161.52322    1.1856557   -160.33757    -10824.45    4.2645373    4.2645373    4.2645373    -10824.45    44670.214    -39812.35   -37331.214    1046.0927    3387.5326   -11279.779    77.556064 
   86200    784.19848   -161.04636   0.70955926    -160.3368    13386.009    4.2658979    4.2658979    4.2658979    13386.009    43495.858    22505.425   -25843.256   -19281.304   -1065.6895   -3342.5192    77.630321 
   86300     547.1853   -160.82682   0.49510476   -160.33171    28348.662    4.2521899    4.2521899    4.2521899    28348.662    60600.292    34984.389   -10538.695    -18072.15    5732.2155    1073.1726    76.884352 
   86400    1274.6483    -161.4863    1.1533286   -160.33297   -2199.6447    4.2537862    4.2537862    4.2537862   -2199.6447    34298.693   -14883.377    -26014.25   -9270.4705   -8245.7273    -6860.262    76.970973 
   86500    1165.1545   -161.38804    1.0542562   -160.33379   -17874.804    4.2645872    4.2645872    4.2645872   -17874.804   -4230.4669   -47726.999   -1666.9451    4323.3553   -10924.929   -8032.9616    77.558785 
   86600    1040.9458   -161.27322   0.94186964   -160.33135   -8826.2566    4.2604857    4.2604857    4.2604857   -8826.2566   -48738.448   -14062.229    36321.907    4426.6924    4945.8656    8047.3937    77.335222 
   86700    993.55383   -161.23604   0.89898839   -160.33705    6452.3578    4.2593766    4.2593766    4.2593766    6452.3578   -4593.3765    7691.8671    16258.583   -5877.1942    9262.0727    12363.635    77.274839 
   86800    987.56542   -161.23108   0.89356995   -160.33751    3370.8775    4.2588141    4.2588141    4.2588141    3370.8775    19677.791    11897.686   -21462.844   -15474.189    1118.9721    9657.7641    77.244231 
   86900    966.36142    -161.2047   0.87438412   -160.33032    1525.3135    4.2503318    4.2503318    4.2503318    1525.3135   -7871.5487    23734.842   -11287.353   -15326.416   -4268.4696    1629.6508    76.783603 
   87000    1364.2128   -161.56903    1.2343684   -160.33466   -36768.391    4.2611468    4.2611468    4.2611468   -36768.391   -37751.583   -35617.427   -36936.164    1049.4214   -8358.4447   -4920.0904    77.371227 
   87100    1308.9046   -161.51897    1.1843244   -160.33465   -31040.937    4.2674281    4.2674281    4.2674281   -31040.937    14960.304    -69582.23   -38500.884     1545.737    1837.7164    -10557.48    77.713886 
   87200    666.63709   -160.93694   0.60318724   -160.33375    18703.448    4.2545118    4.2545118    4.2545118    18703.448    51454.617   -9294.4633    13950.189   -6838.8568    13341.074    1188.6895    77.010369 
   87300     754.6384   -161.02111   0.68281268   -160.33829    20972.725    4.2535683    4.2535683    4.2535683    20972.725    61778.019   -27470.599    28610.755    3476.8275    16300.982     5985.797    76.959146 
   87400    1088.9972    -161.3236   0.98534751   -160.33825    3283.3676     4.259503     4.259503     4.259503    3283.3676    50878.193   -55601.063    14572.973    16928.267    13742.406   -1483.1226    77.281722 
   87500    1023.6475   -161.25802    0.9262178   -160.33181   -3638.8502    4.2591954    4.2591954    4.2591954   -3638.8502    3705.4771    4941.3676   -19563.395    20425.736   -6117.1762   -7063.4835    77.264981 
   87600    966.39164   -161.20722   0.87441146    -160.3328    -12015.33    4.2615754    4.2615754    4.2615754    -12015.33   -38809.011    33653.339    -30890.32    17136.931   -6181.8363   -1092.9172    77.394575 
   87700    995.89546   -161.23873   0.90110714   -160.33762     5953.732    4.2582128    4.2582128    4.2582128     5953.732   -26932.267    41242.399    3551.0639    9833.5026    7725.2515    10548.916    77.211514 
   87800    751.61583   -161.02061    0.6800778   -160.34054    18565.043    4.2567599    4.2567599    4.2567599    18565.043   -6521.4623    57521.029    4695.5615    3492.9737    1734.9915    9188.6871    77.132511 
   87900    946.97561   -161.19276   0.85684343   -160.33592   -13419.593    4.2631467    4.2631467    4.2631467   -13419.593   -16694.879   -1157.4088   -22406.491   -6106.4642     12016.63   -9084.8571     77.48022 
   88000    1167.3441   -161.39058    1.0562375   -160.33434   -5019.4436     4.263258     4.263258     4.263258   -5019.4436    46016.523   -43852.761   -17222.093    503.33803   -8578.1505   -8489.5875    77.486284 
   88100    542.78349   -160.83084   0.49112191   -160.33972    40262.248    4.2565887    4.2565887    4.2565887    40262.248    89456.557   -8395.1013    39725.288    13698.192   -16937.232    6649.3826    77.123206 
   88200    549.96493   -160.83464   0.49761982   -160.33702    22204.614    4.2618156    4.2618156    4.2618156    22204.614     52671.44   -21308.928    35251.329    6659.1569   -10175.907   -1194.6121    77.407667 
   88300    1374.8083   -161.57293    1.2439555   -160.32897   -25592.035    4.2669496    4.2669496    4.2669496   -25592.035   -6941.5174   -51098.293   -18736.294   -3017.0382    3516.6745   -8432.8285    77.687747 
   88400    1427.3247   -161.61485    1.2914734   -160.32337   -17841.526    4.2590861    4.2590861    4.2590861   -17841.526    -35269.35    6109.2573   -24364.485   -6271.7367    14746.715   -9295.6864    77.259032 
   88500    1061.4073    -161.2917   0.96038364   -160.33132   -4577.4852    4.2617255    4.2617255    4.2617255   -4577.4852   -17879.226    37280.971   -33134.201    4596.5176    8144.0274    4303.0234    77.402758 
   88600     1007.545   -161.24491   0.91164785   -160.33327   -1829.2582    4.2643216    4.2643216    4.2643216   -1829.2582    1703.3466    8837.3759   -16028.497    7402.9283    -6529.898     16868.99    77.544294 
   88700    1256.5781   -161.46389    1.1369782   -160.32691   -5234.6084     4.252663     4.252663     4.252663   -5234.6084    -14322.84   -14901.564    13520.579   -2815.6717   -14097.171    14112.329    76.910016 
   88800    1049.7596   -161.28252   0.94984454   -160.33268   -10945.237    4.2603973    4.2603973    4.2603973   -10945.237   -61967.285    -11736.58    40868.153    1058.9452    4498.6335    10766.142     77.33041 
   88900      857.792   -161.10398   0.77614823   -160.32783    3695.6693    4.2686285    4.2686285    4.2686285    3695.6693   -20049.354   -17446.034    48582.395    12938.591    12065.331   -11116.578     77.77949 
   89000    1095.4862   -161.31492    0.9912189    -160.3237    15887.955    4.2506722    4.2506722    4.2506722    15887.955    9689.6401    7416.8509    30557.374    14262.258    6956.2659    -14096.14    76.802053 
   89100    1010.9967   -161.24623   0.91477103   -160.33146   -10325.515    4.2546345    4.2546345    4.2546345   -10325.515   -47698.486   -7799.0317    24520.972    2882.3362    1995.2563   -3653.5722    77.017032 
   89200    1293.7718     -161.503    1.1706319   -160.33237   -48250.489    4.2688053    4.2688053    4.2688053   -48250.489   -55758.667   -55459.348   -33533.452     -6229.74   -13780.525    8307.7358    77.789155 
   89300    1238.4406   -161.45008    1.1205671   -160.32951    3916.6772     4.257567     4.257567     4.257567    3916.6772    40833.503   -2265.1505   -26818.321    12749.556   -10904.918    -2001.121    77.176393 
   89400    1009.1954    -161.2479   0.91314122   -160.33476    3679.4614     4.261348     4.261348     4.261348    3679.4614      4508.74   -7686.9818    14216.626    12917.142     6564.824    -12743.89    77.382188 
   89500     938.2146   -161.18564   0.84891628   -160.33672   -11494.822    4.2690487    4.2690487    4.2690487   -11494.822   -3508.2216   -43961.387    12985.143    6538.0817    11686.321    3883.3032    77.802459 
   89600    1282.8799   -161.49272    1.1607767   -160.33194     7451.834    4.2535869    4.2535869    4.2535869     7451.834    63611.641   -21830.461   -19425.678   -10747.085   -2906.6485    8516.0819    76.960153 
   89700    1054.0104   -161.28669   0.95369074     -160.333    16574.995    4.2474857    4.2474857    4.2474857    16574.995    61457.675    23090.507   -34823.198   -21941.815   -3644.6866   -218.28363    76.629463 
   89800    870.11698   -161.12735   0.78730013   -160.34005    -3728.199    4.2606953    4.2606953    4.2606953    -3728.199    2992.6469    20383.307   -34560.551   -15531.908   -12510.493   -3659.1636    77.346636 
   89900    1348.7648   -161.55648    1.2203907   -160.33609   -27385.505    4.2675814    4.2675814    4.2675814   -27385.505   -17865.667   -33335.429    -30955.42    7085.8155   -12708.881   -8838.9309    77.722264 
   90000    1304.2392    -161.5065     1.180103    -160.3264   -14694.515     4.258432     4.258432     4.258432   -14694.515   -25454.652   -39948.461    21319.568    4951.3879    8269.1311   -3151.7508    77.223441 
   90100    730.57288   -160.98885   0.66103769   -160.32781    17686.654    4.2474339    4.2474339    4.2474339    17686.654    -37101.53     22865.74    67295.751   -1716.0685    17486.935    11809.401    76.626659 
   90200    886.20759   -161.13855   0.80185925   -160.33669     14838.61     4.252837     4.252837     4.252837     14838.61    7134.3638    9079.9349    28301.533   -10730.342    17098.978    709.00275    76.919456 
   90300    1325.4876   -161.53024     1.199329   -160.33091   -12827.876    4.2596285    4.2596285    4.2596285   -12827.876    35872.056   -45882.002   -28473.682   -8117.9532    13887.588   -5370.2626     77.28855 
   90400    1154.6792    -161.3707     1.044778   -160.32592   -15900.043    4.2553093    4.2553093    4.2553093   -15900.043   -9628.1065   -23671.489   -14400.533    7047.4691   -2979.9789   -6143.0198     77.05368 
   90500    1001.2236   -161.24153   0.90592819   -160.33561   -4789.1645    4.2607405    4.2607405    4.2607405   -4789.1645   -48222.861    22747.248    11108.119    1482.4804   -3294.2199    4059.0367    77.349096 
   90600    906.21081   -161.15625   0.81995858   -160.33629    17753.222    4.2620614    4.2620614    4.2620614    17753.222    -34963.68    51944.482    36278.863   -1714.7119    10516.584    18880.702    77.421058 
   90700    672.92743   -160.94285   0.60887888   -160.33397    35553.638    4.2467931    4.2467931    4.2467931    35553.638   -29195.796    88493.618    47363.094   -2765.6492    7360.5619    22440.105     76.59198 
   90800    956.37176   -161.19999   0.86534527   -160.33465   -11736.311    4.2599446    4.2599446    4.2599446   -11736.311   -65883.432    43267.262   -12592.763    6730.3596   -5172.3196    3795.6764    77.305761 
   90900    1450.3612    -161.6382    1.3123173   -160.32589   -45827.822    4.2760791    4.2760791    4.2760791   -45827.822   -31841.356   -44290.594   -61351.516    17401.777   -6050.4478   -6840.9489    78.187473 
   91000     1009.155   -161.23172   0.91310461   -160.31861   -4634.2381    4.2587593    4.2587593    4.2587593   -4634.2381    1386.7184   -39903.655    24614.223   -7972.7335    11515.679   -4443.8476    77.241246 
   91100    769.20707   -161.02149   0.69599472   -160.32549    10970.836    4.2545005    4.2545005    4.2545005    10970.836   -29678.741    9525.5816    53065.666   -23774.167    15372.261    513.23571    77.009752 
   91200    1038.4383   -161.27341   0.93960078   -160.33381    2862.9076    4.2649375    4.2649375    4.2649375    2862.9076     -24375.3   -11110.474    44074.498   -4232.9106    4550.1479    8577.9713    77.577897 
   91300     1077.343   -161.30354   0.97480256   -160.32874   -746.20326    4.2579115    4.2579115    4.2579115   -746.20326   -13210.537   -31232.584    42204.511   -514.43746   -8001.6146    2683.6376    77.195128 
   91400    968.50749   -161.20391   0.87632593   -160.32759   -5526.0283    4.2518762    4.2518762    4.2518762   -5526.0283   -52084.502    14338.621    21167.796    1620.0601   -17731.406    -12983.32    76.867335 
   91500    943.57383   -161.19329   0.85376543   -160.33952   -879.44281     4.265107     4.265107     4.265107   -879.44281   -3851.4642    22277.674   -21064.538   -3411.9571   -17132.084   -5264.8634    77.587149 
   91600    745.77688   -161.00795   0.67479459   -160.33315    9206.0995    4.2659541    4.2659541    4.2659541    9206.0995    24281.556    6018.0794   -2681.3373   -17929.096    9783.7097    3158.1007    77.633388 
   91700    683.73974   -160.94352   0.61866208   -160.32486    6726.5137    4.2496822    4.2496822    4.2496822    6726.5137    20845.392   -13444.627    12778.776    3277.3622    14877.374    14153.673    76.748408 
   91800    990.80841   -161.22954   0.89650428   -160.33304   -3192.9977    4.2511275    4.2511275    4.2511275   -3192.9977   -8540.2551   -20429.335    19390.597    6895.3827    10586.421    11518.219    76.826738 
   91900     1043.064   -161.28383   0.94378625   -160.34005    -8842.658    4.2650374    4.2650374    4.2650374    -8842.658   -25456.973   -13589.815    12518.814    15004.778   -247.16754    1829.1565    77.583349 
   92000    753.74417   -161.01835   0.68200357   -160.33635    6535.1395     4.264226     4.264226     4.264226    6535.1395   -42099.377    38533.095    23171.701   -228.28039   -14817.178   -4584.1283    77.539078 
   92100    550.54533   -160.83787   0.49814498   -160.33973    22921.375    4.2555114    4.2555114    4.2555114    22921.375   -9704.0082    47020.243     31447.89    -7265.212   -6911.4107     3899.651    77.064663 
   92200    1170.3312   -161.38995    1.0589402   -160.33101     -28399.1    4.2544336    4.2544336    4.2544336     -28399.1   -22408.588   -30262.395   -32526.316    5083.5264    18998.419    21888.501    77.006121 
   92300    1141.4054   -161.35833    1.0327676   -160.32557   -20314.199     4.253968     4.253968     4.253968   -20314.199   -12281.473   -21998.966   -26662.158    4562.5363     14655.24    19144.824    76.980844 
   92400    641.90604   -160.91369   0.58081007   -160.33288    15808.404    4.2626426    4.2626426    4.2626426    15808.404    39342.927    17467.085   -9384.7992   -14630.472   -780.77206    7540.5511    77.452736 
   92500    767.21975    -161.0293   0.69419655    -160.3351    8880.7648    4.2663826    4.2663826    4.2663826    8880.7648    62261.701   -16723.973   -18895.433   -7227.6319    -4687.613   -1194.2314    77.656783 
   92600    1058.1175    -161.2873   0.95740692   -160.32989   -5070.1174    4.2551588    4.2551588    4.2551588   -5070.1174    35921.497   -49143.673   -1988.1765    10210.055   -3635.1149    13220.443    77.045506 
   92700    1073.7629   -161.30226   0.97156326   -160.33069   -11202.801    4.2545905    4.2545905    4.2545905   -11202.801   -1112.2346   -17726.501   -14769.666    12119.625    237.99641    13720.557    77.014644 
   92800    1189.3618   -161.40789    1.0761595   -160.33173   -19924.925    4.2627889    4.2627889    4.2627889   -19924.925   -22158.897     5043.539   -42659.418    10223.983   -763.92544    12689.099    77.460711 
   92900    891.19513   -161.13658   0.80637208   -160.33021    17890.952    4.2588286    4.2588286    4.2588286    17890.952     6738.582    53740.069   -6805.7961   -13833.804   -6773.4678   -4089.8402    77.245018 
   93000     646.8087   -160.91859   0.58524611   -160.33335    29573.427    4.2608689    4.2608689    4.2608689    29573.427   -22432.168      86204.1    24948.348   -14518.689   -14537.633   -14031.644     77.35609 
   93100     836.8157    -161.0913   0.75716843   -160.33413    10380.497    4.2615012    4.2615012    4.2615012    10380.497    -18409.82     69030.99   -19479.678   -8466.4037   -12712.286    -4205.697    77.390532 
   93200    1322.7301   -161.52344     1.196834   -160.32661   -9524.9681     4.250493     4.250493     4.250493   -9524.9681   -23384.453    26758.236   -31948.687    4948.3429    3414.7595    7422.4128    76.792345 
   93300    1333.1971   -161.53938    1.2063048   -160.33307   -13426.897    4.2547328    4.2547328    4.2547328   -13426.897   -26373.522   -2034.4772   -11872.692    13801.858   -2172.7604     7556.863    77.022369 
   93400    1130.7357   -161.35487    1.0231134   -160.33176   -25796.889    4.2664313    4.2664313    4.2664313   -25796.889   -15748.064   -40723.884   -20918.718    691.16506   -4397.5416   -7844.8644    77.659443 
   93500    961.05712    -161.1973   0.86958468   -160.32771    17309.341    4.2494988    4.2494988    4.2494988    17309.341    53054.356   -6651.7234    5525.3923   -10873.038   -5089.7179   -23331.996     76.73847 
   93600    1098.6318   -161.32322   0.99406514   -160.32916    21201.142    4.2463754    4.2463754    4.2463754    21201.142    29250.394    21225.256    13127.776   -1272.1839   -2356.4811   -15101.621    76.569382 
   93700    1303.5862   -161.50676    1.1795122   -160.32724   -45942.104    4.2698534    4.2698534    4.2698534   -45942.104   -69979.733   -24405.203   -43441.375    2080.8442     18124.07    3093.2146    77.846464 
   93800    1074.0464   -161.28974   0.97181974   -160.31792   -9010.7879    4.2638195    4.2638195    4.2638195   -9010.7879   -7302.1668   -22624.607    2894.4099    -3613.205    1884.7059    5036.0954    77.516905 
   93900     891.5874   -161.12894   0.80672702   -160.32221    25384.252    4.2543721    4.2543721    4.2543721    25384.252    25785.514   -6516.0632    56883.303   -4995.4098   -18313.844    1084.2983     77.00278 
   94000    805.65032    -161.0596   0.72896934   -160.33063    11013.758    4.2578754    4.2578754    4.2578754    11013.758    178.16843   -9294.7707    42157.877   -13848.988   -16775.211   -3291.7913    77.193163 
   94100    956.68254   -161.19744   0.86562647   -160.33181    -8.855424    4.2472957    4.2472957    4.2472957    -8.855424    8787.2103   -21498.651    12684.875    2447.0165    -11545.08    871.95235     76.61918 
   94200    1366.4472   -161.57023    1.2363902   -160.33384   -19725.901    4.2459697    4.2459697    4.2459697   -19725.901   -17075.428   -22620.313   -19481.962    61.667461   -448.23761    9180.6001    76.547441 
   94300    1308.1581   -161.52421    1.1836489   -160.34056   -27630.508    4.2604825    4.2604825    4.2604825   -27630.508   -28436.623   -21693.117   -32761.783    2944.0929    9647.8111    7349.2435    77.335046 
   94400     789.8969   -161.05285   0.71471531   -160.33814    8185.0421    4.2572746    4.2572746    4.2572746    8185.0421    34516.584   -11306.933    1345.4751   -3868.4184   -6962.6976    303.17559    77.160492 
   94500    578.95051   -160.86134   0.52384659   -160.33749    29719.037    4.2473714    4.2473714    4.2473714    29719.037    60301.324   -7868.1225    36723.908   -11170.774   -16590.276   -3318.6579    76.623274 
   94600    833.32192   -161.09318   0.75400718   -160.33917     9375.515    4.2530332    4.2530332    4.2530332     9375.515    24895.933   -23952.134    27182.746   -4550.0838   -11552.011    13954.203    76.930103 
   94700    1049.3625   -161.28119   0.94948521    -160.3317    -19234.61     4.257086     4.257086     4.257086    -19234.61   -24464.954   -39095.669    5856.7944      4465.22    -4279.016    19704.677    77.150239 
   94800    888.49142   -161.13581   0.80392571   -160.33188   -12902.382     4.255571     4.255571     4.255571   -12902.382    -11914.27   -19925.949   -6866.9282   -1758.6064     9409.512    14248.271    77.067899 
   94900    988.64674   -161.23011   0.89454835   -160.33556   -5526.0783    4.2621843    4.2621843    4.2621843   -5526.0783    3732.6279     -10396.1   -9914.7626   -5206.7155    5051.1482   -1401.9625    77.427755 
   95000    1012.4313   -161.25097   0.91606915    -160.3349    2898.3992    4.2539439    4.2539439    4.2539439    2898.3992    20070.467   -21342.631     9967.362   -7861.8213   -5342.2558   -20898.646    76.979532 
   95100    1053.7389   -161.28079   0.95344506   -160.32734    5329.1624    4.2395292    4.2395292    4.2395292    5329.1624    21662.004    -34011.82    28337.303    6351.5006    3200.4518   -15051.851    76.199637 
   95200    1079.9821   -161.31529   0.97719049    -160.3381   -15751.326      4.25926      4.25926      4.25926   -15751.326   -28605.868   -38498.919     19850.81    10052.158   -6222.2838   -857.62588    77.268498 
   95300    970.97804   -161.21525   0.87856133   -160.33669    1634.8448    4.2692173    4.2692173    4.2692173    1634.8448    -48740.62    25774.924    27870.231   -5628.0832    4933.3048    100.72383    77.811677 
   95400    729.05226   -160.99722   0.65966181   -160.33756    23693.459     4.252162     4.252162     4.252162    23693.459   -22667.374    43587.049    50160.703   -5693.0202    9847.2243    7883.7377    76.882837 
   95500    991.66219   -161.23014   0.89727679   -160.33287    470.88417    4.2460304    4.2460304    4.2460304    470.88417   -12630.741   -10077.471    24120.864    9093.5517   -7745.7945   -11142.836    76.550726 
   95600    1276.4152   -161.48947    1.1549273   -160.33454   -16352.119    4.2569574    4.2569574    4.2569574   -16352.119    -2767.618   -47460.718    1171.9799    8951.6502   -8145.4874   -16525.408    77.143244 
   95700     866.8722   -161.12233   0.78436418   -160.33796    13428.354    4.2626678    4.2626678    4.2626678    13428.354    49824.479   -6960.5344    -2578.884   -3564.7173    1092.4633   -13616.783    77.454112 
   95800    708.69598   -160.97561   0.64124302   -160.33437     5221.608    4.2604045    4.2604045    4.2604045     5221.608    67111.277   -10569.331   -40877.122   -12586.628    3191.4915   -14457.953    77.330799 
   95900    1075.1968   -161.30523   0.97286066   -160.33237   -14577.108    4.2516459    4.2516459    4.2516459   -14577.108    8977.2971   -44412.515   -8296.1048   -4868.0664    11957.653   -8347.2157    76.854846 
   96000    1303.9808   -161.51139    1.1798693   -160.33152   -23505.746    4.2511532    4.2511532    4.2511532   -23505.746   -50673.494    -38582.16    18738.416    2410.3271    10034.858    -5269.651    76.828131 
   96100    789.13742    -161.0487   0.71402812   -160.33467    15069.086    4.2499471    4.2499471    4.2499471    15069.086   -9195.0999    6617.5696     47784.79   -10094.478    8.4076363   -10887.256    76.762758 
   96200    700.03898   -160.97024   0.63340998   -160.33683    22034.333    4.2554886    4.2554886    4.2554886    22034.333    41092.129    333.40043    24677.471   -11182.243   -4669.1904   -5636.2639    77.063425 
   96300    1219.6798   -161.43596    1.1035919   -160.33237   -16224.903    4.2684427    4.2684427    4.2684427   -16224.903   -10228.524     -27801.6   -10644.586    485.69456   -1767.7698    10277.969    77.769333 
   96400    1434.5363   -161.61766    1.2979986   -160.31966   -38294.809     4.262513     4.262513     4.262513   -38294.809   -29464.956    -33535.38    -51884.09    4533.4493   -5038.5876    12896.395    77.445674 
   96500    922.08721   -161.16045   0.83432389   -160.32613    1755.5042    4.2523111    4.2523111    4.2523111    1755.5042    33454.546   -19533.304   -8654.7291     -1098.29   -9708.1883    4933.9922    76.890927 
   96600    742.04685   -161.00534   0.67141959   -160.33392    18250.513    4.2618911    4.2618911    4.2618911    18250.513    34174.469    2679.6855    17897.385   -12890.693    -17638.46   -13478.972     77.41178 
   96700    1052.3614   -161.27616   0.95219866   -160.32396   -7107.4471    4.2604953    4.2604953    4.2604953   -7107.4471     20569.93   -17700.637   -24191.634   -2304.9557   -4420.9497   -929.70119    77.335747 
   96800    1114.9451    -161.3293    1.0088258   -160.32047   -17930.612    4.2573303    4.2573303    4.2573303   -17930.612    4342.6351   -35139.498   -22994.972     13585.67    7235.8013    7376.2223    77.163519 
   96900    929.03553   -161.17005   0.84061087   -160.32944   -2210.2861    4.2666521    4.2666521    4.2666521   -2210.2861   -13795.128    21739.301   -14575.032   -6384.7155    -3085.752   -13185.493      77.6715 
   97000    741.30929   -160.99749   0.67075223   -160.32674    33492.762    4.2565037    4.2565037    4.2565037    33492.762    13776.966    58673.609     28027.71    -9694.352   -10658.591   -22562.597    77.118586 
   97100    1047.8999   -161.26503   0.94816184   -160.31687    6675.8069    4.2464506    4.2464506    4.2464506    6675.8069   -6293.5191    17721.413    8599.5266     1647.232    3235.0122   -11311.795    76.573454 
   97200    1415.6044   -161.60301    1.2808686   -160.32214   -31672.985    4.2582443    4.2582443    4.2582443   -31672.985   -25399.064   -35563.326   -34056.563    17240.528    13252.617   -107.89094    77.213228 
   97300    1234.0977   -161.44192    1.1166375   -160.32528   -13372.074    4.2577056    4.2577056    4.2577056   -13372.074   -9881.4115   -13106.663   -17128.148    13765.389    4876.5008    3765.0181    77.183931 
   97400    805.27832   -161.05724   0.72863275    -160.3286    22644.033     4.247811     4.247811     4.247811    22644.033    4722.0687    48450.495    14759.536   -8667.6521   -17679.667     -15222.1     76.64707 
   97500    738.96571   -161.00292    0.6686317   -160.33429    3432.8135    4.2564577    4.2564577    4.2564577    3432.8135    23169.385    8323.4593   -21194.403    -4208.187   -23426.148   -3748.0451    77.116082 
   97600    954.80319   -161.19305   0.86392599   -160.32913   -17909.834    4.2578154    4.2578154    4.2578154   -17909.834   -18602.071   -8584.0326   -26543.399   -1684.3256   -10969.886     7298.757    77.189899 
   97700    970.02651   -161.20504   0.87770038   -160.32734   -1836.8075    4.2482513    4.2482513    4.2482513   -1836.8075   -25827.614    -4492.096    24809.288   -1893.0627   -16900.078    5160.3163    76.670904 
   97800    653.48021   -160.92807   0.59128263   -160.33678    17228.767    4.2516782    4.2516782    4.2516782    17228.767    2294.1032    5033.1525    44359.046   -3642.9333   -22419.325   -1594.1611      76.8566 
   97900    527.30444   -160.81483   0.47711614   -160.33771    18336.942    4.2550777    4.2550777    4.2550777    18336.942    3811.2288    21128.409    30071.188   -16037.495   -26963.104   -8970.8419    77.041104 
   98000    1042.1875   -161.27902   0.94299314   -160.33603     10241.54    4.2440703    4.2440703    4.2440703     10241.54   -10160.533    38172.886    2712.2668   -6833.7716   -14151.291    3391.4152    76.444758 
   98100    1414.7908   -161.61121    1.2801324   -160.33108   -15129.298    4.2452517    4.2452517    4.2452517   -15129.298   -22130.257    1321.9604   -24579.599   -1367.1419    1566.9112    3737.5769    76.508613 
   98200    1098.9485   -161.32607   0.99435168   -160.33172   -21915.035    4.2574125    4.2574125    4.2574125   -21915.035    2321.3948   -39969.632   -28096.869     175.9407    5687.2482    1209.6466    77.167989 
   98300    996.05932   -161.23054    0.9012554   -160.32929    2073.5705    4.2582224    4.2582224    4.2582224    2073.5705    26086.847   -34041.177    14175.042    5701.0829    1068.4278   -5207.8906    77.212037 
   98400    1221.7244   -161.43558    1.1054419   -160.33014    15451.605    4.2488969    4.2488969    4.2488969    15451.605    53735.965   -20562.427    13181.277   -6133.1248     89.29957   -12982.159    76.705867 
   98500     1205.503   -161.42201    1.0907645   -160.33124   -7627.3875    4.2459801    4.2459801    4.2459801   -7627.3875    29997.119   -36409.212   -16470.069    14820.148    11721.681    4404.8483    76.548002 
   98600    1195.8495   -161.41336    1.0820297   -160.33133   -29581.936    4.2566257    4.2566257    4.2566257   -29581.936    -27360.95       -29131   -32253.858    10286.607    13940.753   -221.49846    77.125214 
   98700    1141.0653    -161.3655    1.0324599   -160.33304    5896.7337    4.2566249    4.2566249    4.2566249    5896.7337   -48160.087    43055.741    22794.547   -2556.3223    2766.6025   -12251.048    77.125169 
   98800    874.45266   -161.12685   0.79122314   -160.33563    32625.737    4.2527016    4.2527016    4.2527016    32625.737   -17104.182    82058.649    32922.745   -1122.6104   -9859.8059   -7277.6649     76.91211 
   98900    714.87899    -160.9804   0.64683754   -160.33357    1712.0674     4.258777     4.258777     4.258777    1712.0674   -26975.649     47540.44   -15428.589   -2847.9838   -10536.635   -9484.4965    77.242214 
   99000    990.54082   -161.22783   0.89626215   -160.33157   -1511.7798    4.2509416    4.2509416    4.2509416   -1511.7798   -21199.262    49369.615   -32705.692    8622.2269   -8628.9881    9088.9966    76.816659 
   99100    1042.3405   -161.28343   0.94313163    -160.3403    15398.645    4.2500755    4.2500755    4.2500755    15398.645    434.36554    50777.648   -5016.0768    3838.1059   -14280.726    6149.6562    76.769714 
   99200     911.6581   -161.16772   0.82488741   -160.34283   -2905.3456    4.2598765    4.2598765    4.2598765   -2905.3456   -20804.789    17463.812   -5375.0597   -2203.3402   -12856.182    5951.2925    77.302052 
   99300    1187.1015   -161.41345    1.0741143   -160.33934   -20507.538    4.2591318    4.2591318    4.2591318   -20507.538   -29949.499    20308.633   -51881.747   -9560.7451    7487.3937   -2479.2266     77.26152 
   99400    1441.1115   -161.64088     1.303948   -160.33693   -13692.188    4.2583834    4.2583834    4.2583834   -13692.188   -16142.739    8490.7638   -33424.588   -12998.367    1199.4518   -8573.8677    77.220795 
   99500    1077.4971   -161.31127   0.97494202   -160.33632    3459.6307    4.2539418    4.2539418    4.2539418    3459.6307    37028.882   -7393.8439   -19256.146   -9251.4819   -6525.0214    5046.9853     76.97942 
   99600    1031.1682   -161.26496   0.93302268   -160.33194   -14871.281    4.2504143    4.2504143    4.2504143   -14871.281    23383.607   -19265.979   -48731.471   -2792.0682    4209.7781    18341.461    76.788076 
   99700    1276.1316   -161.49248    1.1546707   -160.33781   -22497.868    4.2588095    4.2588095    4.2588095   -22497.868   -36818.383   -22022.518   -8652.7022    6380.2048   -3820.7937    17963.143    77.243981 
   99800    1062.8608   -161.30142   0.96169879   -160.33972   -5258.3837    4.2632242    4.2632242    4.2632242   -5258.3837   -37352.469   -32493.663    54070.982    6251.1759    -12575.54    4545.9341    77.484445 
   99900    600.78828   -160.88651   0.54360586   -160.34291    21136.312    4.2524891    4.2524891    4.2524891    21136.312      6652.61   -12925.389    69681.715   -7218.5812   -24906.462   -4293.5954    76.900582 
  100000    588.41273   -160.87861   0.53240821    -160.3462    15510.414    4.2506689    4.2506689    4.2506689    15510.414   -11963.603     17004.41    41490.436   -2623.6081   -22965.844   -5891.6808    76.801876 
Loop time of 39.4133 on 1 procs for 100000 steps with 8 atoms

Pair  time (%) = 12.8389 (32.5751)
Kspce time (%) = 9.75164 (24.742)
Neigh time (%) = 0 (0)
Comm  time (%) = 1.96605 (4.98829)
Outpt time (%) = 0.087009 (0.22076)
Other time (%) = 14.7697 (37.4739)

Nlocal:    8 ave 8 max 8 min
Histogram: 1 0 0 0 0 0 0 0 0 0
Nghost:    2189 ave 2189 max 2189 min
Histogram: 1 0 0 0 0 0 0 0 0 0
Neighs:    2472 ave 2472 max 2472 min
Histogram: 1 0 0 0 0 0 0 0 0 0

Total # of neighbors = 2472
Ave neighs/atom = 309
Neighbor list builds = 0
Dangerous builds = 0
unfix 20
unfix 21
print "seeds:4528288"
seeds:4528288
