LAMMPS (10 Feb 2015)
# ---- initialize simulations
clear
units metal
dimension 3
boundary p p p
atom_style charge
atom_modify map array
# ---- create atoms
read_data /Users/eugeneragasa/pyflamestk_git/pypospack/tests/tests_integration/workflow/WorkflowLammpsThermalExpansion/param_2632/MgO_NaCl_unit.npt.T1500/lammps.structure
  triclinic box = (0 0 0) to (4.2565 4.2565 4.2565) with tilt (0 0 0)
  1 by 1 by 1 MPI processor grid
  reading atoms ...
  8 atoms
# ---- define interatomic potential
include potential.mod
mass 1 24.305
mass 2 15.999

group Mg type 1
4 atoms in group Mg
group O type 2
4 atoms in group O

set group Mg charge 1.63285961235
  4 settings made for charge
set group O charge -1.63285961235
  4 settings made for charge

variable R_cut equal 10.0

pair_style buck/coul/long ${R_cut}
pair_style buck/coul/long 10
pair_coeff 1 1 0.0 0.5 0.0 ${R_cut}
pair_coeff 1 1 0.0 0.5 0.0 10
pair_coeff 1 2 1437.07173936 0.281984725072 0.0 ${R_cut}
pair_coeff 1 2 1437.07173936 0.281984725072 0.0 10
pair_coeff 2 2 17907.6681412 0.158842179647 12.0518239093 ${R_cut}
pair_coeff 2 2 17907.6681412 0.158842179647 12.0518239093 10

kspace_style pppm 1.0e-5

neighbor 1.0 bin
neigh_modify every 1 delay 0 check yes
# ---- define settings
compute eng all pe/atom
compute eatoms all reduce sum c_eng
# ---- run minimization
reset_timestep 0
fix 1 all box/relax iso 0.0 vmax 0.001
thermo 10
thermo_style custom step pe lx ly lz xy xz yz press pxx pyy pzz pxy pxz pyz c_eatoms
min_style cg
minimize 1e-25 1e-25 5000 10000
PPPM initialization ...
  G vector (1/distance) = 0.352629
  grid = 8 8 8
  stencil order = 5
  estimated absolute RMS force accuracy = 3.86465e-05
  estimated relative force accuracy = 2.68385e-06
  using double precision FFTs
  3d grid and FFT values/proc = 3375 512
Neighbor list info ...
  1 neighbor list requests
  update every 1 steps, delay 0 steps, check yes
  master list distance cutoff = 11
Memory usage per processor = 4.06549 Mbytes
Step PotEng Lx Ly Lz Xy Xz Yz Press Pxx Pyy Pzz Pxy Pxz Pyz eatoms 
       0   -108.26668       4.2565       4.2565       4.2565            0            0            0     68174.25     68174.25     68174.25     68174.25 -1.8708973e-11 1.9918278e-11 -1.4539535e-10   -108.26668 
      10   -108.32672     4.299065     4.299065     4.299065            0            0            0    15974.818    15974.818    15974.818    15974.818 2.7247293e-10 7.4247233e-11 1.7340321e-10   -108.32672 
      14   -108.33064    4.3118345    4.3118345    4.3118345            0            0            0    1605.1095    1605.1095    1605.1095    1605.1095 -5.9694499e-11 -6.7982128e-11 4.9253128e-12   -108.33064 
Loop time of 0.0149021 on 1 procs for 14 steps with 8 atoms

Minimization stats:
  Stopping criterion = linesearch alpha is zero
  Energy initial, next-to-last, final = 
        -108.266678614      -108.33063925      -108.33063925
  Force two-norm initial, final = 9.8444 0.23785
  Force max component initial, final = 9.8444 0.237844
  Final line search alpha, max atom move = 1.28309e-07 3.05176e-08
  Iterations, force evaluations = 14 44

Pair  time (%) = 0.00400567 (26.8799)
Kspce time (%) = 0.00235462 (15.8006)
Neigh time (%) = 0 (0)
Comm  time (%) = 0.000446796 (2.99821)
Outpt time (%) = 1.21593e-05 (0.0815948)
Other time (%) = 0.00808287 (54.2397)

Nlocal:    8 ave 8 max 8 min
Histogram: 1 0 0 0 0 0 0 0 0 0
Nghost:    2189 ave 2189 max 2189 min
Histogram: 1 0 0 0 0 0 0 0 0 0
Neighs:    2344 ave 2344 max 2344 min
Histogram: 1 0 0 0 0 0 0 0 0 0

Total # of neighbors = 2344
Ave neighs/atom = 293
Neighbor list builds = 0
Dangerous builds = 0
unfix 1
# ---- define output variables ----
variable natoms equal "count(all)"
variable tot_energy equal "c_eatoms"
variable length_x equal "lx"
variable length_y equal "ly"
variable length_z equal "lz"
variable tilt_xy equal "xy"
variable tilt_xz equal "xz"
variable tilt_yz equal "yz"
variable tot_press equal "press"
variable press_xx equal "pxx"
variable press_yy equal "pyy"
variable press_zz equal "pzz"
variable press_xy equal "pxy"
variable press_xz equal "pxz"
variable press_yz equal "pyz"

# ---- output ----
print "pypospack:output_section:begin"
pypospack:output_section:begin
print "tot_energy = ${tot_energy}"
tot_energy = -108.330639250266
print "num_atoms = ${natoms}"
num_atoms = 8
print "xx = ${length_x}"
xx = 4.3118345
print "yy = ${length_y}"
yy = 4.3118345
print "zz = ${length_z}"
zz = 4.3118345
print "xy = ${tilt_xy}"
xy = 0
print "xz = ${tilt_xz}"
xz = 0
print "yz = ${tilt_yz}"
yz = 0
print "tot_press = ${tot_press}"
tot_press = 1605.10951764203
print "pxx = ${press_xx}"
pxx = 1605.10951764176
print "pyy = ${press_yy}"
pyy = 1605.10951764198
print "pzz = ${press_zz}"
pzz = 1605.10951764233
print "pxy = ${press_xy}"
pxy = -5.96944985898881e-11
print "pxz = ${press_xz}"
pxz = -6.79821282837662e-11
print "pyz = ${press_yz}"
pyz = 4.92531279854496e-12
print "pypospack:output_section:done"
pypospack:output_section:done
print "pypospack:lammps_sim:done"
pypospack:lammps_sim:done
#------------------------------------------------------------------------------
# RUN THERMOSTAT
# running using an NPT Nose-Hoover style thermostat
#------------------------------------------------------------------------------
variable tempdamp equal 0.1
variable pressdamp equal 1.0
# set initial velocities
velocity all create 1500 1973995 mom yes dist gaussian loop all
# fix for Nose-Hoover style thermostat
fix 20 all npt temp 1500 1500 0.1 aniso 0.0 0.0 1.0 drag 1.0 couple xyz
variable boxx equal lx
variable boxy equal ly
variable boxz equal lz
variable boxp equal press
variable boxt equal temp
# calculate averages every 10000 steps
reset_timestep 0
fix 21 all ave/time 10 10 100 v_boxx v_boxy v_boxz v_boxp v_boxt file lattice.out
thermo_style custom step temp pe ke etotal press lx ly lz press pxx pyy pzz pxy pxz pyz vol
thermo_modify flush yes
thermo 100
run 100000
PPPM initialization ...
  G vector (1/distance) = 0.352078
  grid = 8 8 8
  stencil order = 5
  estimated absolute RMS force accuracy = 3.96373e-05
  estimated relative force accuracy = 2.75266e-06
  using double precision FFTs
  3d grid and FFT values/proc = 3375 512
Memory usage per processor = 3.06549 Mbytes
Step Temp PotEng KinEng TotEng Press Lx Ly Lz Press Pxx Pyy Pzz Pxy Pxz Pyz Volume 
       0         1500   -108.33065    1.3572315   -106.97342    19687.234    4.3118345    4.3118345    4.3118345    19687.234    21355.441    15923.575    21782.687   -1125.3379    11113.403    2714.3056    80.165268 
     100    395.46002   -107.18016   0.35782053   -106.82234    24470.067    4.3508069    4.3508069    4.3508069    24470.067    39521.101     22632.81    11256.291    863.46218   -7951.1438   -1503.7738    82.358689 
     200     1359.762   -107.66297    1.2303412   -106.43263    -52657.19    4.4026379    4.4026379    4.4026379    -52657.19   -49460.777   -37356.385   -71154.406    643.17201    5581.2799    2113.8338    85.337301 
     300    763.08863   -106.79993   0.69045863   -106.10947    26837.911    4.4010967    4.4010967    4.4010967    26837.911    56676.554    17215.573     6621.607   -12093.975   -2064.0698   -2348.5081    85.247711 
     400     1290.722   -107.00973    1.1678724   -105.84186    12267.606    4.3770244    4.3770244    4.3770244    12267.606    54574.218   -450.11908    -17321.28     4317.059   -16009.746   -3236.4478    83.856533 
     500    2387.8803   -107.85507    2.1606043   -105.69446   -16288.639    4.3763763    4.3763763    4.3763763   -16288.639    18933.416   -30195.993   -37603.341    -114.1212     5671.475    -7152.558    83.819286 
     600    1218.7779   -106.77423    1.1027759   -105.67146    4245.7354    4.4095225    4.4095225    4.4095225    4245.7354    12017.165    5065.0718   -4345.0313    2812.6366    571.54713    2647.7825    85.738263 
     700    1880.1911   -107.31675    1.7012364   -105.61551   -33044.316    4.4238845    4.4238845    4.4238845   -33044.316   -21221.205   -52955.667   -24956.075   -5186.3777   -7254.0743   -1977.4336    86.578754 
     800    1263.6554   -106.74083    1.1433819   -105.59745     8620.419    4.4004815    4.4004815    4.4004815     8620.419    46612.427    1356.4006    -22107.57    11984.076   -5685.3464    -2629.185    85.211967 
     900    959.27649   -106.46574   0.86797352   -105.59777    40081.858    4.3724477    4.3724477    4.3724477    40081.858    121044.63   -21615.188    20816.132   -8770.0518    16278.769    7601.0974     83.59376 
    1000    1016.5257   -106.58095   0.91977379   -105.66118    39239.669    4.3924687    4.3924687    4.3924687    39239.669    106171.43     46420.94   -34873.366    -1468.217   -3994.3546   -3440.6882     84.74733 
    1100    1410.7353   -106.93388    1.2764629   -105.65741   -15115.033    4.4163174    4.4163174    4.4163174   -15115.033    11535.053   -66041.912    9161.7607   -7891.5905   -6407.0613    901.88737    86.135231 
    1200    1541.8406   -107.02717    1.3950897   -105.63208     7065.405    4.3999311    4.3999311    4.3999311     7065.405    12086.829    7997.5393    1111.8468    11780.774    12282.256    3129.3902    85.179998 
    1300    1970.6244   -107.41696    1.7830624    -105.6339   -9646.1879    4.3903248    4.3903248    4.3903248   -9646.1879    40618.688    -33335.03   -36222.221   -15470.114      1447.27   -2991.0955    84.623301 
    1400     2022.868   -107.48414    1.8303335   -105.65381   -31282.765    4.3933054    4.3933054    4.3933054   -31282.765   -25748.386   -52703.615   -15396.295   -1839.3583    955.60185    1761.0343     84.79577 
    1500    1825.2204   -107.32963    1.6514978   -105.67814   -12645.801    4.4060149    4.4060149    4.4060149   -12645.801      21622.2   -12632.236   -46927.368    9200.9822    2881.4914   -636.42848    85.533823 
    1600    1797.5478   -107.27846     1.626459     -105.652   -28924.018    4.4139448    4.4139448    4.4139448   -28924.018   -8946.6463   -36481.718   -41343.692    -5869.139   -202.59203   -5688.1131    85.996486 
    1700    1872.3441   -107.32188    1.6941363   -105.62774     -20878.8    4.3952991    4.3952991    4.3952991     -20878.8   -24826.571   -25207.359   -12602.471   -15131.423   -117.37626    14432.344    84.911262 
    1800      2156.07   -107.58669    1.9508575   -105.63583    -12653.64    4.3847161    4.3847161    4.3847161    -12653.64    8923.1932   -17955.578   -28928.534   -339.45108    4446.0532   -5831.5905    84.299394 
    1900    1857.9475   -107.34295    1.6811099   -105.66184   -28279.734    4.3983168    4.3983168    4.3983168   -28279.734    4516.6962   -39309.968    -50045.93    1151.5362    5836.9551    1910.0348    85.086276 
    2000    1797.5291   -107.29435    1.6264421   -105.66791   -36895.521    4.4081472    4.4081472    4.4081472   -36895.521   -31504.797   -15513.313   -63668.454    2932.2629   -1085.7361    4197.8958    85.658064 
    2100     2291.308   -107.73386    2.0732236   -105.66063   -24566.954    4.3932035    4.3932035    4.3932035   -24566.954    13286.993   -47009.891   -39977.963   -2340.6796    17401.462   -10547.312    84.789868 
    2200     1598.003   -107.09783    1.4459067   -105.65192    83.653995     4.389227     4.389227     4.389227    83.653995     1378.108     23854.61   -24981.756   -1634.3758    3322.7408    7919.9044    84.559834 
    2300    1929.7527   -107.40256    1.7460808   -105.65648   -26261.554    4.4037286    4.4037286    4.4037286   -26261.554    14858.064   -45664.129   -47978.597    16268.462   -18946.134   -15767.293    85.400741 
    2400    1562.9453   -107.05633    1.4141857   -105.64214    -17431.31    4.4073252    4.4073252    4.4073252    -17431.31    48641.612   -41565.301   -59370.241   -4782.8974    21565.175    4362.3115    85.610159 
    2500    988.57847   -106.52586   0.89448657   -105.63137    19361.727    4.4065052    4.4065052    4.4065052    19361.727    115865.24    -6641.211    -51138.85    10340.999    1035.0225    3647.5714    85.562379 
    2600     1524.454   -106.99601     1.379358   -105.61665   -12093.987    4.4035908    4.4035908    4.4035908   -12093.987    54311.675    -56179.68   -34413.954    1988.4188    6785.8992   -3480.2969    85.392722 
    2700    944.21966    -106.4698   0.85434979   -105.61545    21240.902    4.4009889    4.4009889    4.4009889    21240.902    89127.263    22004.516   -47409.074   -4551.5884    12184.279    1850.5688     85.24145 
    2800    2013.7199   -107.41257    1.8220561   -105.59052   -6266.4818    4.3986656    4.3986656    4.3986656   -6266.4818    12044.032   -24807.396   -6036.0818     6291.598   -11405.357   -10200.292    85.106519 
    2900    1346.9622   -106.82244    1.2187597   -105.60368    -12348.93    4.4041661    4.4041661    4.4041661    -12348.93   -21246.299    20528.291   -36328.782   -1278.5199    10794.103   -1403.0291    85.426197 
    3000    1407.6396   -106.87457    1.2736619   -105.60091   -7879.9724    4.4094361    4.4094361    4.4094361   -7879.9724    52801.014    -43624.45   -32816.481   -3514.3022    8963.8252    2721.5611    85.733222 
    3100    1438.6891   -106.90246    1.3017561    -105.6007    4631.3368    4.3942015    4.3942015    4.3942015    4631.3368    67840.372   -35080.967   -18865.394    7971.3711   -2248.3475    4707.2573    84.847669 
    3200    1354.4222   -106.82899    1.2255097   -105.60348    13588.912    4.3793975    4.3793975    4.3793975    13588.912     20938.31    61631.396   -41802.969     2936.195    19328.076    3191.0037    83.993003 
    3300    1732.3442   -107.19527    1.5674614   -105.62781   -587.75687    4.3984707    4.3984707    4.3984707   -587.75687    45733.044   -41024.345   -6471.9693    1869.2745    11014.093    -4837.423    85.095209 
    3400    1419.6608   -106.88378     1.284539   -105.59924    1132.0343    4.4133202    4.4133202    4.4133202    1132.0343    54728.717   -8069.8965   -43262.717   -6972.1687    18980.622    1904.5675     85.95998 
    3500    1421.6082   -106.86114    1.2863009   -105.57484   -19656.126    4.3986767    4.3986767    4.3986767   -19656.126   -29574.995    -23914.73   -5478.6517   -3727.5707    2872.9938   -812.73689    85.107164 
    3600    1672.5644   -107.07633    1.5133714   -105.56296   -11120.468    4.3849501    4.3849501    4.3849501   -11120.468   -44757.515    16513.363   -5117.2532   -2677.8239    2173.1707   -9239.1775     84.31289 
    3700    1696.9021   -107.11239    1.5353927     -105.577    14355.089    4.3920577    4.3920577    4.3920577    14355.089    90630.666   -11726.483   -35838.915    6122.4255    17515.177   -2768.5915    84.723541 
    3800    1547.4636   -106.99757    1.4001776    -105.5974   -2872.4833    4.4097461    4.4097461    4.4097461   -2872.4833    8145.6272   -12201.252   -4561.8251      641.109   -9434.1721   -7181.2405    85.751306 
    3900    1849.5493   -107.25107    1.6735111   -105.57756   -24580.146    4.4149041    4.4149041    4.4149041   -24580.146   -10369.436   -54346.953   -9024.0481   -7714.7517    1753.1303   -6719.4472    86.052564 
    4000     1437.556   -106.87912    1.3007309   -105.57839   -1170.5059    4.3997671    4.3997671    4.3997671   -1170.5059    84054.801   -52408.553   -35157.766   -5922.0207    803.18675    4494.2824    85.170471 
    4100    1417.5802   -106.87343    1.2826563   -105.59078    25025.043    4.3757477    4.3757477    4.3757477    25025.043    87730.907    2595.6515    -15251.43    7585.4431    11706.473    4216.9526    83.783178 
    4200    1354.1786   -106.85329    1.2252893     -105.628    49270.837    4.3804767    4.3804767    4.3804767    49270.837    113701.27   -3525.1854    37636.423   -574.93265   -21023.406   -3032.4385    84.055111 
    4300    1167.1356    -106.6764    1.0560488   -105.62035   -17551.071    4.4106539    4.4106539    4.4106539   -17551.071   -39438.453   -4893.0303   -8321.7293   -10213.109   -4049.8748    7019.5435     85.80428 
    4400    1626.1523   -107.04519    1.4713768   -105.57382   -30971.455    4.4087777    4.4087777    4.4087777   -30971.455    -15734.25   -42507.429   -34672.685   -5657.1203   -7578.5235   -4936.3152    85.694827 
    4500    1404.3065   -106.82339    1.2706461   -105.55274    31670.869    4.3867574    4.3867574    4.3867574    31670.869   -4988.5981   -10647.488    110648.69   -9648.0458    3838.5958   -15320.659    84.417182 
    4600    1621.3792   -107.03409    1.4670579   -105.56703    -10424.24     4.385455     4.385455     4.385455    -10424.24   -46333.437   -42190.304    57251.019    15972.256   -1511.3831      11658.7    84.342013 
    4700    592.28681     -106.146   0.53591355   -105.61009    12134.535    4.4088055    4.4088055    4.4088055    12134.535   -43225.808    2896.5318    76732.882   -28177.525   -3390.1388   -8935.4637    85.696449 
    4800    1792.2519   -107.20105    1.6216671   -105.57938    -21991.51    4.4130363    4.4130363    4.4130363    -21991.51    -36838.95   -35642.178    6506.5996   -10955.994   -2757.9588    5149.9946    85.943392 
    4900    1430.8434    -106.8459    1.2946571   -105.55124    16452.772    4.3989049    4.3989049    4.3989049    16452.772   -16162.607   -993.58623    66514.508    586.25129    3162.7864      5860.72    85.120413 
    5000    1691.1535   -107.08415    1.5301912   -105.55396    -24383.97    4.4002361    4.4002361    4.4002361    -24383.97   -55853.281   -35482.365    18183.738    1876.5038   -11386.896     3359.979    85.197711 
    5100    978.61895   -106.45394   0.88547499   -105.56847    50835.696      4.39695      4.39695      4.39695    50835.696    48401.973    36856.861    67248.253    -24320.96   -3717.2157    16388.539     85.00698 
    5200    1818.2189   -107.23472    1.6451627   -105.58956    -13415.38    4.4136534    4.4136534    4.4136534    -13415.38   -54779.251   -30805.257    45338.368   -2385.2513    107.53024    2624.3198    85.979454 
    5300    1571.5936   -106.99224    1.4220109   -105.57023   -16322.277    4.4114737    4.4114737    4.4114737   -16322.277   -27506.267   -29733.107    8272.5447    14895.877     2903.855   -7786.3777    85.852135 
    5400    1150.1534   -106.59801     1.040683   -105.55733    31660.496    4.3892557    4.3892557    4.3892557    31660.496    36879.877    37643.897    20457.714   -10436.583   -7571.0399   -7024.4355    84.561494 
    5500    1868.1562   -107.26164     1.690347    -105.5713   -911.94935    4.4002513    4.4002513    4.4002513   -911.94935   -13200.886   -35982.336    46447.375   -13753.723   -9888.1369   -37.990501    85.198597 
    5600    1575.6829   -106.98928     1.425711   -105.56357   -21654.352    4.4198542    4.4198542    4.4198542   -21654.352   -33176.805   -61055.844    29269.595    1964.2124     465.1145   -6699.6424    86.342341 
    5700    1469.9117   -106.87084     1.330007   -105.54083    4567.0302    4.4075484    4.4075484    4.4075484    4567.0302    2077.7701    3692.7512    7930.5694   -147.95375   -14359.908    1740.1612    85.623166 
    5800    1157.4156   -106.59166     1.047254   -105.54441    44123.931     4.399359     4.399359     4.399359    44123.931    62590.705    8814.1959    60966.891    10958.647   -26267.936    7999.7519    85.146773 
    5900    1712.0499   -107.09776    1.5490987   -105.54866   -12715.721    4.4040441    4.4040441    4.4040441   -12715.721    10368.798   -33268.768   -15247.193    -13568.64   -8159.8919     11238.33    85.419098 
    6000      1342.93   -106.77108    1.2151113   -105.55597   -28920.025    4.4088322    4.4088322    4.4088322   -28920.025   -45472.013   -50439.465    9151.4042   -13018.738    845.65689    12491.957    85.698005 
    6100    1659.0229   -107.05172    1.5011188    -105.5506    3542.0595    4.4053588    4.4053588    4.4053588    3542.0595   -820.03364   -29229.003    40675.215    4736.4924    16351.183   -7214.6792     85.49562 
    6200    1367.1127   -106.78899    1.2369923     -105.552    9286.1837    4.4111477    4.4111477    4.4111477    9286.1837     10402.28   -7696.2599    25152.531   -8402.6057    3322.0677    -12155.16    85.833098 
    6300    1828.5483   -107.17684    1.6545089   -105.52233   -35560.314    4.4180946    4.4180946    4.4180946   -35560.314   -65537.613   -12653.539   -28489.789   -5741.6995    8954.9747    3450.5659     86.23926 
    6400    1634.3318   -106.98994    1.4787777   -105.51116   -27169.806    4.4186522    4.4186522    4.4186522   -27169.806   -15448.537    -49086.58   -16974.302   -6186.5457   -13621.794    7927.3663    86.271918 
    6500    1438.0775   -106.81103    1.3012027   -105.50983    8292.9916    4.4064257    4.4064257    4.4064257    8292.9916    58636.512   -3617.2335   -30140.304    12525.377     -5634.83     3859.888    85.557748 
    6600    1170.7495   -106.59279    1.0593188   -105.53348    11015.022    4.4015417    4.4015417    4.4015417    11015.022     -40206.9    -14331.32    87583.287   -2205.4953     7872.762   -23827.863    85.273573 
    6700    1641.1589   -107.04555    1.4849551   -105.56059   -11481.029    4.4106146    4.4106146    4.4106146   -11481.029   -25183.423   -5721.9738   -3537.6894   -2084.4857    18880.612    23850.318    85.801982 
    6800    1899.8904   -107.27896    1.7190607    -105.5599   -24452.157    4.4211161    4.4211161    4.4211161   -24452.157   -38986.763   -51424.032    17054.323    3942.9281    10220.763   -5582.6701    86.416316 
    6900    1172.8865   -106.59906    1.0612524   -105.53781    2552.0729    4.4161825    4.4161825    4.4161825    2552.0729   -40800.512   -25922.532    74379.263   -4894.6209    4771.4232    532.77596    86.127341 
    7000     879.4075   -106.32855   0.79570639   -105.53285    39033.129     4.405911     4.405911     4.405911    39033.129   -55780.487    87606.947    85272.927   -894.29576    15101.693    28717.475    85.527774 
    7100    1501.0118   -106.90365     1.358147    -105.5455    14819.016    4.4112262    4.4112262    4.4112262    14819.016   -73661.522    42086.713    76031.857    8612.9466    5456.2934    41532.231    85.837681 
    7200    1239.1695   -106.67699    1.1212266   -105.55576    3765.4922    4.4231579    4.4231579    4.4231579    3765.4922   -82063.693    86214.132    7146.0376    6606.2669   -4194.9109    24547.757    86.536103 
    7300    1246.0369   -106.66598    1.1274404   -105.53854   -676.75083    4.4092022    4.4092022    4.4092022   -676.75083   -60573.335     8396.504    50146.578    812.26243   -10266.893     8257.635    85.719584 
    7400    1526.6812   -106.91385    1.3813732   -105.53248    8470.4199    4.3900605    4.3900605    4.3900605    8470.4199   -19455.412     2339.158    42527.513    16237.915   -7845.5286    -4912.464    84.608019 
    7500    1931.2305    -107.3076    1.7474179   -105.56018   -18853.591    4.3901734    4.3901734    4.3901734   -18853.591   -67544.329    43035.774   -32052.219     7872.122   -15591.041   -17625.871    84.614546 
    7600    841.10375   -106.36647   0.76104835   -105.60543    29779.274    4.4031189    4.4031189    4.4031189    29779.274   -52738.488    78399.175    63677.137    7918.3228   -2880.8895    3178.1236    85.365275 
    7700    1454.4105   -106.90959    1.3159812   -105.59361   -4892.7745    4.4142071    4.4142071    4.4142071   -4892.7745   -47223.574    41512.018   -8966.7677    1034.3541    -14088.53    22821.671    86.011814 
    7800    1769.7693   -107.16753    1.6013244    -105.5662   -23217.801    4.4108567    4.4108567    4.4108567   -23217.801   -85305.611    36095.658    -20443.45      621.904   -10810.121    5392.2203    85.816113 
    7900    1265.1653   -106.70902    1.1447481   -105.56427    36524.835    4.3969874    4.3969874    4.3969874    36524.835   -26775.692    96687.756    39662.441    11380.722   -689.30785   -10353.607    85.009146 
    8000    1202.4202   -106.69158    1.0879751    -105.6036   -5513.2874    4.4128571    4.4128571    4.4128571   -5513.2874   -27167.971    45183.909     -34555.8    24778.091    99.530174   -15155.665    85.932924 
    8100    1728.4977     -107.136     1.563981   -105.57202   -12280.919    4.4170024    4.4170024    4.4170024   -12280.919   -50290.946    19016.574   -5568.3837   -6165.6433    1697.1746   -14889.636    86.175319 
    8200    1778.8841   -107.16967    1.6095717    -105.5601     -20662.1    4.3967898    4.3967898    4.3967898     -20662.1   -68616.049    24261.275   -17631.527    9452.9292   -3889.0205    5767.8969    84.997688 
    8300    1585.4493   -107.01502    1.4345478   -105.58047    25714.867    4.3793322    4.3793322    4.3793322    25714.867   -26846.902    124226.65   -20235.146   -7126.8947    5194.4847      14995.9    83.989243 
    8400    1301.3788   -106.80572    1.1775149   -105.62821    2080.3537    4.3929576    4.3929576    4.3929576    2080.3537   -47898.905     63708.71   -9568.7444   -1254.6003   -13320.834    5771.4982    84.775632 
    8500    1973.6981   -107.38174    1.7858435    -105.5959    -39285.82    4.4152426    4.4152426    4.4152426    -39285.82   -57675.632   -15766.239   -44415.589    2485.1259    11513.879    10877.419    86.072361 
    8600    1260.0342   -106.70437    1.1401054   -105.56427   -3126.5404    4.4126069    4.4126069    4.4126069   -3126.5404   -66881.458    117911.63   -60409.793    10832.388   -1519.2541    3759.0475     85.91831 
    8700    1421.1194   -106.83825    1.2858587   -105.55239    14324.161    4.3842859    4.3842859    4.3842859    14324.161    -68829.34     42276.38    69525.443    15009.222   -8842.7906    7649.0097     84.27458 
    8800    1739.5203   -107.15737    1.5739546   -105.58341   -7707.0044    4.3788191    4.3788191    4.3788191   -7707.0044   -66896.283    65434.773   -21659.504   -12022.986   -8158.6041    10817.915    83.959728 
    8900    1711.1534   -107.15569    1.5482876    -105.6074   -24366.356    4.4034292    4.4034292    4.4034292   -24366.356   -67857.838    11990.631    -17231.86    17492.816    2815.9566   -8794.6583    85.383323 
    9000     1247.273   -106.71486    1.1285588    -105.5863    13632.137      4.40211      4.40211      4.40211    13632.137   -56356.729    83536.278    13716.861    7791.2673   -7407.7491   -22754.668    85.306606 
    9100    1769.4416   -107.16841    1.6010279   -105.56739   -34086.615     4.386785     4.386785     4.386785   -34086.615   -76637.703   -15527.441   -10094.701   -5307.7746   -5575.2183    12678.043    84.418776 
    9200    1762.1011   -107.16668    1.5943861    -105.5723    17185.342    4.3804774    4.3804774    4.3804774    17185.342   -37816.309    83477.232    5895.1015    340.58874    23944.118   -21741.298    84.055152 
    9300    1477.4722   -106.93454    1.3368479   -105.59769   -20287.902    4.4055991    4.4055991    4.4055991   -20287.902    -61108.85   -14141.226     14386.37   -7282.4903   -14680.794    18285.078     85.50961 
    9400    1216.6333   -106.67465    1.1008354   -105.57381    -17837.28    4.4141917    4.4141917    4.4141917    -17837.28   -88702.243     42350.39   -7159.9856   -6618.1365    4304.1614     30837.37    86.010913 
    9500    1257.9018   -106.70592    1.1381759   -105.56774    15050.947    4.3828289    4.3828289    4.3828289    15050.947   -54655.894    145983.29   -46174.549   -1843.0936   -6814.0443   -15922.711    84.190592 
    9600    1890.6839   -107.29471    1.7107306   -105.58398    17537.376    4.3632255    4.3632255    4.3632255    17537.376   -4497.4796    41563.616    15545.991    6144.0669    14534.121   -12260.749    83.065937 
    9700    1078.6214   -106.62193   0.97595931   -105.64597    10344.452    4.3949782    4.3949782    4.3949782    10344.452   -69399.044     122914.2   -22481.804    -10141.25   -15927.876     21054.64    84.892665 
    9800    1779.8149   -107.22033    1.6104139   -105.60991   -61519.521    4.4204325    4.4204325    4.4204325   -61519.521   -92483.506       -22895   -69180.058    12649.745    6005.4495   -106.16836    86.376238 
    9900     1701.915   -107.11465    1.5399284   -105.57472      -5996.6    4.3930512    4.3930512    4.3930512      -5996.6   -37412.145    59314.717   -39892.372    4938.4087    5555.3318    7858.3377     84.78105 
   10000    1062.9765   -106.53027   0.96180345   -105.56846    41570.856    4.3810498    4.3810498    4.3810498    41570.856   -34270.909    71372.023    87611.452    13011.522   -1680.3563   -30176.987    84.088105 
   10100    1553.0901   -106.98921    1.4052686   -105.58394    -21604.32    4.4052024    4.4052024    4.4052024    -21604.32    -52875.83   -14323.775    2386.6454   -1843.4446   -392.56068    -11548.17    85.486511 
   10200    1639.7541   -107.04929     1.483684   -105.56561    -19370.97    4.4141417    4.4141417    4.4141417    -19370.97   -72775.333     5148.188     9514.234    3970.6095    3270.2733   -2509.4675    86.007994 
   10300    1289.0192   -106.71016    1.1663317   -105.54383    9934.7981    4.4023229    4.4023229    4.4023229    9934.7981   -43755.179     26416.14    47143.433    -1971.992     10526.87   -23592.759    85.318987 
   10400     1174.184   -106.60789    1.0624264   -105.54546    4348.3872    4.3928539    4.3928539    4.3928539    4348.3872    -48804.84    15759.039    46090.962   -6884.7015   -4834.8307   -1493.1175    84.769631 
   10500    1423.1478   -106.85335     1.287694   -105.56566    11813.621    4.3906213    4.3906213    4.3906213    11813.621   -49945.397    37926.445    47459.815    1398.7094   -1634.7349    22131.377    84.640444 
   10600    1123.2544    -106.5907    1.0163441   -105.57436    28573.745    4.3937909    4.3937909    4.3937909    28573.745   -54543.411    66531.861    73732.784   -2503.9885   -3013.4315    4639.3257    84.823887 
   10700    1652.3259   -107.06307    1.4950592   -105.56801   -19455.908    4.4043846    4.4043846    4.4043846   -19455.908   -66279.138   -24348.481    32259.895    4477.8219   -3383.2977   -1824.6065    85.438912 
   10800    1954.3851   -107.32891    1.7683687   -105.56054   -25543.854    4.4098237    4.4098237    4.4098237   -25543.854   -45845.839    2307.1569    -33092.88   -14085.188   -2521.8525   -3593.5698    85.755835 
   10900    1354.6639   -106.78346    1.2257284   -105.55773     22580.75     4.391997     4.391997     4.391997     22580.75   -47349.194    28320.534    86770.909    2555.0498     3769.422   -15303.629    84.720032 
   11000    854.94074   -106.34563   0.77356835   -105.57206    29048.743    4.3870884    4.3870884    4.3870884    29048.743   -72071.909    3755.7215    155462.42   -384.27869    9142.4251    19921.403    84.436293 
   11100    1709.9605   -107.13433    1.5472082   -105.58712    2462.1242      4.40979      4.40979      4.40979    2462.1242   -34275.209    15249.912     26411.67    3063.4873    96.666198    28644.509    85.753868 
   11200    1243.5725   -106.69681    1.1252105    -105.5716   -26806.367     4.415037     4.415037     4.415037   -26806.367   -77446.763    52645.942   -55618.278    1473.2012      13415.2    -123.4678    86.060336 
   11300    1587.0836   -106.98602    1.4360266      -105.55   -31293.758    4.3826859    4.3826859    4.3826859   -31293.758   -78429.907    9368.5596   -24819.927   -3168.9674     13030.97    -9372.229    84.182351 
   11400    1621.5978   -107.03096    1.4672557   -105.56371    37896.524    4.3707776    4.3707776    4.3707776    37896.524   -23618.027    66918.691    70388.907    7063.0546   -10944.245   -8999.5649     83.49801 
   11500    1378.6349   -106.83931    1.2474178   -105.59189   -15267.675     4.402589     4.402589     4.402589   -15267.675   -70772.742   -20037.579    45007.296    10207.782    15485.093   -14439.468     85.33446 
   11600    1326.2451   -106.76023    1.2000145   -105.56022   -19293.406    4.4186853    4.4186853    4.4186853   -19293.406   -86795.571    -33587.94    62503.295    1595.3159   -8242.9483    8426.5554    86.273859 
   11700    1023.7561   -106.46298   0.92631602   -105.53667    36497.438     4.394021     4.394021     4.394021    36497.438    -24283.71    115311.14    18464.887     9769.387    10870.882    22583.985    84.837213 
   11800    1349.9112    -106.7548     1.221428   -105.53337    29999.141    4.3799663    4.3799663    4.3799663    29999.141   -3307.1192    51466.564    41837.978    21582.504    -18137.28    7693.4019    84.025734 
   11900    1187.3279    -106.6314    1.0743192   -105.55708    12298.841    4.3890757    4.3890757    4.3890757    12298.841   -61130.239    46514.585    51512.177    3669.8743   -3579.5857    30046.735    84.551088 
   12000    1329.9491   -106.78426    1.2033659   -105.58089   -1220.7788    4.4059198    4.4059198    4.4059198   -1220.7788   -54376.556    32648.249    18065.971    8294.0965    746.10186    -16221.01    85.528283 
   12100    1564.1474   -106.97863    1.4152734   -105.56336   -14341.599    4.4066922    4.4066922    4.4066922   -14341.599   -54073.628    24497.336   -13448.507    1260.1289   -1636.4532   -18908.525    85.573274 
   12200    1281.2117    -106.6978    1.1592672   -105.53854   -5712.4424    4.3933924    4.3933924    4.3933924   -5712.4424   -61032.805    32257.895    11637.583   -1080.3254    7074.3349   -7640.7357    84.800809 
   12300    1658.9851   -107.03139    1.5010845    -105.5303   -9603.1425    4.3941156    4.3941156    4.3941156   -9603.1425    -29564.52    25600.181   -24845.089    12103.273    8602.0677    -10753.24    84.842691 
   12400    2041.8325   -107.37862    1.8474929   -105.53113   -27764.195    4.3949756    4.3949756    4.3949756   -27764.195   -35752.636   -2761.1558   -44778.794   -8484.6733    16899.978    4944.6305    84.892516 
   12500    1350.6215   -106.76468    1.2220707   -105.54261    17214.544      4.38539      4.38539      4.38539    17214.544   -29656.497    43459.405    37840.724    6186.9885    7429.8632   -3588.7929    84.338267 
   12600    1653.8012   -107.05051    1.4963941   -105.55412   -6688.3957    4.3865812    4.3865812    4.3865812   -6688.3957   -27665.646    31686.556   -24086.097   -4395.1707   -616.29165   -6507.6704    84.407011 
   12700    1887.9224   -107.27104    1.7082318    -105.5628    10138.241    4.3896173    4.3896173    4.3896173    10138.241    15416.607   -6357.5405    21355.657   -621.61645    27484.126    15729.526    84.582397 
   12800    1546.2495   -106.96345     1.399079   -105.56437   -20660.191    4.3954744    4.3954744    4.3954744   -20660.191   -65089.142   -29096.153    32204.722     3450.046   -27030.016   -12199.499    84.921426 
   12900     1480.177   -106.90066    1.3392952   -105.56137   -4096.2148    4.3781807    4.3781807    4.3781807   -4096.2148   -54367.254    48925.151   -6846.5411   -6.1907611    11518.872    17041.834    83.923009 
   13000    1867.7981   -107.25775     1.690023   -105.56772    29939.267    4.3697808    4.3697808    4.3697808    29939.267     37073.74   -9030.6102    61774.672    12740.107   -6646.5176   -788.77151    83.440897 
   13100    1507.7357     -106.959    1.3642309   -105.59477   -10757.096    4.3979373    4.3979373    4.3979373   -10757.096   -3009.0318   -45646.991    16384.736    6326.7702    -14112.46    -5820.321    85.064255 
   13200    1557.1126   -106.97885    1.4089082   -105.56994   -16746.094    4.4081438    4.4081438    4.4081438   -16746.094   -43790.653   -13535.488    7087.8595    772.51016    -394.8204    6012.9719    85.657868 
   13300    1337.9336   -106.76393    1.2105904   -105.55334   -3534.1253    4.4039159    4.4039159    4.4039159   -3534.1253   -3002.8559    30712.823   -38312.343    4550.9854   -20949.519    -5341.371    85.411637 
   13400    975.31218   -106.42917   0.88248295   -105.54669    32957.147    4.3860387    4.3860387    4.3860387    32957.147    46949.936    -1290.089    53211.593    -9094.222   -17800.319   -21974.697      84.3757 
   13500    2092.6996   -107.44551    1.8935186   -105.55199   -12222.583    4.3755906    4.3755906    4.3755906   -12222.583    13058.187   -14637.735     -35088.2    10501.439    25411.288    22373.691    83.774152 
   13600    955.33545   -106.45603   0.86440759   -105.59162   -23805.883     4.394713     4.394713     4.394713   -23805.883   -54127.317     433.5279   -17723.861   -713.85975    -39146.13   -7366.1551    84.877298 
   13700    1473.6595    -106.9049     1.333398    -105.5715   -4029.2244    4.3943843    4.3943843    4.3943843   -4029.2244    36510.771    -18928.06   -29670.385    -5779.724   -249.08322   -2902.1352    84.858256 
   13800    1555.8514   -106.98023    1.4077671   -105.57246   -10981.466    4.3951016    4.3951016    4.3951016   -10981.466    52951.047   -45150.795   -40744.651    20854.594    7296.8524    3735.5072    84.899817 
   13900    1716.9638   -107.13303    1.5535449   -105.57948    -18294.82    4.4011715    4.4011715    4.4011715    -18294.82    30537.789   -43276.873   -42145.377    -593.9253   -9308.5683   -2516.8647    85.252056 
   14000    1960.2147   -107.33718    1.7736434   -105.56353   -1586.9045    4.3841584    4.3841584    4.3841584   -1586.9045    19924.341   -42225.653    17540.599    10373.042    14561.761   -2166.6269    84.267226 
   14100    1891.1371   -107.30786    1.7111406   -105.59672   -38182.323    4.3846806    4.3846806    4.3846806   -38182.323   -17665.126   -37900.119   -58981.725    -2200.546   -18586.763   -9983.6049    84.297342 
   14200     1383.502   -106.87279    1.2518217   -105.62097    12553.227    4.3997633    4.3997633    4.3997633    12553.227    72306.665   -54667.863    20020.878    -3301.575    19904.072    7082.7703    85.170252 
   14300    1629.6695   -107.07818    1.4745592   -105.60362   -494.00459    4.4011127    4.4011127    4.4011127   -494.00459    82312.039   -54173.129   -29620.924    6850.8678   -14584.132   -14859.366     85.24864 
   14400    1072.9478   -106.57356   0.97082576   -105.60274   -24810.919    4.3900277    4.3900277    4.3900277   -24810.919   -40167.586   -37116.264    2851.0935   -15371.311   -36159.103   -6852.0761    84.606121 
   14500    2311.7183   -107.68366    2.0916913   -105.59197   -9920.9463    4.3701703    4.3701703    4.3701703   -9920.9463    5433.0695   -34126.218   -1069.6898   -1211.7669    7639.3376   -3912.2729    83.463209 
   14600    1017.0444   -106.54801   0.92024315   -105.62776    5011.1335    4.3839248    4.3839248    4.3839248    5011.1335     51586.53   -32739.948   -3813.1814   -8671.9797   -17948.788   -1722.1103    84.253762 
   14700    1412.8438   -106.89035    1.2783708   -105.61198   -2631.9767    4.3903607    4.3903607    4.3903607   -2631.9767    33186.205    -37021.87   -4060.2653   -1849.4227   -10860.749   -6340.4798    84.625377 
   14800    1471.5408   -106.92587     1.331481   -105.59439   -2620.0849    4.3908818    4.3908818    4.3908818   -2620.0849    18240.096   -44157.771    18057.421   -1934.6489   -5005.8897    5436.1168    84.655514 
   14900      1057.02   -106.55148    0.9564139   -105.59506    4634.2069    4.3842524    4.3842524    4.3842524    4634.2069    27622.187   -34004.667      20285.1   -13733.717   -20162.174    5620.1411    84.272647 
   15000    2160.1356   -107.53839    1.9545361   -105.58385   -11850.095    4.3733981    4.3733981    4.3733981   -11850.095    4621.7618   -34032.532   -6139.5153    638.96897    3251.6277   -8367.9258    83.648282 
   15100    1304.2843   -106.76631    1.1801439   -105.58617    -928.4272    4.3599131    4.3599131    4.3599131    -928.4272    14079.103   -44981.599    28117.215    3465.5795   -7856.9836   -9417.4841    82.876901 
   15200    1091.4977    -106.5893   0.98761008   -105.60169   -16651.764    4.3669283    4.3669283    4.3669283   -16651.764   -7254.6592   -22399.362   -20301.271   -6434.9264   -29855.332    5820.1512    83.277599 
   15300    1743.1224   -107.16613    1.5772138   -105.58891   -2753.1157    4.3835912    4.3835912    4.3835912   -2753.1157    32983.889   -63906.933    22663.697    1276.3519      8160.88   -13147.774    84.234525 
   15400    1801.0937   -107.20141    1.6296674   -105.57174   -24470.419    4.3775412    4.3775412    4.3775412   -24470.419   -13725.138    -30463.33   -29222.791    2044.6505   -38402.111    9473.0265     83.88624 
   15500    1038.9779   -106.51149   0.94008902    -105.5714   -439.45318    4.3638592    4.3638592    4.3638592   -439.45318    9468.6263   -19312.376    8525.3902    3567.4249    -12847.62   -9155.7928    83.102137 
   15600    1456.6001   -106.89203    1.3179624   -105.57407    15854.045    4.3622554    4.3622554    4.3622554    15854.045    21744.165   -15082.803    40900.771   -1105.0287     5713.598   -13187.549    83.010543 
   15700    1585.0852   -107.02638    1.4342184   -105.59216   -14936.976    4.3839174    4.3839174    4.3839174   -14936.976    -9738.029    13874.047   -48946.946   -2371.5952   -59337.717    9277.4597    84.253331 
   15800    1942.9578   -107.32255     1.758029   -105.56452   -6704.3192    4.3880161    4.3880161    4.3880161   -6704.3192    18680.891   -37560.177   -1233.6721   -5541.0141    -101.0169   -5265.2043     84.48987 
   15900     896.0902   -106.36562   0.81080124   -105.55482     24828.46    4.3679163    4.3679163    4.3679163     24828.46   -15891.146    56493.521    33883.007   -11281.379   -14931.163   -2061.0624    83.334134 
   16000    1395.6097   -106.82839     1.262777   -105.56562   -8267.6684    4.3728701    4.3728701    4.3728701   -8267.6684   -20074.595   -8089.9602    3361.5504   -7994.5613   -14831.052   -3395.5801    83.617989 
   16100    1776.2128   -107.17887    1.6071547   -105.57171    14699.883    4.3693244    4.3693244    4.3693244    14699.883     14885.51    29756.611   -542.47272   -3083.5381    5730.8625   -7698.7939    83.414752 
   16200     1489.987   -106.94014    1.3481716   -105.59197    -32609.33    4.3766459    4.3766459    4.3766459    -32609.33   -38891.827   -23132.811   -35803.353   -294.07078   -23636.461    1694.5599     83.83478 
   16300    1355.4991   -106.80067    1.2264841   -105.57418    274.87642    4.3775243    4.3775243    4.3775243    274.87642   -7481.3981    4129.9046    4176.1228    177.73919   -1378.9308    -7325.751    83.885266 
   16400    1430.3665   -106.86792    1.2942257    -105.5737    12844.249    4.3658745    4.3658745    4.3658745    12844.249    35914.531   -1331.9631    3950.1781    -2605.009   -29688.321    6912.7865    83.217325 
   16500    1665.5278   -107.08414    1.5070045   -105.57714    18913.019    4.3759758    4.3759758    4.3759758    18913.019    6377.3582    23715.899      26645.8   -2378.1397    10932.674   -12090.403    83.796279 
   16600    1400.7035   -106.83604     1.267386   -105.56866    4297.5782    4.3784747    4.3784747    4.3784747    4297.5782   -13057.841   -19436.335     45386.91    9032.8218   -10708.167    11769.897    83.939918 
   16700    896.70675   -106.39031   0.81135911   -105.57895    5715.5391    4.3734131    4.3734131    4.3734131    5715.5391   -26779.667    34897.419    9028.8653   -8925.5472   -21116.431   -1012.5884    83.649144 
   16800    2208.5276   -107.56002    1.9983222    -105.5617    10786.967    4.3665792    4.3665792    4.3665792    10786.967    15124.046   -11739.717    28976.571    269.45731    19607.185    5329.8027    83.257628 
   16900    1327.7985   -106.78232      1.20142    -105.5809   -8674.1397    4.3716698    4.3716698    4.3716698   -8674.1397    -21681.67    33601.741    -37942.49    5953.7291   -43649.568    10183.264    83.549155 
   17000    1318.1565   -106.76897    1.1926957   -105.57627   -26065.093    4.3838529    4.3838529    4.3838529   -26065.093   -52295.372    -25750.93   -148.97727    -4402.282    6025.1105    264.35355    84.249616 
   17100    1511.9841   -106.93155     1.368075   -105.56348    8877.1597    4.3744544    4.3744544    4.3744544    8877.1597   -35931.673    26034.565    36528.587    2425.6853   -12600.247   -2965.7931    83.708911 
   17200    1755.0256   -107.15429     1.587984    -105.5663   -9465.5299    4.3587616    4.3587616    4.3587616   -9465.5299   -16958.611   -10643.283   -794.69552    4215.9908   -36688.316    10380.117     82.81125 
   17300    1412.5554    -106.8581    1.2781098   -105.57999    12634.997    4.3681282    4.3681282    4.3681282    12634.997   -46593.468    38752.202    45746.257   -4966.5903    16851.418    4168.5247    83.346261 
   17400    1442.4028   -106.88653    1.3051164   -105.58142   -13222.847    4.3753464    4.3753464    4.3753464   -13222.847   -31501.906    4699.6335    -12866.27     14539.14   -33298.485    -939.6084    83.760128 
   17500    1665.0149   -107.07631    1.5065405   -105.56977    18809.912     4.373995     4.373995     4.373995    18809.912    42822.648    19495.645    -5888.557   -5088.4529   -7426.7361    9631.9068    83.682536 
   17600    1744.5575   -107.13831    1.5785123   -105.55979    3125.0994    4.3702612    4.3702612    4.3702612    3125.0994   -9298.7842   -6031.5752    24705.657   -5875.4201   -12441.527    449.14817    83.468421 
   17700    926.35555   -106.40239   0.83818597   -105.56421    25837.374    4.3635049    4.3635049    4.3635049    25837.374    36418.397    34008.353    7085.3719    11077.621     -17667.1    3399.3186    83.081895 
   17800    1874.8773    -107.2644    1.6964284   -105.56797   -5611.1376    4.3739029    4.3739029    4.3739029   -5611.1376   -25856.602   -15913.446    24936.636   -7492.5853   -4218.3801   -3277.3927    83.677253 
   17900    1396.7817   -106.84063    1.2638375   -105.57679   -5741.0285    4.3808105    4.3808105    4.3808105   -5741.0285   -15601.987     17345.29   -18966.389   -1693.5112   -35155.515    13759.201    84.074325 
   18000    1497.1233   -106.92056    1.3546286   -105.56593    15182.042     4.362761     4.362761     4.362761    15182.042    27154.957     8097.292    10293.878   -12273.794    11275.425   -8784.1371    83.039413 
   18100     1313.307   -106.76253    1.1883078   -105.57422   -4165.3045    4.3662551    4.3662551    4.3662551   -4165.3045   -49511.678    32967.766    4047.9979    3471.1571   -22900.414    4127.0385    83.239089 
   18200    1764.6758   -107.17312    1.5967157    -105.5764   -6313.1186    4.3709676    4.3709676    4.3709676   -6313.1186   -5066.4321     -26889.2    13016.276   -5568.5209    -25261.44    480.63073      83.5089 
   18300    1817.2232   -107.22586    1.6442617    -105.5816    25300.689    4.3646556    4.3646556    4.3646556    25300.689    41273.765    30197.973    4430.3295    -3844.978    17131.583    10665.333    83.147641 
   18400    1088.6382   -106.57354   0.98502276   -105.58851    26899.836    4.3590625    4.3590625    4.3590625    26899.836    859.73778    51264.331     28575.44     3590.548   -9591.1747   -13496.626    82.828403 
   18500    1472.3185   -106.91715    1.3321847   -105.58496    427.34479    4.3705439    4.3705439    4.3705439    427.34479   -3898.0243   -4690.4313      9870.49    -3676.618   -4377.4338    14172.005    83.484615 
   18600    1963.1399   -107.34553    1.7762902   -105.56924   -20098.001     4.378129     4.378129     4.378129   -20098.001   -17186.586   -2937.8155   -40169.601    14111.243    15654.931    7969.2149    83.920033 
   18700    1677.0665   -107.07359     1.517445   -105.55614     11065.36    4.3650579    4.3650579    4.3650579     11065.36    10854.658   -2915.7914    25257.214   -3033.4545   -1037.8563    3218.6652    83.170639 
   18800     1092.698   -106.55403    0.9886961   -105.56534    3337.1892     4.369725     4.369725     4.369725    3337.1892   -36276.624    36485.667    9802.5248   -8196.0756   -8345.9988    5389.4967    83.437697 
   18900    1598.8594    -107.0183    1.4466815   -105.57162   -25906.182    4.3648898    4.3648898    4.3648898   -25906.182    -63118.53    26417.279   -41017.293    9792.0547    17899.493    10536.619    83.161028 
   19000    1745.7283   -107.15534    1.5795716   -105.57577     46485.16    4.3552323    4.3552323    4.3552323     46485.16    55911.107    34551.916    48992.458   -27147.703   -4073.8564   -6440.0291    82.610258 
   19100    1651.8278   -107.08234    1.4946086   -105.58773   -25699.124     4.373955     4.373955     4.373955   -25699.124   -42462.524    15431.576   -50066.423   -7411.7811   -210.50782    2317.1495    83.680242 
   19200    967.16141   -106.45263   0.87510797   -105.57752    5719.0468    4.3667866    4.3667866    4.3667866    5719.0468    -22060.58    43427.255   -4209.5344   -7068.8206   -780.88474   -12184.669     83.26949 
   19300    1650.2465   -107.06002    1.4931777   -105.56685    14899.258    4.3613777    4.3613777    4.3613777    14899.258    10645.387   -2904.5845     36956.97   -10242.639    8296.3339   -11246.891    82.960451 
   19400    1583.6107    -107.0055    1.4328843   -105.57262   -9128.8859    4.3681464    4.3681464    4.3681464   -9128.8859   -27059.264    19843.248   -20170.641   -9171.0877   -6734.4676    19583.245    83.347307 
   19500     1756.384   -107.15053    1.5892132   -105.56132   -917.83777    4.3636641    4.3636641    4.3636641   -917.83777   -18756.653   -8968.5024    24971.643   -4971.1132   -14094.284   -20283.128    83.090989 
   19600    763.28766   -106.27279   0.69063872   -105.58215   -1559.0991    4.3690249    4.3690249    4.3690249   -1559.0991   -42122.288    40542.324   -3097.3338    4006.5519    20075.036   -8945.5847    83.397603 
   19700    1730.6841   -107.14542    1.5659593   -105.57946   -29212.265    4.3672997    4.3672997    4.3672997   -29212.265   -19869.047   -29811.862   -37955.884   -16259.438   -12423.921    11129.516    83.298849 
   19800    1947.1679   -107.33863    1.7618385   -105.57679    23887.405    4.3593897    4.3593897    4.3593897    23887.405    32169.229    14929.268    24563.718    3466.1153    7456.5702   -15211.273    82.847057 
   19900    1185.5071   -106.65539    1.0726717   -105.58272   -15318.419    4.3608503    4.3608503    4.3608503   -15318.419   -46289.818    12032.917   -11698.354    8844.9837     14001.56   -2699.0044    82.930356 
   20000    1250.4196   -106.70398    1.1314059   -105.57257   -2252.0753     4.366604     4.366604     4.366604   -2252.0753   -40574.414     869.3292    32948.858   -14999.607   -12234.628   -4801.4299    83.259047 
   20100    1675.6992   -107.08447    1.5162079   -105.56826   -29182.366    4.3787687    4.3787687    4.3787687   -29182.366   -21431.125   -28951.717   -37164.254    5397.8543    6855.8877   -4063.2955    83.956824 
   20200    1623.9724   -107.02997    1.4694043   -105.56056   -9365.9687    4.3680314    4.3680314    4.3680314   -9365.9687   -29954.452     4664.464   -2807.9177    10285.208    -8902.513   -4323.3839    83.340722 
   20300    1554.4286   -106.95484    1.4064797   -105.54836   -7336.9291    4.3502562    4.3502562    4.3502562   -7336.9291    -35177.54    2464.1246    10702.628    2141.0431    10949.153   -6778.1772    82.327417 
   20400    741.65034   -106.25239   0.67106082   -105.58133   -5233.5569    4.3613198    4.3613198    4.3613198   -5233.5569   -58394.413    59992.971   -17299.229      4727.49   -13056.417   -1265.0051    82.957144 
   20500    2046.0849   -107.41993    1.8513406   -105.56859   -10418.341    4.3758823    4.3758823    4.3758823   -10418.341    21580.801   -33039.848   -19795.976    16431.766   -6476.6664    3018.4088     83.79091 
   20600    1610.7753    -107.0214    1.4574634   -105.56394   -24368.564    4.3767629    4.3767629    4.3767629   -24368.564   -28556.958   -24594.618   -19954.116    209.88541    24958.784   -20297.586    83.841503 
   20700    861.23916   -106.34192   0.77926729   -105.56265    9764.4649    4.3615554    4.3615554    4.3615554    9764.4649   -8874.2756     23815.94    14351.731    2140.7612   -19001.487      2294.55     82.97059 
   20800    1839.7722   -107.22653    1.6646646   -105.56186    11061.643    4.3592585    4.3592585    4.3592585    11061.643    8206.9862    15619.288    9358.6543     7438.965    11936.748    757.50079    82.839574 
   20900    1396.1458   -106.85446     1.263262    -105.5912   -10204.622     4.376666     4.376666     4.376666   -10204.622     6641.666    3537.1427   -40792.676   -2767.5557   -5338.8465   -6447.8189    83.835934 
   21000    1894.4714    -107.2813    1.7141576   -105.56714    270.78586    4.3788937    4.3788937    4.3788937    270.78586    -33302.48    28214.181    5900.6564    5814.2948   -14935.489    4716.5218    83.964014 
   21100    839.38398   -106.32978   0.75949227   -105.57029   -26713.137     4.386798     4.386798     4.386798   -26713.137    -76612.12    20043.534   -23570.825   -3775.7244   -3425.0375   -3754.1378    84.419524 
   21200    1358.3895   -106.78929    1.2290994   -105.56019   -19206.443    4.3712504    4.3712504    4.3712504   -19206.443   -62358.668    43283.696   -38544.358    12149.526   -14118.842      5441.72    83.525108 
   21300    1926.8502   -107.29603    1.7434545   -105.55257    46135.952    4.3475034    4.3475034    4.3475034    46135.952    72711.153    61002.086    4694.6176   -20636.768    5864.1264    8536.3014    82.171232 
   21400    1285.3277   -106.75992    1.1629915   -105.59693   -5961.1627     4.366508     4.366508     4.366508   -5961.1627     10081.36    6899.1699   -34864.018   -680.95259   -9175.1137   -6397.7354    83.253556 
   21500    1167.0097   -106.62939    1.0559349   -105.57346   -1135.7326    4.3816695    4.3816695    4.3816695   -1135.7326    188.18369    8203.2886    -11798.67     -5946.06    7586.5303     8028.821    84.123793 
   21600    1538.3669   -106.95197    1.3919467   -105.56002   -15410.603    4.3732564    4.3732564    4.3732564   -15410.603   -17664.946   -3023.5528    -25543.31   -13724.793   -7435.2031    7361.0413    83.640155 
   21700    2259.2431   -107.59754    2.0442107   -105.55333   -7686.2078    4.3680277    4.3680277    4.3680277   -7686.2078    20697.565   -1793.6921   -41962.496    6671.6159   -12532.885   -7881.8598    83.340508 
   21800    1196.6876   -106.64683    1.0827881   -105.56404    1146.0818    4.3689956    4.3689956    4.3689956    1146.0818   -12222.864    17454.922   -1793.8126    495.20946    10425.081    10244.287    83.395925 
   21900    1032.8688   -106.50101   0.93456141   -105.56644   -8134.3138    4.3747898    4.3747898    4.3747898   -8134.3138   -91725.003    50017.108    17304.953    2968.5166   -12760.541   -9554.8157    83.728167 
   22000    2196.2661   -107.53598    1.9872277   -105.54876   -20164.878    4.3813605    4.3813605    4.3813605   -20164.878   -21207.856   -12516.122   -26770.656    935.69231    4770.9028    3718.1917    84.105999 
   22100    1441.5509   -106.85809    1.3043455   -105.55375   -5332.6875    4.3711441    4.3711441    4.3711441   -5332.6875   -4051.8402    5519.7055   -17465.928   -1894.9625   -10055.239    6567.3603    83.519014 
   22200    1443.4878   -106.84731    1.3060981   -105.54122    9876.1961    4.3610181    4.3610181    4.3610181    9876.1961   -32273.878    21985.893    39916.573   -838.73212   -10421.971   -11069.872    82.939932 
   22300    1041.7677   -106.51449   0.94261329   -105.57187    8039.3537       4.3764       4.3764       4.3764    8039.3537    46601.752    7754.4394   -30238.131   -9924.0021   -3098.3886    20612.609    83.820651 
   22400    1831.0168   -107.22472    1.6567425   -105.56798    -2136.958    4.3920496    4.3920496    4.3920496    -2136.958    31369.609   -9106.1791   -28674.304   -17653.163    -13724.23   -7269.6042    84.723073 
   22500    1537.7384   -106.94935     1.391378   -105.55797   -4505.2546     4.386964     4.386964     4.386964   -4505.2546    30212.327   -10393.701    -33334.39    3052.6114    4704.7938    16542.845    84.429109 
   22600    848.49693   -106.31735   0.76773786   -105.54962   -2604.0469    4.3739889    4.3739889    4.3739889   -2604.0469    1833.2865    24790.789   -34436.216    -9710.577    12134.848    12381.073    83.682188 
   22700    1939.1299   -107.30522    1.7545655   -105.55065   -13762.168    4.3688044    4.3688044    4.3688044   -13762.168   -26417.522    -6692.375   -8176.6076    843.61394   -4462.8284    13017.367    83.384973 
   22800    1597.0411   -107.02476    1.4450364   -105.57972   -15592.571    4.3849592    4.3849592    4.3849592   -15592.571    13189.666   -27742.247   -32225.133    22515.177    18564.231    20424.421    84.313411 
   22900    1747.4831   -107.14172    1.5811594   -105.56056   -30197.609    4.3944862    4.3944862    4.3944862   -30197.609   -14779.504   -35482.929   -40330.394    9503.0695   -4290.2689   -2157.8941    84.864162 
   23000    1044.9833   -106.50077   0.94552286   -105.55525     3082.997    4.3830718    4.3830718    4.3830718     3082.997    68094.256   -41040.281   -17804.984     15332.32   -7483.5251    13055.306     84.20459 
   23100    1486.8998    -106.9065    1.3453782   -105.56113    16340.513    4.3768802    4.3768802    4.3768802    16340.513    44896.509   -31707.234    35832.263    2570.0768   -14974.624    5038.3619    83.848247 
   23200    1192.5341   -106.65722    1.0790299   -105.57819    31647.371     4.390821     4.390821     4.390821    31647.371    39116.228   -37036.677    92862.562   -4552.2275   -41277.877    7978.8625    84.651992 
   23300    1099.3348   -106.54791   0.99470124   -105.55321    1346.3579    4.4057638    4.4057638    4.4057638    1346.3579   -11635.768   -22275.497    37950.338    102.38115   -14221.226    -3642.084    85.519198 
   23400     999.9004   -106.43807   0.90473089   -105.53334   -18232.018    4.3955082    4.3955082    4.3955082   -18232.018     4499.318   -62210.723    3015.3504    5134.5752   -1752.2391     10892.01     84.92338 
   23500    1720.7698   -107.08251    1.5569886   -105.52552    15198.106    4.3638265    4.3638265    4.3638265    15198.106    48894.378   -39464.897    36164.837    6012.6022   -13494.815    7946.1984    83.100269 
   23600    1812.3902   -107.19976    1.6398887   -105.55987     1595.438    4.3594919    4.3594919    4.3594919     1595.438   -11633.512    16798.033   -378.20719   -3584.4215     25715.56    2277.2346    82.852886 
   23700    1292.7185   -106.76847    1.1696789   -105.59879   -41834.236    4.3929753    4.3929753    4.3929753   -41834.236   -49035.793   -53972.731   -22494.186    15738.015     5832.971    17030.846    84.776655 
   23800    1848.6679    -107.2405    1.6727136   -105.56778   -19721.705    4.3942045    4.3942045    4.3942045   -19721.705   -27505.003   -25850.044   -5810.0677    18269.776      7804.19    8667.2522    84.847842 
   23900    1407.9387   -106.82834    1.2739325    -105.5544    19499.223    4.3633054    4.3633054    4.3633054    19499.223    5754.7405    28739.418    24003.511    1141.1624     22892.27    9735.3906      83.0705 
   24000    1369.0397   -106.80186    1.2387359   -105.56312    21035.567    4.3667182    4.3667182    4.3667182    21035.567    50535.393    4297.0753    8274.2324    12145.337     -17281.7    8097.0379    83.265579 
   24100    1244.5297   -106.69699    1.1260766   -105.57091   -11931.125    4.3947063    4.3947063    4.3947063   -11931.125   -14546.359    556.71185   -21803.726   -6711.3712    16109.146    7713.1539     84.87691 
   24200    1815.2154   -107.17963    1.6424451   -105.53719   -16667.582    4.4001016    4.4001016    4.4001016   -16667.582   -28969.157   -25488.925    4455.3364    5797.6536    7294.3168    21715.491    85.189899 
   24300     1332.999   -106.73063    1.2061255    -105.5245    -5069.361    4.3878325    4.3878325    4.3878325    -5069.361   -10313.689    10985.676    -15880.07   -6469.7858    12701.407    7946.8651    84.479264 
   24400    1145.1654   -106.57055    1.0361697   -105.53438   -2356.8733    4.3813293    4.3813293    4.3813293   -2356.8733   -4438.1356    574.61889   -3207.1033   -961.31747    27857.255     12125.29    84.104199 
   24500    1778.0159   -107.15338    1.6087861   -105.54459    8855.6038    4.3838939    4.3838939    4.3838939    8855.6038   -2423.5329    23973.944    5016.4004    -2273.736    2660.2216    4128.4305    84.251979 
   24600    909.56161   -106.38738   0.82299046   -105.56438   -6983.9572    4.3891949    4.3891949    4.3891949   -6983.9572     17338.26   -8005.1206   -30285.011   -8372.7066     13489.85    11211.027    84.557981 
   24700    2155.2705   -107.49549     1.950134   -105.54536   -11256.584    4.3707177    4.3707177    4.3707177   -11256.584   -4854.3594   -24702.151   -4213.2424   -13078.914    3796.9076    12054.515     83.49458 
   24800    818.46897   -106.31171   0.74056792   -105.57115    37351.964     4.372229     4.372229     4.372229    37351.964    28668.103    26884.886    56502.904    370.13612    2699.6071   -14408.445    83.581218 
   24900    1802.5086   -107.20521    1.6309476   -105.57426   -35427.187     4.398116     4.398116     4.398116   -35427.187   -26153.691   -35850.887   -44276.982   -3307.9123    356.44808    17763.068    85.074626 
   25000     1354.341    -106.7799    1.2254362   -105.55447     22572.33    4.3888628    4.3888628    4.3888628     22572.33     31968.88     26268.08    9480.0289   -9236.4426     -3295.74   -3840.8763    84.538789 
   25100    1488.2548   -106.88832    1.3466043   -105.54171   -10564.995    4.3682854    4.3682854    4.3682854   -10564.995   -35490.503   -5337.8601    9133.3768   -5612.6939    14486.309    5229.9769    83.355263 
   25200    1244.7376   -106.68509    1.1262648   -105.55882    22580.338    4.3742858    4.3742858    4.3742858    22580.338   -21676.125    26634.776    62782.362    4529.8964   -15803.692    12149.653    83.699231 
   25300    1653.1187   -107.07119    1.4957766   -105.57541   -37655.185    4.3902998    4.3902998    4.3902998   -37655.185   -59479.992   -15599.438   -37886.124    3966.8487    3697.5078   -3072.8756    84.621852 
   25400    1531.4955   -106.94811    1.3857293   -105.56238   -9266.9051    4.3934763    4.3934763    4.3934763   -9266.9051    -11821.49   -969.52124   -15009.704   -6239.9132    16201.002    20249.868    84.805665 
   25500    1324.6374   -106.74515    1.1985597   -105.54659   -15306.115    4.3867781    4.3867781    4.3867781   -15306.115   -50275.926    -9319.384    13676.964    11716.937   -5739.4292   -9048.9385    84.418378 
   25600    1496.1273   -106.90803    1.3537274    -105.5543   -21535.618    4.3860995    4.3860995    4.3860995   -21535.618   -45428.071    197.69836   -19376.481   -1708.3455    18655.419    7859.0332    84.379207 
   25700     1701.683   -107.09709    1.5397185   -105.55737    25150.417     4.388696     4.388696     4.388696    25150.417    59546.965   -29537.985     45442.27   -975.13361    7498.3413   -16630.498     84.52915 
   25800    1485.0433   -106.91509    1.3436984   -105.57139   -20251.154    4.3748498    4.3748498    4.3748498   -20251.154   -30233.362   -13643.477   -16876.622   -2076.1566   -8443.8002   -6764.4122    83.731612 
   25900    1133.7799   -106.61133    1.0258678   -105.58546    58940.286    4.3748711    4.3748711    4.3748711    58940.286    50042.047    21930.914     104847.9   -5001.6521    19995.423    4473.2229    83.732836 
   26000     1557.035   -106.98933     1.408838   -105.58049   -40957.105    4.4059869    4.4059869    4.4059869   -40957.105   -37069.087    -56172.39   -29629.838    9325.7906    -7200.827   -9054.2135    85.532193 
   26100    1657.4033   -107.05396    1.4996534   -105.55431   -3332.0786    4.3771739    4.3771739    4.3771739   -3332.0786    18630.899   -14828.699   -13798.435   -5995.8462     1678.918   -1289.0157    83.865126 
   26200    1446.1742    -106.8485    1.3085288   -105.53997    59338.192    4.3602311    4.3602311    4.3602311    59338.192    25821.626    57107.887    95085.062    4244.4417    13748.281    7839.6979    82.895034 
   26300    1150.1034   -106.62084    1.0406377    -105.5802   -28667.709    4.3945135    4.3945135    4.3945135   -28667.709   -36874.941   -43576.723   -5551.4624   -2072.6872   -6180.2635   -2628.2421    84.865744 
   26400    2271.9662   -107.62174    2.0557227   -105.56602   -16957.562    4.3973335    4.3973335    4.3973335   -16957.562    -23946.04   -35404.223    8477.5774    13295.314    8305.4147     1409.645    85.029222 
   26500    1136.2353   -106.60948    1.0280896   -105.58139    13481.548    4.3874393    4.3874393    4.3874393    13481.548   -3847.8217    9427.7198    34864.746   -73.867205    10831.325   -3797.4403    84.456557 
   26600    1432.3553   -106.87157    1.2960252   -105.57555   -251.55762    4.3837281    4.3837281    4.3837281   -251.55762   -37929.658    30203.757     6971.228    81.698632   -11838.186   -11450.068    84.242421 
   26700    1425.6015    -106.8662    1.2899142   -105.57629    11186.696    4.3802343    4.3802343    4.3802343    11186.696    54577.082   -37794.507    16777.513    8192.0541    11673.101    22216.496    84.041156 
   26800    1827.5774   -107.24329    1.6536304   -105.58966   -10179.288    4.3824305    4.3824305    4.3824305   -10179.288   -19974.062   -14570.349    4006.5467    11337.496   -18014.903   -6217.0409    84.167634 
   26900    1237.1088   -106.71859     1.119362   -105.59923    16809.041    4.3975279    4.3975279    4.3975279    16809.041    43047.836   -22390.027    29769.314   -12485.728   -16048.353    18623.336    85.040499 
   27000    1565.9611   -107.01065    1.4169145   -105.59373   -37734.218    4.3923735    4.3923735    4.3923735   -37734.218   -48480.701   -54715.754   -10006.199    13148.471    8150.4136    17186.377    84.741819 
   27100    1677.0274   -107.10204    1.5174096   -105.58463    6888.6269    4.3673157    4.3673157    4.3673157    6888.6269    -10765.39   -13139.149     44570.42    -15957.27    4644.5919   -12959.681     83.29976 
   27200    1198.9353   -106.68919    1.0848219   -105.60437    27463.429    4.3811653    4.3811653    4.3811653    27463.429    68559.324   -32068.387    45899.349    4392.6641   -3797.9027    11734.172    84.094759 
   27300    1976.5897   -107.37628    1.7884599   -105.58782    -39200.05    4.3991278    4.3991278    4.3991278    -39200.05   -37422.179   -60919.339   -19258.633   -13103.659    12097.884   -4540.1446     85.13335 
   27400    932.20288   -106.41933   0.84347675   -105.57585    24319.095     4.394604     4.394604     4.394604    24319.095     81423.28   -27922.373    19456.377   -16063.703   -3006.7655    1795.4214    84.870985 
   27500    1862.2414   -107.24203    1.6849951   -105.55703   -13154.207    4.3903291    4.3903291    4.3903291   -13154.207   -11493.857   -37432.636    9463.8705   -270.95547    12526.754    31041.448    84.623547 
   27600    1094.9466   -106.55155   0.99073073   -105.56082    11329.648    4.3889706    4.3889706    4.3889706    11329.648    44774.289    -17153.75    6368.4053     -7886.67     18968.11   -18169.381    84.545018 
   27700    1706.6336   -107.10777    1.5441979   -105.56357   -24412.832    4.3840775    4.3840775    4.3840775   -24412.832    -16091.64   -23215.797    -33931.06     -1003.73   -9043.0902    28052.214    84.262565 
   27800    1534.8977   -106.97027    1.3888077   -105.58146    21275.863    4.3905198    4.3905198    4.3905198    21275.863   -30093.048   -19760.993    113681.63     4469.648    9135.8591   -531.10825    84.634575 
   27900     1303.776   -106.78401    1.1796839   -105.60433    9109.8852    4.3929607    4.3929607    4.3929607    9109.8852    8073.4115    -45196.67    64452.914   -2186.0952    2499.8316    14586.687    84.775812 
   28000    1805.2702    -107.2229    1.6334464   -105.58945   -16912.433    4.3987279    4.3987279    4.3987279   -16912.433    17713.551   -40913.227   -27537.624    15414.293   -5990.6907    14249.743     85.11014 
   28100    1714.3862   -107.10879    1.5512126   -105.55757   -11535.619     4.401796     4.401796     4.401796   -11535.619    -5921.669   -47658.915    18973.726     12587.11   -11085.058   -1804.1931    85.288352 
   28200    1341.2773   -106.75361    1.2136159      -105.54    10127.998    4.3932022    4.3932022    4.3932022    10127.998    16324.161   -56635.022    70694.856   -625.91613   -5611.2999    17334.244    84.789791 
   28300    1372.8491   -106.79859    1.2421827   -105.55641    17507.774     4.388261     4.388261     4.388261    17507.774    7504.3618   -26892.007    71910.966    2338.3561   -26858.374   -6394.4645    84.504017 
   28400    912.03627   -106.40377   0.82522959   -105.57854     49837.46    4.3870125    4.3870125    4.3870125     49837.46    72309.785    504.98103    76697.613   -7326.1031   -5746.1089    10483.745    84.431908 
   28500    1938.7708   -107.33228    1.7542406   -105.57804   -33080.794    4.4091298    4.4091298    4.4091298   -33080.794   -29581.927   -21117.241   -48543.214    2445.8154    1855.8694    6843.1541    85.715359 
   28600    1389.0632   -106.81507    1.2568536   -105.55822    3334.2812    4.4067683    4.4067683    4.4067683    3334.2812   -37572.112    -23932.39    71507.346   -587.06616    786.86498    15592.194    85.577708 
   28700    931.07502    -106.3988   0.84245625   -105.55635     33198.05     4.394185     4.394185     4.394185     33198.05    87585.869   -17532.319    29540.601    553.42211    12082.928      19706.1     84.84671 
   28800    1500.9149   -106.90922    1.3580594   -105.55116    9160.8891    4.3994303    4.3994303    4.3994303    9160.8891    41800.962   -42237.615     27919.32   -5384.7039   -18653.001   -1576.1902    85.150919 
   28900     1334.938   -106.75102    1.2078799   -105.54314    4129.4343    4.4095089    4.4095089    4.4095089    4129.4343    41394.772   -57246.986    28240.517     -3832.43   -16950.883    22362.982    85.737473 
   29000    1751.2891    -107.1231    1.5846032    -105.5385   -21312.668    4.3947078    4.3947078    4.3947078   -21312.668   -29977.574   -30309.616   -3650.8153   -11613.296   -4959.2907   -13034.875    84.876996 
   29100    883.08972   -106.34982   0.79903814   -105.55078    28725.299    4.3762254    4.3762254    4.3762254    28725.299    98888.389    -27709.22    14996.728   -10331.437    4114.0787   -2541.3957    83.810621 
   29200    2108.2222   -107.47206    1.9075637    -105.5645   -5374.9249    4.3751042    4.3751042    4.3751042   -5374.9249    18161.418   -13678.998   -20607.195   -5399.5791    18715.675    20497.639    83.746221 
   29300    1394.8425   -106.86812    1.2620828   -105.60604   -4292.8086    4.3959292    4.3959292    4.3959292   -4292.8086   -14911.617   -35935.344    37968.536   -6278.4356    -24709.42   -3695.9021    84.947789 
   29400    1492.6035   -106.93004     1.350539    -105.5795   -30893.602    4.4130288    4.4130288    4.4130288   -30893.602    -42285.04   -65718.649    15322.884   -6788.1734    13751.028    2951.4604    85.942957 
   29500    1424.0318   -106.85486    1.2884939   -105.56636    41369.248    4.3728925    4.3728925    4.3728925    41369.248    37468.002    23408.471    63231.269   -8492.9664   -11500.778    5340.0418    83.619273 
   29600    1659.4271   -107.09347    1.5014845   -105.59199    13380.801    4.3701435    4.3701435    4.3701435    13380.801    1214.1391    10251.038    28677.225    -1303.544   -4261.1446   -6090.1709    83.461675 
   29700    1464.8704    -106.9157    1.3254455   -105.59025    -4784.771    4.4063945    4.4063945    4.4063945    -4784.771   -33033.677    -44736.32    63415.684   -9254.8638    1924.2388   -3810.1533    85.555933 
   29800    1666.1001   -107.06699    1.5075224   -105.55947   -1282.1589    4.4004484    4.4004484    4.4004484   -1282.1589    -6935.616   -4328.2237    7417.3631   -953.86141   -13726.605   -7914.1088    85.210044 
   29900    1313.8206   -106.74258    1.1887725   -105.55381    21724.708    4.3809564    4.3809564    4.3809564    21724.708    22218.665    25846.458        17109   -6282.6161    10651.087    14097.725    84.082726 
   30000    1351.2584   -106.81079     1.222647   -105.58814    21856.101    4.3883576    4.3883576    4.3883576    21856.101   -3355.0628   -12961.626    81884.992   -8111.6598    12124.793     12420.61    84.509599 
   30100    2056.0936   -107.44326    1.8603967   -105.58286   -26802.991     4.394408     4.394408     4.394408   -26802.991   -44660.626     -6016.12   -29732.226    1189.1933   -12932.866    9042.5261     84.85963 
   30200    1023.8955   -106.50629   0.92644214   -105.57985    6968.6992    4.3882728    4.3882728    4.3882728    6968.6992    7138.3953    8438.5395    5329.1629   -4734.8256      10207.4    3666.3644    84.504695 
   30300    1574.4882     -106.988      1.42463   -105.56337     8880.451    4.3902973    4.3902973    4.3902973     8880.451   -11902.131   -27227.338    65770.821    3263.9626    12561.062   -10243.729    84.621707 
   30400    1552.3361   -106.98335    1.4045864   -105.57876   -24748.631    4.3905432    4.3905432    4.3905432   -24748.631   -49895.871    -46127.51    21777.488   -20295.314   -7734.2555    11054.059    84.635931 
   30500    1225.8611   -106.68833    1.1091849   -105.57914    33486.234    4.3779655    4.3779655    4.3779655    33486.234    16316.025    46496.449    37646.228    12534.615    15550.582    4679.4148    83.910633 
   30600    2066.9944   -107.44522      1.87026   -105.57496   -14318.263    4.3824141    4.3824141    4.3824141   -14318.263   -13593.433    -11898.33   -17463.025   -2282.1891    -9326.213   -1617.6134    84.166686 
   30700    985.95937   -106.48744   0.89211676   -105.59532    -18905.95    4.3983827    4.3983827    4.3983827    -18905.95   -38503.666    1707.1877   -19921.372   -14895.209   -2398.1714    10720.921    85.090101 
   30800    1841.3121   -107.22297    1.6660578   -105.55691   -6205.4751    4.4033786    4.4033786    4.4033786   -6205.4751   -30562.729   -3406.1986    15352.502    10529.714   -7092.1833   -5827.9367     85.38038 
   30900    1746.9837   -107.12381    1.5807076    -105.5431   -13888.368    4.3911564    4.3911564    4.3911564   -13888.368   -37216.967   -37526.221    33078.083   -4868.7265   -10178.785     601.9614    84.671398 
   31000    1180.9129   -106.62681    1.0685148    -105.5583     10381.71    4.3796633    4.3796633    4.3796633     10381.71   -25424.721    27260.645    29309.206   -4928.2846    8940.8509    3332.4609    84.008294 
   31100    2229.8383   -107.58043    2.0176046   -105.56282   -27815.654     4.389274     4.389274     4.389274   -27815.654   -42184.454   -32721.928   -8540.5794   -16865.698   -6975.4454    14721.741    84.562552 
   31200    971.84837   -106.45675   0.87934883    -105.5774    3277.8413    4.3957156    4.3957156    4.3957156    3277.8413    17300.033   -17594.296    10127.787    8531.8549   -669.55773    9990.5951    84.935405 
   31300    1903.5938   -107.28489    1.7224117   -105.56248   -7993.7724    4.3958998    4.3958998    4.3958998   -7993.7724   -35566.625   -6206.3174    17791.625    11300.165    4469.3135    4643.2725    84.946081 
   31400     1165.539   -106.61829    1.0546042   -105.56369    4220.0592    4.4085904    4.4085904    4.4085904    4220.0592    21022.034   -12531.907    4170.0503   -13939.826    13595.759    10880.553    85.683906 
   31500     1349.315     -106.763    1.2208886   -105.54211   -16889.152    4.4045841    4.4045841    4.4045841   -16889.152   -9020.9887   -41192.742    -453.7264    5299.1965    16358.994    28659.431    85.450525 
   31600    1612.1587   -106.97855     1.458715   -105.51983    33253.927    4.3725465    4.3725465    4.3725465    33253.927    43497.616    1339.8433    54924.323     1406.622   -13423.963    1234.1633     83.59943 
   31700    1552.3526   -106.97163    1.4046012   -105.56702    -1225.252    4.3850128    4.3850128    4.3850128    -1225.252   -9920.0997    4264.3177    1980.0262    304.82013    829.54823    31383.864    84.316506 
   31800    1083.5931   -106.55759   0.98045782   -105.57714   -3480.6899    4.4142514    4.4142514    4.4142514   -3480.6899   -30246.949   -25214.787    45019.667   -12318.039    612.22904    23563.691    86.014406 
   31900    1769.6301   -107.14004    1.6011985   -105.53884   -11191.202     4.406228     4.406228     4.406228   -11191.202   -13402.702    18057.451   -38228.354    4295.0174    -10633.43    939.51673    85.546233 
   32000    1716.9254   -107.09252    1.5535102   -105.53901   -16096.705    4.3919229    4.3919229    4.3919229   -16096.705    13627.236   -25170.028   -36747.324    1882.3164    4561.4809   -6045.7609    84.715745 
   32100    1081.7681    -106.5399   0.97880652    -105.5611    21496.715    4.3864516    4.3864516    4.3864516    21496.715    18411.813    62592.397   -16514.066   -5159.0371    4654.3166    6582.8488    84.399531 
   32200    1745.1299    -107.1591    1.5790302   -105.58007    2170.0094    4.3947679    4.3947679    4.3947679    2170.0094    12158.026    20967.682   -26615.679    27319.989   -424.06575    2691.4822    84.880479 
   32300    1369.6764   -106.82204     1.239312   -105.58273   -21331.375     4.411786     4.411786     4.411786   -21331.375   -11239.728   -36178.037   -16576.362   -2449.2276    2668.9532    9567.2821    85.870367 
   32400    990.29561    -106.4529   0.89604028   -105.55686    3705.0227    4.4011215    4.4011215    4.4011215    3705.0227   -23531.968    43622.016   -8974.9798   -1371.2191   -15105.764   -1577.5669    85.249154 
   32500    1744.0266   -107.11191    1.5780319   -105.53387    8159.2731    4.3696965    4.3696965    4.3696965    8159.2731    42228.736   -7444.9227   -10305.994    13744.648   -8764.9212    8249.8371    83.436069 
   32600    1285.6058   -106.74424    1.1632431     -105.581    2839.2164     4.375046     4.375046     4.375046    2839.2164    20713.925    22088.019   -34284.294   -21878.883   -2638.8213   -20550.539    83.742876 
   32700    1340.7901   -106.80492     1.213175   -105.59175    22782.725    4.3883332    4.3883332    4.3883332    22782.725    23519.603    86565.455   -41736.883   -5158.9221   -12450.115   -4596.8937    84.508185 
   32800    1353.7489   -106.81262    1.2249004   -105.58772    -24665.33    4.3967896    4.3967896    4.3967896    -24665.33   -25891.089    -45757.82     -2347.08   -8542.3845   -4036.3009     -15761.1    84.997677 
   32900    1200.7172   -106.65052    1.0864342   -105.56408    19027.573    4.3811278    4.3811278    4.3811278    19027.573     18382.06    20518.656    18182.004    1486.3358   -4119.1129    1007.5419    84.092599 
   33000     1350.943   -106.77324    1.2223617   -105.55088    57030.276    4.3593913    4.3593913    4.3593913    57030.276    45528.264    113396.83    12165.737   -12887.153    -7268.356   -5052.5698    82.847147 
   33100    1299.6808   -106.77848    1.1759785    -105.6025   -7833.8172    4.3866432    4.3866432    4.3866432   -7833.8172    -22307.86    52501.288   -53694.879   -26636.914    7858.9217    -20816.17    84.410591 
   33200    2144.1742   -107.51086    1.9400939   -105.57076   -39619.987    4.4007381    4.4007381    4.4007381   -39619.987   -44113.929   -8563.0051   -66183.027   -5467.3657    216.18716    4894.1295    85.226878 
   33300    1588.6553    -107.0219    1.4374487   -105.58446   -32165.623     4.374711     4.374711     4.374711   -32165.623   -14534.797   -29077.147   -52884.925    14380.719    14477.551   -9692.8811    83.723643 
   33400    1587.0622   -107.02678    1.4360072   -105.59077    50738.509     4.353803     4.353803     4.353803    50738.509    17139.237    119746.41    15329.876   -18829.809   -3912.1762   -17903.805    82.528953 
   33500    1597.1727   -107.10105    1.4451554    -105.6559   -20661.198    4.3918287    4.3918287    4.3918287   -20661.198   -47669.358    5478.4673   -19792.702    14735.633    2361.8042   -3281.5741    84.710294 
   33600     1038.249   -106.57486   0.93942953   -105.63543   -23223.108     4.403077     4.403077     4.403077   -23223.108   -57293.143    44779.642   -57155.822   -26412.172    9881.2835   -15381.195    85.362838 
   33700    1914.9587   -107.32629    1.7326949    -105.5936    14080.599     4.370541     4.370541     4.370541    14080.599    -25990.14    48765.558    19466.378   -5796.6104   -3594.1801   -7560.9123    83.484452 
   33800    1496.1035   -106.94532    1.3537059   -105.59161   -2740.9103    4.3643384    4.3643384    4.3643384   -2740.9103   -29520.321   -4424.3355    25721.925    21970.947    33.202364    717.31637    83.129515 
   33900    1353.1055   -106.83618    1.2243183   -105.61186   -23987.417    4.3854393    4.3854393    4.3854393   -23987.417   -55148.464    18569.366   -35383.154   -8965.2413    -5114.685   -11798.991    84.341108 
   34000    2178.4832   -107.55607    1.9711374   -105.58493   -19258.603    4.3973981    4.3973981    4.3973981   -19258.603   -54114.136     -13282.7    9621.0281    10912.282    6713.7864    11665.671    85.032969 
   34100    1648.7452   -107.06238    1.4918193   -105.57056   -33885.609    4.3847054    4.3847054    4.3847054   -33885.609   -46789.378   -29346.111   -25521.339   -20559.372   -2680.1398   -106.07225    84.298774 
   34200    1091.7283   -106.55634    0.9878187   -105.56852    32053.678    4.3542817    4.3542817    4.3542817    32053.678   -13707.088    98172.822    11695.299   -6737.1223   -20665.577   -5927.5665    82.556178 
   34300    1669.6443    -107.1026    1.5107293   -105.59187    20206.437    4.3619893    4.3619893    4.3619893    20206.437   -8764.4335    27936.246    41447.499   -3038.8259    19344.953   -1681.1892    82.995356 
   34400    1552.5525   -107.00263    1.4047821   -105.59785   -18937.285    4.3897158    4.3897158    4.3897158   -18937.285   -43780.717    29162.586   -42193.724   -19820.551   -13289.766     790.0671    84.588089 
   34500    1638.8707   -107.05728    1.4828847    -105.5744   -19912.075    4.3744974    4.3744974    4.3744974   -19912.075   -31789.167     -37051.9    9104.8411   -14305.926   -1916.6356    2972.8982    83.711378 
   34600    1248.9648   -106.70135    1.1300896   -105.57126    6090.9987    4.3561596    4.3561596    4.3561596    6090.9987    5997.4074   -31069.284    43344.873    10348.169    7805.9303    14556.987    82.663034 
   34700    1432.2253   -106.89324    1.2959076   -105.59734    27844.124    4.3745688    4.3745688    4.3745688    27844.124   -13530.736    71432.835    25630.274    152.77918   -12618.935    13758.427    83.715475 
   34800    1801.6909   -107.21495    1.6302078   -105.58474    -38766.02    4.4059566    4.4059566    4.4059566    -38766.02   -61574.804   -25710.343   -29012.912    18523.864    13642.941    10036.202     85.53043 
   34900    1523.4292   -106.94583    1.3784308    -105.5674   -14761.716    4.3776121    4.3776121    4.3776121   -14761.716   -38796.695    11399.506    -16887.96     4383.776   -24909.517   -9708.4896    83.890314 
   35000    1423.6743   -106.85786    1.2881704   -105.56969    11324.724    4.3512884    4.3512884    4.3512884    11324.724    24865.205   -11682.393     20791.36   -18077.774    11626.589    3416.7366    82.386034 
   35100    1395.6102   -106.86227    1.2627774   -105.59949    9183.7805    4.3713324    4.3713324    4.3713324    9183.7805    9295.1162    51855.243   -33599.017    22224.671    1570.9926   -8943.8585    83.529811 
   35200    1682.3853   -107.10093    1.5222576   -105.57868   -33522.614    4.3998372    4.3998372    4.3998372   -33522.614   -30438.755     -20751.5   -49377.586   -28036.668   -7624.2366   -9786.7751    85.174547 
   35300    1571.2464   -106.96969    1.4216968   -105.54799   -1312.2961     4.396144     4.396144     4.396144   -1312.2961    40214.486    5577.3222   -49728.696   -25965.983    5527.7091   -5614.2379    84.960242 
   35400     967.6725   -106.41484   0.87557041   -105.53927     6742.751    4.3837647    4.3837647    4.3837647     6742.751    23435.686    7490.1672     -10697.6   -9081.3925   -26622.671    7207.2444    84.244531 
   35500         1451   -106.84921    1.3128953   -105.53631    16477.367    4.3710617    4.3710617    4.3710617    16477.367   -7227.1178    38477.453    18181.765   -50426.038    2807.2136   -14963.149    83.514293 
   35600    1676.8175   -107.08252    1.5172197    -105.5653    12832.212    4.3869965    4.3869965    4.3869965    12832.212   -26159.512     75098.35   -10442.201   -5085.3494   -12295.289   -17195.913    84.430985 
   35700    926.59772   -106.40054   0.83840509   -105.56214   -41101.309    4.4091735    4.4091735    4.4091735   -41101.309   -59484.016   -54442.661   -9377.2498   -29307.246    -728.6249   -15840.358    85.717909 
   35800    1765.1595   -107.12005    1.5971534    -105.5229   -6853.4297     4.382933     4.382933     4.382933   -6853.4297   -21401.416   -16218.723     17059.85   -6362.3932   -8513.5122   -14976.499     84.19659 
   35900    1632.0969   -107.01189    1.4767556   -105.53514   -153.07973    4.3714019    4.3714019    4.3714019   -153.07973   -11605.422    8953.3503    2192.8321   -18803.341   -7651.3467   -5201.2533    83.533795 
   36000    1938.1126   -107.31884     1.753645    -105.5652    -25469.64    4.3892152    4.3892152    4.3892152    -25469.64   -41165.753   -23860.177   -11382.991   -266.17792   -4017.1943   -11475.486    84.559154 
   36100    2055.5047   -107.41227    1.8598638    -105.5524   -24326.704    4.3879882    4.3879882    4.3879882   -24326.704   -8205.4875   -29519.181   -35255.444   -2566.8038   -29660.654   -3414.5038    84.488257 
   36200     734.4761   -106.22405   0.66456941   -105.55949    18463.309    4.3853251    4.3853251    4.3853251    18463.309    20447.248    8410.8541    26531.824   -29731.818    11039.871    -5891.162     84.33452 
   36300    1831.0481   -107.20404    1.6567708   -105.54727   -98.975129     4.384727     4.384727     4.384727   -98.975129   -32219.097    74342.761   -42420.589     1177.033    -19026.72   -10399.645    84.300019 
   36400    1244.2869   -106.68568    1.1258569   -105.55982    27747.217    4.3729433    4.3729433    4.3729433    27747.217    25525.573    43608.969     14107.11    -22896.58   -8480.4285   -9119.8126    83.622189 
   36500    1734.6099    -107.1397    1.5695115   -105.57019   -17948.135    4.3844894    4.3844894    4.3844894   -17948.135   -11629.161    -23105.81   -19109.434    10572.582   -2413.8938   -11539.734    84.286317 
   36600    1657.2903   -107.05939    1.4995511   -105.55984   -17213.997    4.3934111    4.3934111    4.3934111   -17213.997   -15773.747   -3528.8303   -32339.414   -12500.938   -13438.119    -734.6612    84.801891 
   36700    1471.7353   -106.88527     1.331657   -105.55362    6246.1903    4.3805954    4.3805954    4.3805954    6246.1903   -3749.6732   -4442.5652    26930.809   -6116.6296     18051.48    1538.0614    84.061945 
   36800    1879.6131   -107.24483    1.7007135   -105.54411    15416.553     4.370522     4.370522     4.370522    15416.553    6005.0131    53149.341   -12904.694    19883.519   -16388.252   -9811.4363    83.483362 
   36900      940.913   -106.42795   0.85135786    -105.5766    17741.585    4.3822094    4.3822094    4.3822094    17741.585   -10269.565    16103.923    47390.397   -32369.298   -12388.495   -14705.768    84.154896 
   37000    1532.2038   -106.94137    1.3863702     -105.555   -4502.5117    4.3887097    4.3887097    4.3887097   -4502.5117   -5347.5081    12646.821   -20806.848    18438.893    -4446.097   -3168.3548    84.529942 
   37100    1228.1415   -106.67138    1.1112482   -105.56013    6693.9754    4.3722434    4.3722434    4.3722434    6693.9754   -36475.751   -12639.204    69196.882   -29143.532   -5095.9912   -14750.018    83.582045 
   37200    2086.5451   -107.44983    1.8879499   -105.56188   -1997.1679    4.3551112    4.3551112    4.3551112   -1997.1679   -24061.287    6726.0064    11343.777   -3017.2769   -3320.8673   -14838.953    82.603366 
   37300      1425.98   -106.87211    1.2902567   -105.58186    11695.181    4.3611461    4.3611461    4.3611461    11695.181    14159.295   -21318.286    42244.533    11944.834    8430.0327   -7319.9413    82.947234 
   37400    1193.9017   -106.67649    1.0802673   -105.59623   -27529.174    4.3836394    4.3836394    4.3836394   -27529.174   -39102.539    -40533.74   -2951.2438   -32877.155   -3455.6411   -19558.755    84.237305 
   37500    1768.9252   -107.16589    1.6005607   -105.56533    20690.057    4.3837379    4.3837379    4.3837379    20690.057   -23448.813    64689.121    20829.862    32669.278   -5234.3011   -8750.7021    84.242983 
   37600    1114.3279   -106.56653    1.0082673   -105.55827    16513.565    4.3671734    4.3671734    4.3671734    16513.565   -40503.389    46069.247    43974.836   -25555.062    3656.8499   -21046.205     83.29162 
   37700    1370.8811   -106.79414    1.2404021   -105.55374    29714.792    4.3637351    4.3637351    4.3637351    29714.792    30770.748    18828.425    39545.202    6654.6288    8663.3944   -17677.472    83.095046 
   37800    1423.4033   -106.85083    1.2879252    -105.5629   -17595.765    4.3772946    4.3772946    4.3772946   -17595.765   -16034.501   -48995.311    12242.518   -14919.022    4987.8455    1447.9951    83.872065 
   37900    1420.3248   -106.84486    1.2851397   -105.55972   -19023.063    4.3741109    4.3741109    4.3741109   -19023.063   -44356.347   -32465.859    19753.016    -19927.73   -11659.676    -30122.94    83.689188 
   38000    1874.0102   -107.24281    1.6956438   -105.54716        24025    4.3665303    4.3665303    4.3665303        24025     38452.94    6295.7506    27326.308     11854.86    17171.492    3022.9401    83.254827 
   38100    1024.5694   -106.50033   0.92705188   -105.57328   -20384.752    4.3695458    4.3695458    4.3695458   -20384.752   -48961.319    -25271.46    13078.525    -54577.99    3411.2006    1758.1177    83.427435 
   38200    1569.8101   -106.98911    1.4203972   -105.56871    7401.8249    4.3738057    4.3738057    4.3738057    7401.8249   -12224.388    40669.158   -6239.2954    20051.185   -2490.7202    5588.9972    83.671674 
   38300    911.67728   -106.39985   0.82490477   -105.57495   -21053.013    4.3936247    4.3936247    4.3936247   -21053.013   -30570.516   -8010.7151   -24577.808   -49699.676    6947.5664     11710.09    84.814261 
   38400    1804.4683   -107.18348    1.6327208   -105.55076   -16069.586    4.3721762    4.3721762    4.3721762   -16069.586   -37044.505    15735.597   -26899.851   -23958.644   -1774.7067   -11337.261    83.578193 
   38500    1641.8788   -107.02092    1.4856064   -105.53531    21180.115    4.3481056    4.3481056    4.3481056    21180.115    21034.072    -3703.855    46210.127   -14434.298    9576.2956    18015.342    82.205382 
   38600    1192.1121   -106.65129     1.078648   -105.57265   -28101.222    4.3697999    4.3697999    4.3697999   -28101.222   -38766.534   -57889.744    12352.613   -54422.725   -11249.184   -8399.7979    83.441991 
   38700    1721.6732   -107.11202    1.5578061   -105.55422     11974.33    4.3760133    4.3760133    4.3760133     11974.33    6054.4849    24855.368    5013.1362    7333.5248    1996.1272    11931.188    83.798436 
   38800    1759.4505   -107.14956    1.5919877   -105.55758   -40063.889     4.381179     4.381179     4.381179   -40063.889   -51375.105   -68427.017    -389.5445   -50257.667   -2014.4361     17069.87    84.095548 
   38900    1562.2184   -106.96171     1.413528   -105.54818    8694.1733     4.373501     4.373501     4.373501    8694.1733    8927.3902   -14820.111     31975.24     8026.006    5450.5474    -8914.772    83.654191 
   39000    1248.3325   -106.68286    1.1295174   -105.55334    22651.668    4.3575674    4.3575674    4.3575674    22651.668    6278.9251    37974.556    23701.522   -24633.235    13617.674    12622.302    82.743206 
   39100    1438.5238   -106.86885    1.3016066   -105.56724   -3047.8186    4.3706988    4.3706988    4.3706988   -3047.8186   -5465.6346   -8667.5474    4989.7263   -6048.7279   -325.86839   -14159.222    83.493493 
   39200      1599.25   -107.01936     1.447035   -105.57233   -21230.998     4.378486     4.378486     4.378486   -21230.998    -45693.65    983.10198   -18982.445    6210.3968    8574.5943     18750.81    83.940569 
   39300    1319.0885   -106.77209     1.193539   -105.57855   -355.78605    4.3625458    4.3625458    4.3625458   -355.78605   -32933.519   -5079.4056    36945.567   -26771.233   -11309.533   -2077.2005    83.027123 
   39400    1745.2847   -107.15097    1.5791702    -105.5718   -5495.5723    4.3583537    4.3583537    4.3583537   -5495.5723    3812.9703   -3482.3364   -16817.351    8059.0819    12952.999    93.893128    82.788005 
   39500     1197.907   -106.66182    1.0838914   -105.57793    5788.8379    4.3699162    4.3699162    4.3699162    5788.8379   -31112.352    22403.884    26074.982   -23303.035    7556.2088    29752.229    83.448652 
   39600    1859.5808   -107.24044    1.6825878   -105.55785   -6547.3099    4.3767604    4.3767604    4.3767604   -6547.3099   -9433.0963   -46298.104    36089.271    6485.7704   -3563.8807   -9641.6458    83.841361 
   39700      1281.99   -106.71801    1.1599715   -105.55804    7931.5043    4.3743747    4.3743747    4.3743747    7931.5043    7401.3947   -32714.955    49108.074   -10520.772    5928.2365    14939.415    83.704336 
   39800    1573.0864   -106.97778    1.4233616   -105.55442   -934.45192    4.3764795    4.3764795    4.3764795   -934.45192   -39585.925    -11428.67    48211.239   -14306.286    19488.651    4247.6997    83.825221 
   39900    1771.1597   -107.15237    1.6025825   -105.54979   -17079.993    4.3825399    4.3825399    4.3825399   -17079.993   -12884.071   -29382.737   -8973.1718    13260.384     2716.956   -7114.9831    84.173937 
   40000    1422.6059   -106.83997    1.2872037   -105.55276   -4903.0526    4.3696774    4.3696774    4.3696774   -4903.0526     3277.116   -18825.989    839.71543   -18464.788    22736.046    13519.565     83.43497 
   40100    1580.9501   -106.98203    1.4304769   -105.55155    10399.712    4.3569377    4.3569377    4.3569377    10399.712    -5722.249   -7187.6102    44108.996     18268.43    12887.366   -12342.118    82.707338 
   40200    2015.3075   -107.39926    1.8234926   -105.57577   -31138.877    4.3745095    4.3745095    4.3745095   -31138.877   -51293.336   -17098.615    -25024.68   -18266.204    17924.702   -16003.976    83.712072 
   40300    1407.1514   -106.85884    1.2732202   -105.58562   -8594.4311    4.3897612    4.3897612    4.3897612   -8594.4311   -44021.005   -5950.5283     24188.24    13361.542    9706.1564   -18937.435    84.590711 
   40400    1349.8078   -106.79488    1.2213345   -105.57354   -12000.437    4.3856243    4.3856243    4.3856243   -12000.437   -22919.001   -22924.475    9842.1659   -6011.0624   -6372.8365   -5741.2185    84.351786 
   40500    1555.4318   -106.98004    1.4073874   -105.57265   -10234.133    4.3609978    4.3609978    4.3609978   -10234.133   -40781.183   -8236.6679    18315.453   -18917.929    538.58349    -10540.16    82.938773 
   40600     1919.117   -107.33555    1.7364574   -105.59909    -7385.487    4.3642644    4.3642644    4.3642644    -7385.487   -12961.665   -3757.6983   -5437.0981    11726.194    16014.959    23682.779    83.125286 
   40700    1292.9796    -106.7883    1.1699151   -105.61838    20060.792    4.3856486    4.3856486    4.3856486    20060.792   -27048.172   -5588.1374    92818.685    -24246.01   -4754.2161   -16353.077    84.353187 
   40800    1409.2376   -106.86475    1.2751078   -105.58964   -27462.253    4.4030527    4.4030527    4.4030527   -27462.253   -40336.399   -53592.578    11542.217     12030.67    19342.041    6723.0589    85.361423 
   40900    1875.3337   -107.28076    1.6968414   -105.58391   -16749.934    4.3724983    4.3724983    4.3724983   -16749.934   -14854.687   -32945.416   -2449.6972   -16587.041   -619.98965    1106.5218    83.596662 
   41000    1792.2224   -107.20186    1.6216405   -105.58022    30420.491    4.3390298    4.3390298    4.3390298    30420.491    14617.411     28103.31    48540.753    -2403.746   -11856.889   -8606.8714    81.691694 
   41100    1830.6108   -107.29715    1.6563751   -105.64077   -15579.393    4.3665885    4.3665885    4.3665885   -15579.393    1269.0283   -46520.817   -1486.3889   -5827.6552    15793.493    22791.072    83.258161 
   41200    1666.0988   -107.13014    1.5075212   -105.62262   -20629.423      4.39787      4.39787      4.39787   -20629.423   -59169.838   -47487.487    44769.055   -16852.459    3124.6174   -514.89283    85.060348 
   41300    1036.1019   -106.53116   0.93748679   -105.59367   -798.78998     4.387677     4.387677     4.387677   -798.78998   -21370.862   -27291.645    46266.137    10770.394   -1571.3738    9436.6992    84.470282 
   41400    1677.9481   -107.09444    1.5182427    -105.5762    10989.684    4.3706957    4.3706957    4.3706957    10989.684    33597.014    9100.1755   -9728.1363       -12924    10861.794    11708.669    83.493315 
   41500     1986.549   -107.38253    1.7974713   -105.58506   -5887.0083    4.3670245    4.3670245    4.3670245   -5887.0083   -15541.222   -6525.6773    4405.8746    10643.938   -13033.601   -6376.8469    83.283099 
   41600    846.78956    -106.3762   0.76619299   -105.61001    14930.951      4.37917      4.37917      4.37917    14930.951    2284.9497   -8229.0476     50736.95    994.74163   -8398.7728    11337.954    83.979913 
   41700    1772.4715   -107.19817    1.6037694    -105.5944   -24658.491    4.3892617    4.3892617    4.3892617   -24658.491   -48691.997   -42524.992    17241.516     16021.48    6255.9287   -795.96593    84.561843 
   41800    1669.0139   -107.10772    1.5101589   -105.59756   -7254.5392    4.3621774    4.3621774    4.3621774   -7254.5392    22090.678   -32761.076   -11093.219    415.45946   -22283.331   -5874.7721    83.006095 
   41900    1315.2977   -106.77945     1.190109   -105.58934    40350.582    4.3427712    4.3427712    4.3427712    40350.582    20813.205    15792.221     84446.32    2336.5945   -2703.0402    5512.0225    81.903194 
   42000    1155.4265   -106.65383    1.0454542   -105.60837   -23828.639    4.3685199    4.3685199    4.3685199   -23828.639   -35929.876   -34920.315   -635.72473    3618.6092     14310.14   -9598.2286    83.368685 
   42100    1616.1609   -107.04946    1.4623363   -105.58712   -21888.024    4.3843859    4.3843859    4.3843859   -21888.024    44609.249   -66692.319   -43581.001   -5687.6944   -11325.657   -11229.322    84.280346 
   42200    1691.3949   -107.11453    1.5304096   -105.58412     6087.687    4.3671544    4.3671544    4.3671544     6087.687    10102.523   -35848.213    44008.751    62.976156    27370.151   -286.84735    83.290534 
   42300    1230.9182   -106.68945    1.1137607   -105.57569    18718.639    4.3484772    4.3484772    4.3484772    18718.639    29897.714   -16881.364    43139.567   -2625.8581    25776.838   -11993.808    82.226461 
   42400     1405.324   -106.85073    1.2715666   -105.57916   -4335.9309    4.3676297    4.3676297    4.3676297   -4335.9309   -52630.174   -36255.744    75878.125    2972.7301     -19645.4    2663.6422    83.317731 
   42500     1528.353   -106.95241    1.3828859   -105.56953   -32588.212    4.3769894    4.3769894    4.3769894   -32588.212   -44689.327   -18216.859   -34858.451    16628.072    28882.395   -4173.4816    83.854523 
   42600    1841.8153   -107.21794    1.6665132   -105.55142    14827.164     4.368873     4.368873     4.368873    14827.164   -9299.4514   -8048.1061    61829.049   -15816.478    -3166.011   -17369.803    83.388905 
   42700    1608.9828   -107.01713    1.4558415   -105.56129   -29603.261    4.3639281    4.3639281    4.3639281   -29603.261   -74207.028   -21903.004    7300.2488     5757.863    6350.9839    12386.484    83.106074 
   42800    1414.5771   -106.86205    1.2799391   -105.58211   -6502.0929    4.3558974    4.3558974    4.3558974   -6502.0929   -33219.273    3629.8226    10083.172   -385.90121    7065.7028   -4098.6064     82.64811 
   42900     1445.083   -106.89675    1.3075415   -105.58921    12053.246    4.3683381    4.3683381    4.3683381    12053.246   -24055.025   -17888.597    78103.362   -14360.018   -6074.7476   -4028.5932    83.358276 
   43000    1629.3621   -107.05838    1.4742811    -105.5841   -25370.279    4.3707133    4.3707133    4.3707133   -25370.279   -41311.768   -25583.449    -9215.619    200.83565    17590.089    5809.0454    83.494326 
   43100     1857.437   -107.25857     1.680648   -105.57792   -10384.454    4.3607146    4.3607146    4.3607146   -10384.454   -24273.815    -22541.28    15661.735   -10409.369    16578.155   -9136.3586    82.922617 
   43200    1137.3319   -106.61547    1.0290818   -105.58639        24863    4.3620358    4.3620358    4.3620358        24863   -34210.039    47.605016    108751.44   -11586.001   -11017.809   -939.58278    82.998008 
   43300    1713.8194   -107.13894    1.5506998   -105.58824   -17355.384     4.372084     4.372084     4.372084   -17355.384    9098.0245   -31454.851   -29709.325   -4317.1037    33044.156    6626.1079    83.572902 
   43400    1441.8466   -106.88076    1.3046131   -105.57615    7801.0989    4.3760508    4.3760508    4.3760508    7801.0989   -11869.281   -42101.429    77374.007    -20272.54   -7428.3832    -4627.385    83.800589 
   43500    1566.2127    -106.9953    1.4171421   -105.57816   -6933.3574    4.3683877    4.3683877    4.3683877   -6933.3574   -26380.016   -9086.6024    14666.546    5544.6977    8079.5364    25867.492    83.361116 
   43600    1325.7145   -106.77874    1.1995343    -105.5792    18780.354    4.3532564    4.3532564    4.3532564    18780.354    42388.963   -8771.3482    22723.446   -26102.669     15061.68    7300.3974     82.49787 
   43700     1658.249    -107.0867    1.5004186   -105.58628   -15016.605    4.3686635    4.3686635    4.3686635   -15016.605    -3885.819   -46640.466    5476.4697   -3105.4226    -5940.886   -371.87175    83.376909 
   43800    1620.6481   -107.04976    1.4663964   -105.58337   -12502.842    4.3590641    4.3590641    4.3590641   -12502.842    5171.0911    4041.0956   -46720.712    3236.1408   -6121.0931     13786.23    82.828496 
   43900    1081.1394   -106.55674   0.97823763    -105.5785    58017.691    4.3424808    4.3424808    4.3424808    58017.691    29832.986    52664.206    91555.882   -39737.499    5899.4879   -9817.3543    81.886766 
   44000    2079.6685    -107.4645    1.8817277   -105.58277    -12126.45    4.3689973    4.3689973    4.3689973    -12126.45   -9445.9115   -7821.6184   -19111.821     10823.59   -13632.798    10426.364    83.396023 
   44100    1329.4646   -106.78203    1.2029275    -105.5791   -536.44151    4.3757412    4.3757412    4.3757412   -536.44151   -18633.299   -8244.5843    25268.559   -37284.653    5269.0028    13319.944    83.782804 
   44200     1565.067   -106.97919    1.4161055   -105.56308    22259.317    4.3780716    4.3780716    4.3780716    22259.317    6868.1694    50697.526    9212.2572    -9582.956    157.64013   -12024.567    83.916737 
   44300    1476.4211   -106.90031    1.3358968   -105.56441   -13517.771    4.3622333    4.3622333    4.3622333   -13517.771   -16507.368   -11308.505   -12737.439   -21021.214   -8000.9358    21774.206    83.009286 
   44400    1125.9529   -106.58063    1.0187858   -105.56185      40823.4    4.3322991    4.3322991    4.3322991      40823.4    13290.686    45973.236     63206.28   -28271.879    12412.407    11205.006    81.312125 
   44500    1945.6981    -107.3526    1.7605085    -105.5921    9356.9561    4.3629403    4.3629403    4.3629403    9356.9561    40324.722   -18697.698    6443.8439    15949.388   -11042.634    2059.7521     83.04965 
   44600    1103.9867   -106.57528   0.99891039   -105.57637   -21906.838    4.3854272    4.3854272    4.3854272   -21906.838    -26897.77   -31937.734   -6885.0096   -28655.514   -8683.5918    20720.041    84.340411 
   44700     1196.564    -106.6281    1.0826762   -105.54542    10679.745    4.3807201    4.3807201    4.3807201    10679.745   -10659.196     34133.51    8564.9212    10076.723    2065.1812   -3269.5181    84.069121 
   44800    1552.7713   -106.94316    1.4049801   -105.53818   -16058.292    4.3736014    4.3736014    4.3736014   -16058.292   -22498.875   -61115.518    35439.515   -29392.903   -10957.492    25936.138    83.659947 
   44900    1514.1464   -106.90718    1.3700315   -105.53715    9508.5607    4.3442763    4.3442763    4.3442763    9508.5607   -21229.492   -729.26294    50484.437   -14232.234   -1054.9255    5519.7876    81.988384 
   45000    1184.8899   -106.64209    1.0721133   -105.56998     4680.595    4.3552356    4.3552356    4.3552356     4680.595   -22281.888    18732.412    17591.261    8749.8574    14226.456    3336.9692    82.610444 
   45100    1340.7091   -106.78228    1.2131018   -105.56917   -18370.334    4.3816222    4.3816222    4.3816222   -18370.334   -60431.495   -49633.249    54953.742   -48227.228    92.112753     27348.27    84.121067 
   45200    1863.8409   -107.23478    1.6864424   -105.54834   -14572.771    4.3746205    4.3746205    4.3746205   -14572.771    -49454.24     13545.35   -7809.4221    10719.852    13915.143   -4402.4103    83.718446 
   45300    1524.2638   -106.93285    1.3791859   -105.55366   -25071.225    4.3612292    4.3612292    4.3612292   -25071.225   -54492.593    -20945.27    224.18946    -17954.81   -9383.6509    4512.7278    82.951974 
   45400    1590.4707   -106.99498    1.4390913   -105.55589    9508.4357    4.3527227    4.3527227    4.3527227    9508.4357   -14015.261    25838.049    16702.519   -222.11619    21422.665    381.08076    82.467533 
   45500    1211.8606   -106.67757    1.0965169   -105.58105     -6188.82    4.3660816    4.3660816    4.3660816     -6188.82   -8928.5993   -14903.382    5265.5212   -5634.4737    692.00834    8409.1542    83.229166 
   45600    1951.7253   -107.32624    1.7659621   -105.56028    5798.6778    4.3738513    4.3738513    4.3738513    5798.6778   -32322.571    1487.9213    48230.683    -9717.147   -6455.5598   -3543.3083    83.674292 
   45700    1319.8843   -106.75385     1.194259   -105.55959   -14540.154    4.3698127    4.3698127    4.3698127   -14540.154   -64586.638   -5520.2849    26486.459    19027.232    21342.612    1720.0879    83.442726 
   45800    1449.8975   -106.86426    1.3118977   -105.55236    13392.089    4.3690621    4.3690621    4.3690621    13392.089   -17419.711    42621.541    14974.437    -16113.14   -8891.5789   -15479.974    83.399734 
   45900    1201.6089   -106.64563     1.087241   -105.55839   -2833.5204    4.3853573    4.3853573    4.3853573   -2833.5204   -80311.539     68792.23    3018.7473    30966.814    23129.736   -9177.7558    84.336381 
   46000    1676.6638    -107.0622    1.5170806   -105.54512   -21150.743    4.3973614    4.3973614    4.3973614   -21150.743    -85776.02    6291.9283    16031.863   -10261.689   -13360.333   -6798.4529     85.03084 
   46100    1187.4907   -106.60231    1.0744665   -105.52784     17906.36    4.3766103    4.3766103    4.3766103     17906.36   -33011.013    33158.207    53571.887   -8024.3446    16975.267   -16217.425    83.832734 
   46200    1232.3024   -106.64134    1.1150131   -105.52632     34579.57    4.3614457    4.3614457    4.3614457     34579.57   -3272.8373    68146.813    38864.734    1087.4051   -12056.883   -9107.2729    82.964327 
   46300    1482.0068   -106.88609    1.3409509   -105.54514    19361.712    4.3781243    4.3781243    4.3781243    19361.712   -39286.286    23116.625    74254.797    2319.3299    10776.904   -24372.496    83.919767 
   46400    1355.9571   -106.78664    1.2268985   -105.55974   -20279.837    4.3880774    4.3880774    4.3880774   -20279.837   -74279.558    23559.176   -10119.127    6743.9079    11631.196   -22834.952    84.493408 
   46500    1671.3308   -107.05913    1.5122553   -105.54687    234.76483    4.3741141    4.3741141    4.3741141    234.76483   -10636.832   -21811.257    33152.384   -8912.9938   -13088.014   -6376.7993    83.689374 
   46600    886.55828   -106.36319   0.80217656   -105.56102    2808.4091    4.3594053    4.3594053    4.3594053    2808.4091    -30579.36    14584.694    24419.893    50730.185      21493.9   -965.01565    82.847948 
   46700     2048.378   -107.41588    1.8534154   -105.56247   -15338.317    4.3621981    4.3621981    4.3621981   -15338.317   -30952.907    16706.178   -31768.223   -2797.3781   -13473.056   -11278.846    83.007277 
   46800    1549.3048   -106.98371    1.4018436   -105.58187   -23501.042    4.3781349    4.3781349    4.3781349   -23501.042   -73558.097    1106.7113    1948.2591    33223.704    30155.238     13548.78    83.920377 
   46900    1386.5064   -106.81972    1.2545401   -105.56518   -34287.492    4.3876581    4.3876581    4.3876581   -34287.492   -53595.291   -23416.995   -25850.189     27010.47    -1613.038   -5468.1075    84.469191 
   47000    1809.3135   -107.17348    1.6371049   -105.53637    2440.2727      4.37588      4.37588      4.37588    2440.2727    2978.0423    26858.544   -22515.769    -2411.895    4981.7806   -159.26329    83.790776 
   47100    1529.5266   -106.92434    1.3839478   -105.54039   -5370.1054    4.3685738    4.3685738    4.3685738   -5370.1054    -32164.02    24360.844   -8307.1407    12569.585    25753.018   -6082.0149    83.371773 
   47200    1747.3395   -107.12897    1.5810295   -105.54794   -4006.8277    4.3739131    4.3739131    4.3739131   -4006.8277   -3949.6022   -20878.863    12807.982    59.225012   -13771.965   -453.84313    83.677837 
   47300    1586.4401   -106.99108    1.4354443   -105.55564   -18254.926    4.3840174    4.3840174    4.3840174   -18254.926   -1559.1974   -33350.278   -19855.303    7462.2559    18339.761   -3030.0309    84.259097 
   47400    1797.6124   -107.17782    1.6265175    -105.5513   -16529.716    4.3756821    4.3756821    4.3756821   -16529.716   -39746.122    31309.773   -41152.799   -8654.8335    6886.8622   -15288.934     83.77941 
   47500    1612.2594   -107.00359    1.4588062   -105.54478    32115.085    4.3560754    4.3560754    4.3560754    32115.085    58942.719    6225.2494    31177.286   -2785.0593    7636.7009    5407.0846    82.658243 
   47600    896.83208   -106.38919   0.81147251   -105.57772   -2724.1985    4.3745889    4.3745889    4.3745889   -2724.1985   -5465.4633    6105.7229   -8812.8552    23751.332    -2906.243    7461.2992    83.716629 
   47700    2047.1039    -107.4119    1.8522626   -105.55963   -11910.585    4.3719312    4.3719312    4.3719312   -11910.585    348.97297      6782.66   -42863.389   -17266.768    5982.0496   -6962.9528    83.564141 
   47800    1553.3877   -106.97185    1.4055378   -105.56631    7780.6891     4.353342     4.353342     4.353342    7780.6891    23283.292    -28180.83    28239.605    30005.101   -10405.421     6830.725    82.502735 
   47900     1145.942   -106.62351    1.0368724   -105.58664    5759.1206    4.3713315    4.3713315    4.3713315    5759.1206   -28045.427    24818.804    20503.984    9208.9384   -2307.6469   -1360.6809    83.529761 
   48000    1351.5078   -106.78673    1.2228726   -105.56386   -13339.197     4.377847     4.377847     4.377847   -13339.197    10763.687   -44591.683   -6189.5949    11737.667   -13332.693    11060.697    83.903821 
   48100     1230.849    -106.6764     1.113698    -105.5627   -2230.4888     4.378451     4.378451     4.378451   -2230.4888    9132.2785    2408.7739   -18232.519    34360.156    2591.7998   -179.13339    83.938556 
   48200    1675.1116   -107.06574    1.5156762   -105.55007    16080.498    4.3748315    4.3748315    4.3748315    16080.498    1937.3185    60341.026    -14036.85    11150.122    3440.8198   -4797.0239    83.730561 
   48300    871.58217   -106.34483   0.78862586    -105.5562    22241.442    4.3679307    4.3679307    4.3679307    22241.442   -3488.2057    21391.724    48820.808    33175.998   -10022.167    33506.257    83.334955 
   48400    1103.6454   -106.56181   0.99860155   -105.56321    1510.3593    4.3795126    4.3795126    4.3795126    1510.3593    10841.123    15252.886   -21562.931    5513.4619    2034.8966   -16642.118    83.999622 
   48500    1453.0902   -106.86761    1.3147866   -105.55282     4356.328    4.3756363    4.3756363    4.3756363     4356.328   -4841.1765    4329.5323    13580.628    35789.598   -708.56709   -6039.3228    83.776779 
   48600    1845.8647   -107.21692    1.6701772   -105.54674    2577.4908    4.3657488    4.3657488    4.3657488    2577.4908   -11339.083   -1266.4509    20338.006     19525.05     7129.579    9132.4198    83.210137 
   48700    1236.2977   -106.68061    1.1186281   -105.56198   -24188.388    4.3757045    4.3757045    4.3757045   -24188.388   -13211.648   -40820.647   -18532.868    -2114.619    3161.1203   -21437.382    83.780692 
   48800    1346.4472   -106.77714    1.2182938   -105.55885    -6100.154    4.3638651    4.3638651    4.3638651    -6100.154   -19873.312   -51315.519    52888.369    42384.543    -7867.432   -7486.5216    83.102474 
   48900    1867.2104   -107.24546    1.6894912   -105.55597    41556.633    4.3569567    4.3569567    4.3569567    41556.633     10652.17    68645.541    45372.186   -15965.876    8546.6159    13262.233    82.708419 
   49000    1331.0123   -106.78219    1.2043279   -105.57786   -35368.545    4.3840819    4.3840819    4.3840819   -35368.545     -61591.4   -11780.373   -32733.862    23771.491     3545.381   -20111.917    84.262818 
   49100     1754.995   -107.14664    1.5879563   -105.55868   -5462.2371     4.373815     4.373815     4.373815   -5462.2371   -23900.954    633.22944    6881.0133    2653.6714   -10627.017    3884.0401    83.672207 
   49200    1268.1581   -106.70589    1.1474561   -105.55844    19795.957    4.3679798    4.3679798    4.3679798    19795.957    2381.4601    45.542686    56960.868    11883.535    2736.4122    10013.308    83.337769 
   49300    1551.9355   -106.96776    1.4042238   -105.56354   -19172.021    4.3811792    4.3811792    4.3811792   -19172.021   -47621.595   -6394.3266    -3500.142    24275.578   -21282.837   -9221.5378    84.095555 
   49400    1970.9175   -107.33907    1.7833276   -105.55574    8469.9731    4.3652068    4.3652068    4.3652068    8469.9731    6167.8764    27516.226   -8274.1828    -15394.05   -14942.404    23094.169    83.179151 
   49500    1108.1578   -106.57519    1.0026844   -105.57251     -6882.66    4.3609761    4.3609761    4.3609761     -6882.66   -9657.8178   -27120.498    16130.335    22894.931    2471.0538   -16221.596    82.937535 
   49600    1168.3092   -106.64479    1.0571107   -105.58768    521.04084    4.3768264    4.3768264    4.3768264    521.04084   -26917.631    68533.062   -40052.309   -12656.586   -35328.294   -2108.4096    83.845151 
   49700    2141.1675   -107.50233    1.9373734   -105.56495   -11467.215    4.3806923    4.3806923    4.3806923   -11467.215    5907.8142   -21629.312   -18680.147   -6935.8494      7223.42    933.44455     84.06752 
   49800     1185.154   -106.64524    1.0723523   -105.57289    7811.7604    4.3643991    4.3643991    4.3643991    7811.7604   -45909.848    75910.172   -6565.0434    15691.917   -31794.938   -6414.4875    83.132983 
   49900    1550.0119   -106.98876    1.4024833   -105.58628    4059.2309    4.3638184    4.3638184    4.3638184    4059.2309    -18076.77    2758.0015    27496.461   -1333.1412   -20634.357    3892.5498    83.099806 
   50000    1751.8377   -107.17075    1.5850995   -105.58565    2902.2143    4.3651643    4.3651643    4.3651643    2902.2143    1760.5372   -2300.3041    9246.4099    3997.7702    2292.4749   -3990.5971    83.176717 
   50100    965.92299   -106.48177   0.87398742   -105.60778   -11093.505    4.3821822    4.3821822    4.3821822   -11093.505   -71437.329    20785.108    17371.708    8354.5031   -38717.322   -9538.3879    84.153325 
   50200    2169.9618   -107.53352    1.9634271   -105.57009   -6299.2833    4.3801965    4.3801965    4.3801965   -6299.2833    20542.307   -38906.365   -533.79249   -4022.5999    4447.8956    6589.9254    84.038983 
   50300    1124.4689   -106.58808    1.0174431   -105.57064    15711.959    4.3638883    4.3638883    4.3638883    15711.959   -8422.3472    38160.232    17397.991    12160.464   -35761.091    940.00062    83.103797 
   50400    1496.9936   -106.93294    1.3545112   -105.57843    1000.6741     4.373963     4.373963     4.373963    1000.6741   -30117.074    9350.5877    23768.508    5991.3839   -4154.0484   -1142.5432    83.680702 
   50500    1516.9124   -106.94121    1.3725342   -105.56868    18241.063    4.3770829    4.3770829    4.3770829    18241.063    26280.581    24412.827    4029.7802    4456.1885   -4602.7914     20885.22    83.859896 
   50600     1443.268   -106.88851    1.3058992   -105.58261   -13796.616    4.3783429    4.3783429    4.3783429   -13796.616   -58013.207    8404.7091    8218.6508    20319.066   -26375.614    9675.7709    83.932339 
   50700    1808.1521   -107.20694     1.636054   -105.57089    1059.6351    4.3739121    4.3739121    4.3739121    1059.6351    2984.7155   -12918.518    13112.708    11501.124    7371.2221     11358.16    83.677781 
   50800    1045.8428   -106.51888   0.94630056   -105.57258    26974.504    4.3561297    4.3561297    4.3561297    26974.504    43105.653    33436.643    4381.2164   -4603.2384   -25166.072    12429.563    82.661331 
   50900      1565.97   -107.00997    1.4169226   -105.59305   -27636.195    4.3732565    4.3732565    4.3732565   -27636.195   -42075.941     -17002.2   -23830.444    38810.449   -7942.0551    2623.5242    83.640157 
   51000    1406.8058    -106.8529    1.2729075   -105.57999    20816.451    4.3775855    4.3775855    4.3775855    20816.451    64043.802    11428.508   -13022.957   -2182.3625    472.19419    25377.851    83.888787 
   51100    1303.5977   -106.76905    1.1795226   -105.58953   -24434.824    4.3752826    4.3752826    4.3752826   -24434.824   -56491.638   -21091.068    4278.2353    11692.227   -18612.642   -1345.6614    83.756463 
   51200    1301.6434   -106.76221    1.1777543   -105.58445   -10184.546    4.3746834    4.3746834    4.3746834   -10184.546     8276.529   -10213.558    -28616.61    24709.688    10120.891    -26919.65    83.722057 
   51300    1733.6071   -107.14701    1.5686041    -105.5784   -11206.694    4.3722597    4.3722597    4.3722597   -11206.694   -16866.095   -6701.2319   -10052.755   -14876.235   -16550.124     15839.33    83.582982 
   51400    1194.2267   -106.67263    1.0805614   -105.59207   -21805.179    4.3844879    4.3844879    4.3844879   -21805.179   -27384.297   -27556.212   -10475.026     23415.31   -3337.5426   -21065.502    84.286229 
   51500     1673.264   -107.08458    1.5140045   -105.57057   -7127.1049    4.3707225    4.3707225    4.3707225   -7127.1049    4988.3873   -18238.273   -8131.4291   -371.16801    6404.8239   -8084.2594    83.494852 
   51600    1450.0967   -106.89046     1.312078   -105.57838   -6946.1264    4.3709956    4.3709956    4.3709956   -6946.1264    3437.9213    1512.8315   -25789.132    -4885.011   -16442.021    1895.8394    83.510502 
   51700    1233.1623   -106.69814    1.1157912   -105.58235   -11681.892    4.3777668    4.3777668    4.3777668   -11681.892    8165.0772   -13772.919   -29437.835    15229.417    5008.8442   -26267.188    83.899209 
   51800    1922.6373   -107.30635    1.7396427   -105.56671     13076.77    4.3640838    4.3640838    4.3640838     13076.77     20878.45    20565.521   -2213.6617    8126.0023    3363.2874    4644.0864    83.114968 
   51900     1444.537   -106.89792    1.3070475   -105.59088   -4185.1878    4.3728663    4.3728663    4.3728663   -4185.1878    10729.209    -8817.265   -14467.507   -17250.427   -7265.4835   -11701.402     83.61777 
   52000     1375.541   -106.83606    1.2446184   -105.59144   -332.13957    4.3782693    4.3782693    4.3782693   -332.13957    35605.665   -6118.1661   -30483.918    15912.473    9795.9005   -4378.1493    83.928104 
   52100    1516.2864    -106.9549    1.3719678   -105.58293    15661.149    4.3780382    4.3780382    4.3780382    15661.149    44368.738    18076.541   -15461.832   -6404.3666    12703.703    107.74714    83.914813 
   52200    1904.3919     -107.303    1.7231338   -105.57987   -21142.002    4.3685364    4.3685364    4.3685364   -21142.002    -12707.01   -43796.906   -6922.0883   -10654.227   -8024.7866   -12440.533    83.369631 
   52300    1082.7307   -106.56386   0.97967745   -105.58419     17474.83    4.3600437    4.3600437    4.3600437     17474.83    45798.664    6134.2154    491.61081    13771.243    24550.155    11256.853    82.884346 
   52400    1697.9113   -107.12604    1.5363059   -105.58974   -6156.4011    4.3769981    4.3769981    4.3769981   -6156.4011   -2984.0689   -11718.633   -3766.5015   -12230.477   -17789.543    3510.0136    83.855019 
   52500    1599.4053   -107.02196    1.4471756   -105.57479   -17580.786     4.384303     4.384303     4.384303   -17580.786   -34551.111   -30371.034    12179.788    812.00202     9935.042    -4350.186    84.275568 
   52600    1430.0724   -106.86291    1.2939595   -105.56896   -16019.773    4.3702889    4.3702889    4.3702889   -16019.773    4028.6082   -7167.9358   -44919.993    11964.214    24711.039     12540.63    83.470004 
   52700    1697.6089     -107.096    1.5360322   -105.55996     25386.54    4.3651174    4.3651174    4.3651174     25386.54    19468.191    17320.893    39370.536   -15688.764    -21918.63   -9304.5498    83.174041 
   52800    1221.8548   -106.68087    1.1055599   -105.57531   -1342.4945    4.3728669    4.3728669    4.3728669   -1342.4945   -6874.6905   -7450.8251    10298.032    4655.9047    27912.836   -19858.714    83.617807 
   52900    1376.6974   -106.82933    1.2456648   -105.58367    1883.6498    4.3815528    4.3815528    4.3815528    1883.6498    21362.227   -23214.032    7502.7547    1220.3156   -2111.3956    17468.624     84.11707 
   53000    1504.6848   -106.94337    1.3614704    -105.5819    8534.3157     4.382925     4.382925     4.382925    8534.3157   -35037.774   -1020.2074    61660.928    2080.0404    13328.892   -4219.9275    84.196125 
   53100    1379.9968   -106.83899    1.2486501   -105.59034   -10183.147    4.3761213    4.3761213    4.3761213   -10183.147   -28362.009   -26483.814    24296.381    5830.2282    41398.036    8691.9803    83.804638 
   53200    2035.3946   -107.42334    1.8416678   -105.58167    752.35548    4.3735964    4.3735964    4.3735964    752.35548   -3376.8019   -15501.332      21135.2   -20943.859   -21654.055    6637.3999    83.659665 
   53300    1245.0003   -106.71775    1.1265024   -105.59125    9274.7132    4.3747121    4.3747121    4.3747121    9274.7132   -21723.004   -3883.3661    53430.509    11592.136    6117.3118   -4921.8146    83.723703 
   53400    1371.7393   -106.84683    1.2411785   -105.60565    11381.082    4.3838899    4.3838899    4.3838899    11381.082    13001.969   -18175.552    39316.828   -1118.1372    16892.075    9031.8994    84.251745 
   53500    1670.7528   -107.10317    1.5117322   -105.59144   -12700.869    4.3899954    4.3899954    4.3899954   -12700.869   -26277.297   -29004.885    17179.573   -2928.2016   -15255.032   -17341.639    84.604254 
   53600    1181.5236   -106.65575    1.0690674   -105.58669     11567.35    4.3703109    4.3703109    4.3703109     11567.35   -41676.505    1154.3905    75224.163    9550.4387    21199.933    -3492.292    83.471267 
   53700    1960.4419   -107.35483    1.7738491   -105.58098    -4124.676    4.3613147    4.3613147    4.3613147    -4124.676    30532.613    -28004.33   -14902.311     -10190.7    16544.793   -3734.2464    82.956855 
   53800    1364.4544   -106.83463     1.234587   -105.60004    16093.338    4.3767845    4.3767845    4.3767845    16093.338   -2725.6241   -9618.5531    60624.192    7893.2081   -7388.1754   -13617.076    83.842743 
   53900    1219.9654   -106.68094    1.1038504   -105.57709   -19349.536    4.3989732    4.3989732    4.3989732   -19349.536    5201.2803   -53285.133   -9964.7564   -5157.1174    10726.515     22468.01    85.124375 
   54000    1275.0752   -106.70001    1.1537148    -105.5463    409.92452    4.3907293    4.3907293    4.3907293    409.92452    4818.0797   -43095.728    39507.422    3490.9281    -516.2554   -4522.5071     84.64669 
   54100       1617.1   -106.99431    1.4631861   -105.53112     5468.717    4.3751441    4.3751441    4.3751441     5468.717   -1870.3499   -19519.619     37796.12     14748.35    16824.903   -14040.641    83.748508 
   54200    1245.8863   -106.67776    1.1273041   -105.55046    7458.4912     4.373567     4.373567     4.373567    7458.4912    40642.629   -29193.648    10926.493   -10065.899    8501.7112     21071.89    83.657976 
   54300    1769.4965   -107.17025    1.6010776   -105.56917   -6835.6927     4.390366     4.390366     4.390366   -6835.6927    24022.782   -25755.915   -18773.944    10652.292   -6083.7622   -20085.083    84.625681 
   54400    1243.7949   -106.68341    1.1254118     -105.558    -18937.09    4.4096672    4.4096672    4.4096672    -18937.09   -20597.998   -14002.819   -22210.451   -3411.4541    12107.642    11057.129    85.746703 
   54500    1685.8862   -107.04892    1.5254253   -105.52349   -11446.616    4.3910423    4.3910423    4.3910423   -11446.616    29150.671   -31029.089    -32461.43   -13236.567    12502.429   -15903.612    84.664792 
   54600     1565.744   -106.93786    1.4167181   -105.52114    17027.787    4.3685925    4.3685925    4.3685925    17027.787    47708.033    18486.262   -15110.934    20335.008   -16245.137    8480.8481    83.372845 
   54700    1414.8792    -106.8387    1.2802124   -105.55849   -23100.683    4.3828868    4.3828868    4.3828868   -23100.683   -9877.9992   -26970.457   -32453.593   -23091.348    1333.0947    11686.477    84.193928 
   54800    1988.4553   -107.34964    1.7991961   -105.55045   -18989.957    4.3958888    4.3958888    4.3958888   -18989.957   -7040.8647    -24568.34   -25360.667      3687.75     6571.787   -6966.4845    84.945446 
   54900    1037.1058   -106.49975   0.93839516   -105.56135   -2374.0755    4.3804206    4.3804206    4.3804206   -2374.0755    1746.7565    25314.556   -34183.539   -2096.1916    -9327.521    31397.255    84.051881 
   55000    2067.9713   -107.42114    1.8711439      -105.55    5080.5305    4.3654509    4.3654509    4.3654509    5080.5305   -30017.396     52883.85   -7624.8621   -7131.3739   -4617.3191   -14349.728    83.193103 
   55100    872.18251   -106.36238   0.78916906   -105.57321    13986.346    4.3771042    4.3771042    4.3771042    13986.346    10495.094    50077.949   -18614.004    -4469.435    4732.2112    23776.084    83.861118 
   55200    1445.3524   -106.88367    1.3077852   -105.57588   -17767.523    4.3859397    4.3859397    4.3859397   -17767.523   -10413.548   -120.39053   -42768.631   -13686.831     -2830.46    17507.802    84.369984 
   55300    2134.7847   -107.49163     1.931598   -105.56003   -5380.8485    4.3871982    4.3871982    4.3871982   -5380.8485    28624.117   -18579.638   -26187.024    3775.9738    7894.7189   -2946.5505    84.442633 
   55400    839.79016   -106.33047   0.75985979   -105.57061   -17482.766    4.3839252    4.3839252    4.3839252   -17482.766    10359.678   -20956.912   -41851.065    2871.7664    4327.2219    61156.974     84.25378 
   55500    1810.7705   -107.18014    1.6384232   -105.54172    4948.3683    4.3672671    4.3672671    4.3672671    4948.3683    2393.4009   -12842.859    25294.564   -5998.9967    11201.748   -2565.5057    83.296979 
   55600     1393.318   -106.82475    1.2607034   -105.56405    5258.6815    4.3771455    4.3771455    4.3771455    5258.6815    53975.768   -50414.985    12215.262    6983.2411   -2259.6192    22118.265    83.863491 
   55700    1515.4195   -106.93244    1.3711834   -105.56126   -8696.3817    4.3824865    4.3824865    4.3824865   -8696.3817   -8727.9412   -42679.091    25317.888   -8986.0758    6418.2836    6914.4245    84.170859 
   55800    1361.2711   -106.78987    1.2317067   -105.55816    6333.2858    4.3813364    4.3813364    4.3813364    6333.2858    71471.092   -43614.278   -8856.9564    9555.4248    19118.637     2523.131    84.104609 
   55900    1545.8154   -106.95842    1.3986863   -105.55973   -23203.337    4.3883275    4.3883275    4.3883275   -23203.337    -5613.303   -62257.255   -1739.4527    3513.6459    5199.6311    30153.923    84.507859 
   56000    1533.5454   -106.94697    1.3875841   -105.55938    25700.522    4.3809377    4.3809377    4.3809377    25700.522     59307.51   -24255.184    42049.242    7076.3251    -5849.766   -5686.2045     84.08165 
   56100    1440.9275   -106.87365    1.3037815   -105.56987   -33168.746     4.389706     4.389706     4.389706   -33168.746   -3519.6353   -60961.576   -35025.026    29339.517    14613.787    34637.261    84.587522 
   56200    1865.9025   -107.23606    1.6883078   -105.54775     17981.39    4.3650291    4.3650291    4.3650291     17981.39    29312.355    898.30924    23733.507    13701.896   -2601.4403   -11265.475    83.168991 
   56300    734.43517   -106.25085   0.66453237   -105.58631    48449.901    4.3622839    4.3622839    4.3622839    48449.901    176662.96   -34761.614    3448.3591    2782.6413   -5260.7399    33489.112    83.012173 
   56400    2220.9389   -107.58879    2.0095522   -105.57924   -28219.249    4.3996112    4.3996112    4.3996112   -28219.249    10752.174   -49960.854   -45449.066    9143.5367   -22171.014   -4145.6874    85.161422 
   56500    1192.7782   -106.64482    1.0792508   -105.56557   -26796.064      4.39762      4.39762      4.39762   -26796.064    72825.892   -91354.891   -61859.192    3277.4948   -3103.4467     42021.54    85.045843 
   56600    1743.6953   -107.11102    1.5777321   -105.53329    14849.447    4.3628341    4.3628341    4.3628341    14849.447    81138.532   -43726.751    7136.5596    6518.8163   -22692.264   -7178.2686    83.043589 
   56700     828.4453   -106.31565   0.74959472   -105.56606     27779.29    4.3678484    4.3678484    4.3678484     27779.29    159124.03   -69163.863   -6622.2932   -4929.2013   -13911.775     23559.14    83.330249 
   56800    2040.3401   -107.41347    1.8461426   -105.56733    -33593.53    4.3902153    4.3902153    4.3902153    -33593.53    -9785.661   -66272.903   -24722.026    13714.106   -14366.681    9545.7215     84.61697 
   56900    1337.3971   -106.77536     1.210105   -105.56526    1076.8314    4.3901375    4.3901375    4.3901375    1076.8314    78504.252   -44433.539   -30840.218   -3840.3686    10802.793    18385.561    84.612469 
   57000    1181.8678    -106.6363    1.0693788   -105.56693   -18759.132    4.3901943    4.3901943    4.3901943   -18759.132    28843.876    -32747.46   -52373.811   -10314.778   -8465.5184    6677.2542    84.615754 
   57100    1627.3838   -107.02981    1.4724911   -105.55732    35271.485    4.3596682    4.3596682    4.3596682    35271.485    47649.366    473.25597    57691.834    14310.191    1511.9596     -15830.2    82.862933 
   57200    1494.8918   -106.93614    1.3526095   -105.58353    873.93186     4.357508     4.357508     4.357508    873.93186    48019.041   -25928.492   -19468.753    7759.5904     3431.508     45349.41    82.739821 
   57300    1037.6754   -106.53652   0.93891051   -105.59761    5110.5628    4.3941811    4.3941811    4.3941811    5110.5628    37423.465   -25955.189    3863.4132    1069.9806   -7416.7714   -16974.362    84.846487 
   57400    1502.0624   -106.92168    1.3590976   -105.56259   -2755.6846    4.4019009    4.4019009    4.4019009   -2755.6846   -12924.932    7658.9219   -3001.0436    18325.327    -16282.25    32649.279    85.294451 
   57500    1318.8906   -106.73612    1.1933599   -105.54276    1521.6264    4.3950607    4.3950607    4.3950607    1521.6264     20383.17    20812.862   -36631.153    7376.2733  -0.58110299    7727.2994    84.897446 
   57600    1269.4986    -106.6815     1.148669   -105.53283    29697.099    4.3823436    4.3823436    4.3823436    29697.099    42906.983    12515.561    33668.752    2887.8511   -2146.7597    6587.9383    84.162627 
   57700    1424.7332   -106.82676    1.2891286   -105.53764    20122.296    4.3930981    4.3930981    4.3930981    20122.296   -13776.739    54876.105    19267.523    16662.747    -17378.29    39736.778    84.783768 
   57800    1274.0918   -106.68103     1.152825    -105.5282   -16786.255    4.4167535    4.4167535    4.4167535   -16786.255   -72609.743   -2037.2801    24288.257   -12381.599    11774.752    9354.0778    86.160755 
   57900    1804.2274   -107.13961    1.6325029   -105.50711   -20344.703    4.3964075    4.3964075    4.3964075   -20344.703   -13745.045   -25143.661   -22145.401   -1415.4544    8828.1656    24210.226     84.97552 
   58000    1441.2109    -106.8062    1.3040379   -105.50216    24640.098    4.3629765    4.3629765    4.3629765    24640.098    9748.2423    17012.883    47159.168   -18729.939    11783.731    11150.525    83.051719 
   58100     1345.089   -106.77355    1.2170648   -105.55648    14453.283    4.3797888    4.3797888    4.3797888    14453.283    8007.0157    8089.4035    27263.431    5534.0529   -3126.2874    20111.839    84.015517 
   58200    1728.1576   -107.12745    1.5636733   -105.56378   -15733.673     4.403203     4.403203     4.403203   -15733.673    19633.573    -38638.57   -28196.023    246.34416    7414.2831    10246.019    85.370163 
   58300    1283.2259   -106.70965    1.1610897   -105.54856   -18326.647    4.4020601    4.4020601    4.4020601   -18326.647   -11042.965   -78179.402    34242.426   -17406.746   -5562.1105    4293.9309    85.303704 
   58400     1805.667   -107.16051    1.6338055    -105.5267    26216.182    4.3687962    4.3687962    4.3687962    26216.182     51105.71    22915.258     4627.577    9311.3226   -5645.5146    23420.691    83.384503 
   58500    940.70984   -106.39942   0.85117403   -105.54825    51017.114    4.3545178    4.3545178    4.3545178    51017.114    36915.032   -16264.989     132401.3   -17124.691    13430.237   -35006.765    82.569606 
   58600    1820.8143   -107.23867     1.647511   -105.59116   -36811.096    4.3922392    4.3922392    4.3922392   -36811.096   -43579.219   -82940.679    16086.609   -2365.4501   -4749.1131    8078.9056    84.734045 
   58700    1506.9259   -106.92534    1.3634982   -105.56185    12266.255    4.3940431    4.3940431    4.3940431    12266.255    49275.525   -54314.059    41837.299    2789.0725    5427.7749   -13669.029    84.838493 
   58800    1028.5227    -106.4805   0.93062893   -105.54987    2915.2926    4.3823966    4.3823966    4.3823966    2915.2926   -1372.0968   -44025.956    54143.931   -13794.716    7835.7469   -18529.318    84.165682 
   58900    2100.6291   -107.43702    1.9006933   -105.53632   -14792.298    4.3923317    4.3923317    4.3923317   -14792.298    495.38746   -48450.478    3578.1958     17389.45   -23289.414   -13305.801    84.739403 
   59000    1151.2643   -106.57722    1.0416881   -105.53553    -23153.76    4.4046561    4.4046561    4.4046561    -23153.76    -17770.03   -48332.014   -3359.2349   -19088.649    1135.3222    -30405.98    85.454711 
   59100    1644.1897   -106.99487    1.4876974   -105.50718     14399.39    4.3921425    4.3921425    4.3921425     14399.39    62779.811   -46825.283    27243.642    23600.406    9489.7686    3285.9601    84.728448 
   59200    1167.7215   -106.57644     1.056579   -105.51986    21093.925    4.3874126    4.3874126    4.3874126    21093.925    106884.89   -76596.554    32993.439   -6659.5361    3642.9906    1264.8409    84.455015 
   59300    1558.1899   -106.94771     1.409883   -105.53783   -11261.107    4.3982538    4.3982538    4.3982538   -11261.107    65072.338   -48890.217   -49965.443    1496.8551   -9242.1686    15045.116    85.082618 
   59400    1621.2276   -107.00178    1.4669208   -105.53486    1382.8693    4.4024416    4.4024416    4.4024416    1382.8693    5535.6513   -3654.1898    2267.1462    18463.026   -8986.2965   -15410.335    85.325886 
   59500    1592.2363   -106.96642    1.4406888   -105.52573   -18244.403    4.4045767    4.4045767    4.4045767   -18244.403   -44995.874   -21902.779    12165.443   -19063.618    2842.2803   -5535.9701    85.450091 
   59600    1247.6928   -106.64434    1.1289386    -105.5154     3434.739    4.3850409    4.3850409    4.3850409     3434.739    1848.5175     31354.03    -22898.33     10807.67   -4320.7449   -25511.252    84.318127 
   59700    1893.1278    -107.2308    1.7129418   -105.51786    9391.8111    4.3646484    4.3646484    4.3646484    9391.8111    17082.424    -5786.826    16879.836   -9379.5682    9823.1324   -12694.931    83.147229 
   59800    1228.0441    -106.6773    1.1111601   -105.56614   -2414.0322    4.3848697    4.3848697    4.3848697   -2414.0322   -24586.079   -56758.942    74102.925   -21686.258   -5886.9736    3411.9236    84.308251 
   59900    1598.9314    -106.9992    1.4467468   -105.55245    -2891.319    4.4051647    4.4051647    4.4051647    -2891.319   -13046.877    8989.0866   -4616.1669    2461.1261    7899.7421   -755.50258    85.484319 
   60000    1249.5563   -106.65782    1.1306248   -105.52719    -2393.254    4.4030568    4.4030568    4.4030568    -2393.254    29446.456   -32061.161    -4565.057   -16380.564    2778.5573   -4259.5317    85.361664 
   60100     1450.093   -106.83663    1.3120746   -105.52456    6645.7497     4.377373     4.377373     4.377373    6645.7497    36371.144    -58117.57    41683.675    31124.194    -12669.68   -9005.9549    83.876573 
   60200    1607.6061   -106.99379    1.4545958    -105.5392    19795.513    4.3674696    4.3674696    4.3674696    19795.513    51430.781   -11715.072    19670.828   -6568.0871    13473.928   -7212.4252     83.30857 
   60300    1291.2471   -106.74784    1.1683475   -105.57949   -8063.3465      4.37667      4.37667      4.37667   -8063.3465   -48472.675   -34301.508    58584.143    36916.175   -11846.505    12905.393    83.836167 
   60400    1691.4096   -107.10658    1.5304229   -105.57615    5161.8179     4.381452     4.381452     4.381452    5161.8179    25491.455    -41852.01    31846.009    12064.498    14844.428   -10766.463    84.111269 
   60500    1758.8561   -107.16309      1.59145   -105.57164   -33305.563    4.3918184    4.3918184    4.3918184   -33305.563     -46763.6   -65048.188      11895.1    9905.6949    2069.5974    15033.367    84.709694 
   60600    1132.1182    -106.5831    1.0243643   -105.55874    4622.5663    4.3885719    4.3885719    4.3885719    4622.5663    6650.7128   -45559.344     52776.33    35947.461    6346.2377   -2585.8515    84.521979 
   60700    1750.3227   -107.12047    1.5837288   -105.53674    7180.8694     4.371467     4.371467     4.371467    7180.8694    139.43336   -2379.4502    23782.625   -5242.7563    7068.6761    8550.0832    83.537525 
   60800    1588.0469   -107.00334    1.4368983   -105.56644   -23646.734    4.3706283    4.3706283    4.3706283   -23646.734   -11423.664   -55971.127   -3545.4107    26404.247    1972.3772    15292.467    83.489451 
   60900    1840.9196    -107.2479    1.6657027    -105.5822    21763.057    4.3849006    4.3849006    4.3849006    21763.057    61936.472   -12874.157    16226.856   -11381.235    10913.187    2444.7654    84.310032 
   61000    974.22363   -106.46516   0.88149802   -105.58366   -1192.3099    4.3930787    4.3930787    4.3930787   -1192.3099   -45691.763   -20612.662    62727.496    23530.082   -10381.649    13337.763    84.782646 
   61100    1827.3883     -107.216    1.6534594   -105.56254   -4041.9447     4.379185     4.379185     4.379185   -4041.9447    9269.3862   -28932.308    7537.0875    9815.1212    5469.2171    4264.9467    83.980777 
   61200    1429.5801   -106.86646    1.2935141   -105.57294     12896.95    4.3742197    4.3742197    4.3742197     12896.95   -19402.982   -15550.098     73643.93    9500.2254   -12209.471   -5745.3762    83.695437 
   61300    1447.7746   -106.89355    1.3099769   -105.58357    2848.5123    4.3736062    4.3736062    4.3736062    2848.5123   -1918.1427    11606.836   -1143.1568    19535.613    9715.0247    2942.9225    83.660223 
   61400    1424.5805   -106.87407    1.2889903   -105.58508    2104.4904    4.3937139    4.3937139    4.3937139    2104.4904   -23209.661   -8309.5166    37832.649     7557.998   -4438.5805   -13596.769    84.819423 
   61500    1186.6876   -106.65103    1.0737399   -105.57729   -28548.673    4.3842239    4.3842239    4.3842239   -28548.673   -57774.372   -39538.289    11666.642    23141.004   -21339.176   -14838.319    84.271003 
   61600    1564.8224   -106.96586    1.4158842   -105.54998    33397.091    4.3578525    4.3578525    4.3578525    33397.091    14450.126    80825.912    4915.2346   -6976.8304    7064.0144    2656.5134    82.759445 
   61700    1607.3103    -107.0333    1.4543282   -105.57897   -24790.847    4.3876612    4.3876612    4.3876612   -24790.847   -45232.977   -14381.646   -14757.917    103.79662   -13109.837   -19320.435    84.469368 
   61800    1395.3403   -106.81441    1.2625333   -105.55188   -31192.202     4.401719     4.401719     4.401719   -31192.202   -48663.873   -43215.289   -1697.4426    19547.074   -10888.885    12223.506    85.283878 
   61900     1931.349    -107.2826    1.7475252   -105.53507    4814.5722    4.3789065    4.3789065    4.3789065    4814.5722    17614.588    33307.034   -36477.905   -20260.852   -2005.0397   -10331.981    83.964755 
   62000    1402.9237   -106.83399    1.2693948   -105.56459   -9825.1904    4.3727767    4.3727767    4.3727767   -9825.1904   -11464.957   -13089.243   -4921.3714    5402.6624    -16453.87     12099.65    83.612631 
   62100    1679.4874   -107.09541    1.5196355   -105.57577    21411.703    4.3833648    4.3833648    4.3833648    21411.703    26182.931    33901.009    4151.1711    10044.153   -9007.9256    -14241.56    84.221477 
   62200    1235.0395    -106.6912    1.1174897   -105.57371   -25870.575    4.4166695    4.4166695    4.4166695   -25870.575    20003.053    -30379.16   -67235.619     10979.57   -14790.485   -718.73563    86.155839 
   62300    1564.1361   -106.95931    1.4152632   -105.54404   -35329.534    4.3928906    4.3928906    4.3928906   -35329.534   -34596.101   -45729.486   -25663.016    18581.883   -26447.166   -238.74415    84.771753 
   62400    1465.3724   -106.82458    1.3258997   -105.49868    74214.546    4.3392977    4.3392977    4.3392977    74214.546    125076.33    58084.408    39482.899   -14789.884   -19009.817   -20416.038    81.706826 
   62500    1328.4066   -106.78314    1.2019702   -105.58117   -20886.197     4.372038     4.372038     4.372038   -20886.197   -28062.757   -41542.515      6946.68    35356.866    9897.4527    10946.866    83.570267 
   62600     1627.531   -107.02435    1.4726243   -105.55173   -13945.654    4.4023751    4.4023751    4.4023751   -13945.654    25385.513   -54065.998   -13156.478    7715.1616   -906.17876   -8850.2976    85.322022 
   62700    1824.9619   -107.18868    1.6512639   -105.53741   -58931.065    4.3972498    4.3972498    4.3972498   -58931.065   -83377.471   -61267.551   -32148.172     6195.182    11042.948    8182.4804    85.024365 
   62800     1039.414   -106.49217   0.94048359   -105.55168   -590.78049    4.3629558    4.3629558    4.3629558   -590.78049   -6493.1702   -11275.557    15996.386    13858.048    8857.5752   -5778.8716    83.050533 
   62900    2084.9427   -107.42159    1.8864999   -105.53509    26192.557    4.3358243    4.3358243    4.3358243    26192.557    68752.346     -14661.7    24487.024   -9332.4994    7673.0308   -10183.617    81.510774 
   63000    820.42189    -106.3442   0.74233496   -105.60186   -27984.571    4.3850001    4.3850001    4.3850001   -27984.571   -34559.842   -63899.485    14505.613    16730.226    8148.1398    5443.4643    84.315773 
   63100    1914.4127   -107.26889    1.7322008   -105.53669   -14968.132     4.392949     4.392949     4.392949   -14968.132    46804.525   -51584.315   -40124.605    158.72809    7885.2855   -4451.0114    84.775134 
   63200    1390.3611   -106.79498     1.258028   -105.53695   -25577.491    4.3631671    4.3631671    4.3631671   -25577.491   -46537.756   -58579.944    28385.226    9387.3951    -5939.162    2666.0874    83.062604 
   63300    1456.9776   -106.87176    1.3183039   -105.55346    20299.068    4.3492928    4.3492928    4.3492928    20299.068    58461.688   -19615.754    22051.268    7582.4911    9820.6884   -961.11741    82.272737 
   63400    1770.7369   -107.18144       1.6022   -105.57924    12324.937    4.3572419    4.3572419    4.3572419    12324.937    35008.596   -15377.336    17343.551    7035.4744   -18849.861    5946.6854    82.724664 
   63500    1159.4395   -106.63521    1.0490852   -105.58612    -28194.05    4.3913174    4.3913174    4.3913174    -28194.05   -42355.663   -59742.719    17516.231      586.574    7818.8816    -7415.156    84.680709 
   63600    1855.0145    -107.2288    1.6784561   -105.55034   -3688.4753    4.3749381    4.3749381    4.3749381   -3688.4753    3283.1387    16128.981   -30477.546    2251.1934    8928.0226    3353.0414    83.736677 
   63700    1139.5622   -106.57749    1.0310998   -105.54639   -9927.4009    4.3363472    4.3363472    4.3363472   -9927.4009   -20497.383   -15076.362    5791.5417    19555.366    -18591.94   -6533.9692    81.540268 
   63800    1991.0544    -107.3772    1.8015479   -105.57565    31945.121    4.3484194    4.3484194    4.3484194    31945.121    61794.069    20102.104     13939.19   -4264.2707    9792.8417   -1526.0517    82.223179 
   63900    982.33114   -106.49004   0.88883386   -105.60121    -31443.59    4.3922414    4.3922414    4.3922414    -31443.59   -22212.786   -25262.038   -46855.945    7982.4586   -12987.015   -340.90223    84.734173 
   64000     1445.256   -106.87481     1.307698   -105.56711   -18059.504    4.3838262    4.3838262    4.3838262   -18059.504   -46722.837    5783.9232   -13239.599    8809.8749   -3036.4982    3869.9344    84.248073 
   64100    1477.6169   -106.88997    1.3369788   -105.55299    14206.787    4.3496917    4.3496917    4.3496917    14206.787    46368.116    13381.585   -17129.339   -6851.1322    24647.506    1632.7814    82.295376 
   64200    1817.6074   -107.22733    1.6446094   -105.58272   -10309.397    4.3537629    4.3537629    4.3537629   -10309.397   -21819.645   -17920.304    8811.7577    9436.5288   -18297.106    14636.144    82.526672 
   64300    1672.7988   -107.10887    1.5135835   -105.59529    5403.5576    4.3699172    4.3699172    4.3699172    5403.5576   -9630.3156    16891.358    8949.6301    9156.7535    33407.622    7054.4732    83.448709 
   64400    1238.0952   -106.70769    1.1202546   -105.58744    17953.435    4.3725675    4.3725675    4.3725675    17953.435    16404.976    4969.1275    32486.201   -3908.7128    14813.549    3930.7473    83.600632 
   64500    1893.3017   -107.27567    1.7130992   -105.56257    617.43759    4.3712209    4.3712209    4.3712209    617.43759    18077.667   -19621.768    3396.4132    16055.232   -12267.739    10163.628    83.523419 
   64600    1126.6285   -106.58103    1.0193971   -105.56163     27213.25     4.355081     4.355081     4.355081     27213.25    43511.824    67778.673   -29650.746    375.85536      48359.1   -6759.4804    82.601649 
   64700    1720.9098   -107.12294    1.5571154   -105.56582      21322.9    4.3574333    4.3574333    4.3574333      21322.9    5543.4984   -18787.617     77212.82    3404.2025   -28855.671    21254.989    82.735567 
   64800    1111.7888   -106.58414    1.0059698   -105.57817    6090.0071    4.3761701    4.3761701    4.3761701    6090.0071    15042.706    42425.563   -39198.248   -1913.6978    47409.564    -3336.107    83.807443 
   64900    1857.3571   -107.23952    1.6805757   -105.55895   -25363.891    4.3723444    4.3723444    4.3723444   -25363.891    -44308.67   -5055.9384   -26727.066   -10757.503    1647.2641    4839.8474    83.587835 
   65000    1296.5912   -106.72861    1.1731829   -105.55543    17785.085    4.3615154    4.3615154    4.3615154    17785.085    10795.232    2585.1992    39974.824    17900.184   -2312.2074    3186.7981    82.968306 
   65100    1393.2403      -106.83    1.2606331   -105.56937   -18078.531    4.3606157    4.3606157    4.3606157   -18078.531   -20579.257    16209.309   -49865.645   -10552.063    47619.281   -1150.1837    82.916973 
   65200     1936.149   -107.31828    1.7518683   -105.56642    3499.6564    4.3676416    4.3676416    4.3676416    3499.6564   -6077.2373   -8174.2814    24750.488   -8594.8776     -29322.8     11491.67    83.318413 
   65300    1156.1255   -106.61821    1.0460866   -105.57213   -21907.049    4.3787729    4.3787729    4.3787729   -21907.049   -39700.809    18529.271   -44549.608   -324.20561    57266.273   -9980.3323    83.957069 
   65400    1583.9336    -106.9861    1.4331764   -105.55292     6315.825    4.3640962    4.3640962    4.3640962     6315.825    39761.513     6931.665   -27745.703   -15630.666   -31881.231    8674.2504    83.115678 
   65500    1119.4591   -106.57529    1.0129101   -105.56238    20908.373    4.3569709    4.3569709    4.3569709    20908.373    6330.3678    22683.219    33711.532   -2286.6096     15542.59   -4949.3839    82.709229 
   65600    1553.1816   -106.99035    1.4053513     -105.585   -16474.704    4.3798925    4.3798925    4.3798925   -16474.704   -1582.7242   -18325.735   -29515.652   -8553.2942    25958.496    3924.0345    84.021487 
   65700     2234.024    -107.5741    2.0213919   -105.55271   -30493.586    4.3866073    4.3866073    4.3866073   -30493.586   -44622.192    -26226.93   -20631.635   -8213.0975    -25628.93    10358.945    84.408517 
   65800    668.18629   -106.16434     0.604589   -105.55975    5086.2426    4.3660961    4.3660961    4.3660961    5086.2426    3374.0334    33197.815    -21313.12    689.94307    58136.563   -4392.6306    83.229998 
   65900    1803.5455   -107.19296    1.6318859   -105.56107     15438.13    4.3475742    4.3475742    4.3475742     15438.13    11485.167     20924.57    13904.652    3639.1574    -7327.645    9376.7197    82.175248 
   66000    1746.9908   -107.16858     1.580714   -105.58786    23456.001    4.3571112    4.3571112    4.3571112    23456.001    28876.142    29382.489    12109.373   -10964.533     29401.16   -10426.359    82.717222 
   66100    876.10621   -106.39078   0.79271931   -105.59806   -12084.007    4.3863487    4.3863487    4.3863487   -12084.007   -47008.512   -21387.049    32143.538   -502.33886    27624.626   -9546.6449    84.393591 
   66200    1845.1345   -107.21651    1.6695165     -105.547    12444.273     4.382348     4.382348     4.382348    12444.273    32651.955   -6074.4102    10755.273   -5577.8936    3052.4974   -10909.052    84.162879 
   66300    1082.8599   -106.52672    0.9797944   -105.54692    791.03441    4.3640533    4.3640533    4.3640533    791.03441   -21603.243   -215.43586    24191.782   -10556.612    41151.714    -1789.114    83.113226 
   66400    1780.2632   -107.15534    1.6108195   -105.54452    19375.502    4.3581901    4.3581901    4.3581901    19375.502   -8140.1742     18621.57     47645.11    4145.4846   -2819.7266    1117.2541    82.778685 
   66500    1527.6081   -106.95131    1.3822119   -105.56909    6472.3477    4.3649348    4.3649348    4.3649348    6472.3477    -2163.115    37814.114   -16233.956   -403.55268    32552.043   -11558.321    83.163603 
   66600      1404.09   -106.84428    1.2704502   -105.57383   -19222.658    4.3787926    4.3787926    4.3787926   -19222.658   -33632.045   -37118.986    13083.058    5244.9332    10084.229    417.87528    83.958202 
   66700    1990.6369    -107.3558    1.8011701   -105.55463   -4803.0855      4.36477      4.36477      4.36477   -4803.0855   -14575.849   -21878.485    22045.077    4495.3655    -1568.334    4275.8017    83.154181 
   66800    949.96362   -106.42654   0.85954705     -105.567    19967.419    4.3624909    4.3624909    4.3624909    19967.419   -19371.582    14682.378     64591.46   -2860.2451    14686.241   -13034.349    83.023989 
   66900    1827.5021   -107.20022    1.6535623   -105.54666    13455.863    4.3761026    4.3761026    4.3761026    13455.863   -4541.4027   -20300.763    65209.753    15826.348   -19691.133   -18324.643    83.803565 
   67000     1228.385   -106.66422    1.1114686   -105.55275    3584.8064    4.3725061    4.3725061    4.3725061    3584.8064   -48389.871    13467.027    45677.263   -5640.3105    -1002.153    9609.8207    83.597109 
   67100    1396.5247   -106.82659    1.2636049   -105.56298   -9472.1897    4.3647016    4.3647016    4.3647016   -9472.1897   -32018.753   -25489.817        29092    14390.173    10826.695    5604.4513    83.150275 
   67200    2047.1731   -107.40861    1.8523253   -105.55628    9417.3766    4.3525481    4.3525481    4.3525481    9417.3766   -13172.468   -4966.7546    46391.353   -2620.8263   -16714.743    3149.8691     82.45761 
   67300    825.85845   -106.33484   0.74725408   -105.58758    4544.3834    4.3635998    4.3635998    4.3635998    4544.3834   -32208.113    3427.8134     42413.45    4587.9454    32215.975    7511.0049    83.087317 
   67400    2334.2869   -107.67219    2.1121118   -105.56008   -4019.6307    4.3823028    4.3823028    4.3823028   -4019.6307    5031.8443   -13394.056   -3696.6806    9761.6398   -13312.748   -4340.8167    84.160273 
   67500    511.53574   -106.02256   0.46284828   -105.55971     -18521.3    4.3854647    4.3854647    4.3854647     -18521.3   -66522.362   -1436.1997    12394.663   -12563.852    25901.485   -4152.9649    84.342576 
   67600    2191.4608   -107.51594    1.9828798   -105.53306    6768.9376    4.3584819    4.3584819    4.3584819    6768.9376    4302.2189   -2793.1698    18797.764    4052.9858    831.23225   -5773.0964     82.79531 
   67700    1179.1258   -106.62787    1.0668978   -105.56097    5706.9175     4.358574     4.358574     4.358574    5706.9175   -4392.1892    6282.5249    15230.417    1054.1117   -2764.7432   -8682.5901    82.800559 
   67800    1512.6267   -106.92489    1.3686565   -105.55623   -27909.979     4.384049     4.384049     4.384049   -27909.979   -25041.191   -14110.885   -44577.862   -8957.4031    16395.666   -5719.6383     84.26092 
   67900    1712.1825   -107.07959    1.5492187   -105.53038    14112.951    4.3747429    4.3747429    4.3747429    14112.951    905.25712   -7647.7322    49081.328    875.12492   -4988.3376   -201.61424    83.725472 
   68000    1302.2251   -106.72106    1.1782806   -105.54278   -14316.015    4.3793278    4.3793278    4.3793278   -14316.015   -28249.958   -6877.7177   -7820.3689    1543.2397   -2061.8308   -9731.9883     83.98899 
   68100    2041.5594   -107.36536    1.8472459   -105.51812    9450.7671    4.3877255    4.3877255    4.3877255    9450.7671    25078.506   -477.45157    3751.2472   -4236.4055   -9429.5831    -1045.399    84.473086 
   68200    405.64011   -105.90197    0.3670317   -105.53494    38496.525    4.3813748    4.3813748    4.3813748    38496.525   -31884.812    104640.24    42734.147   -9997.3059    14757.767    16439.788    84.106824 
   68300    1828.3702    -107.1618    1.6543478   -105.50745    8438.2689    4.3877033    4.3877033    4.3877033    8438.2689    18213.469    12047.216   -4945.8779   -21238.254    4011.6012   -407.48989    84.471803 
   68400    980.50541   -106.40949    0.8871819   -105.52231    16745.946    4.3779302    4.3779302    4.3779302    16745.946    329.71033    8493.9807    41414.148    4821.8454    9250.5659    2807.5882    83.908605 
   68500    1521.6238    -106.9012    1.3767972    -105.5244    29427.692    4.3776458    4.3776458    4.3776458    29427.692    40869.807    33655.858    13757.412   -21845.468    3054.2373    5714.3479    83.892252 
   68600    1037.9259   -106.47371   0.93913714   -105.53457    7666.8939    4.3820867    4.3820867    4.3820867    7666.8939    4200.6937    -26273.61    45073.598   -13557.569    24036.416    3650.1031    84.147827 
   68700         1247   -106.67232    1.1283118   -105.54401    -8428.266    4.3684988    4.3684988    4.3684988    -8428.266   -43102.279    17999.925   -182.44421    1574.8212   -8654.6641    11699.421     83.36748 
   68800    1780.9499   -107.15436    1.6114409   -105.54292    14471.709    4.3642843    4.3642843    4.3642843    14471.709    8792.8785   -17110.532    51732.782   -6441.1038   -119.08396     4841.001    83.126423 
   68900    1000.9864   -106.47149   0.90571352   -105.56578   -17614.295    4.3776298    4.3776298    4.3776298   -17614.295   -47041.595   -4801.6531   -999.63606    10764.874   -2732.8233    6266.4654    83.891332 
   69000    1812.4977   -107.19418     1.639986   -105.55419    10037.589    4.3713402    4.3713402    4.3713402    10037.589    28562.226    5593.0879    -4042.546    4443.1078   -15303.025   -4551.5421    83.530259 
   69100    762.92426   -106.25297    0.6903099   -105.56266    30741.481    4.3640081    4.3640081    4.3640081    30741.481    41690.997   -4045.8509    54579.297    3902.6151   -23585.559    10061.088    83.110642 
   69200    1706.0501   -107.09245      1.54367   -105.54878    2765.2906    4.3780263    4.3780263    4.3780263    2765.2906    40229.216   -30675.215   -1258.1288    1807.2892   -21351.758    1635.9023    83.914129 
   69300    1400.4369   -106.81247    1.2671447   -105.54532   -6046.7151    4.3732411    4.3732411    4.3732411   -6046.7151    -8888.585   -15535.064    6283.5039    2666.1878    4838.1471    5757.2372    83.639278 
   69400    1138.5143   -106.58448    1.0301517   -105.55433    -11219.97    4.3612956    4.3612956    4.3612956    -11219.97   -28018.869   -20082.981    14441.941    6596.4175   -12026.985    615.95525    82.955763 
   69500     2028.615   -107.39035    1.8355335   -105.55481    24199.877    4.3518648    4.3518648    4.3518648    24199.877    35443.281    3746.1036    33410.248   -4927.1017    2621.2985    1545.5258    82.418783 
   69600    963.52147   -106.45845   0.87181447   -105.58664    801.73246    4.3599185    4.3599185    4.3599185    801.73246    -22278.17   -33754.071    58437.438     7770.989    19468.991    2773.0751    82.877207 
   69700    1936.8905   -107.31184    1.7525392   -105.55931    -13532.83    4.3816908    4.3816908    4.3816908    -13532.83     25762.58   -52558.915   -13802.153   -5874.3313    1449.3164   -16730.183    84.125019 
   69800     885.2286   -106.35621   0.80097344   -105.55524   -13114.846    4.3798801    4.3798801    4.3798801   -13114.846   -64398.904   -22918.922    47973.288    29094.342     8041.507    5400.1221    84.020769 
   69900    2024.1714   -107.37931    1.8315128    -105.5478   -4726.3949    4.3523693    4.3523693    4.3523693   -4726.3949    2216.8611   -32240.528    15844.483    1828.7234    -1947.763   -7658.0309    82.447445 
   70000    1383.3105   -106.80658    1.2516484   -105.55493    35761.645    4.3381867    4.3381867    4.3381867    35761.645    2500.0059    63352.151    41432.779    22637.635    6571.1853   -5295.6224    81.644083 
   70100    960.88683   -106.46088    0.8694306   -105.59145   -8296.0182    4.3727836    4.3727836    4.3727836   -8296.0182   -79535.662     8628.717    46018.891    7788.7273   -4559.4352    -17746.06    83.613029 
   70200    1620.4517   -107.01489    1.4662188   -105.54867   -8583.2284     4.387185     4.387185     4.387185   -8583.2284   -12733.744   -310.17476   -12705.766   -13198.469    14293.423   -10356.526    84.441872 
   70300     1144.337   -106.57273    1.0354202   -105.53731    14058.467    4.3618937    4.3618937    4.3618937    14058.467   -14843.051    252.76532    56765.687    42287.213    7002.1925    -9031.641      82.9899 
   70400     1727.273   -107.08278    1.5628729   -105.51991    39646.488      4.35652      4.35652      4.35652    39646.488     18474.69    27826.112    72638.661   -15189.871   -15339.957   -10439.477    82.683556 
   70500    839.30927   -106.30896   0.75942467   -105.54953    536.14862    4.3599064    4.3599064    4.3599064    536.14862   -18286.975    9899.3775    9996.0431    38287.199    15582.395   -17777.898    82.876515 
   70600    1678.4367   -107.06857    1.5186848   -105.54988    38778.418    4.3704301    4.3704301    4.3704301    38778.418    29486.428    15372.268    71476.557    7096.6857   -5906.2487   -5415.3282    83.478098 
   70700    1354.0342   -106.78021    1.2251586   -105.55506   -25486.154    4.3811026    4.3811026    4.3811026   -25486.154   -44321.706   -34249.585    2112.8309    15960.064    2447.4111   -22895.996    84.091146 
   70800    1155.6449    -106.5972    1.0456518   -105.55155   -4594.7962    4.3565917    4.3565917    4.3565917   -4594.7962   -47278.781   -5437.1175    38931.509    41219.253   -14211.275    -3803.687    82.687636 
   70900    1855.5077   -107.22546    1.6789023   -105.54656     27474.46     4.343134     4.343134     4.343134     27474.46    19643.029    41905.813    20874.538   -32709.697    5752.8543   -13564.778    81.923726 
   71000    1307.2388   -106.76009    1.1828172   -105.57727   -25548.296    4.3642466    4.3642466    4.3642466   -25548.296   -41138.917    -33957.95   -1548.0191     63421.37      -5275.9   -3124.3324    83.124269 
   71100     1558.725   -106.97345    1.4103672   -105.56308   -6361.1497    4.3730612    4.3730612    4.3730612   -6361.1497   -31751.732    4015.0004    8653.2828   -21364.685   -2668.2965   -2317.8138    83.628956 
   71200    1277.8027   -106.71536    1.1561828   -105.55918     290.3573    4.3645214    4.3645214    4.3645214     290.3573   -44639.429      23913.1    21597.401    851.19788   -2979.5589   -4954.5013    83.139972 
   71300    1711.9896   -107.10812    1.5490441   -105.55907    8077.8736    4.3515333    4.3515333    4.3515333    8077.8736    19881.363   -830.42408    5182.6818    36778.517    7560.7076   -3569.9929    82.399948 
   71400    1488.8599   -106.92527    1.3471517   -105.57812    14876.264    4.3498728    4.3498728    4.3498728    14876.264    10472.725    41673.717   -7517.6501   -61738.376   -3377.9691   -1039.6067    82.305652 
   71500     1660.448   -107.08589    1.5024082   -105.58348   -71.123773    4.3639791    4.3639791    4.3639791   -71.123773    37596.951   -12695.559   -25114.764    31942.901   -578.16187   -8598.3949    83.108987 
   71600    1129.2266   -106.61396    1.0217479   -105.59221   -29923.861    4.3700632    4.3700632    4.3700632   -29923.861   -56321.514   -43284.305    9834.2378   -57954.374    1566.0158   -1182.8235    83.457075 
   71700    1742.6086   -107.15243    1.5767488   -105.57568    12727.203    4.3615457    4.3615457    4.3615457    12727.203    -10970.71    42961.089    6191.2313    -14812.79   -7665.2508   -9166.9504    82.970038 
   71800    1639.5366    -107.0608    1.4834872   -105.57731   -2449.4326    4.3607236    4.3607236    4.3607236   -2449.4326    15539.597   -22667.181   -220.71367   -16193.362   -4720.9271   -12907.644    82.923131 
   71900    896.37254   -106.39512   0.81105671   -105.58406     5902.737    4.3528523    4.3528523    4.3528523     5902.737   -75883.287    30798.718     62792.78   -48881.469    193.40465   -458.24126      82.4749 
   72000    1822.1543    -107.2221    1.6487235   -105.57338    13928.987    4.3647978    4.3647978    4.3647978    13928.987    33108.596    16403.936   -7725.5717    10223.803   -11927.228   -19568.761    83.155771 
   72100    1133.4434   -106.60436    1.0255635    -105.5788    3824.6881     4.373966     4.373966     4.373966    3824.6881   -13259.874   -12560.819    37294.757   -43822.153    6576.4494   -893.71363    83.680875 
   72200    1831.1057   -107.20908    1.6568229   -105.55226   -13140.385    4.3649281    4.3649281    4.3649281   -13140.385   -50022.735     2593.793    8007.7856    25448.573   -21924.703   -13428.165     83.16322 
   72300    1068.6812   -106.52256   0.96696517    -105.5556    19011.884    4.3651426    4.3651426    4.3651426    19011.884    30685.156    8566.1274    17784.369   -36978.892   -30.404586   -13386.863     83.17548 
   72400    1361.5887   -106.78892    1.2319941   -105.55692    6314.0951     4.371999     4.371999     4.371999    6314.0951   -26234.978    14214.959    30962.305   -4203.4902     -31253.4     144.0257     83.56803 
   72500     1524.973   -106.93343    1.3798276    -105.5536     -13612.3    4.3729214    4.3729214    4.3729214     -13612.3   -52726.315    10035.763    1853.6536    6885.4339   -21184.116   -19367.101    83.620934 
   72600    1698.0125    -107.0723    1.5363974    -105.5359    19313.218    4.3713069    4.3713069    4.3713069    19313.218    2953.8421    11949.853     43035.96   -3991.0024    7127.8813    8272.6565     83.52835 
   72700    796.66889   -106.26642   0.72084276   -105.54557   -14358.678      4.37984      4.37984      4.37984   -14358.678   -41213.584    23231.924   -25094.373    2241.6299   -52361.395    -6442.372    84.018462 
   72800    2130.1444   -107.45432    1.9273994   -105.52692   -8538.8295    4.3755663    4.3755663    4.3755663   -8538.8295   -35476.254    14292.124   -4432.3594   -7464.2979    11215.857    2022.5724    83.772759 
   72900    1290.3932   -106.71711    1.1675749   -105.54954   -15606.604    4.3614326    4.3614326    4.3614326   -15606.604   -22703.973   -7403.5172    -16712.32    19161.407   -27817.623    12088.545    82.963584 
   73000    1328.1402    -106.7651    1.2017291   -105.56338    3678.1196    4.3459262    4.3459262    4.3459262    3678.1196   -23248.015     28626.68    5655.6944    13469.016   -3414.0798   -12967.744     82.08183 
   73100     1932.995   -107.31776    1.7490145   -105.56874   -2557.7449    4.3670054    4.3670054    4.3670054   -2557.7449    8797.4705   -9185.4936   -7285.2116   -8232.6204   -6225.5997    22503.822    83.282006 
   73200    807.51052   -106.31046   0.73065249   -105.57981   -30428.909    4.3706574    4.3706574    4.3706574   -30428.909   -57872.516   -12149.684   -21264.526    30396.099   -34429.294   -6701.7874    83.491124 
   73300    2150.7019   -107.50256    1.9460003   -105.55656    13573.927    4.3498546    4.3498546    4.3498546    13573.927     21963.38   -2903.7735    21662.174    4676.4399     7145.437    13747.293    82.304621 
   73400    980.64327    -106.4678   0.88730664   -105.58049   -4500.1249    4.3516249    4.3516249    4.3516249   -4500.1249   -41349.234    24489.216     3359.644   -17628.745   -15768.006     3309.549    82.405152 
   73500    1700.6125   -107.11185    1.5387499    -105.5731   -10106.635    4.3591277    4.3591277    4.3591277   -10106.635    -33468.21    24021.083   -20872.779    25270.743   -20331.271   -5004.2685    82.832122 
   73600    1575.4085   -106.99798    1.4254627   -105.57252   -30112.998    4.3761526    4.3761526    4.3761526   -30112.998   -35267.615   -47321.788   -7749.5904   -40986.587    1270.3158    9863.5498    83.806437 
   73700    1006.6548   -106.48572   0.91084243   -105.57488   -11470.154    4.3629582    4.3629582    4.3629582   -11470.154   -1036.5699   -8982.0268   -24391.865   -1844.1357   -24318.108    15335.198    83.050675 
   73800    2193.3267   -107.53077    1.9845681    -105.5462    31954.894    4.3366233    4.3366233    4.3366233    31954.894      20868.6    48278.599    26717.482   -17442.955    1505.7061   -8771.3721    81.555844 
   73900    713.41395   -106.23851   0.64551193     -105.593   -26987.182    4.3579358    4.3579358    4.3579358   -26987.182   -9001.8703   -39575.964   -32383.711   -26920.635   -23356.237    9776.6325    82.764192 
   74000    1984.0088   -107.35955    1.7951728   -105.56437   -6876.0538    4.3630674    4.3630674    4.3630674   -6876.0538    12849.301    606.63249   -34084.094   -1707.4622   -5561.8745    14221.527    83.056908 
   74100    1358.7834   -106.80107    1.2294558   -105.57162   -7393.8782    4.3645852    4.3645852    4.3645852   -7393.8782    7750.7484   -1818.8428    -28113.54   -15667.395   -4396.0388   -7346.1622     83.14362 
   74200    1213.2897   -106.67497      1.09781   -105.57716    -32181.21    4.3620858    4.3620858    4.3620858    -32181.21   -27796.121   -24350.484   -44397.024   -26501.227   -34683.476    12421.589    83.000861 
   74300    1656.5251   -107.06047    1.4988588   -105.56161    28449.404    4.3385548    4.3385548    4.3385548    28449.404    34681.958    39178.335    11487.919    40939.367    18651.949    2879.0952     81.66487 
   74400    1613.3277   -107.05131    1.4597728   -105.59154   -23417.807    4.3663537    4.3663537    4.3663537   -23417.807   -33613.331    21815.644   -58455.734   -15318.415   -19568.068    6423.8763    83.244726 
   74500    1393.6943   -106.83987    1.2610438   -105.57883   -10766.682    4.3663878    4.3663878    4.3663878   -10766.682    1812.0546   -19808.034   -14304.065    13026.067   -8793.3049    14136.786    83.246678 
   74600    1266.5125   -106.71585    1.1459671   -105.56989    32201.918    4.3535598    4.3535598    4.3535598    32201.918   -14650.074    73842.096    37413.733    41573.927    4334.7839   -3867.7004    82.515122 
   74700    1904.8622   -107.28653    1.7235594   -105.56297   -880.37816    4.3690011    4.3690011    4.3690011   -880.37816    38799.568   -6007.3147   -35433.388   -4853.9373   -21875.663    9990.5857     83.39624 
   74800    1166.1622   -106.63302    1.0551681   -105.57786   -1075.5414    4.3522911    4.3522911    4.3522911   -1075.5414   -24732.664    -1145.934    22651.974    59726.938    18529.079    4349.3443    82.443003 
   74900    1664.7964   -107.08502    1.5063428   -105.57868    43253.322    4.3493793    4.3493793    4.3493793    43253.322    45669.785      36182.8    47907.381   -14786.373   -12909.397    4453.5165    82.277646 
   75000    1730.8255   -107.14746    1.5660873   -105.58137   -16419.885     4.368005     4.368005     4.368005   -16419.885   -40992.905   -11986.895    3720.1443    21415.929   -4612.9434    6168.2117    83.339213 
   75100    1100.5962   -106.58256   0.99584259   -105.58672   -4378.9905    4.3650546    4.3650546    4.3650546   -4378.9905   -33017.778    46748.661   -26867.854    30152.845    32491.195   -3000.2261    83.170446 
   75200    2246.6069   -107.60346    2.0327772   -105.57068    9202.3578     4.347535     4.347535     4.347535    9202.3578    24834.584    1711.5198    1060.9693   -25089.322   -2064.0523    2404.3222     82.17302 
   75300    753.46068   -106.27743   0.68174706   -105.59568    19852.542    4.3521977    4.3521977    4.3521977    19852.542   -14321.955    65669.227    8210.3529    39115.462    13005.942    5968.9549    82.437693 
   75400    1921.6296   -107.31483    1.7387309    -105.5761   -25214.183    4.3770547    4.3770547    4.3770547   -25214.183   -32389.136    2351.1312   -45604.545   -10576.234     32989.38    2396.1342    83.858273 
   75500     1616.709   -107.02768    1.4628323   -105.56484    16662.324     4.358213     4.358213     4.358213    16662.324    37263.164    6064.5116     6659.295     18191.69   -6430.7882    11710.055    82.779988 
   75600    816.37778   -106.31575   0.73867577   -105.57708   -9360.4223    4.3471904    4.3471904    4.3471904   -9360.4223   -22029.392    18257.357   -24309.231    30085.919    42408.789    6663.9719    82.153481 
   75700    2367.2124   -107.71389    2.1419035   -105.57198    3628.1139    4.3520886    4.3520886    4.3520886    3628.1139    21853.354    9420.1791   -20389.192   -5970.4372   -9340.0732    2488.5895    82.431496 
   75800    1056.7251    -106.5501   0.95614712   -105.59395    13348.735    4.3559176    4.3559176    4.3559176    13348.735   -28479.499    25208.865    43316.838    29172.708    22648.567   -6533.3071    82.649258 
   75900    1234.6709   -106.70524    1.1171562   -105.58809   -19391.606    4.3695898    4.3695898    4.3695898   -19391.606   -24600.188    -19332.76   -14241.871    11315.158    7372.2706     10594.56    83.429955 
   76000    2116.2483   -107.48352    1.9148259   -105.56869   -8665.5453    4.3588784    4.3588784    4.3588784   -8665.5453   -18757.743   -7165.2729   -73.620296    5997.5818   -24536.128    7037.7867     82.81791 
   76100    1089.0625   -106.56802   0.98540662   -105.58261    23082.644    4.3372269    4.3372269    4.3372269    23082.644   -21019.177     47605.34    42661.768    21790.118    43141.749   -316.19478    81.589906 
   76200    1771.4919   -107.19624    1.6028831   -105.59336    17676.716    4.3456737    4.3456737    4.3456737    17676.716    10416.592    15924.338     26689.22     14.44053   -22854.411    9435.2132    82.067525 
   76300    1590.9751   -107.02329    1.4395477   -105.58374   -17616.471    4.3716229    4.3716229    4.3716229   -17616.471   -39483.591   -17337.574    3971.7523    15793.933    777.72489   -13296.806    83.546467 
   76400     1163.058   -106.62529    1.0523593   -105.57293   -9298.8482    4.3692331    4.3692331    4.3692331   -9298.8482   -47217.488    16819.085    2501.8579    11546.126    28165.424     8234.589    83.409526 
   76500    2165.8339   -107.51479     1.959692    -105.5551    13136.192    4.3418111    4.3418111    4.3418111    13136.192    32235.682    8941.8755   -1768.9818    3119.6852   -16512.139    6986.1872    81.848884 
   76600    939.99615   -106.43084   0.85052827   -105.58032    29099.084    4.3443892    4.3443892    4.3443892    29099.084   -2156.4458    46051.916    43401.781    26893.436    19103.579   -13610.979    81.994777 
   76700    1535.5749   -106.97038    1.3894205   -105.58096   -19249.697    4.3729517    4.3729517    4.3729517   -19249.697   -7377.0351   -6666.8008   -43705.254   -9053.7291    10058.267    22695.693     83.62267 
   76800    1941.4562   -107.31083    1.7566704   -105.55416    2379.2783    4.3725457    4.3725457    4.3725457    2379.2783    17986.094   -2069.3637   -8778.8958    23929.931    2891.3002   -12852.828    83.599383 
   76900    1005.5414   -106.46596     0.909835   -105.55612    10391.522    4.3601992    4.3601992    4.3601992    10391.522   -609.43113    23142.191    8641.8053    11499.745    22231.069    6836.0925    82.893217 
   77000    1780.2707   -107.15409    1.6108263   -105.54326    18304.533     4.355881     4.355881     4.355881    18304.533    62471.325    -14904.14    7346.4131   -15523.488    -17452.37    191.81139    82.647175 
   77100    1328.5909   -106.77215    1.2021369   -105.57002   -4080.1094    4.3557445    4.3557445    4.3557445   -4080.1094   -36955.183    12591.963    12122.891    29628.022    23482.513    -18936.52    82.639407 
   77200    1469.2344   -106.91087    1.3293942   -105.58148    13864.985    4.3625227    4.3625227    4.3625227    13864.985   -7272.3072    55287.381    -6420.119   -13729.686    26949.967    13022.358    83.025806 
   77300    1741.6306   -107.14283     1.575864   -105.56696   -12716.872    4.3699537    4.3699537    4.3699537   -12716.872    3691.9909   -51182.128    9339.5199    13511.629    -3169.174   -17485.398    83.450802 
   77400    1041.4502   -106.51719   0.94232598   -105.57486    -20989.48    4.3576006    4.3576006    4.3576006    -20989.48   -20227.475   -3438.0859   -39302.879    13696.704    50086.036   -3073.5561    82.745095 
   77500    1978.6216   -107.34939    1.7902984    -105.5591    28936.753    4.3568235    4.3568235    4.3568235    28936.753    48673.069    41302.469   -3165.2793   -6128.8165    7958.0845   -12716.973    82.700837 
   77600     655.5501   -106.16645   0.59315551    -105.5733   -1850.5796     4.375917     4.375917     4.375917   -1850.5796    23198.865   -22856.326   -5894.2781     32242.36     22065.78   -7153.5395      83.7929 
   77700    1635.5759   -107.01401    1.4799034   -105.53411    7178.8659    4.3701572    4.3701572    4.3701572    7178.8659    32072.267   -6867.3649   -3668.3039   -1701.0412    30403.056    4134.3642    83.462461 
   77800    1385.3281   -106.79032     1.253474   -105.53685    -23023.28    4.3765472    4.3765472    4.3765472    -23023.28   -6684.8925    -30628.95   -31755.998    9897.1815    1172.3814   -22736.405    83.829109 
   77900    1689.7412   -107.06233    1.5289133   -105.53342   -25038.477    4.3651665    4.3651665    4.3651665   -25038.477   -32601.378   -1400.4887   -41113.565    22183.829    44179.137    6574.2836    83.176846 
   78000    1895.0749   -107.23969    1.7147036   -105.52499    22887.448    4.3473339    4.3473339    4.3473339    22887.448    61048.219    9336.8858   -1722.7601   -4075.9862   -6838.5116   -8540.0765    82.161622 
   78100    1181.3192   -106.62876    1.0688825   -105.55988   -38531.819    4.3735593    4.3735593    4.3735593   -38531.819   -62896.947    9060.6334   -61759.144    22205.013    47473.822    2034.0488    83.657531 
   78200    2204.1235   -107.52285    1.9943373   -105.52851   -39861.672    4.3819051    4.3819051    4.3819051   -39861.672   -29088.637   -41707.223   -48789.158   -500.19732    3401.0487   -12141.912    84.137364 
   78300    1468.7589   -106.86701    1.3289639   -105.53804   -6362.7457    4.3556378    4.3556378    4.3556378   -6362.7457   -3271.5937    14659.484   -30476.127   -1141.2777    22052.325   -17430.713    82.633332 
   78400    1873.1499   -107.22463    1.6948654   -105.52976    3943.2801    4.3515399    4.3515399    4.3515399    3943.2801    -29116.35    57832.473   -16886.283   -414.20607    28023.429    10077.296    82.400325 
   78500    1284.8353   -106.71513    1.1625459   -105.55259   -37685.214    4.3669448    4.3669448    4.3669448   -37685.214   -49003.945   -52637.299   -11414.398   -22420.467   -7499.5234   -11833.758    83.278543 
   78600    1787.6785   -107.17451    1.6175291   -105.55698    -17968.96    4.3735008    4.3735008    4.3735008    -17968.96   -53738.476    24170.733   -24339.135    10856.343    19355.877    477.90278    83.654176 
   78700    1840.7885   -107.22379    1.6655842   -105.55821   -25337.577    4.3639528    4.3639528    4.3639528   -25337.577     -6153.17   -47946.682   -21912.881   -8586.6904   -698.82611    6999.8713    83.107483 
   78800    1098.5912   -106.56167   0.99402838   -105.56764    1954.7444    4.3402189    4.3402189    4.3402189    1954.7444   -25391.248    8157.9358    23097.545   -19075.764    8904.5883   -10908.992    81.758876 
   78900    1735.6811   -107.13585    1.5704808   -105.56537    9771.7322    4.3535306    4.3535306    4.3535306    9771.7322   -10887.308    7628.2218    32574.283    22050.171    4374.8459   -6984.5205     82.51346 
   79000    843.33282   -106.33436   0.76306526    -105.5713   -45283.104    4.3724971    4.3724971    4.3724971   -45283.104   -26597.068   -59732.431   -49519.811   -24563.982   -6857.8661   -15643.829    83.596593 
   79100    1875.1502   -107.25202    1.6966753   -105.55534    13021.035     4.349901     4.349901     4.349901    13021.035   -39385.823    30515.448     47933.48    25618.669    6359.6284    -9890.856    82.307256 
   79200    1174.3816    -106.6289    1.0626052    -105.5663    28299.511    4.3456785    4.3456785    4.3456785    28299.511    5859.9913    5440.2184    73598.323    33285.182    5153.6269   -23036.811    82.067797 
   79300    1176.8811   -106.63144    1.0648668   -105.56658   -1559.7435    4.3636634    4.3636634    4.3636634   -1559.7435   -31612.535    9876.3174    17056.987   -14592.316   -8203.5806   -16385.454    83.090949 
   79400    1011.5232   -106.47675   0.91524748    -105.5615   -15268.703    4.3764459    4.3764459    4.3764459   -15268.703    -57026.06    -40793.21     52013.16    66088.051    265.12926   -7965.8552    83.823285 
   79500    2173.6167   -107.49204    1.9667341   -105.52531    3934.1139    4.3679085    4.3679085    4.3679085    3934.1139    22659.853   -1311.0806   -9546.4307   -8669.8286   -3916.9206   -6802.1796    83.333687 
   79600    827.27644   -106.29926   0.74853711   -105.55073    3945.5449    4.3518696    4.3518696    4.3518696    3945.5449    22680.844   -44726.883    33882.673    72382.082   -2145.5716   -3614.4933    82.419054 
   79700    1709.0724   -107.10279    1.5464046   -105.55638    21708.174    4.3502247    4.3502247    4.3502247    21708.174    70694.856   -34260.131    28689.799   -1328.0643    4245.1919   -727.02541     82.32563 
   79800    1365.2962   -106.81789    1.2353487   -105.58255   -12456.453    4.3547479    4.3547479    4.3547479   -12456.453     8718.424   -41422.903   -4664.8792    41952.869   -477.11968   -11187.446    82.582697 
   79900    1411.9208   -106.87071    1.2775356   -105.59317    1349.2398    4.3518618    4.3518618    4.3518618    1349.2398    1463.5984   -4718.2312    7302.3523    20250.993   -15392.403    2208.3624     82.41861 
   80000    2081.7494   -107.46096    1.8836106   -105.57735    2206.7725    4.3599103    4.3599103    4.3599103    2206.7725    36407.828   -15114.228   -14673.283   -18548.693    14419.029   -11206.631    82.876739 
   80100    676.85141   -106.19551   0.61242938   -105.58308   -7547.3482    4.3603264    4.3603264    4.3603264   -7547.3482   -6032.8997   -5504.8953    -11104.25    58968.901   -5404.2539    1722.4746    82.900471 
   80200    2149.7258   -107.50984    1.9451171   -105.56473   -5185.8491    4.3495524    4.3495524    4.3495524   -5185.8491   -4482.3154    14488.771   -25564.003   -17283.536   -18434.707   -189.42926     82.28747 
   80300     1314.419   -106.77172     1.189314   -105.58241    25980.078     4.337105     4.337105     4.337105    25980.078    20570.333    5737.9342    51631.966    39828.014    17192.113    -3385.061    81.583026 
   80400    1397.2667   -106.86311    1.2642763   -105.59883    -4684.947    4.3579999    4.3579999    4.3579999    -4684.947    10702.191   -6755.9396   -18001.093    15333.493   -28622.457   -3772.2755    82.767845 
   80500      1726.47    -107.1332    1.5621464   -105.57106   -28747.077    4.3703302    4.3703302    4.3703302   -28747.077   -22584.694   -45390.975    -18265.56    9397.8841   -2218.2482    -2536.543     83.47237 
   80600    1190.6056   -106.64238    1.0772849    -105.5651    17733.567     4.338643     4.338643     4.338643    17733.567    21104.263   -15840.961    47937.399    49076.324    256.16682    10412.373    81.669846 
   80700    1945.3911   -107.31947    1.7602308   -105.55924    16019.993    4.3431075    4.3431075    4.3431075    16019.993    4226.7105    25720.449    18112.819   -9919.1547   -25315.138   -7136.3171    81.922227 
   80800    1312.0786   -106.75517    1.1871963   -105.56797   -19056.366    4.3618269    4.3618269    4.3618269   -19056.366   -1550.6119   -83956.945    28338.458    65788.779    3139.7287   -6016.0834    82.986085 
   80900    1754.2769   -107.14568    1.5873066   -105.55837    3178.5114    4.3614126    4.3614126    4.3614126    3178.5114    19593.138   -17481.711    7424.1075   -12572.986    -6437.083     3746.119     82.96244 
   81000    1351.6623   -106.79545    1.2230124   -105.57244   -8930.2313    4.3509915    4.3509915    4.3509915   -8930.2313    -14980.99   -37547.741    25738.036     60820.77   -17716.631    125.96359    82.369172 
   81100    1896.6213   -107.28304    1.7161028   -105.56694    17415.143    4.3460281    4.3460281    4.3460281    17415.143    28170.373   -12038.467    36113.524    6231.8672    15348.762   -13041.947    82.087604 
   81200    1396.2082   -106.83849    1.2633185   -105.57517    5146.4707    4.3542271    4.3542271    4.3542271    5146.4707   -4132.9455   -1750.1299    21322.487    15178.616   -6123.1391    2223.6084     82.55307 
   81300    1120.5276   -106.59461     1.013877   -105.58073   -7981.1414    4.3723365    4.3723365    4.3723365   -7981.1414   -13130.952   -55119.006    44306.534    43419.006    4489.9078   -3608.8036    83.587386 
   81400    2493.7701   -107.81482    2.2564156   -105.55841   -12809.079    4.3660204    4.3660204    4.3660204   -12809.079     -29106.5    7553.7197   -16874.456   -19370.019    2284.8095    2837.9891    83.225667 
   81500    1030.8902   -106.51268   0.93277116   -105.57991    18856.323     4.324945     4.324945     4.324945    18856.323   -363.44663    1317.2631    55615.154    73817.076   -8375.0863   -7181.5223    80.898743 
   81600    1809.1064   -107.22671    1.6369175   -105.58979    25344.622    4.3432273    4.3432273    4.3432273    25344.622    10919.464     44409.28    20705.122   -13003.292    2518.2935   -5351.5132    81.929006 
   81700    1371.8256   -106.80936    1.2412567    -105.5681   -44624.971    4.3849307    4.3849307    4.3849307   -44624.971   -59079.417   -78809.099    4013.6027    57395.787    3211.3562    -10119.08    84.311768 
   81800    1264.1706   -106.70311    1.1438481   -105.55926   -6423.0265    4.3629415    4.3629415    4.3629415   -6423.0265   -3155.0486    4266.1268   -20380.158     13509.45   -8250.9108   -521.35068     83.04972 
   81900    1535.9921   -106.93403    1.3897979   -105.54424    30978.503    4.3227644    4.3227644    4.3227644    30978.503    13198.504    24178.535    55558.469    13770.582    15262.125   -16002.881    80.776437 
   82000    1580.8868   -107.00538    1.4304196   -105.57496    30242.059    4.3360887    4.3360887    4.3360887    30242.059    29905.588    18854.978    41965.612    43640.019    1261.9213    -5573.553    81.525688 
   82100    1424.1538   -106.87102    1.2886043   -105.58242   -22105.413    4.3687452    4.3687452    4.3687452   -22105.413   -53847.696    20586.954   -33055.497   -14148.097   -11924.256    2822.0042    83.381588 
   82200    1323.7124   -106.76659    1.1977228   -105.56886   -13143.481    4.3677341    4.3677341    4.3677341   -13143.481    -33851.47   -21957.906    16378.935    23632.604    8795.5338   -16989.053    83.323705 
   82300    1598.7074    -107.0081     1.446544   -105.56155   -8218.0459    4.3532859    4.3532859    4.3532859   -8218.0459   -34828.445    43704.076   -33529.768    5508.8171   -18619.853     3109.757    82.499551 
   82400    1513.6127   -106.94002    1.3695486   -105.57047    2322.9019    4.3451923    4.3451923    4.3451923    2322.9019   -31823.835    36855.179    1937.3618   -9872.3189    3202.2799   -7080.7597    82.040256 
   82500    1764.8933   -107.16538    1.5969125   -105.56847    10265.663    4.3526527    4.3526527    4.3526527    10265.663    9047.6058   -170.46631     21919.85    11765.387   -13905.896    10532.051    82.463557 
   82600    812.91732   -106.32129   0.73554468   -105.58575   -28545.233    4.3690595    4.3690595    4.3690595   -28545.233   -31028.157    32899.854   -87507.396   -9477.3759   -15722.888    4482.0359    83.399584 
   82700     1800.884   -107.19637    1.6294777   -105.56689     1309.724    4.3561524    4.3561524    4.3561524     1309.724    1720.1877   -5460.3128    7669.2971    -10671.52    17281.188    2166.6684    82.662623 
   82800    1629.7978   -107.04104    1.4746753   -105.56637    18412.684    4.3443479    4.3443479    4.3443479    18412.684    -2114.508     52688.17    4664.3914   -6974.4569   -34752.471    12852.281    81.992439 
   82900    1297.6022   -106.75227    1.1740978   -105.57817    790.61134    4.3514532    4.3514532    4.3514532    790.61134    -25910.62     58795.36   -30512.906   -10222.717    13427.298   -4288.2358      82.3954 
   83000    1498.2693   -106.92541    1.3556655   -105.56974    12314.811     4.363854     4.363854     4.363854    12314.811   -8632.4063    8810.6653    36766.173    274.32129     -31.8269    9806.6813    83.101837 
   83100    1406.2498   -106.84269    1.2724044   -105.57029   -20039.121    4.3628249    4.3628249    4.3628249   -20039.121   -63225.277     26117.37   -23009.455   -5954.5213   -18897.541    6110.1522    83.043064 
   83200     1482.131   -106.90344    1.3410633   -105.56238    29811.436    4.3463559    4.3463559    4.3463559    29811.436    1865.9792    46567.347    41000.981   -9850.2799    38616.215    6070.3205    82.106181 
   83300    1657.2069   -107.06948    1.4994756      -105.57   -12391.574    4.3507552    4.3507552    4.3507552   -12391.574   -27191.968    899.91405   -10882.668     -7722.97   -38992.209    7007.9636    82.355754 
   83400    1078.8104   -106.56082   0.97613029   -105.58469   -1588.3288    4.3605508    4.3605508    4.3605508   -1588.3288   -43060.963    63185.075   -24889.098    3092.7506    17101.528   -1840.1244    82.913271 
   83500    1875.8524    -107.2659    1.6973107   -105.56859   -5970.3066    4.3594385    4.3594385    4.3594385   -5970.3066    3212.7912   -40088.988    18965.277    -19084.43   -1443.3797    18715.536    82.849838 
   83600    1361.9106    -106.8053    1.2322853   -105.57301   -8230.8683    4.3574214    4.3574214    4.3574214   -8230.8683   -45857.837    69733.563   -48568.331    7798.3976    -19574.11   -17180.944     82.73489 
   83700    1425.6409   -106.86417    1.2899498   -105.57422   -6158.8531     4.347251     4.347251     4.347251   -6158.8531   -28463.248    25621.048   -15634.359   -11927.434    45282.014    14813.451    82.156917 
   83800    1825.6505   -107.22524     1.651887   -105.57335    6518.8865     4.349837     4.349837     4.349837    6518.8865    303.28617    11907.926    7345.4477    -14632.44   -30487.128    13629.453    82.303621 
   83900    1123.7038   -106.60025    1.0167508    -105.5835    -19852.98    4.3628408    4.3628408    4.3628408    -19852.98   -63030.746    57509.131   -54037.326    9548.2995    26526.101     -20432.1     83.04397 
   84000    1913.3319   -107.30101    1.7312229   -105.56978   -18989.125    4.3570004    4.3570004    4.3570004   -18989.125   -26519.174   -31688.662    1240.4626   -28306.179    14572.021    28924.243    82.710913 
   84100    1122.4197   -106.59129    1.0155889    -105.5757   -10561.376     4.354819     4.354819     4.354819   -10561.376    -19915.79    14141.605   -25909.942    16252.764   -5198.3543   -5606.4814    82.586742 
   84200    1372.1363   -106.82379    1.2415377   -105.58225   -20424.277    4.3516381    4.3516381    4.3516381   -20424.277   -60784.811    22619.581   -23107.602   -3375.6142    36022.618   -326.08412      82.4059 
   84300    1992.3684    -107.3796    1.8027368   -105.57687    18814.519    4.3555852    4.3555852    4.3555852    18814.519    3329.0472   -3988.2787    57102.788    -1647.789   -4934.1796    28296.745    82.630343 
   84400    901.76173   -106.40829   0.81593296   -105.59236   -17724.496    4.3675495    4.3675495    4.3675495   -17724.496   -59975.167    17148.688   -10347.009    7072.1025     37450.02   -4413.8057    83.313142 
   84500    1404.3433   -106.84073    1.2706794   -105.57005   -4587.0373    4.3655821    4.3655821    4.3655821   -4587.0373   -25402.132    16924.579   -5283.5587   -3640.0926   -3540.6998    24070.945    83.200603 
   84600     1646.665   -107.05011    1.4899371   -105.56017    14663.875    4.3537239    4.3537239    4.3537239    14663.875    11858.386     28553.03    3580.2079   -7042.4655    27680.033    15665.459    82.524454 
   84700    1093.4127   -106.56157   0.98934281   -105.57222    6011.5185    4.3583496    4.3583496    4.3583496    6011.5185    -24172.62    50709.938   -8502.7626   -7980.0135     18443.46    5773.7772    82.787769 
   84800     1721.552   -107.11378    1.5576964   -105.55609    1880.9319     4.376427     4.376427     4.376427    1880.9319    20992.805    18111.248   -33461.257   -14174.422   -3017.9053    18261.225    83.822204 
   84900    1086.6483   -106.54304   0.98322218   -105.55982   -13584.914    4.3754129    4.3754129    4.3754129   -13584.914   -31265.213    48922.603   -58412.132   -12729.013    35975.567    1058.3812    83.763947 
   85000    1485.1349    -106.8882    1.3437812   -105.54441     35618.39    4.3523534    4.3523534    4.3523534     35618.39    31549.857    76734.035   -1428.7206   -18152.766   -29961.261    14941.347    82.446545 
   85100    1215.3892   -106.66277    1.0997097   -105.56306    20905.616    4.3552861    4.3552861    4.3552861    20905.616   -5711.0701    82629.372   -14201.455   -33655.678    38431.162     -4958.28    82.613317 
   85200    1182.4441   -106.63179    1.0699003   -105.56189   -6407.6274    4.3767572    4.3767572    4.3767572   -6407.6274   -12494.741    67203.066   -73931.207   -1016.0832   -30541.633     3409.081    83.841179 
   85300    1804.4813   -107.18219    1.6327326   -105.54946   -6470.5995    4.3660976    4.3660976    4.3660976   -6470.5995   -12461.597    18511.472   -25461.674    -12702.29    13009.791    23589.256    83.230081 
   85400    1222.7145    -106.6631    1.1063378   -105.55676    9697.5752    4.3419065    4.3419065    4.3419065    9697.5752    -24094.99    68314.705   -15126.989   -31038.732    20404.333   -10925.741    81.854283 
   85500    1353.5171   -106.80029    1.2246907    -105.5756   -4715.8858     4.350082     4.350082     4.350082   -4715.8858    -7607.205    32739.097   -39279.549    19251.183    -43342.27    16104.988     82.31753 
   85600    1650.6011   -107.07559    1.4934986   -105.58209   -6891.0916    4.3552446    4.3552446    4.3552446   -6891.0916   -13822.095    7447.7226   -14298.902     4031.735    36401.828    1709.1944    82.610955 
   85700    1291.7854   -106.76578    1.1688346   -105.59695   -6056.4033    4.3633716    4.3633716    4.3633716   -6056.4033    9800.9698    4004.0265   -31974.206    -12908.73   -16658.226   -8111.3608    83.074284 
   85800    1481.9887   -106.93087    1.3409345   -105.58994   -16986.093    4.3607641    4.3607641    4.3607641   -16986.093   -21096.052   -26882.115   -2980.1115    39906.878   -11196.282    2114.6573    82.925438 
   85900    1622.8163   -107.04636    1.4683583     -105.578    16470.179    4.3398208    4.3398208    4.3398208    16470.179    20258.074     37640.31   -8487.8459    2295.2063    11738.781    3969.5575    81.736376 
   86000    1515.4486    -106.9661    1.3712097   -105.59489    -14183.51    4.3571817    4.3571817    4.3571817    -14183.51   -22174.942    2366.3345   -22741.922    9192.0322   -28293.774   -3464.0519    82.721238 
   86100    1241.3818   -106.70985    1.1232283   -105.58662   -22835.624    4.3685547    4.3685547    4.3685547   -22835.624   -29249.348   -45485.709    6228.1864    39077.635    5734.6885   -1867.2593    83.370679 
   86200    1938.7618   -107.32486    1.7542324   -105.57063    31718.667    4.3469556    4.3469556    4.3469556    31718.667     30562.77    68386.656   -3793.4258   -17410.232   -12828.811    3063.2154    82.140174 
   86300    1321.7188    -106.7881    1.1959189   -105.59218   -380.79011    4.3436649    4.3436649    4.3436649   -380.79011   -478.82494   -18196.747    17533.202    34764.919    -9963.502       3929.6    81.953768 
   86400    1118.0832   -106.61182    1.0116652   -105.60016    1600.2047    4.3523051    4.3523051    4.3523051    1600.2047    22062.064   -6596.1373   -10665.313    14255.527    1558.6443    7674.2981    82.443799 
   86500    2030.4501   -107.42574    1.8371939   -105.58855   -16887.655     4.352733     4.352733     4.352733   -16887.655   -24456.867   -1281.0134   -24925.084    -9052.082   -8689.4993   -10411.709     82.46812 
   86600     1363.091    -106.8248    1.2333534   -105.59145    7284.4981    4.3550831    4.3550831    4.3550831    7284.4981    43868.336   -30642.376     8627.534    38320.904    4139.9422    16920.152    82.601767 
   86700    1400.0872   -106.85802    1.2668284   -105.59119   -32180.741    4.3591271    4.3591271    4.3591271   -32180.741   -14468.934   -29410.973   -52662.317   -12162.431   -943.42637    -7238.917    82.832083 
   86800    1667.8718   -107.09239    1.5091254   -105.58327    6607.8289    4.3473147    4.3473147    4.3473147    6607.8289    28605.222   -4456.3776   -4325.3579   -5319.6236   -18176.696   -733.47349     82.16053 
   86900    1345.7914   -106.81497    1.2177004   -105.59727   -5450.5688     4.348939     4.348939     4.348939   -5450.5688    34448.492    -25038.09   -25762.108    27353.703    15128.298    39020.064    82.252657 
   87000    1548.2883   -107.00103    1.4009238    -105.6001    691.12601    4.3477302    4.3477302    4.3477302    691.12601    7444.1054    3017.5408   -8388.2682   -9424.0069   -15592.747   -13727.534    82.184089 
   87100    1551.4919   -107.00363    1.4038225   -105.59981    6250.5397    4.3539464    4.3539464    4.3539464    6250.5397    30399.256   -6843.1962    -4804.441   -17223.622    3916.4781    24130.815    82.537104 
   87200    1685.8572   -107.11318     1.525399   -105.58778   -22396.055    4.3624029    4.3624029    4.3624029   -22396.055   -10792.714   -16012.389   -40383.062    27545.239    5231.1805    19532.207    83.018966 
   87300    1443.0033   -106.88722    1.3056597   -105.58156    7247.4864    4.3445129    4.3445129    4.3445129    7247.4864   -11888.719   -8594.8361    42226.014     -36927.7   -12036.605   -8906.1869     82.00178 
   87400    1338.6206   -106.79963     1.211212   -105.58842    16407.879    4.3484384    4.3484384    4.3484384    16407.879    31183.675   -12099.299     30139.26   -3759.6632    3707.6608     36611.01    82.224258 
   87500    1849.3894   -107.25636    1.6733664   -105.58299   -10638.934    4.3540088    4.3540088    4.3540088   -10638.934   -13245.676   -31455.883    12784.756   -159.72413   -2617.3291   -2591.7168    82.540654 
   87600     1150.821    -106.6374     1.041287   -105.59611   -4933.9504    4.3509245    4.3509245    4.3509245   -4933.9504   -32697.086   -24515.065      42410.3   -35414.541    -18451.27    7694.4178    82.365368 
   87700    1633.6213   -107.06559    1.4781349   -105.58746   -8120.6023    4.3558749    4.3558749    4.3558749   -8120.6023     4383.426   -25501.089   -3244.1439    7767.5132    2732.7229    32768.927    82.646827 
   87800    1536.8852   -106.97785    1.3906061   -105.58724    6263.0274    4.3406165    4.3406165    4.3406165    6263.0274   -38671.986   -23111.762     80572.83   -34182.702   -168.83789   -10920.808    81.781345 
   87900    1566.9439   -107.01382    1.4178038   -105.59602    2504.5913    4.3475321    4.3475321    4.3475321    2504.5913    4562.3468   -8811.0526     11762.48     4317.169   -5109.8783    10933.405    82.172857 
   88000    1247.3012   -106.71772    1.1285843   -105.58913   -37453.037    4.3655173    4.3655173    4.3655173   -37453.037   -52471.827    -50522.05   -9365.2346   -29807.817    6883.6164    11289.903    83.196901 
   88100    1663.3254   -107.08252    1.5050117   -105.57751   -2229.3229    4.3477964    4.3477964    4.3477964   -2229.3229   -29595.851   -26361.947    49269.828    -23724.98     4978.692   -14612.725    82.187846 
   88200    1568.6108   -106.99911     1.419312    -105.5798    1915.2134    4.3432932    4.3432932    4.3432932    1915.2134    9673.2436   -6183.9159    2256.3125    4786.3017   -2433.4208    33501.556    81.932734 
   88300    1028.7028   -106.52883   0.93079195   -105.59804   -11450.234    4.3428506    4.3428506    4.3428506   -11450.234   -12625.584   -30450.957    8725.8404   -55107.904    3826.4543    956.18093    81.907689 
   88400    1643.7835   -107.08269    1.4873299   -105.59536    18807.297    4.3483291    4.3483291    4.3483291    18807.297    46867.486    5802.2912    3752.1142    19431.964    5698.5531    5198.8173    82.218059 
   88500    1553.0039   -107.00109    1.4051906    -105.5959   -23405.206    4.3609905    4.3609905    4.3609905   -23405.206   -9508.4005   -54187.867   -6519.3504   -38739.291   -9591.2272    33907.909    82.938358 
   88600    1251.7179   -106.72366    1.1325807   -105.59108    10085.347    4.3467023    4.3467023    4.3467023    10085.347    28567.284   -12904.774    14593.531    -15843.67     3893.883    -20867.41    82.125814 
   88700    1714.5487   -107.13474    1.5513597   -105.58338    3460.9414    4.3342395    4.3342395    4.3342395    3460.9414    7538.4209    8830.2124   -5985.8092    13788.107    9536.7625    25977.827    81.421428 
   88800      1281.22   -106.75054    1.1592747   -105.59127    14775.362    4.3449239    4.3449239    4.3449239    14775.362     83567.22    -23899.24   -15341.894   -26761.551   -4186.4427    500.70197    82.025052 
   88900    1365.2436    -106.8333    1.2353011   -105.59799   -21029.293    4.3579435    4.3579435    4.3579435   -21029.293   -1232.9825   -29337.522   -32517.375   -1580.5073    22574.678   -25464.813    82.764633 
   89000    1968.2334   -107.36537     1.780899   -105.58447   -1104.2293    4.3556572    4.3556572    4.3556572   -1104.2293    17039.848   -36030.798    15678.262    28559.982   -4023.4299    26711.381    82.634439 
   89100    1114.2596   -106.60284    1.0082055   -105.59463   -23823.617    4.3498035    4.3498035    4.3498035   -23823.617    1314.6483   -25127.824   -47657.674   -14332.865     10730.47   -30857.956    82.301719 
   89200    1419.3266   -106.87633    1.2842365   -105.59209    6508.0332     4.333799     4.333799     4.333799    6508.0332   -12870.652     11425.91    20968.841    18387.396    30187.745   -12279.251    81.396604 
   89300    1666.7652   -107.10152    1.5081241    -105.5934    15102.659    4.3439294    4.3439294    4.3439294    15102.659    12179.295   -16144.038    49272.721    27675.231   -17036.168   -372.86034    81.968742 
   89400    1531.0616   -106.97729    1.3853367   -105.59195   -27267.457    4.3576927    4.3576927    4.3576927   -27267.457   -16097.664   -37674.538   -28030.169   -20893.913    30867.888   -42098.156    82.750341 
   89500    1314.7934   -106.77842    1.1896527   -105.58877    13012.806    4.3507907    4.3507907    4.3507907    13012.806   -39244.143    10976.767    67305.795    40946.448    6905.8676     7502.196     82.35777 
   89600    1807.5029   -107.21808    1.6354666   -105.58262    9522.9097    4.3430668    4.3430668    4.3430668    9522.9097    24086.122    6317.8872     -1835.28    10611.827   -4029.4613   -33006.666    81.919924 
   89700    1390.1283   -106.84819    1.2578173   -105.59037    13872.243    4.3419508    4.3419508    4.3419508    13872.243   -9900.4834    24862.919    26654.295   -6684.7571    22407.074   -12395.471     81.85679 
   89800    1267.2862   -106.74227    1.1466672    -105.5956   -8749.7795     4.349766     4.349766     4.349766   -8749.7795    -32219.17    -11951.82    17921.651    37354.153   -4312.1172    2909.5209    82.299591 
   89900    1581.8276   -107.02033    1.4312709   -105.58906    12066.038    4.3513319    4.3513319    4.3513319    12066.038    31910.287   -13982.876    18270.702   -10591.453   -4253.1821   -34170.708    82.388509 
   90000    1817.3786   -107.22469    1.6444024   -105.58028   -1132.5528    4.3502755    4.3502755    4.3502755   -1132.5528   -39268.212    33432.489    2438.0641    15437.557    16946.368    15718.055    82.328518 
   90100    1194.1603    -106.6665    1.0805013     -105.586   -11251.138    4.3464456    4.3464456    4.3464456   -11251.138   -12909.167    -30617.09    9772.8435    6086.4161   -9843.0519   -21254.944    82.111267 
   90200    1481.4745   -106.92289    1.3404693   -105.58242    12695.021    4.3416822    4.3416822    4.3416822    12695.021    46083.941   -13176.795    5177.9172   -11213.904   -9844.1813   -21315.978    81.841595 
   90300    1875.5925   -107.28265    1.6970755   -105.58558   -11903.046     4.350547     4.350547     4.350547   -11903.046   -23589.588   -16853.361    4733.8111    23289.271    15118.696    7665.9607    82.343929 
   90400    983.85448   -106.49204   0.89021221   -105.60182   -1151.8286    4.3438467    4.3438467    4.3438467   -1151.8286    9320.5796    5163.3675   -17939.433   -2614.7143   -18592.997   -43549.328    81.964063 
   90500    1802.3479   -107.22144    1.6308023   -105.59063    17933.544    4.3424617    4.3424617    4.3424617    17933.544    6379.9269    10774.977    36645.728   -7061.6182   -9067.9657   -6801.8311    81.885685 
   90600    1442.1114    -106.9032    1.3048527   -105.59835    -10793.47    4.3542409    4.3542409    4.3542409    -10793.47   -3921.2349   -9573.4383   -18885.737    31590.797    12067.922   -15978.263    82.553855 
   90700    1437.2873   -106.89477    1.3004878   -105.59428    1967.6596    4.3405826    4.3405826    4.3405826    1967.6596    3867.5371    7773.2627   -5737.8211   -8581.9845   -28660.403   -32610.966    81.779429 
   90800    1887.1592   -107.29186    1.7075413   -105.58432    9265.6359    4.3492024    4.3492024    4.3492024    9265.6359   -12384.366    13750.601    26430.673    1903.7694   -3166.4953     11167.15    82.267607 
   90900    1217.2724   -106.69682    1.1014137   -105.59541   -18429.151    4.3515847    4.3515847    4.3515847   -18429.151   -14802.307   -8433.7654   -32051.382    14964.782   -5803.1124   -38634.645     82.40287 
   91000    1461.6261   -106.91948      1.32251   -105.59697    9363.7829    4.3415521    4.3415521    4.3415521    9363.7829   -25405.691    31072.944    22424.096   -21858.513    -29941.05   -3638.6494     81.83424 
   91100    2043.5466   -107.43616    1.8490439   -105.58711    1990.6776    4.3475506    4.3475506    4.3475506    1990.6776    9418.2795    1000.4378   -4446.6845    1722.3227    7796.3322   -7598.1894     82.17391 
   91200    1183.9647   -106.66585    1.0712761   -105.59458    15396.206    4.3415333    4.3415333    4.3415333    15396.206    4567.8942    41096.626    524.09719   -2665.7354   -16962.641   -37523.043    81.833176 
   91300    1146.0502   -106.63712    1.0369703   -105.60015   -6469.0358     4.346385     4.346385     4.346385   -6469.0358   -38444.839    12484.365    6553.3671   -33767.523   -23766.303    10042.923    82.107832 
   91400    1901.9195   -107.30142    1.7208968   -105.58053    8117.4956    4.3529344    4.3529344    4.3529344    8117.4956    10263.065   -2249.0647    16338.486    12100.023    12931.947   -19977.494    82.479564 
   91500     1467.379   -106.91584    1.3277154   -105.58812   -1919.2614    4.3481047    4.3481047    4.3481047   -1919.2614    4154.4437   -5616.7999   -4295.4279   -25261.114   -28362.918   -8136.8621    82.205331 
   91600    1446.6569   -106.89605    1.3089656   -105.58709   -6064.2843    4.3493396    4.3493396    4.3493396   -6064.2843   -18776.573   -6542.1865    7125.9063   -13000.322   -4517.8176    11147.307    82.275389 
   91700    1418.4528   -106.86488    1.2834459   -105.58143    14072.474     4.339106     4.339106     4.339106    14072.474    7667.2486    6034.6208    28515.552    4117.8963     15474.43   -16846.861    81.695999 
   91800    1197.1481   -106.67836    1.0832048   -105.59515   -1886.8037     4.341635     4.341635     4.341635   -1886.8037   -14422.672     8625.009    137.25232   -24102.053    -43851.59    -120.3889    81.838927 
   91900    1928.2175     -107.329    1.7446917   -105.58431   -7134.5306    4.3547151    4.3547151    4.3547151   -7134.5306    19666.479   -25181.969   -15888.103    1269.8073    15457.032    18385.954     82.58083 
   92000    1611.6004   -107.04015    1.4582099   -105.58194    1219.1054    4.3454689    4.3454689    4.3454689    1219.1054    15756.158    -7342.752   -4756.0895   -1680.6192   -14362.764   -15940.485    82.055921 
   92100    1049.4851    -106.5369    0.9495962    -105.5873    4498.0712    4.3461531    4.3461531    4.3461531    4498.0712     11801.55    15458.496   -13765.832   -8723.6046   -35306.911    18212.226    82.094692 
   92200    1728.8317   -107.14682    1.5642833   -105.58254   -10663.576    4.3426188    4.3426188    4.3426188   -10663.576    22881.638   -32753.053   -22119.314    -1073.368    19570.919    24254.038    81.894572 
   92300    1478.4228   -106.92383     1.337708   -105.58612    17722.686    4.3403759    4.3403759    4.3403759    17722.686    9067.9694    24447.256    19652.833    7073.8655   -40120.976   -21521.062    81.767746 
   92400    1450.9413   -106.90475    1.3128422   -105.59191   -17478.666     4.351304     4.351304     4.351304   -17478.666    42441.327   -37919.049   -56958.276   -6354.9969    824.95535    51280.118    82.386922 
   92500    1720.6074   -107.13512    1.5568418   -105.57828    5209.2487    4.3458687    4.3458687    4.3458687    5209.2487    4185.7031   -11269.138    22711.181   -1932.1918    857.72462   -7586.0501    82.078574 
   92600    1167.2413   -106.64141    1.0561444   -105.58527   -14050.973    4.3440983    4.3440983    4.3440983   -14050.973   -15893.425    -7477.666   -18781.828    8662.5594   -24818.338    11010.153    81.978305 
   92700     1302.288    -106.7666    1.1783376   -105.58826   -5012.1184    4.3475448    4.3475448    4.3475448   -5012.1184    53271.378   -52982.012   -15325.721    -8391.738    7656.7441    47645.437    82.173577 
   92800    2122.6807    -107.4962    1.9206461   -105.57556    5997.5225     4.350419     4.350419     4.350419    5997.5225    38884.955   -13294.071   -7598.3155    3669.5861   -7556.9985   -27754.307    82.336662 
   92900    901.91255   -106.41533   0.81606943   -105.59926   -24279.389    4.3509245    4.3509245    4.3509245   -24279.389    18386.118    -56240.18   -34984.105     2187.157   -22451.384    65199.628     82.36537 
   93000    1919.6411   -107.31735    1.7369316   -105.58042    20452.433    4.3458209    4.3458209    4.3458209    20452.433    40836.949    -17014.15    37534.501   -20329.022   -6279.6677   -12024.791    82.075863 
   93100    1312.1429   -106.77427    1.1872545   -105.58702   -7754.0711    4.3561139    4.3561139    4.3561139   -7754.0711    9525.1031   -20234.636    -12552.68    6801.8362   -4170.1755    39686.987    82.660433 
   93200     1042.492    -106.5364   0.94326868   -105.59314   -14040.302    4.3473673    4.3473673    4.3473673   -14040.302    1684.0194   -45748.297     1943.371   -13649.479   -28291.435    27226.831    82.163515 
   93300    1766.7896   -107.17915    1.5986284   -105.58052    37027.531    4.3395991    4.3395991    4.3395991    37027.531    40780.192    15605.693    54696.708   -16261.615     11062.32   -1731.5053     81.72385 
   93400    1598.6642   -107.03127    1.4465049   -105.58476   -2241.2216    4.3609696    4.3609696    4.3609696   -2241.2216   -2488.0311   -42199.289    37963.656    8928.7845   -6391.3772    42481.561    82.937164 
   93500    1161.5642   -106.62725    1.0510077   -105.57624   -16115.253     4.369118     4.369118     4.369118   -16115.253   -43589.006   -54577.359    49820.605     -35957.1   -6970.6222    -15939.65    83.402935 
   93600    1673.1944   -107.06815    1.5139414   -105.55421    13179.884    4.3571826    4.3571826    4.3571826    13179.884    29077.792    23531.663   -13069.803    12315.754    -1653.329    3839.7876    82.721287 
   93700     1494.017   -106.91764    1.3518179   -105.56583   -24401.976    4.3513101    4.3513101    4.3513101   -24401.976   -28403.689   -25405.482   -19396.757   -21507.983   -8695.8263    14025.146    82.387267 
   93800    1337.6535   -106.79483     1.210337   -105.58449    8224.3015    4.3463066    4.3463066    4.3463066    8224.3015     11238.78   -6845.9183    20280.043   -5953.2163    408.09526   -47155.257     82.10339 
   93900    2081.9986   -107.46267    1.8838361   -105.57883   -1760.3276    4.3519592    4.3519592    4.3519592   -1760.3276    5771.5818   -22468.479    11415.915    462.07332    15234.064    3811.2368    82.424145 
   94000    899.24453   -106.40411   0.81365535   -105.59045   -18448.902    4.3656485    4.3656485    4.3656485   -18448.902   -37817.205   -40218.189    22688.689   -36888.014   -6751.2701   -11263.765    83.204403 
   94100    1297.0345   -106.75177    1.1735841   -105.57819    1158.6703    4.3541752    4.3541752    4.3541752    1158.6703    637.54836   -22799.498    25637.961    14239.724    12454.447   -32646.039    82.550119 
   94200    1673.9271   -107.08449    1.5146044   -105.56989    30619.017    4.3419661    4.3419661    4.3419661    30619.017   -35708.838    29733.417    97832.472   -23792.561    15462.126    16942.319    81.857651 
   94300    1367.0877   -106.82141    1.2369697   -105.58444   -13438.865    4.3573001    4.3573001    4.3573001   -13438.865   -10599.447   -37918.407    8201.2588   -4953.2874   -12862.551   -21788.858     82.72798 
   94400     1545.617   -106.96801    1.3985068   -105.56951    5757.0644    4.3672685    4.3672685    4.3672685    5757.0644    -24331.48    50345.081   -8742.4076    111.30624    13606.169   -5522.7514    83.297058 
   94500    2064.8828   -107.44026    1.8683494   -105.57191   -27190.648    4.3617132    4.3617132    4.3617132   -27190.648   -45295.927   -16226.992   -20049.026   -17666.958   -15249.041    1220.4231    82.979593 
   94600    1076.1678   -106.56179   0.97373925   -105.58805   -413.40396    4.3393138    4.3393138    4.3393138   -413.40396     27061.58    16686.025   -44987.817    6923.9351   -9599.1315    -52969.99    81.707735 
   94700    2037.2476   -107.41987    1.8433445   -105.57653    5560.8251    4.3459229    4.3459229    4.3459229    5560.8251   -2887.7372   -8058.3491    27628.562   -11263.653    2123.7791    22885.152    82.081643 
   94800    948.23117   -106.43808   0.85797949    -105.5801    -41183.23    4.3710111    4.3710111    4.3710111    -41183.23    -9594.418    -50273.84   -63681.431    1331.6752   -14464.146   -60596.178    83.511393 
   94900    1690.0153   -107.09142    1.5291613   -105.56226    17620.258    4.3536765    4.3536765    4.3536765    17620.258   -9780.9221    68333.807   -5692.1099    4819.2969   -5058.5345   -15221.797    82.521756 
   95000    1718.7718    -107.1217    1.5551808   -105.56652   -3021.3257    4.3466113    4.3466113    4.3466113   -3021.3257    10837.645   -8415.8553   -11485.767   -2719.8694   -5073.5695   -27102.958    82.120657 
   95100    793.65228   -106.30459   0.71811326   -105.58647   -6129.5036    4.3457765    4.3457765    4.3457765   -6129.5036     20826.82   -15867.152   -23348.178    -164.3226   -16828.955   -64929.509    82.073348 
   95200    1990.2206   -107.37262    1.8007934   -105.57183    11091.318     4.354083     4.354083     4.354083    11091.318   -5084.8905    9194.7485    29164.097    3767.2814   -5773.0137    23290.005    82.544872 
   95300    996.96381   -106.49868    0.9020738   -105.59661   -40366.228    4.3610196    4.3610196    4.3610196   -40366.228    11828.442   -55414.674   -77512.453   -1553.9765   -755.77511    -89486.43    82.940014 
   95400    1875.0037   -107.27745    1.6965427    -105.5809    32582.962    4.3314312    4.3314312    4.3314312    32582.962    20941.124    46840.966    29966.794   -9329.6442   -11940.227    17537.098    81.263262 
   95500    1543.6607   -106.99111    1.3967367   -105.59437    4081.5236    4.3384145    4.3384145    4.3384145    4081.5236    60624.804   -37957.681   -10422.552    9554.5767    1288.5862   -29192.564    81.656948 
   95600    1343.3866   -106.80415    1.2155244   -105.58862   -25123.539    4.3568997    4.3568997    4.3568997   -25123.539    5966.7571   -45210.815   -36126.559    724.38465    -14173.05    -44266.98    82.705178 
   95700    1579.8612   -107.00532    1.4294917   -105.57583    19558.775    4.3486217    4.3486217    4.3486217    19558.775   -8352.9931    17370.028    49659.292   -1200.0333   -6235.9434     31307.63    82.234655 
   95800    1229.6413   -106.69679    1.1126053   -105.58418   -31972.912    4.3542396    4.3542396    4.3542396   -31972.912    20438.087   -59558.574   -56798.248    5003.9602    2474.9966   -57280.221    82.553781 
   95900     1792.859   -107.19695    1.6222165   -105.57474     5318.217    4.3377948    4.3377948    4.3377948     5318.217   -15096.045    2968.0918    28082.604    1034.4512   -32612.772    904.00935    81.621958 
   96000    1602.7207   -107.03754    1.4501753   -105.58736    2152.1871    4.3397353    4.3397353    4.3397353    2152.1871    34800.242   -17138.868   -11204.813    7059.3662    14228.552   -11742.895    81.731547 
   96100    1039.5321   -106.53397   0.94059049   -105.59338   -38639.586    4.3599024    4.3599024    4.3599024   -38639.586   -15102.805   -67270.809   -33545.145   -884.66953   -20159.998   -30272.199    82.876292 
   96200    1953.7627   -107.32947    1.7678055   -105.56166   -5002.2215    4.3569882    4.3569882    4.3569882   -5002.2215   -51052.258   -1926.2972    37971.891   -1219.4786   -13347.591    6971.6343    82.710217 
   96300    1050.3013   -106.51948   0.95033465   -105.56915   -32999.238    4.3563999    4.3563999    4.3563999   -32999.238    16750.318   -55563.334   -60184.697    -2412.019    14134.716    -46009.71    82.676717 
   96400     1786.534   -107.17922    1.6164935   -105.56273    6654.4571    4.3315938    4.3315938    4.3315938    6654.4571    8201.1799   -6553.9919    18316.183    -4923.481   -36950.208    10679.278    81.272415 
   96500    1631.3444   -107.05793    1.4760747   -105.58186     5553.076    4.3339904    4.3339904    4.3339904     5553.076    21703.009   -20076.712    15032.931    3031.0143    6792.0796   -34905.826    81.407391 
   96600    802.62431   -106.32357   0.72623134   -105.59734   -25936.714    4.3596822    4.3596822    4.3596822   -25936.714    -1813.871   -44524.805   -31471.466   -4221.9547   -5700.9013   -9930.5275    82.863732 
   96700    2112.2082   -107.47515    1.9111704   -105.56398    -1920.775    4.3581837    4.3581837    4.3581837    -1920.775   -18477.208   -6896.2394    19611.123   -3644.1289   -9210.9236    16438.369    82.778319 
   96800    981.13002   -106.46912   0.88774706   -105.58138    -30400.31    4.3530164    4.3530164    4.3530164    -30400.31    40369.819   -59986.234   -71584.514    382.15957    17349.845   -46333.152    82.484227 
   96900    1979.3338   -107.35208    1.7909428   -105.56114    24685.329    4.3349844    4.3349844    4.3349844    24685.329    30670.904    28271.794    15113.289    2324.0084   -5927.2418    27540.996    81.463414 
   97000     1411.056   -106.85922    1.2767531   -105.58247   -17671.212    4.3430015    4.3430015    4.3430015   -17671.212   -33192.958   -10481.339   -9339.3384    2351.3022    29702.393   -28348.839    81.916226 
   97100    1022.9487   -106.51776   0.92558545   -105.59217   -5075.4637    4.3482067    4.3482067    4.3482067   -5075.4637     14128.54   -5492.2637   -23862.667    4175.7687   -819.37227   -34348.287    82.211116 
   97200    1962.7902   -107.35371    1.7759738   -105.57774   -6867.6183      4.35633      4.35633      4.35633   -6867.6183   -12101.858    1356.0102   -9857.0072    6233.2167    21774.062    18029.308    82.672734 
   97300    879.96507   -106.38482   0.79621088   -105.58861   -49371.371    4.3600571    4.3600571    4.3600571   -49371.371   -12796.773   -44980.164   -90337.174    1122.1007    22048.294    -64909.58    82.885113 
   97400    2212.1768   -107.56075     2.001624   -105.55912    27793.585    4.3285177    4.3285177    4.3285177    27793.585    49936.684    24535.674    8908.3974   -4915.4461   -14701.133   -266.20716    81.099391 
   97500    912.52716   -106.41639   0.82567375   -105.59071   -5341.0989    4.3394101    4.3394101    4.3394101   -5341.0989    31035.303    5349.2271   -52407.826     8261.497    38784.896   -34674.872    81.713173 
   97600    1282.8634   -106.74477    1.1607617   -105.58401   -35129.145    4.3638536    4.3638536    4.3638536   -35129.145     4210.551   -43581.033   -66016.951   -564.64361    72.499453    -39966.93    83.101814 
   97700    1986.3501   -107.35438    1.7972913   -105.55709    13462.779    4.3566201    4.3566201    4.3566201    13462.779    55583.801   -20339.435    5143.9711    4814.8379   -8953.8572    14427.588    82.689254 
   97800    886.62069   -106.37567   0.80223304   -105.57343   -21428.014    4.3582838    4.3582838    4.3582838   -21428.014    24906.082   -6653.3617   -82536.764    13178.812    18176.683   -56789.689    82.784021 
   97900    2037.3959   -107.39113    1.8434786   -105.54765    23993.465     4.350417     4.350417     4.350417    23993.465    16797.149     25086.78    30096.466    6206.9082   -7432.8402    28840.633    82.336551 
   98000    941.56022   -106.42465   0.85194347   -105.57271     5410.823    4.3518921    4.3518921    4.3518921     5410.823    37188.591    12710.604   -33666.726    17677.786     4659.979    -32849.82    82.420333 
   98100    1667.8972   -107.07369    1.5091484   -105.56454    2691.3313    4.3643549    4.3643549    4.3643549    2691.3313   -9730.5636    29392.094   -11587.537    10062.295    8553.1623   -8527.6617    83.130457 
   98200    1757.8535   -107.14697    1.5905428   -105.55642   -1765.4385    4.3572308    4.3572308    4.3572308   -1765.4385    9846.2461   -18372.225    3229.6637    4306.7314   -6052.6225   -11522.994    82.724033 
   98300    1066.8003   -106.53626   0.96526337     -105.571    1957.3404    4.3509337    4.3509337    4.3509337    1957.3404    51341.412    2447.8642   -47917.255    3158.0141    9188.9962   -58323.452     82.36589 
   98400    2019.6904   -107.37878    1.8274584   -105.55132    6935.4976    4.3600885    4.3600885    4.3600885    6935.4976   -28295.831    7597.0134    41505.311    8541.1271   -27025.377    -786.3158    82.886901 
   98500    907.28561   -106.38314   0.82093109   -105.56221    -11061.84    4.3734606    4.3734606    4.3734606    -11061.84    4315.4503   -61586.222    24085.251   -3299.2486    882.59322   -59022.231     83.65187 
   98600    1689.1325   -107.06908    1.5283626   -105.54072   -526.70225    4.3742035    4.3742035    4.3742035   -526.70225   -35033.692   -12872.243    46325.829   -7338.9216    24.793215    2625.4683    83.694504 
   98700    1097.0462   -106.54356   0.99263041   -105.55093   -1809.7912    4.3551301    4.3551301    4.3551301   -1809.7912    -20703.23    21665.098   -6391.2417    -4445.053   -34505.258   -50015.994     82.60444 
   98800    1716.4853   -107.10084    1.5531119   -105.54773    11352.564    4.3297498    4.3297498    4.3297498    11352.564    27110.685   -1515.4822    8462.4885    1229.1269    32469.222   -34955.964    81.168662 
   98900    1173.9085   -106.64183    1.0621771   -105.57965   -11273.672    4.3479738    4.3479738    4.3479738   -11273.672   -40687.071    29693.602   -22827.548    817.91752   -41551.088   -3025.9589    82.197908 
   99000    1761.9965   -107.15276    1.5942915   -105.55847   -35021.499    4.3753719    4.3753719    4.3753719   -35021.499   -27087.201   -21617.845   -56359.452    -5963.961    6371.0133   -39913.794    83.761594 
   99100    1485.2666   -106.90442    1.3439005   -105.56052     2078.105    4.3589269    4.3589269    4.3589269     2078.105    -14440.74    46417.576   -25742.521   -4000.6297   -6244.2158    20474.487    82.820671 
   99200    1625.8889   -107.02746    1.4711385   -105.55633    11759.957    4.3332605    4.3332605    4.3332605    11759.957    9547.4699    24989.472    742.92856   -1456.7388   -30274.763   -29415.135     81.36627 
   99300    1654.8771   -107.06851    1.4973675   -105.57114    20044.674    4.3344022    4.3344022    4.3344022    20044.674    7924.7557    40483.574    11725.693    6507.9678    20641.642   -1883.3292    81.430599 
   99400    834.82085   -106.35667   0.75536345    -105.6013   -20836.869    4.3526199    4.3526199    4.3526199   -20836.869   -29615.433   -6241.8235    -26653.35    403.27118   -44264.979    2090.1383    82.461692 
   99500    2400.9065   -107.73731    2.1723907   -105.56492    1498.6709    4.3663997    4.3663997    4.3663997    1498.6709   -9768.8257   -996.33706    15261.175   -153.29089     9980.377   -7575.1852    83.247359 
   99600     992.7564   -106.47532   0.89826685   -105.57706   -30684.449    4.3608609    4.3608609    4.3608609   -30684.449   -54450.661    9694.3484   -47297.033   -446.82132    -41884.29    10644.872    82.930963 
   99700    1457.8149   -106.88492    1.3190616   -105.56586    4995.1904    4.3388643    4.3388643    4.3388643    4995.1904    14272.702   -6096.1473    6809.0166    2106.7385   -7019.7011    18490.936    81.682345 
   99800      1758.15   -107.15705    1.5908111   -105.56624    6590.6339    4.3378003    4.3378003    4.3378003    6590.6339   -1914.2753     3950.057     17736.12    4669.2188   -28293.605    1265.5019    81.622271 
   99900    947.34373   -106.45017   0.85717652     -105.593   -2284.1637    4.3525363    4.3525363    4.3525363   -2284.1637   -9855.1111    39474.208   -36471.588   -3668.5207   -41308.799     7603.152    82.456936 
  100000    2089.7881   -107.46247    1.8908842   -105.57158    4407.8719    4.3560634    4.3560634    4.3560634    4407.8719    29330.049   -15568.921   -537.51245    16021.834    13904.946     9722.031     82.65756 
Loop time of 21.5187 on 1 procs for 100000 steps with 8 atoms

Pair  time (%) = 6.54038 (30.394)
Kspce time (%) = 5.29518 (24.6074)
Neigh time (%) = 0.128451 (0.596928)
Comm  time (%) = 0.956655 (4.4457)
Outpt time (%) = 0.0235188 (0.109295)
Other time (%) = 8.57448 (39.8467)

Nlocal:    8 ave 8 max 8 min
Histogram: 1 0 0 0 0 0 0 0 0 0
Nghost:    1828 ave 1828 max 1828 min
Histogram: 1 0 0 0 0 0 0 0 0 0
Neighs:    2139 ave 2139 max 2139 min
Histogram: 1 0 0 0 0 0 0 0 0 0

Total # of neighbors = 2139
Ave neighs/atom = 267.375
Neighbor list builds = 1580
Dangerous builds = 0
unfix 20
unfix 21
print "seeds:1973995"
seeds:1973995
