LAMMPS (10 Feb 2015)
# ---- initialize simulations
clear
units metal
dimension 3
boundary p p p
atom_style charge
atom_modify map array
# ---- create atoms
read_data /Users/eugeneragasa/pyflamestk_git/pypospack/tests/tests_integration/workflow/WorkflowLammpsThermalExpansion/param_7521/MgO_NaCl_unit.npt.T100/lammps.structure
  triclinic box = (0 0 0) to (4.2565 4.2565 4.2565) with tilt (0 0 0)
  1 by 1 by 1 MPI processor grid
  reading atoms ...
  8 atoms
# ---- define interatomic potential
include potential.mod
mass 1 24.305
mass 2 15.999

group Mg type 1
4 atoms in group Mg
group O type 2
4 atoms in group O

set group Mg charge 1.63791250839
  4 settings made for charge
set group O charge -1.63791250839
  4 settings made for charge

variable R_cut equal 10.0

pair_style buck/coul/long ${R_cut}
pair_style buck/coul/long 10
pair_coeff 1 1 0.0 0.5 0.0 ${R_cut}
pair_coeff 1 1 0.0 0.5 0.0 10
pair_coeff 1 2 1465.92328509 0.282476486176 0.0 ${R_cut}
pair_coeff 1 2 1465.92328509 0.282476486176 0.0 10
pair_coeff 2 2 5816.20442115 0.096233749689 18.932341092 ${R_cut}
pair_coeff 2 2 5816.20442115 0.096233749689 18.932341092 10

kspace_style pppm 1.0e-5

neighbor 1.0 bin
neigh_modify every 1 delay 0 check yes
# ---- define settings
compute eng all pe/atom
compute eatoms all reduce sum c_eng
# ---- run minimization
reset_timestep 0
fix 1 all box/relax iso 0.0 vmax 0.001
thermo 10
thermo_style custom step pe lx ly lz xy xz yz press pxx pyy pzz pxy pxz pyz c_eatoms
min_style cg
minimize 1e-25 1e-25 5000 10000
PPPM initialization ...
  G vector (1/distance) = 0.35267
  grid = 8 8 8
  stencil order = 5
  estimated absolute RMS force accuracy = 3.88211e-05
  estimated relative force accuracy = 2.69597e-06
  using double precision FFTs
  3d grid and FFT values/proc = 3375 512
Neighbor list info ...
  1 neighbor list requests
  update every 1 steps, delay 0 steps, check yes
  master list distance cutoff = 11
Memory usage per processor = 4.06549 Mbytes
Step PotEng Lx Ly Lz Xy Xz Yz Press Pxx Pyy Pzz Pxy Pxz Pyz eatoms 
       0   -108.70031       4.2565       4.2565       4.2565            0            0            0    82041.316    82041.316    82041.316    82041.316 -4.6499549e-11 -1.1702618e-10 1.7098221e-10   -108.70031 
      10   -108.77917     4.299065     4.299065     4.299065            0            0            0    28384.418    28384.418    28384.418    28384.418 -2.893711e-10 1.1285336e-10 8.1895601e-11   -108.77917 
      19   -108.79132    4.3240425    4.3240425    4.3240425            0            0            0 -0.024351241 -0.024351241 -0.024351241 -0.024351241 1.5580285e-11 -3.1606067e-12 1.2588801e-10   -108.79132 
Loop time of 0.00821114 on 1 procs for 19 steps with 8 atoms

Minimization stats:
  Stopping criterion = linesearch alpha is zero
  Energy initial, next-to-last, final = 
        -108.700309346      -108.79131697      -108.79131697
  Force two-norm initial, final = 11.8468 7.13952e-05
  Force max component initial, final = 11.8468 1.5084e-05
  Final line search alpha, max atom move = 0.5 7.54202e-06
  Iterations, force evaluations = 19 24

Pair  time (%) = 0.00225353 (27.4448)
Kspce time (%) = 0.00132418 (16.1266)
Neigh time (%) = 0 (0)
Comm  time (%) = 0.000247955 (3.01974)
Outpt time (%) = 1.21593e-05 (0.148084)
Other time (%) = 0.00437331 (53.2607)

Nlocal:    8 ave 8 max 8 min
Histogram: 1 0 0 0 0 0 0 0 0 0
Nghost:    2189 ave 2189 max 2189 min
Histogram: 1 0 0 0 0 0 0 0 0 0
Neighs:    2344 ave 2344 max 2344 min
Histogram: 1 0 0 0 0 0 0 0 0 0

Total # of neighbors = 2344
Ave neighs/atom = 293
Neighbor list builds = 0
Dangerous builds = 0
unfix 1
# ---- define output variables ----
variable natoms equal "count(all)"
variable tot_energy equal "c_eatoms"
variable length_x equal "lx"
variable length_y equal "ly"
variable length_z equal "lz"
variable tilt_xy equal "xy"
variable tilt_xz equal "xz"
variable tilt_yz equal "yz"
variable tot_press equal "press"
variable press_xx equal "pxx"
variable press_yy equal "pyy"
variable press_zz equal "pzz"
variable press_xy equal "pxy"
variable press_xz equal "pxz"
variable press_yz equal "pyz"

# ---- output ----
print "pypospack:output_section:begin"
pypospack:output_section:begin
print "tot_energy = ${tot_energy}"
tot_energy = -108.791316969709
print "num_atoms = ${natoms}"
num_atoms = 8
print "xx = ${length_x}"
xx = 4.32404254484564
print "yy = ${length_y}"
yy = 4.32404254484564
print "zz = ${length_z}"
zz = 4.32404254484564
print "xy = ${tilt_xy}"
xy = 0
print "xz = ${tilt_xz}"
xz = 0
print "yz = ${tilt_yz}"
yz = 0
print "tot_press = ${tot_press}"
tot_press = -0.0243512411551094
print "pxx = ${press_xx}"
pxx = -0.0243512413415371
print "pyy = ${press_yy}"
pyy = -0.0243512409516822
print "pzz = ${press_zz}"
pzz = -0.024351241172109
print "pxy = ${press_xy}"
pxy = 1.55802849425254e-11
print "pxz = ${press_xz}"
pxz = -3.16060668162342e-12
print "pyz = ${press_yz}"
pyz = 1.25888006757422e-10
print "pypospack:output_section:done"
pypospack:output_section:done
print "pypospack:lammps_sim:done"
pypospack:lammps_sim:done
#------------------------------------------------------------------------------
# RUN THERMOSTAT
# running using an NPT Nose-Hoover style thermostat
#------------------------------------------------------------------------------
variable tempdamp equal 0.1
variable pressdamp equal 1.0
# set initial velocities
velocity all create 100 1513669 mom yes dist gaussian loop all
# fix for Nose-Hoover style thermostat
fix 20 all npt temp 100 100 0.1 aniso 0.0 0.0 1.0 drag 1.0 couple xyz
variable boxx equal lx
variable boxy equal ly
variable boxz equal lz
variable boxp equal press
variable boxt equal temp
# calculate averages every 10000 steps
reset_timestep 0
fix 21 all ave/time 10 10 100 v_boxx v_boxy v_boxz v_boxp v_boxt file lattice.out
thermo_style custom step temp pe ke etotal press lx ly lz press pxx pyy pzz pxy pxz pyz vol
thermo_modify flush yes
thermo 100
run 100000
PPPM initialization ...
  G vector (1/distance) = 0.351996
  grid = 8 8 8
  stencil order = 5
  estimated absolute RMS force accuracy = 4.00454e-05
  estimated relative force accuracy = 2.781e-06
  using double precision FFTs
  3d grid and FFT values/proc = 3375 512
Memory usage per processor = 3.06549 Mbytes
Step Temp PotEng KinEng TotEng Press Lx Ly Lz Press Pxx Pyy Pzz Pxy Pxz Pyz Volume 
       0          100   -108.79133  0.090482102   -108.70084    1193.5971    4.3240425    4.3240425    4.3240425    1193.5971    2225.4876    246.97235    1108.3315   -127.81879    490.23332   -58.163809    80.848111 
     100    32.619636   -108.71715  0.029514933   -108.68764    4183.4709     4.323645     4.323645     4.323645    4183.4709    5391.8566    2095.0221    5063.5341   -110.58479    154.42482    30.539367    80.825813 
     200    63.252777   -108.72066  0.057232442   -108.66343     1287.092    4.3264179    4.3264179    4.3264179     1287.092    4014.7827   -1607.8473    1454.3406   -82.670373   -1211.9384    220.01949    80.981424 
     300    66.866189   -108.70322  0.060501933   -108.64272    2038.1382    4.3275979    4.3275979    4.3275979    2038.1382    5525.1411   -1449.1283    2038.4017    340.17111    222.01851    223.77617      81.0477 
     400    101.48603   -108.71748  0.091826694   -108.62565   -1801.8415    4.3288479    4.3288479    4.3288479   -1801.8415    178.09554   -3341.6617   -2241.9584   -472.64924   -38.957232    -260.2543    81.117953 
     500    139.28435   -108.74086   0.12602741   -108.61483   -2983.1357    4.3315805    4.3315805    4.3315805   -2983.1357    482.81474    -6630.353   -2801.8689    24.835493    62.269347   -232.25215    81.271665 
     600    74.590924     -108.678  0.067491435   -108.61051    1208.2398    4.3295684    4.3295684    4.3295684    1208.2398    4013.2264   -3597.0444    3208.5374    461.61951    -1111.958    294.89368    81.158465 
     700     77.10942   -108.67918  0.069770224   -108.60941   -2867.0156    4.3319524    4.3319524    4.3319524   -2867.0156    622.82483   -6394.3379   -2829.5337    177.80538   -428.86153    313.18044    81.292601 
     800    107.34546    -108.7064  0.097128426   -108.60927   -1253.5758    4.3308302    4.3308302    4.3308302   -1253.5758    3543.7704   -3675.6931   -3628.8047   -322.29082     716.9535   -32.376823    81.229441 
     900    118.94777   -108.71764   0.10762645   -108.61001   -600.43376    4.3298673    4.3298673    4.3298673   -600.43376    5333.5846   -4954.2041   -2180.6818   -78.537103    442.07522   -137.48212    81.175271 
    1000    103.54795    -108.7043  0.093692357    -108.6106   -978.56322    4.3307971    4.3307971    4.3307971   -978.56322    2043.6508   -4952.7866   -26.553857   -224.19391   -1812.4764    62.400931     81.22758 
    1100    84.103504   -108.68638  0.076098617   -108.61028    2447.3703    4.3280419    4.3280419    4.3280419    2447.3703    5308.6555   -2420.1875    4453.6428   -42.087725    -649.5936    286.49029    81.072651 
    1200    109.70164   -108.70961  0.099260349   -108.61035   -2287.8664    4.3295289    4.3295289    4.3295289   -2287.8664   -2035.9157   -3027.4702   -1800.2134    83.497381    486.59434    150.28566    81.156242 
    1300    76.253815   -108.67984  0.068996054   -108.61085    1204.2544    4.3284476    4.3284476    4.3284476    1204.2544    9190.6092   -1998.3418   -3579.5044   -303.98162   -30.460299   -266.16512    81.095449 
    1400    122.24942   -108.72111   0.11061385   -108.61049    2483.2959    4.3276668    4.3276668    4.3276668    2483.2959    5640.8157   -2485.1687    4294.2406    235.66577   -816.22419   -315.81867    81.051572 
    1500    109.14012   -108.70944  0.098752271   -108.61068   -633.61029    4.3291722    4.3291722    4.3291722   -633.61029    815.73952    -3423.646     707.0756    403.21936   -856.90897    171.61884    81.136187 
    1600     77.29055   -108.68031  0.069934114   -108.61037     906.2391    4.3282028    4.3282028    4.3282028     906.2391    1426.9018   -2038.1036    3329.9191    227.81538    1115.7566    453.60824    81.081695 
    1700    123.61585   -108.72179   0.11185022   -108.60994   -2023.6527    4.3293097    4.3293097    4.3293097   -2023.6527    1446.6418    -3064.115   -4453.4849    -569.9619    148.67688   -48.413462    81.143914 
    1800    57.744367   -108.66298  0.052248317   -108.61073    1074.3917    4.3294913    4.3294913    4.3294913    1074.3917    7690.4094   -3878.3812   -588.85312   -117.68007   -1000.0486   -220.30542    81.154126 
    1900    127.47085   -108.72596    0.1153383   -108.61062    521.20618    4.3292353    4.3292353    4.3292353    521.20618    3412.7655   -3915.6073    2066.4603    47.471986    -871.1119    171.70956    81.139735 
    2000     124.9859   -108.72366   0.11308987   -108.61057   -904.32134     4.330038     4.330038     4.330038   -904.32134    1456.6246   -4979.4848    809.89611   -140.10999    1789.1322    102.82393    81.184873 
    2100      62.8997   -108.66766  0.056912971   -108.61075   -600.96223    4.3300992    4.3300992    4.3300992   -600.96223    5077.8506    -3688.546   -3192.1913   -296.39775   -250.55752    20.989627    81.188317 
    2200    120.20675   -108.71874   0.10876559   -108.60998   -1899.6579    4.3297103    4.3297103    4.3297103   -1899.6579    521.06019   -4136.6208    -2083.413     119.7927   -129.79058   -244.21993    81.166445 
    2300    69.158027   -108.67301  0.062575636   -108.61043    1891.3738    4.3299932    4.3299932    4.3299932    1891.3738    8456.6352   -4390.9803    1608.4665    35.651291   -1102.8565   -472.92465    81.182355 
    2400    126.16528   -108.72454     0.114157   -108.61038   -523.09513    4.3292063    4.3292063    4.3292063   -523.09513    1885.0804   -4168.3173    713.95155    442.83391     727.0729    130.81736    81.138102 
    2500    113.11162   -108.71256   0.10234577   -108.61021     1139.435    4.3294674    4.3294674    4.3294674     1139.435    8240.6035   -4340.1654   -482.13322   -49.195094    -67.42772    518.20405    81.152783 
    2600    81.765871   -108.68446  0.073983479   -108.61047   -1022.7939    4.3291776    4.3291776    4.3291776   -1022.7939    2749.0282   -2474.3416   -3343.0683   -336.16762   -476.17092    -94.65174    81.136488 
    2700    96.517287   -108.69771  0.087330869   -108.61037    -1546.023    4.3287925    4.3287925    4.3287925    -1546.023   -3635.5966   -3454.0599    2451.5874    -133.2547    -1385.687   -288.03812    81.114838 
    2800    84.341574   -108.68662  0.076314029    -108.6103    2935.8235    4.3292485    4.3292485    4.3292485    2935.8235    10252.755   -3346.4016    1901.1169    287.63295    1305.4699    12.821724    81.140475 
    2900    124.60675   -108.72315   0.11274681    -108.6104   -585.50968    4.3283027    4.3283027    4.3283027   -585.50968    1859.3724   -3863.3276    247.42618   -578.00676    155.99327    36.955446    81.087309 
    3000    109.84104   -108.70967  0.099386479   -108.61028   -378.96975    4.3298152    4.3298152    4.3298152   -378.96975     6964.262   -3751.3132    -4349.858   -294.06115    -667.0948   -97.531314     81.17234 
    3100     92.00107   -108.69388  0.083244501   -108.61064   -625.15058    4.3287121    4.3287121    4.3287121   -625.15058   -1109.2507   -2453.8257    1687.6247    -10.54092   -1233.4916   -295.12342    81.110316 
    3200    79.450646   -108.68288  0.071888615   -108.61099   -2072.6786    4.3295487    4.3295487    4.3295487   -2072.6786   -2958.5524   -4108.2504    848.76701    352.26369    569.85429   -462.74088    81.157355 
    3300    79.456633   -108.68259  0.071894032   -108.61069    2526.3353    4.3299664    4.3299664    4.3299664    2526.3353     10363.77   -3884.4938    1099.7303    16.734949    450.92951    68.841935    81.180847 
    3400     165.8946   -108.76024   0.15010492   -108.61013   -2255.1866    4.3287603    4.3287603    4.3287603   -2255.1866    455.56716    -4360.857     -2860.27    270.79252   -439.98697      533.926    81.113028 
    3500    75.029041   -108.67847  0.067887853   -108.61059   -99.032924     4.330939     4.330939     4.330939   -99.032924    5535.2519   -3701.4114   -2130.9393   -277.14219   -466.20367   -91.175766    81.235563 
    3600     93.69722   -108.69491  0.084779214   -108.61013    323.11058    4.3287094    4.3287094    4.3287094    323.11058    1609.0431   -3437.7758    2798.0644     151.6301    710.14383   -455.17078    81.110165 
    3700    72.527048    -108.6761  0.065623997   -108.61048    192.34733    4.3295028    4.3295028    4.3295028    192.34733    1907.5917   -2906.8294    1576.2796    109.52574    1053.7523   -123.39472    81.154775 
    3800    101.33744   -108.70219  0.091692241    -108.6105    179.69908     4.330185     4.330185     4.330185    179.69908    7336.0462   -4438.9911   -2357.9578   -523.45325   -848.23357    1.6108536    81.193145 
    3900    177.55198   -108.77046   0.16065276    -108.6098    -886.5718    4.3281981    4.3281981    4.3281981    -886.5718    679.02065   -3047.2394   -291.49666   -291.05006   -688.88652   -163.72538     81.08143 
    4000    37.156893   -108.64448  0.033620337   -108.61086    3406.4057      4.33003      4.33003      4.33003    3406.4057    11302.207   -3223.6569    2140.6667    143.57122    209.99509    -177.5124    81.184424 
    4100     99.58664    -108.7004  0.090108085   -108.61029   -840.60427    4.3283175    4.3283175    4.3283175   -840.60427   -129.74046   -3209.2948    817.22243    563.19789     1382.651   -316.94264    81.088136 
    4200    89.671899   -108.69138  0.081137019   -108.61024    827.93224    4.3291023    4.3291023    4.3291023    827.93224    2723.5007   -1986.5144    1746.8104   -276.29976   -734.73516     14.47083    81.132254 
    4300    128.56683    -108.7272   0.11632997   -108.61087   -2535.1398    4.3297784    4.3297784    4.3297784   -2535.1398    1753.2415   -5015.6683   -4342.9925    298.06114   -413.29979    509.42925    81.170272 
    4400    117.19657   -108.71682   0.10604192   -108.61077    1356.3454    4.3282657    4.3282657    4.3282657    1356.3454    2587.2647    -2662.832    4144.6036   -399.04906    121.95376   -67.373987    81.085226 
    4500    66.305514   -108.67068  0.059994623   -108.61068    1821.7862    4.3299495    4.3299495    4.3299495    1821.7862    9310.2685   -4542.7859    697.87592    337.52648    1224.8686   -664.29017    81.179895 
    4600    87.439568   -108.68957  0.079117159   -108.61045   -2639.2946    4.3289229    4.3289229    4.3289229   -2639.2946   -3796.0367   -2810.4297   -1311.4173   -454.31137   -1339.2255   -120.82488    81.122167 
    4700     119.1834   -108.71778   0.10783965   -108.60994   -1809.9265    4.3300428    4.3300428    4.3300428   -1809.9265     1304.015   -3993.2284   -2740.5662     21.37304   -308.11675    58.217529    81.185142 
    4800    105.37945   -108.70582  0.095349537   -108.61047   -71.699894    4.3294962    4.3294962    4.3294962   -71.699894    4322.8752    -4805.886     267.9111   -670.23522   -350.12202   -88.930621    81.154404 
    4900    103.61576   -108.70445  0.093753721   -108.61069    39.554824    4.3292333    4.3292333    4.3292333    39.554824    1697.4256    -3959.152    2380.3908     971.0662    1765.6169   -67.057182     81.13962 
    5000    78.967688   -108.68183  0.071451624   -108.61038    1895.0403    4.3297416    4.3297416    4.3297416    1895.0403     9058.873   -3894.3967    520.64462   -180.93908   -1143.4483   -249.60217    81.168202 
    5100    118.53177   -108.71749   0.10725004   -108.61024   -3365.2947    4.3294111    4.3294111    4.3294111   -3365.2947   -1715.2201   -3465.8769   -4914.7872   -19.038514   -467.48241   -63.338641    81.149619 
    5200    68.558124    -108.6727  0.062032832   -108.61066    1378.7597    4.3295684    4.3295684    4.3295684    1378.7597    8489.9602   -3890.3307   -463.35032   -158.72572   -67.571221    494.84141    81.158461 
    5300    136.75287    -108.7338   0.12373688   -108.61006    412.48244    4.3290453    4.3290453    4.3290453    412.48244    2310.3952   -4207.3023    3134.3545    7.0078449    1060.6966   -145.08454    81.129048 
    5400    93.345068   -108.69504  0.084460579   -108.61058    797.99301    4.3290425    4.3290425    4.3290425    797.99301    4295.6936   -3763.4507    1861.7361    -120.1825   -577.16675   -672.94565    81.128895 
    5500     89.03599   -108.69104  0.080561635   -108.61048    376.65217    4.3294651    4.3294651    4.3294651    376.65217     5769.946   -2570.4863   -2069.5032   -113.59555    -160.0793    -167.7943    81.152654 
    5600    115.76462   -108.71501   0.10474626   -108.61026   -1055.8148    4.3290939    4.3290939    4.3290939   -1055.8148     4933.839   -4004.9305   -4096.3528   -144.23771   -11.395509     175.3006    81.131784 
    5700    57.614991   -108.66306  0.052131255   -108.61093    1306.1385    4.3289247    4.3289247    4.3289247    1306.1385     3399.055   -2733.7287    3253.0891   -192.69353    1495.4487     156.2272    81.122269 
    5800    143.91778   -108.74048   0.13021983   -108.61026   -1481.1136    4.3298098    4.3298098    4.3298098   -1481.1136   -323.88422   -4999.5852    880.12853    925.12748   -153.95568   -42.325007    81.172041 
    5900    107.88409   -108.70789  0.097615792   -108.61028    247.04536    4.3288423    4.3288423    4.3288423    247.04536    2372.8325   -3065.7775     1434.081   -358.18796   -1261.1478   -168.39593    81.117637 
    6000     64.97682   -108.66933  0.058792392   -108.61054   -444.79809    4.3297622    4.3297622    4.3297622   -444.79809    6928.6674   -2698.9146   -5564.1471    34.229111    274.40838   -74.833303    81.169363 
    6100    119.22212   -108.71808   0.10787468    -108.6102   -1439.7403    4.3297064    4.3297064    4.3297064   -1439.7403    544.81665   -4813.8802   -50.157162   -461.03009    965.50325    457.99201    81.166226 
    6200    69.756449   -108.67402  0.063117101    -108.6109    1446.3937    4.3287218    4.3287218    4.3287218    1446.3937     3969.011   -2329.1122    2699.2823    714.88778   -36.833591   -15.581612    81.110863 
    6300    137.57074   -108.73508   0.12447689    -108.6106   -3077.0343    4.3308483    4.3308483    4.3308483   -3077.0343   -1771.9259   -6278.9623   -1180.2148   -753.54989    -799.2751   -542.53744    81.230461 
    6400    99.064747   -108.69985  0.089635865   -108.61022    1722.2018     4.328391     4.328391     4.328391    1722.2018    7917.4114   -1871.1346   -879.67154    309.03433    417.98112   -146.29747    81.092268 
    6500    88.255028    -108.6902  0.079855004   -108.61034   -1309.9405    4.3300419    4.3300419    4.3300419   -1309.9405    1816.7638   -3525.0768   -2221.5086   -501.93667    -133.5024    396.61927    81.185095 
    6600    81.231683   -108.68388  0.073500134   -108.61038    1003.2719    4.3294274    4.3294274    4.3294274    1003.2719    5168.7021   -3828.7868    1669.9003    660.07896    669.53393     242.0291    81.150532 
    6700    106.64594   -108.70668  0.096495487   -108.61019    2228.5813    4.3280887    4.3280887    4.3280887    2228.5813    5870.4121   -2144.4656    2959.7973   -8.5282596   -2167.6664    30.871949    81.075279 
    6800    127.51712   -108.72584   0.11538017   -108.61046   -2215.9946    4.3306703    4.3306703    4.3306703   -2215.9946    3093.9097   -6052.3896   -3689.5037    341.08707    104.60799   -125.99204    81.220446 
    6900     99.69079   -108.70049  0.090202322   -108.61029      988.274     4.327877     4.327877     4.327877      988.274    3581.2319   -735.83088    119.42095   -408.22876    842.90749   -46.267321    81.063384 
    7000    86.892939   -108.68888  0.078622557   -108.61026    690.38106    4.3295968    4.3295968    4.3295968    690.38106    3698.7122   -4162.8893    2535.3203   -51.042231    355.63824    388.79783     81.16006 
    7100    74.758766   -108.67819  0.067643303   -108.61055    614.89289    4.3292894    4.3292894    4.3292894    614.89289    5077.1904   -3185.8271   -46.684663    161.59561   -1419.4264    89.679193    81.142775 
    7200    103.05119   -108.70345  0.093242881   -108.61021    2136.4133    4.3282195    4.3282195    4.3282195    2136.4133    8075.2742   -3050.7493    1384.7151   -630.10413    485.84547   -386.61632    81.082631 
    7300    169.55737    -108.7636   0.15341908   -108.61018    -4796.473     4.330942     4.330942     4.330942    -4796.473   -2858.4993   -6126.7735   -5404.1461   -324.68665   -126.51297   -205.93672    81.235733 
    7400    44.100279    -108.6512  0.039902859    -108.6113    1460.0628    4.3280738    4.3280738    4.3280738    1460.0628    2094.4482   -1508.9486    3794.6887    59.162295    765.59225    502.17527    81.074442 
    7500    104.61606   -108.70524  0.094658805   -108.61058   -1349.0072    4.3306294    4.3306294    4.3306294   -1349.0072     1226.153   -5814.9773    541.80288    749.83598   -1473.9744    291.49261    81.218146 
    7600    70.050099   -108.67411  0.063382801   -108.61073    995.97947    4.3290582    4.3290582    4.3290582    995.97947    6177.3206   -2987.6027   -201.77944   -202.02679    124.31741    34.278838    81.129775 
    7700    137.87966   -108.73506   0.12475641    -108.6103   -2392.5433    4.3297123    4.3297123    4.3297123   -2392.5433    1261.4033    -4639.318   -3799.7151     681.2745    1010.3931   -171.52298    81.166555 
    7800    131.48707   -108.72903   0.11897226   -108.61006   -1242.3374      4.33052      4.33052      4.33052   -1242.3374    1595.5066   -5296.1987   -26.320087   -613.49084    516.24077    21.126323    81.211991 
    7900    53.121372    -108.6587  0.048065333   -108.61063    973.88886    4.3283332    4.3283332    4.3283332    973.88886    2340.4158   -2568.5105    3149.7613    279.60659   -1698.9157    378.55779    81.089021 
    8000    85.341074   -108.68766  0.077218397   -108.61044   -644.33871    4.3304797    4.3304797    4.3304797   -644.33871    2797.0645   -4685.8509   -44.229732    -375.1229    41.952293    203.58843    81.209721 
    8100    123.98433   -108.72228   0.11218363    -108.6101    278.27169    4.3288824    4.3288824    4.3288824    278.27169    6008.3738   -3148.2309   -2025.3278   -356.32896    249.83607   -277.60537     81.11989 
    8200    112.65025    -108.7126   0.10192832   -108.61067    248.09536    4.3292468    4.3292468    4.3292468    248.09536    5634.6519   -3599.7763   -1290.5895   -625.65318   -145.31233   -206.39344    81.140377 
    8300      108.135   -108.70822  0.097842823   -108.61037    944.23344    4.3296291    4.3296291    4.3296291    944.23344    4338.3995   -4523.7996    3018.1004    711.56802   -410.26116    438.65372    81.161876 
    8400     62.56108   -108.66694   0.05660658   -108.61033    2289.4279    4.3280149    4.3280149    4.3280149    2289.4279    6230.1192   -1782.1481    2420.3126    354.93255   -968.78996    388.28321    81.071132 
    8500    110.66589   -108.71064   0.10013282   -108.61051   -3381.7321    4.3301873    4.3301873    4.3301873   -3381.7321   -3506.3196   -4030.8067   -2608.0701    154.58923    604.70309    74.398721    81.193271 
    8600    107.20716   -108.70769  0.097003292   -108.61069    1527.3194    4.3287709    4.3287709    4.3287709    1527.3194     10168.63   -3458.6165   -2128.0555    194.82156    318.82132    -230.1746    81.113621 
    8700     110.5155   -108.71078  0.099996751   -108.61078    1296.0657    4.3287755    4.3287755    4.3287755    1296.0657    3807.1264     -3043.02    3124.0909   -36.609617   -1933.9436    160.10972    81.113881 
    8800    93.408684   -108.69531   0.08451814   -108.61079   -962.60492    4.3299292    4.3299292    4.3299292   -962.60492    1869.3428   -5041.9287    284.77113    38.565376   -622.75943    287.45642    81.178757 
    8900    87.933111   -108.68966  0.079563727    -108.6101   -104.60887    4.3288278    4.3288278    4.3288278   -104.60887    846.70581   -1508.2319    347.69951   -305.20075     1130.705    267.60761    81.116821 
    9000    112.38655   -108.71187   0.10168971   -108.61018   -3881.5393    4.3300602    4.3300602    4.3300602   -3881.5393   -1634.1342    -4854.673   -5155.8107   -363.66053   -226.64016   -240.52482    81.186125 
    9100    77.043718   -108.68034  0.069710776   -108.61063    1405.2289    4.3296507    4.3296507    4.3296507    1405.2289    7327.6267   -3922.6494    810.70943   -357.12544    79.066357   -342.54605    81.163091 
    9200    128.28271   -108.72639   0.11607289   -108.61032    1211.2589    4.3287987    4.3287987    4.3287987    1211.2589    4112.2977   -3808.3401    3329.8192    723.56158   -829.02353    275.74931    81.115186 
    9300    98.011297   -108.69938  0.088682681    -108.6107   -1702.5188    4.3302641    4.3302641    4.3302641   -1702.5188    513.38328   -4597.3682   -1023.5714    1.3283699    596.15515    474.80001    81.197592 
    9400    79.899837   -108.68267  0.072295052   -108.61037   -419.31914    4.3293358    4.3293358    4.3293358   -419.31914    4888.8906   -2096.8912   -4049.9568      143.441    9.4423118    41.846794    81.145384 
    9500    119.40075   -108.71801   0.10803631   -108.60998   -1528.7258    4.3292464    4.3292464    4.3292464   -1528.7258    248.75762   -4418.8877   -416.04736   -19.460482   -424.58258   -335.77562    81.140358 
    9600    61.471708   -108.66632  0.055620893    -108.6107    2684.9171    4.3297658    4.3297658    4.3297658    2684.9171    9236.8474   -3569.5664    2387.4703    245.49781   -1643.8347    76.987995    81.169564 
    9700    151.27868   -108.74706   0.13688013   -108.61018    367.39354    4.3283457    4.3283457    4.3283457    367.39354    1687.4428   -3864.6913    3279.4291   -102.44819    1616.3317     223.4502    81.089722 
    9800    89.132621   -108.69124  0.080649069   -108.61059    880.68333    4.3301296    4.3301296    4.3301296    880.68333    9182.7666   -3697.4425   -2843.2742   -441.22562    336.61005    231.38332    81.190025 
    9900    78.892825    -108.6821  0.071383886   -108.61071   -1292.1159    4.3287835    4.3287835    4.3287835   -1292.1159    1941.8216    -2214.277   -3603.8922   -358.16526   -411.12771   -277.45088    81.114332 
   10000    107.35554   -108.70735  0.097137545   -108.61021   -371.21406    4.3291463    4.3291463    4.3291463   -371.21406   -334.14688   -3990.3343     3210.839    -96.88416   -928.37075   -363.23184    81.134729 
   10100    86.387623   -108.68863  0.078165337   -108.61047    1638.7502    4.3298882    4.3298882    4.3298882    1638.7502    7122.0936   -4183.9224    1978.0793    375.37864    264.00332    92.103882    81.176449 
   10200    129.45109   -108.72735   0.11713007   -108.61022   -714.29066    4.3283992    4.3283992    4.3283992   -714.29066    992.32651   -3698.3212    563.12267    166.44692    132.86447     620.8256    81.092728 
   10300    105.79276   -108.70586  0.095723508   -108.61013   -509.00637    4.3306739    4.3306739    4.3306739   -509.00637    7856.3514   -4493.4031   -4889.9675   -57.546509   -191.24635    -39.27216    81.220649 
   10400    68.491083   -108.67287  0.061972172    -108.6109   -1322.1983    4.3285836    4.3285836    4.3285836   -1322.1983   -1990.1667   -2561.9768     585.5486    285.34992   -1482.5825   -475.97265    81.103094 
   10500    98.297915   -108.69979  0.088942019   -108.61085   -2186.5981     4.330161     4.330161     4.330161   -2186.5981   -2581.9404   -4934.7866    956.93264    557.03216    1424.5606    17.964669    81.191793 
   10600    99.604497   -108.70063  0.090124242   -108.61051    1542.8812    4.3296969    4.3296969    4.3296969    1542.8812    7805.6852   -4630.0453    1453.0036   -398.46582    402.50969    89.875136    81.165692 
   10700    140.92665   -108.73782   0.12751339   -108.61031   -2583.8448    4.3287635    4.3287635    4.3287635   -2583.8448   -1204.8057   -3256.0983   -3290.6304   -332.54009   -867.81372    75.277251     81.11321 
   10800     76.76186   -108.67982  0.069455744   -108.61036    573.89036    4.3308148    4.3308148    4.3308148    573.89036     7500.206   -4764.0154   -1014.5195    -130.5114   -737.07431   -263.08717    81.228574 
   10900    88.749099    -108.6904   0.08030205    -108.6101    223.92924    4.3279761    4.3279761    4.3279761    223.92924    61.947333   -2091.8272    2701.6676   -58.121619    172.21282   -388.44853    81.068955 
   11000     75.37873   -108.67879  0.068204259   -108.61058    -336.7396    4.3299791    4.3299791    4.3299791    -336.7396    2860.7224   -4296.3945    425.45335    225.68024    753.43458   -54.777648    81.181561 
   11100    130.18686   -108.72797   0.11779581   -108.61017    425.59955    4.3294425    4.3294425    4.3294425    425.59955     6621.858   -3995.6674    -1349.392    65.124403    39.615333    638.44498    81.151385 
   11200    145.61536   -108.74182   0.13175584   -108.61007   -585.89615    4.3283652    4.3283652    4.3283652   -585.89615     446.8568    -2350.489    145.94377    95.842226   -400.14275   -146.21676    81.090818 
   11300    36.734602   -108.64399   0.03323824   -108.61076    2845.7414    4.3302007    4.3302007    4.3302007    2845.7414    10073.099   -4056.9846    2521.1097    127.33556      247.284   -584.73906    81.194026 
   11400    105.32182   -108.70537  0.095297398   -108.61007    604.66233    4.3278964    4.3278964    4.3278964    604.66233    1628.7742   -2053.3366    2238.5494    586.37886    1359.3808   -249.48699    81.064471 
   11500    96.769081   -108.69807  0.087558698   -108.61051   -624.65597    4.3298584    4.3298584    4.3298584   -624.65597    4107.1981   -4156.1783   -1824.9877   -573.62017   -608.97515     68.57338    81.174776 
   11600    130.49504   -108.72908   0.11807466   -108.61101   -1710.5166    4.3294736    4.3294736    4.3294736   -1710.5166    906.57418   -3736.0117   -2302.1123   -297.40967   -755.78236   -27.617741    81.153135 
   11700    121.99829   -108.72107   0.11038662   -108.61068    805.09469    4.3287165    4.3287165    4.3287165    805.09469    1676.8631   -3380.8362    4119.2572    142.45583    856.91905   -171.10832    81.110564 
   11800    36.976611   -108.64448  0.033457215   -108.61102    1605.2048    4.3299806    4.3299806    4.3299806    1605.2048    6793.1272   -3811.6591    1834.1463    174.16148    1131.2566   -394.83139    81.181648 
   11900    105.72737   -108.70601  0.095664342   -108.61034   -2028.0221    4.3290967    4.3290967    4.3290967   -2028.0221   -1574.0817   -3280.1228   -1229.8618   -114.07951   -315.80644   -88.714451    81.131939 
   12000    130.78765   -108.72828   0.11833941   -108.60994   -2207.1384    4.3301173    4.3301173    4.3301173   -2207.1384    2301.5137    -4694.738   -4228.1908     165.3947   -202.06551    625.13352    81.189336 
   12100    97.306795   -108.69855  0.088045233    -108.6105   -1057.3838    4.3298718    4.3298718    4.3298718   -1057.3838   -59.987171   -4280.4316    1168.2674   -140.17248   -643.47437   -203.72327    81.175527 
   12200    107.48882   -108.70749  0.097258141   -108.61023     376.1436    4.3290684    4.3290684    4.3290684     376.1436    2031.4006   -4180.6076    3277.6378    131.32679    995.70862   -592.07853    81.130349 
   12300    58.361819    -108.6632     0.052807   -108.61039    1841.9768    4.3296374    4.3296374    4.3296374    1841.9768    6850.7869    -2895.092    1570.2354    86.967904   -812.07533   -450.18358    81.162343 
   12400    128.35003   -108.72639    0.1161338   -108.61026   -3985.0043    4.3298739    4.3298739    4.3298739   -3985.0043    -1394.759   -4532.6683   -6027.5856   -356.37925   -290.69279     136.2179    81.175645 
   12500    91.094287   -108.69285  0.082424025   -108.61042    2139.3361    4.3289335    4.3289335    4.3289335    2139.3361    9391.0255   -3315.1471    342.12996   -234.44606   -90.109988    30.544338    81.122763 
   12600    126.61908   -108.72482    0.1145676   -108.61025   -765.07251    4.3297229    4.3297229    4.3297229   -765.07251   -79.442662   -5056.2762    2840.5013    268.44219    1903.7637     13.80327    81.167149 
   12700    73.649105   -108.67734  0.066639258    -108.6107    1561.7684    4.3284649    4.3284649    4.3284649    1561.7684    4685.5486   -2705.8925    2705.6491    422.65581    15.389685   -346.54771    81.096424 
   12800    104.43144   -108.70489  0.094491765   -108.61039    216.81237    4.3295901    4.3295901    4.3295901    216.81237    5292.3484   -3129.2026   -1512.7087   -364.88916    -677.9637   -42.705259    81.159683 
   12900    110.07206   -108.71025  0.099595517   -108.61065   -1312.6563     4.329348     4.329348     4.329348   -1312.6563    4162.1315   -4210.5727   -3889.5276     120.8365    -287.2363    481.43849    81.146069 
   13000    74.255045   -108.67816  0.067187525   -108.61098    2070.9283    4.3284097    4.3284097    4.3284097    2070.9283    5796.6952   -2927.7673     3343.857    58.896618    1318.9059    63.264561    81.093321 
   13100    137.39097   -108.73452   0.12431423   -108.61021   -1179.1357    4.3303787    4.3303787    4.3303787   -1179.1357    181.73686   -6012.4315    2293.2874    193.75732   -233.97969    -642.5812    81.204038 
   13200    86.681102   -108.68881  0.078430883   -108.61037   -876.61796    4.3284242    4.3284242    4.3284242   -876.61796   -97.325771   -1824.3284   -708.19972   -26.961575    181.90011   -458.28818    81.094134 
   13300    83.203566   -108.68558  0.075284335    -108.6103    -781.0623     4.330273     4.330273     4.330273    -781.0623     5630.462   -4540.4996   -3433.1494   -110.49543    8.1778036    379.05412    81.198093 
   13400    118.99032   -108.71782   0.10766494   -108.61015   -799.04997    4.3294527    4.3294527    4.3294527   -799.04997    1257.3709   -4050.2346     395.7138   -93.713961    1665.2864    133.58732    81.151958 
   13500    64.539994   -108.66934  0.058397142   -108.61094    1402.7427    4.3285251    4.3285251    4.3285251    1402.7427    4328.4516   -3435.3209    3315.0975    644.48286   -147.74377    179.87277    81.099806 
   13600     153.0831    -108.7487   0.13851281   -108.61018   -3564.8555    4.3313503    4.3313503    4.3313503   -3564.8555     -3188.17   -6455.0247   -1051.3718   -66.855419   -1010.7844   -322.37645    81.258708 
   13700    79.543873   -108.68234  0.071972968   -108.61037    690.42887    4.3277229    4.3277229    4.3277229    690.42887    5663.1158   -1044.8559   -2546.9733   -15.051682   -305.12841   -27.968646    81.054728 
   13800    86.379524   -108.68868  0.078158009   -108.61052   -2096.6471    4.3308684    4.3308684    4.3308684   -2096.6471   -280.36957   -5086.1927   -923.37904   -148.42991    780.95219    456.20585    81.231592 
   13900    97.393934   -108.69839  0.088124078   -108.61027    2430.9131    4.3286117    4.3286117    4.3286117    2430.9131    7047.9704   -2902.3387    3147.1075    375.02718    393.57482    203.88888    81.104673 
   14000    105.06907   -108.70555  0.095068701   -108.61048    1373.9029    4.3285763    4.3285763    4.3285763    1373.9029    4127.4468   -3311.2082    3305.4702   -134.33191   -544.05538   -604.34202    81.102685 
   14100    127.05431   -108.72548   0.11496141   -108.61052    -2546.909    4.3310396    4.3310396    4.3310396    -2546.909    2677.1121   -5278.4714   -5039.3676   -134.61946    8.0125846   -235.36601    81.241223 
   14200    93.616844   -108.69494  0.084706488   -108.61023    1463.2007    4.3272167    4.3272167    4.3272167    1463.2007    4331.9135   -687.26678    744.95529   -234.57461    385.10741    404.55256    81.026284 
   14300    72.172631   -108.67579  0.065303313   -108.61049   -192.86486    4.3307917    4.3307917    4.3307917   -192.86486    2352.5085   -4729.9817    1798.8786    95.664734     783.2175    427.70441    81.227278 
   14400     98.42862   -108.69939  0.089060284   -108.61033    1512.7039    4.3285739    4.3285739    4.3285739    1512.7039    4592.2887     -3098.01     3043.833    248.69027   -1090.3129    158.76773     81.10255 
   14500    112.93561    -108.7123   0.10218652   -108.61012    2319.4538    4.3286162    4.3286162    4.3286162    2319.4538     9951.595   -3217.4492    224.21571    95.486288   -409.21077   -291.07884    81.104928 
   14600    141.32861    -108.7384    0.1278771   -108.61052   -4796.2956    4.3310187    4.3310187    4.3310187   -4796.2956   -3775.6387   -5263.4018   -5349.8464   -259.97619    1327.8996    25.147156    81.240048 
   14700    51.449624   -108.65766  0.046552701   -108.61111    1771.6314    4.3277214    4.3277214    4.3277214    1771.6314    4130.6671   -1947.0736    3131.3006     264.2671    591.21629    435.04085    81.054642 
   14800    104.08382   -108.70474  0.094177229   -108.61056   -2057.4585     4.331114     4.331114     4.331114   -2057.4585   -2197.3476   -5546.3024    1571.2745    295.31313   -1242.3558    362.38728    81.245414 
   14900     75.23267   -108.67888  0.068072101   -108.61081    673.84971    4.3286796    4.3286796    4.3286796    673.84971    5738.9859   -3728.1677    10.730884   -283.82727    762.78989   -373.69489    81.108494 
   15000    153.70796   -108.74914   0.13907819   -108.61006   -1628.7345    4.3298226    4.3298226    4.3298226   -1628.7345    2122.7826   -4337.4325   -2671.5534   -296.81425   -505.76383   -70.476658    81.172758 
   15100    106.66325   -108.70671  0.096511152    -108.6102    -1650.149    4.3304117    4.3304117    4.3304117    -1650.149    415.00575   -5183.6484    -181.8044   -154.68864    1299.6198    389.69519    81.205895 
   15200    49.474746   -108.65531   0.04476579   -108.61054    210.52822    4.3283621    4.3283621    4.3283621    210.52822    358.33906   -2487.4338    2760.6794    398.84049   -552.27031     663.1245    81.090644 
   15300    103.22539   -108.70353  0.093400501   -108.61013   -752.71936    4.3304385    4.3304385    4.3304385   -752.71936    2420.0387   -5337.3351    659.13835   -254.87193   -37.132507    129.84465    81.207405 
   15400    118.75449   -108.71773   0.10745156   -108.61028   -552.14346    4.3290202    4.3290202    4.3290202   -552.14346    4478.0224   -3604.7608   -2529.6919    569.36711    536.12553   -283.45397    81.127637 
   15500    114.16734   -108.71387   0.10330101   -108.61057    869.26389    4.3291742    4.3291742    4.3291742    869.26389    5079.9753   -3964.2097    1492.0261   -427.14727    1168.5348    138.89153    81.136299 
   15600    113.45139   -108.71277    0.1026532   -108.61012    646.43585    4.3295723    4.3295723    4.3295723    646.43585    3246.5299   -4477.7482    3170.5258    428.44621   -1765.2714    298.68866    81.158682 
   15700    29.711564   -108.63753  0.026883647   -108.61065    2483.5196    4.3281177    4.3281177    4.3281177    2483.5196    6583.6651   -1615.6017    2482.4955    163.86351   -637.00992    458.70098    81.076908 
   15800    144.86374    -108.7415   0.13107575   -108.61042   -3938.5597    4.3301226    4.3301226    4.3301226   -3938.5597   -2590.5308   -5289.7961   -3935.3521    5.8949596    212.47411   -116.82612    81.189631 
   15900    102.77483   -108.70382   0.09299283   -108.61082    2424.4634    4.3289174    4.3289174    4.3289174    2424.4634    9430.4237   -3032.5542     875.5206   -738.67036    610.21632   -272.73561     81.12186 
   16000    110.51745   -108.71094  0.099998513   -108.61094    204.32904    4.3288113    4.3288113    4.3288113    204.32904    995.83414   -4364.1808    3981.3338    641.05709   -160.34465    414.08653    81.115897 
   16100    81.230766   -108.68412  0.073499304   -108.61062     1136.722    4.3298661    4.3298661    4.3298661     1136.722    5011.1797    -4218.297    2617.2833   -205.67465    94.084134    664.70505    81.175204 
   16200    92.258183   -108.69359  0.083477143   -108.61012   -1322.0274    4.3288852    4.3288852    4.3288852   -1322.0274    582.62535   -2267.8529   -2280.8545    132.85934   -1.0477514   -64.236542    81.120051 
   16300    111.48783    -108.7112   0.10087653   -108.61032   -4133.5101    4.3301757    4.3301757    4.3301757   -4133.5101   -2622.0918   -5099.1857   -4679.2529   -65.307923    1249.3323   -247.79077    81.192619 
   16400    100.29645   -108.70112   0.09075034   -108.61037    1598.1683     4.329763     4.329763     4.329763    1598.1683    5433.4614   -4185.8751    3546.9184   -127.06236    -1371.857   -53.535037    81.169408 
   16500    107.81401   -108.70802  0.097552386   -108.61047    634.10062    4.3285133    4.3285133    4.3285133    634.10062    1404.7618   -4265.5661    4763.1062    196.10912   -924.11454    210.52031    81.099145 
   16600    83.198386   -108.68594  0.075279648   -108.61066   -1556.1664     4.330889     4.330889     4.330889   -1556.1664    1339.1816   -4315.1598    -1692.521   -23.643756    1197.7596    503.69694    81.232753 
   16700    111.32882   -108.71085   0.10073266   -108.61011   -1666.7724    4.3290195    4.3290195    4.3290195   -1666.7724    2322.9096   -2881.9685   -4441.2584    40.376197    225.36509   -200.36296    81.127602 
   16800     96.29739   -108.69745  0.087131902   -108.61032   -1879.3418    4.3295983    4.3295983    4.3295983   -1879.3418   -1059.9443   -3925.4318   -652.64933   -562.88882    706.80074   -296.82194    81.160143 
   16900    76.357524   -108.67981  0.069089892   -108.61072    2386.1094    4.3299006    4.3299006    4.3299006    2386.1094    7262.7078   -4610.6861    4506.3066    677.01002   -668.25371    283.76066    81.177148 
   17000     148.2742   -108.74444   0.13416161   -108.61027    442.28918    4.3280022    4.3280022    4.3280022    442.28918    469.71069   -2862.2964    3719.4533   -297.62789    279.05429    671.23276    81.070418 
   17100    75.857616   -108.67948  0.068637565   -108.61085   -390.24486    4.3311025    4.3311025    4.3311025   -390.24486    7441.5857   -4079.8147   -4532.5055     96.47126    453.73422   -81.528819    81.244765 
   17200    93.879378   -108.69562  0.084944034   -108.61067    21.880676    4.3280391    4.3280391    4.3280391    21.880676     2810.368    -2104.332   -640.39397   -661.30016   -122.75543   -333.74437    81.072493 
   17300    101.72125   -108.70235  0.092039521   -108.61031    442.53532    4.3294851    4.3294851    4.3294851    442.53532    3063.8739   -3701.0032    1964.7353    577.86609   -1761.9975   -104.78564     81.15378 
   17400    81.477148   -108.68426  0.073722236   -108.61054    1134.6657    4.3299769    4.3299769    4.3299769    1134.6657    4016.1555   -4579.9664    3967.8079   -197.37602    1048.8144    284.78575    81.181437 
   17500    154.74799    -108.7499   0.14001923   -108.60988   -684.72906    4.3279413    4.3279413    4.3279413   -684.72906    1086.8731    -2237.806   -903.25425    520.99872    582.62562    358.97387    81.066996 
   17600    75.854307    -108.6791  0.068634571   -108.61047    491.38488     4.330962     4.330962     4.330962    491.38488    7968.4257   -4745.6387   -1748.6324   -407.47487   -244.21942   -219.60111    81.236859 
   17700    69.756172   -108.67412   0.06311685     -108.611   -645.79844    4.3279419    4.3279419    4.3279419   -645.79844   -681.69725   -2284.8962    1029.1982    452.09191   -707.01517   -344.82444    81.067032 
   17800    111.59912   -108.71155   0.10097723   -108.61057   -907.11346    4.3301796    4.3301796    4.3301796   -907.11346    938.06746   -5274.0169    1614.6091   -132.16176    694.31249    120.85589    81.192841 
   17900    110.10409   -108.71017  0.099624492   -108.61055   -1139.1792    4.3298424    4.3298424    4.3298424   -1139.1792    1168.0373    -4254.269   -331.30585    245.84018    -230.7447    641.44845    81.173874 
   18000    124.34554   -108.72275   0.11251046   -108.61024    -1989.191    4.3286122    4.3286122    4.3286122    -1989.191   -325.52495   -3273.7156   -2368.3324   -454.55768    1200.9153   -178.15853    81.104701 
   18100    73.202778   -108.67654  0.066235412   -108.61031    1239.1054    4.3307872    4.3307872    4.3307872    1239.1054    6225.0662   -4673.0386    2165.2887   -328.43196   -1414.2246    -532.9101    81.227022 
   18200    79.584936   -108.68245  0.072010123   -108.61044   -650.27633     4.328006     4.328006     4.328006   -650.27633   -1150.4016   -2682.0211    1881.5938    623.46524    533.38391   -286.20864    81.070631 
   18300    104.21494   -108.70469  0.094295872   -108.61039    -1254.089    4.3303831    4.3303831    4.3303831    -1254.089    2989.0572   -5282.1036   -1469.2207   -72.932754    866.70373    245.01583    81.204287 
   18400    132.08557   -108.72966    0.1195138   -108.61014   -338.45617     4.329386     4.329386     4.329386   -338.45617    4086.5543   -3495.7034   -1606.2195    356.32712   -373.56724   0.25605109    81.148205 
   18500    111.17453   -108.71092   0.10059305   -108.61033   -920.00485    4.3286635    4.3286635    4.3286635   -920.00485    -420.7223   -3333.0041    993.71185      -104.29   -751.67757   -93.919155    81.107587 
   18600    47.006941   -108.65302  0.042532868   -108.61049    3356.8597    4.3301224    4.3301224    4.3301224    3356.8597    8530.6548    -3366.309    4906.2334    406.46192    165.43893   -564.09058    81.189623 
   18700    123.30928   -108.72163   0.11157283   -108.61005   -500.34846    4.3281421    4.3281421    4.3281421   -500.34846    936.85337   -3273.2281    835.32934   -259.40993    1145.2041   -45.638891    81.078281 
   18800    88.843667   -108.69114  0.080387617   -108.61075    -426.7275    4.3301746    4.3301746    4.3301746    -426.7275    7664.4414   -4329.8703   -4614.7537    372.62657    692.23099    615.15856    81.192557 
   18900    138.85102    -108.7364   0.12563532   -108.61076   -725.92659    4.3292058    4.3292058    4.3292058   -725.92659    394.04563   -3906.1492    1334.3238   -1022.1399   -393.32762   -358.73821    81.138071 
   19000    96.310838   -108.69799  0.087144071   -108.61084    764.01703    4.3289097    4.3289097    4.3289097    764.01703    2272.8873   -3222.2375    3241.4012    378.66796   -530.35033   -572.14862    81.121428 
   19100    44.487718   -108.65109  0.040253422   -108.61084    1327.4868    4.3301099    4.3301099    4.3301099    1327.4868    3377.0274   -3513.0794    4118.5123   -59.787115    846.24111   -260.75203    81.188917 
   19200    134.92949   -108.73208   0.12208703   -108.60999   -1480.1578    4.3289817    4.3289817    4.3289817   -1480.1578    3617.7577   -4036.5588   -4021.6724    271.67594   -568.97726    58.409579    81.125475 
   19300    105.36174   -108.70568  0.095333515   -108.61035   -1464.6529    4.3301799    4.3301799    4.3301799   -1464.6529    1582.0029   -4004.7587   -1971.2029   -381.81408   -851.29814    47.824675    81.192855 
   19400    104.09457   -108.70466  0.094186959   -108.61047   -1303.7855    4.3297783    4.3297783    4.3297783   -1303.7855   -1354.7896   -5452.5344    2895.9673    398.93173    145.26561    29.178256    81.170267 
   19500    101.28439   -108.70179  0.091644246   -108.61014    405.63769    4.3289556    4.3289556    4.3289556    405.63769     1.381675    -2695.065    3910.5964    59.769773    1766.4134   -650.39155    81.124007 
   19600    57.743221   -108.66275   0.05224728    -108.6105   -216.91054    4.3301055    4.3301055    4.3301055   -216.91054    3871.2852   -3980.1363   -541.88054    43.881535    160.84084    111.19502    81.188674 
   19700    141.65673   -108.73825   0.12817398   -108.61007   -3026.7871    4.3296301    4.3296301    4.3296301   -3026.7871   -837.66442   -4274.2233   -3968.4735    129.16733    529.90536    435.50529    81.161936 
   19800    86.638196   -108.68881   0.07839206   -108.61042    2413.5907    4.3288642    4.3288642    4.3288642    2413.5907    6670.1955   -3099.4212    3669.9978   -671.37546   -1128.1854   -166.42889    81.118867 
   19900    115.44887   -108.71494   0.10446056   -108.61048   -2183.5823    4.3300294    4.3300294    4.3300294   -2183.5823   -3858.0813   -5797.5281    3104.8626     101.9168     811.2518   -614.44007     81.18439 
   20000    76.800771    -108.6801  0.069490952   -108.61061    2054.1615    4.3281725    4.3281725    4.3281725    2054.1615    6927.7973   -1445.3143    680.00167    58.303954    153.60361   -310.02336    81.079991 
   20100    114.97166   -108.71461   0.10402877   -108.61058   -1373.7056    4.3300056    4.3300056    4.3300056   -1373.7056    1721.4014   -4263.2513    -1579.267    142.24577   -553.75255    214.09524     81.18305 
   20200     90.02723   -108.69227   0.08145853   -108.61081    671.81469    4.3290394    4.3290394    4.3290394    671.81469    4502.3015   -3330.0655    843.20812    -382.9082      55.1112      279.354     81.12872 
   20300    98.822144   -108.69985  0.089416353   -108.61044    3207.2673    4.3282151    4.3282151    4.3282151    3207.2673    6123.1428   -3151.3804    6650.0395    686.03256    1834.7419   -24.198946    81.082381 
   20400    115.00836   -108.71436   0.10406198    -108.6103   -990.69254    4.3303189    4.3303189    4.3303189   -990.69254    2087.7728   -5227.3743    167.52389    125.84588    719.38849   -480.28565    81.200677 
   20500    97.714432   -108.69861  0.088414072   -108.61019   -1406.8708    4.3283354    4.3283354    4.3283354   -1406.8708    910.03658   -1908.5534   -3222.0954     315.9324   -506.70024    230.63682    81.089146 
   20600    92.979584   -108.69455  0.084129881   -108.61042    363.17669    4.3299997    4.3299997    4.3299997    363.17669    3309.2959   -4431.5763    2211.8105   -487.27674   -365.56046    214.03205    81.182721 
   20700    97.727501   -108.69908  0.088425896   -108.61065   -34.563656    4.3292949    4.3292949    4.3292949   -34.563656    1479.6127   -4413.8319    2830.5282   -144.75485    561.46872    41.341868    81.143085 
   20800    77.824728   -108.68116  0.070417449   -108.61074    2106.0144    4.3285863    4.3285863    4.3285863    2106.0144     5210.984   -3547.9433    4655.0026   -388.24473   -73.146149   -662.20036    81.103245 
   20900    167.14965   -108.76123   0.15124051   -108.60999   -4655.7304    4.3313538    4.3313538    4.3313538   -4655.7304   -2914.8214   -5962.1081   -5090.2616    31.589104    87.015948   -121.50657    81.258908 
   21000    56.556096   -108.66185  0.051173145   -108.61067   -370.90512    4.3282441    4.3282441    4.3282441   -370.90512    1285.1412   -2436.3373    38.480802   -30.453482   -454.05192    607.10752    81.084015 
   21100    92.485473     -108.694  0.083682799   -108.61032   -1606.9467     4.330899     4.330899     4.330899   -1606.9467   -2382.4671   -5464.0914    3025.7184   -297.51513    784.60789    441.88634    81.233315 
   21200    90.550599   -108.69229  0.081932085   -108.61036    1830.9609    4.3288807    4.3288807    4.3288807    1830.9609    5736.0094   -4476.5201    4233.3935    667.92433    1043.0956    -67.59583    81.119796 
   21300    119.12816   -108.71833   0.10778966   -108.61054   -1489.0427    4.3294914    4.3294914    4.3294914   -1489.0427    21.255388   -3420.4989   -1067.8846    232.62645   -802.86442   -108.83033    81.154133 
   21400    135.47363   -108.73274   0.12257939   -108.61016   -2314.6956    4.3310044    4.3310044    4.3310044   -2314.6956    705.19733   -5790.9745   -1858.3097    74.866402   -357.36998    68.913611    81.239246 
   21500    56.587962   -108.66169  0.051201977   -108.61049    1989.4968    4.3275255    4.3275255    4.3275255    1989.4968    3101.3833   -1186.5314    4053.6384   -484.98336    1034.8461    284.07305    81.043636 
   21600    78.346164   -108.68134  0.070889256   -108.61045   -1059.6199    4.3308294    4.3308294    4.3308294   -1059.6199   -338.09484    -5399.676    2558.9112   -113.59782    996.37825    248.72043    81.229398 
   21700    127.71359   -108.72557   0.11555794   -108.61001    961.36415    4.3285712    4.3285712    4.3285712    961.36415    5649.7325   -3522.9641    757.32404   -240.34489   -240.05602   -663.10874    81.102397 
   21800    122.89193   -108.72178    0.1111952   -108.61059    467.59608    4.3290272    4.3290272    4.3290272    467.59608    2971.7335   -2690.5582    1121.6129    65.398553    44.600552    248.74839    81.128033 
   21900    101.42102    -108.7026  0.091767875   -108.61083   -442.48281    4.3301334    4.3301334    4.3301334   -442.48281    1997.7992   -5299.5184    1974.2708   -158.52584    354.10401    673.64976    81.190242 
   22000    56.416087   -108.66173  0.051046461   -108.61069    3557.1516    4.3271596    4.3271596    4.3271596    3557.1516    5595.7909   -308.88115     5384.545     47.00451    433.88572     483.8292    81.023077 
   22100     113.3241   -108.71305   0.10253803   -108.61051   -3294.4784    4.3310467    4.3310467    4.3310467   -3294.4784   -1278.3111   -5839.7876   -2765.3366    287.27002    134.26458   -89.758549    81.241627 
   22200    111.15362   -108.71098   0.10057413    -108.6104    627.53091    4.3284051    4.3284051    4.3284051    627.53091    3754.7228   -2799.5434    927.41333    289.61944   -866.14654   -46.978522    81.093065 
   22300    117.59763   -108.71658   0.10640481   -108.61018    1749.7466    4.3289405    4.3289405    4.3289405    1749.7466    3124.1705   -3702.5254    5827.5949    55.367963    1294.4052   -9.0215358    81.123156 
   22400    79.255669   -108.68231  0.071712195    -108.6106   -636.74195    4.3302163    4.3302163    4.3302163   -636.74195     476.6897   -5042.1958    2655.2802   -504.79012     1543.677    393.30949    81.194905 
   22500    78.920051   -108.68164  0.071408521   -108.61023    14.029679    4.3282526    4.3282526    4.3282526    14.029679    1955.0987   -1538.2953   -374.71436    383.73988   -623.95984    117.59567    81.084492 
   22600    140.60468   -108.73725   0.12722207   -108.61003   -4542.3741     4.331043     4.331043     4.331043   -4542.3741   -3424.9102    -6056.454    -4145.758   -203.21118   -501.54964   -317.37232    81.241419 
   22700    64.251739    -108.6689  0.058136324   -108.61076    1709.2483    4.3287799    4.3287799    4.3287799    1709.2483    3551.1536    -3311.739    4888.3302    280.79273    8.8106974    199.52376    81.114131 
   22800    132.23635    -108.7298   0.11965023   -108.61015    179.62869    4.3293733    4.3293733    4.3293733    179.62869   -942.21376   -5093.2998    6574.3996   -212.28572   -9.5974019    558.17314     81.14749 
   22900    81.112243    -108.6839  0.073392062   -108.61051    27.946678    4.3300879    4.3300879    4.3300879    27.946678    3669.5433   -4050.7927    465.08948    200.70434    75.437264    587.04014    81.187681 
   23000    105.85387   -108.70627  0.095778809   -108.61049   -3143.5267    4.3292284    4.3292284    4.3292284   -3143.5267   -1614.7731   -3261.0595   -4554.7476    50.533658   -264.02637   -550.74327    81.139345 
   23100    100.42327   -108.70146  0.090865081    -108.6106   -82.609858    4.3298925    4.3298925    4.3298925   -82.609858    2894.8344   -4712.6686    1570.0047    470.65742    855.60775   -66.130192    81.176692 
   23200    81.711069   -108.68476  0.073933892   -108.61083    1978.6285    4.3291947    4.3291947    4.3291947    1978.6285    3125.3828   -4111.0945    6921.5972   -191.80339    2133.0076   -27.119538    81.137452 
   23300    119.15082   -108.71821   0.10781017    -108.6104    364.71484    4.3291505    4.3291505    4.3291505    364.71484    1700.1771   -4251.7188    3645.6862   -390.14932   -228.25527    213.88564    81.134963 
   23400    122.40369   -108.72064   0.11075343   -108.60989    -877.6282    4.3301651    4.3301651    4.3301651    -877.6282    3374.7788   -3832.2839   -2175.3795    447.90494   -1157.3061   -201.54499    81.192025 
   23500    65.452026   -108.66962  0.059222369    -108.6104    197.55009    4.3289037    4.3289037    4.3289037    197.55009    4154.0271   -3488.1833   -73.193572    -172.2355    362.64447   -217.18436    81.121091 
   23600    96.906115   -108.69806  0.087682689   -108.61038   -155.20394    4.3293534    4.3293534    4.3293534   -155.20394      658.794   -3968.8928    2844.4869   -26.362668    479.49465   -269.43349    81.146372 
   23700    101.35402   -108.70213  0.091707247   -108.61042    1926.5112    4.3294161    4.3294161    4.3294161    1926.5112    4847.9924   -4494.5989      5426.14   -239.70713   -682.72823    619.21879    81.149901 
   23800    141.75584   -108.73863   0.12826366   -108.61037   -2400.7686    4.3290326    4.3290326    4.3290326   -2400.7686   -2699.8707   -3274.2292   -1228.2059     266.5347    946.30387    65.731741    81.128337 
   23900     77.56471   -108.68068   0.07018218    -108.6105    1212.3986    4.3297729    4.3297729    4.3297729    1212.3986    5977.2977   -4247.6539    1907.5521   -319.27447    2.6309668   -809.27938    81.169965 
   24000    84.852269   -108.68703  0.076776116   -108.61026   -187.95735    4.3288153    4.3288153    4.3288153   -187.95735      270.592   -3472.3361    2637.8721    738.43814    1711.9716   -27.449133     81.11612 
   24100    72.332231   -108.67595  0.065447723    -108.6105   -393.64798    4.3292164    4.3292164    4.3292164   -393.64798    1765.6343   -3731.5999    785.02164   -686.90035    115.35939   -111.56038    81.138668 
   24200    155.27875   -108.75053   0.14049947   -108.61003   -2166.8999    4.3302427    4.3302427    4.3302427   -2166.8999   -1849.2847   -5055.9689    404.55396    74.683143   -1059.5871   -23.062592    81.196388 
   24300     103.3154   -108.70411  0.093481943   -108.61063    653.21978    4.3281211    4.3281211    4.3281211    653.21978     925.7761    -2021.171    3055.0542   -80.877693   -532.85881   -260.52057    81.077099 
   24400    64.302108   -108.66894  0.058181899   -108.61076    344.83995    4.3304877    4.3304877    4.3304877    344.83995    1733.3454   -5403.6738    4704.8482    94.886444    1425.8749   -302.95574    81.210171 
   24500    94.629438   -108.69572  0.085622704    -108.6101    306.59196    4.3286732    4.3286732    4.3286732    306.59196    1886.2135   -2497.9801    1531.5425   -222.39952   -666.81635     -425.979    81.108133 
   24600    112.10588    -108.7116   0.10143575   -108.61017   -2388.9829    4.3296408    4.3296408    4.3296408   -2388.9829    619.26759   -4362.0565   -3424.1599   -46.842609    138.40949    723.34263    81.162537 
   24700    117.32938   -108.71667   0.10616209   -108.61051   -493.78406    4.3304966    4.3304966    4.3304966   -493.78406    610.80657   -4668.9264    2576.7677    233.87788    330.13794   -345.10761     81.21067 
   24800    106.16969   -108.70653   0.09606457   -108.61047    2542.9329    4.3276216    4.3276216    4.3276216    2542.9329    2667.4686   -2113.1902    7074.5205    136.97479    1070.4693    -473.6679    81.049035 
   24900    60.798734    -108.6658  0.055011972   -108.61079    728.54729    4.3309023    4.3309023    4.3309023    728.54729    3104.7025    -4963.501    4044.4404    223.83332     163.0102   -249.22837    81.233498 
   25000    118.17933    -108.7172   0.10693114   -108.61027   -1216.5202    4.3286421    4.3286421    4.3286421   -1216.5202    2237.4276   -2274.5446   -3612.4435   -588.74854   -524.09174    44.281168    81.106382 
   25100    113.53643    -108.7131   0.10273015   -108.61037   -199.27496    4.3295017    4.3295017    4.3295017   -199.27496    4976.2164   -4533.0715   -1040.9697    42.870045   -495.49117   -22.194398     81.15471 
   25200    84.127857   -108.68676  0.076120653   -108.61064     910.0197    4.3303583    4.3303583    4.3303583     910.0197    1104.4462   -4454.6562    6080.2692   -393.40446     1495.445    -290.4774    81.202894 
   25300     113.6333   -108.71294    0.1028178   -108.61012    1456.4856    4.3276742    4.3276742    4.3276742    1456.4856    1834.7373   -2489.1088    5023.8283    376.47778    376.87292   -277.96469    81.051986 
   25400    93.514136    -108.6948  0.084613555   -108.61019   -993.82233    4.3311733    4.3311733    4.3311733   -993.82233    1544.2108   -4471.0601   -54.617698   -466.26713   -885.66143    108.17358    81.248749 
   25500    98.724389   -108.69978  0.089327902   -108.61045   -1800.3739    4.3286616    4.3286616    4.3286616   -1800.3739    1161.5723   -3250.7178   -3311.9763    450.09349    365.58311    381.59145    81.107477 
   25600    91.501069   -108.69322   0.08279209   -108.61043    1532.1943    4.3292797    4.3292797    4.3292797    1532.1943    5281.1202    -4324.651    3640.1137   -98.202158    430.10083   -171.95933    81.142228 
   25700    112.08662   -108.71183   0.10141833   -108.61041   -1248.0209    4.3302948    4.3302948    4.3302948   -1248.0209   -3278.9284   -5304.1535    4839.0193    490.41954    465.90732   -170.50984    81.199319 
   25800    99.480703   -108.70022  0.090012231   -108.61021   -322.80661    4.3280868    4.3280868    4.3280868   -322.80661    1706.4837   -2267.4751   -407.42839   -414.07788   -826.00158   -638.92407    81.075172 
   25900    118.53422   -108.71726   0.10725225   -108.61001    -1972.964    4.3308376    4.3308376    4.3308376    -1972.964   -1896.8278   -4982.9324    960.86825   -211.67841    402.75913    565.26751    81.229858 
   26000    54.543785   -108.66019  0.049352363   -108.61084    1427.8486    4.3280039    4.3280039    4.3280039    1427.8486    4536.5538   -2864.7556    2611.7477   -450.99162    857.18225   -134.16743    81.070516 
   26100    107.36928   -108.70783  0.097149977   -108.61068   -188.94726     4.329626     4.329626     4.329626   -188.94726    417.34995   -4519.7195    3535.5278   -63.084098    1180.8805   -206.71976    81.161703 
   26200    133.86875   -108.73147   0.12112725   -108.61034   -969.45928    4.3296857    4.3296857    4.3296857   -969.45928    547.37265   -4730.1159    1274.3654    119.03822   -1739.5145    166.26065    81.165058 
   26300    102.37368   -108.70305  0.092629854   -108.61042   -1109.7818    4.3285989    4.3285989    4.3285989   -1109.7818    444.66968   -2217.1947   -1556.8204   -216.12589    94.928788    320.18879    81.103957 
   26400    69.866718   -108.67355  0.063216874   -108.61034    1570.7337    4.3302286    4.3302286    4.3302286    1570.7337     2896.469   -5193.1207    7008.8527    266.19009    224.46387    147.21949    81.195597 
   26500     92.87274   -108.69418  0.084033207   -108.61014    1119.6449    4.3283524    4.3283524    4.3283524    1119.6449    2803.1012    -2408.108    2963.9415    78.365955    918.77387    43.302917      81.0901 
   26600    105.02375   -108.70545  0.095027696   -108.61042   -601.27866    4.3300025    4.3300025    4.3300025   -601.27866    3146.1454   -4571.4536   -378.52785    382.70332   -834.04775   -513.93838    81.182878 
   26700    149.63775    -108.7455   0.13539538    -108.6101   -1344.7839    4.3297169    4.3297169    4.3297169   -1344.7839    840.37972   -4476.8585   -397.87284   -583.44574     1174.771   -330.83885    81.166817 
   26800    68.918684   -108.67303  0.062359073   -108.61067    2179.0951    4.3286544    4.3286544    4.3286544    2179.0951     5890.426   -2422.1479    3069.0072    172.02117    581.13297    645.11813    81.107073 
   26900    72.470813    -108.6761  0.065573115   -108.61053   -199.21974    4.3304552    4.3304552    4.3304552   -199.21974   -1436.9581    -5700.833    6540.1319   -423.81694     967.2387   -214.55786    81.208343 
   27000    107.04743   -108.70693  0.096858763   -108.61007    853.69619    4.3287581    4.3287581    4.3287581    853.69619    5219.6738   -1971.7889   -686.79639    364.80402   -1038.4129    -18.07683    81.112902 
   27100    136.97039   -108.73419   0.12393369   -108.61026   -2694.8121     4.330189     4.330189     4.330189   -2694.8121   -875.25276   -5317.6357    -1891.548   -161.23218   -610.55403     200.1422    81.193368 
   27200    80.436555   -108.68356  0.072780685   -108.61078    1192.5614    4.3295635    4.3295635    4.3295635    1192.5614    3313.3729   -3801.8785    4066.1898     318.2377    116.63521    374.63781    81.158185 
   27300      103.398   -108.70398  0.093556685   -108.61042    197.09358    4.3288204    4.3288204    4.3288204    197.09358    1034.1301   -3436.4435    2993.5941   -195.30798    1314.9111   -211.19919    81.116407 
   27400    73.504055   -108.67714  0.066508013   -108.61063   -1515.0894    4.3301632    4.3301632    4.3301632   -1515.0894   -2739.8901   -4482.5872     2677.209    530.20878   -523.03894    12.980065    81.191914 
   27500    119.03574   -108.71791   0.10770604    -108.6102   -1178.2636     4.329329     4.329329     4.329329   -1178.2636    2454.6884   -3024.6656   -2964.8134     150.8267    90.931566   -529.73388       81.145 
   27600    115.90838   -108.71507   0.10487634    -108.6102    554.22039    4.3289865    4.3289865    4.3289865    554.22039    94.594627   -4313.1415     5881.208   -199.66991    1432.3126     14.16479    81.125745 
   27700     71.31161   -108.67522  0.064524243    -108.6107    721.35545    4.3296118    4.3296118    4.3296118    721.35545    1959.4448   -3466.2513    3670.8728    107.84202    406.30335    416.68982    81.160904 
   27800    122.59838   -108.72103   0.11092959    -108.6101   -1231.1571    4.3288249    4.3288249    4.3288249   -1231.1571    229.94016   -3597.0999   -326.31161   -16.285344   -814.55202    150.50985    81.116662 
   27900    89.941487    -108.6919  0.081380947   -108.61052   -572.50074    4.3294787    4.3294787    4.3294787   -572.50074    518.83509    -3032.973    796.63575    86.056581   -701.64676   -102.89869    81.153418 
   28000    92.563372   -108.69455  0.083753284    -108.6108    298.30635    4.3294745    4.3294745    4.3294745    298.30635    3016.2793    -4654.846    2533.4858   -212.54443    433.30588    47.758586    81.153182 
   28100    102.91683   -108.70347  0.093121314   -108.61035    3128.5381    4.3281259    4.3281259    4.3281259    3128.5381    2800.6109   -2516.9717     9101.975     175.9524     748.2593    556.00994    81.077373 
   28200    114.11262   -108.71358    0.1032515   -108.61033   -1264.8836     4.330271     4.330271     4.330271   -1264.8836     1564.392   -4689.7861   -669.25671    -360.1139    915.59793   -432.81572    81.197979 
   28300      103.644   -108.70395   0.09377927   -108.61017   -1259.3015    4.3289588    4.3289588    4.3289588   -1259.3015    3077.7482   -3017.4795   -3838.1731     562.4424   -1016.4002   -276.22017    81.124186 
   28400    82.852822   -108.68529  0.074966974   -108.61032    1547.2747    4.3293506    4.3293506    4.3293506    1547.2747    2686.0325    -3623.702    5579.4936   -4.4035925    1460.3659   -215.89391    81.146218 
   28500    84.705147   -108.68737  0.076642997   -108.61072     794.7113      4.32972      4.32972      4.32972     794.7113    3562.9116   -5402.0571    4223.2794     4.511782    512.54974   -15.024785    81.166988 
   28600    119.62557   -108.71856   0.10823973   -108.61032    221.97505    4.3287946    4.3287946    4.3287946    221.97505   -975.21796   -2854.2717    4495.4148   -62.914516   -738.97117   -91.119241    81.114959 
   28700    128.81225    -108.7266   0.11655203   -108.61004   -1718.3823     4.330757     4.330757     4.330757   -1718.3823     4191.382   -5764.4214   -3582.1074    175.96555    -883.5825    317.67149    81.225321 
   28800    80.387939   -108.68314  0.072736697    -108.6104   -1317.4009    4.3290013    4.3290013    4.3290013   -1317.4009   -270.11119   -3011.0253   -671.06625   -340.97638    1251.8826   -732.78597    81.126579 
   28900    53.596127   -108.65897  0.048494902   -108.61048    2221.0702    4.3296559    4.3296559    4.3296559    2221.0702    4726.7795   -4842.1968     6778.628   -239.19404    424.13946    244.54449    81.163385 
   29000    140.06548   -108.73712   0.12673419   -108.61039   -2322.2587    4.3300116    4.3300116    4.3300116   -2322.2587   -3120.5109   -4961.1378    1114.8725   -206.81408    898.91657    143.87055    81.183391 
   29100    100.34116   -108.70162  0.090790791   -108.61083   -653.99455    4.3289495    4.3289495    4.3289495   -653.99455   -38.058215   -3609.9279    1686.0025   -297.49796   -1146.9077    -671.2269    81.123663 
   29200    126.81959   -108.72505   0.11474903    -108.6103   -1880.1088    4.3308785    4.3308785    4.3308785   -1880.1088    380.57068   -5901.7978   -119.09926    379.21866    296.08274   -164.99248    81.232157 
   29300    50.038017   -108.65586   0.04527545   -108.61058    1602.3509    4.3279086    4.3279086    4.3279086    1602.3509    2705.0117   -2149.0196    4251.0607   -177.26848    759.64094   -229.07937    81.065161 
   29400    89.426245   -108.69122  0.080914746    -108.6103   -1392.1766    4.3302368    4.3302368    4.3302368   -1392.1766   -127.87986   -4904.5279    855.87791    74.018722   -107.48738   -31.515261    81.196055 
   29500    143.85623   -108.74001   0.13016414   -108.60984   -611.45446    4.3293296    4.3293296    4.3293296   -611.45446    523.96101   -3442.5674    1084.2431   -123.22884   -1262.8318   -5.1021621    81.145037 
   29600    98.229765   -108.69944  0.088880356   -108.61056    1001.0087    4.3283021    4.3283021    4.3283021    1001.0087    647.25331   -3477.2072    5832.9801     138.9859    1669.0579    108.64502    81.087275 
   29700    85.998133   -108.68851  0.077812918    -108.6107    518.74837    4.3303751    4.3303751    4.3303751    518.74837    2459.5035    -4687.691    3784.4326   -319.09055    747.70133   -482.43819    81.203837 
   29800    93.011069   -108.69451   0.08415837   -108.61035    944.13088    4.3275225    4.3275225    4.3275225    944.13088    3620.3399   -1857.6077    1069.6604   -182.99436    69.004724    343.76629    81.043464 
   29900    94.519272   -108.69616  0.085523024   -108.61063   -1275.8872     4.330458     4.330458     4.330458   -1275.8872     2191.578   -3915.8892   -2103.3504   -205.31535   -179.38071   -88.707277    81.208501 
   30000    130.38725   -108.72819   0.11797712   -108.61021    621.13575    4.3290402    4.3290402    4.3290402    621.13575    1792.2494   -3635.6742     3706.832   -231.01849   -390.15245   -239.30442    81.128766 
   30100    78.499946   -108.68152  0.071028401   -108.61049    4050.1071    4.3281788    4.3281788    4.3281788    4050.1071    4293.6545    -2820.655    10677.322    260.25093    702.35078   -574.11409    81.080345 
   30200    106.63217   -108.70715   0.09648303   -108.61067   -2571.3255    4.3308661    4.3308661    4.3308661   -2571.3255   -965.04017   -5164.7785   -1584.1577   -255.90522    507.09847    150.14249    81.231464 
   30300    98.888373   -108.69978  0.089476278    -108.6103   -379.88771    4.3282901    4.3282901    4.3282901   -379.88771     3656.853   -2376.8985   -2419.6177    130.77682   -822.75868    113.33481    81.086596 
   30400    96.585611   -108.69787  0.087392691   -108.61048   -730.33038    4.3305634    4.3305634    4.3305634   -730.33038    2431.2484   -4143.9613   -478.27827   -153.39323    617.22456   -39.281534     81.21443 
   30500    95.868633   -108.69729  0.086743954   -108.61054    752.73222    4.3292715    4.3292715    4.3292715    752.73222   -528.10768   -4750.8819    7537.1862    385.82226    1565.0509   -101.15797     81.14177 
   30600    99.972847   -108.70059  0.090457533   -108.61013    2135.2237     4.328888     4.328888     4.328888    2135.2237    3579.5482   -2734.6223    5560.7452   -392.76026   -158.94902    243.49463    81.120207 
   30700    135.60777   -108.73289   0.12270076   -108.61019   -5141.7665    4.3310646    4.3310646    4.3310646   -5141.7665   -5340.7911   -6121.2759   -3963.2325   -54.615169   -995.70669    -45.74305     81.24263 
   30800    54.380244   -108.66005  0.049204387   -108.61084    363.18843    4.3285725    4.3285725    4.3285725    363.18843    4803.0862   -2629.4456   -1084.0754   -423.01201   -161.84664   -171.35794    81.102473 
   30900    109.07182   -108.70919  0.098690475    -108.6105   -675.08713    4.3303166    4.3303166    4.3303166   -675.08713   -715.07639   -5109.1958    3799.0108    23.698924    604.08983    28.308704    81.200548 
   31000    90.203923   -108.69243  0.081618405   -108.61081    582.30503    4.3291346    4.3291346    4.3291346    582.30503    1004.5679   -4339.2143    5081.5615   -361.52934    233.70259   -871.19762    81.134072 
   31100    131.53938   -108.72927    0.1190196   -108.61025   -1083.6339    4.3294464    4.3294464    4.3294464   -1083.6339   -1014.2846   -3109.9631    873.34588   -270.68712    276.91805    544.28303    81.151605 
   31200    114.99064   -108.71403   0.10404595   -108.60999   -1816.9032    4.3301471    4.3301471    4.3301471   -1816.9032   -176.76855   -5578.2277     304.2865    206.96879     -262.423    236.76713     81.19101 
   31300    32.999602   -108.64052  0.029858733   -108.61066     1832.469    4.3282771    4.3282771    4.3282771     1832.469    3514.9403   -1909.3535    3891.8201   -282.30496    1370.7378   -317.40409     81.08587 
   31400    123.50441   -108.72203   0.11174939   -108.61028   -817.33695    4.3298635    4.3298635    4.3298635   -817.33695    1755.5287   -5507.3424    1299.8029    732.57813    53.405413     51.20096     81.17506 
   31500    123.26804   -108.72185   0.11153552   -108.61031    673.28091    4.3289089    4.3289089    4.3289089    673.28091    1922.9416   -2558.4449     2655.346    -456.1155    -753.8618     309.7279    81.121382 
   31600     106.9638   -108.70738  0.096783091   -108.61059    292.82179    4.3291236    4.3291236    4.3291236    292.82179    2516.8448   -3983.1271    2344.7477    303.72538   -629.66518   -617.96488    81.133454 
   31700    94.014488   -108.69531  0.085066284   -108.61024    879.41584    4.3294049    4.3294049    4.3294049    879.41584    843.14473   -3889.3215    5684.4243   -643.80609    1467.3455    10.316808    81.149269 
   31800     47.54032   -108.65351  0.043015481    -108.6105    1968.4748    4.3284267    4.3284267    4.3284267    1968.4748    6823.1162   -2297.3564    1379.6648    300.09624    580.53754    -549.7279    81.094274 
   31900    149.14584   -108.74532   0.13495029   -108.61037   -3913.3158    4.3301142    4.3301142    4.3301142   -3913.3158   -2905.9511   -5353.9988   -3479.9975   -579.74681   -266.14969   -502.57626    81.189159 
   32000    105.10672   -108.70576  0.095102769   -108.61065    2358.4699    4.3291361    4.3291361    4.3291361    2358.4699    5448.6869   -2394.1034    4020.8261    211.31267   -216.52338    582.17286    81.134157 
   32100    100.99549   -108.70208  0.091382838    -108.6107    77.038548    4.3291252    4.3291252    4.3291252    77.038548   -302.67018   -5145.9292    5679.7151    12.798205    814.03193    149.12972    81.133541 
   32200    69.324418   -108.67334  0.062726191   -108.61061    306.56195    4.3299209    4.3299209    4.3299209    306.56195    172.55733    -2904.933    3652.0615    494.98381   -437.65501   -199.58537    81.178286 
   32300    107.66163   -108.70747  0.097414507   -108.61005   -1785.2087    4.3294826    4.3294826    4.3294826   -1785.2087    2703.8421   -4096.2536   -3963.2146    432.50023   -287.32599   -104.64004     81.15364 
   32400     119.9854   -108.71885   0.10856531   -108.61029   -3276.3565    4.3300547    4.3300547    4.3300547   -3276.3565   -3930.4437   -4238.4286   -1660.1973     82.78584   -1029.1748    211.88584    81.185816 
   32500      83.0104   -108.68566  0.075109555   -108.61055    2489.5094    4.3295898    4.3295898    4.3295898    2489.5094    4385.1649   -4312.9377    7396.3009    125.77546    1526.2951   -452.92882    81.159667 
   32600    117.16532   -108.71634   0.10601364   -108.61033    -318.2722     4.329061     4.329061     4.329061    -318.2722   -1418.2407   -4276.4859      4739.91   -266.92749    1014.9595   -280.91669    81.129933 
   32700    77.350347   -108.68063  0.069988219   -108.61064   -1642.4811    4.3303895    4.3303895    4.3303895   -1642.4811   -322.76223   -3566.2801   -1038.4008    572.10936   -252.81715   -351.65735    81.204648 
   32800    114.51802     -108.714   0.10361831   -108.61038   -1771.4615    4.3294371    4.3294371    4.3294371   -1771.4615    277.11043   -3707.3329   -1884.1621   -774.02742   -424.61253    179.01918    81.151078 
   32900    94.401966   -108.69585  0.085416883   -108.61043    81.788912    4.3291619    4.3291619    4.3291619    81.788912    124.59176   -3588.5501     3709.325    686.75628    775.73831    266.45325    81.135607 
   33000    85.750356   -108.68813  0.077588724   -108.61055    1436.8881    4.3297237    4.3297237    4.3297237    1436.8881    2255.3485   -4573.3074    6628.6232   -330.77722    -215.8704    472.96521    81.167195 
   33100    140.23258   -108.73692   0.12688539   -108.61004   -406.74745    4.3286382    4.3286382    4.3286382   -406.74745    1687.0008   -2912.6562    5.4131345     807.9758    -425.1697   -299.79112    81.106165 
   33200    80.481945   -108.68335  0.072821756   -108.61053   -359.21419    4.3299921    4.3299921    4.3299921   -359.21419    877.39817   -3789.4945    1834.4537    -110.0619   -20.714976   -218.61291    81.182295 
   33300    76.832513   -108.68018  0.069519673   -108.61066    954.56032    4.3287429    4.3287429    4.3287429    954.56032    2891.6858   -2711.4637    2683.4588    456.85363    645.31019    370.75198    81.112051 
   33400    112.40035   -108.71196    0.1017022   -108.61026    845.08233    4.3288299    4.3288299    4.3288299    845.08233    895.35508   -3487.7997    5127.6916   -352.95586    1548.9302   -235.25753    81.116942 
   33500    106.87383   -108.70712   0.09670169   -108.61041   -277.52392    4.3299001    4.3299001    4.3299001   -277.52392    3429.1547   -4448.8912    187.16476    147.62959     72.49907   -654.81022    81.177118 
   33600    131.76625   -108.72932   0.11922487   -108.61009   -816.97689    4.3285881    4.3285881    4.3285881   -816.97689   -710.96643   -2757.2013    1017.2371    97.249652   -1226.9831    92.926399     81.10335 
   33700    56.735748   -108.66193  0.051335697    -108.6106    2437.1864    4.3296553    4.3296553    4.3296553    2437.1864    5391.8414   -4457.2502    6376.9678   -450.79906    570.35217    359.33412    81.163348 
   33800    83.847797    -108.6866  0.075867249   -108.61073   -706.03996    4.3289479    4.3289479    4.3289479   -706.03996    -1526.014   -2810.0307    2217.9248   -62.975469    376.28648   -112.85015    81.123574 
   33900    128.34175   -108.72638   0.11612632   -108.61025   -1418.6264     4.329559     4.329559     4.329559   -1418.6264    1399.8436   -4528.9588   -1126.7642   -112.33452   -1311.1374    557.84899    81.157937 
   34000    123.50614   -108.72208   0.11175095   -108.61033   -1625.2732    4.3303003    4.3303003    4.3303003   -1625.2732    -1779.882   -4370.9795    1275.0421    409.63973    413.54664   -655.30545     81.19963 
   34100    83.596857   -108.68607  0.075640193   -108.61043    48.191451    4.3287234    4.3287234    4.3287234    48.191451    794.35387   -3869.4646    3219.6851   -333.13882    156.75135   -16.408223    81.110952 
   34200     66.12668   -108.67005   0.05983281   -108.61022    1575.2367    4.3302565    4.3302565    4.3302565    1575.2367    1773.0841   -4299.4003    7252.0263    584.80618    1354.5622     343.5879    81.197163 
   34300    116.36149    -108.7155   0.10528632   -108.61021   -2747.3831     4.329352     4.329352     4.329352   -2747.3831   -1313.7748   -3709.5888   -3218.7858   -690.88362   -136.15209    -346.2036    81.146296 
   34400     116.2354   -108.71558   0.10517223   -108.61041   -2281.8798    4.3302212    4.3302212    4.3302212   -2281.8798   -2061.6918   -4779.5586   -4.3889749    727.92993   -348.04754   -501.29133    81.195181 
   34500    108.38759   -108.70839  0.098071367   -108.61032    146.25552    4.3298648    4.3298648    4.3298648    146.25552   -1826.6791   -4148.3095    6413.7552   -478.51165   -519.49114    332.47238    81.175134 
   34600    75.160123    -108.6786  0.068006459   -108.61059    490.75055    4.3287344    4.3287344    4.3287344    490.75055    2596.2147   -3859.8826    2735.9196    12.105871    1754.7209     294.1258     81.11157 
   34700    92.759907    -108.6942  0.083931113   -108.61027   -488.13335    4.3305401    4.3305401    4.3305401   -488.13335   -118.79659   -3303.4048    1957.8013   -457.03323   -819.33926    191.23172    81.213122 
   34800    123.78426   -108.72209    0.1120026   -108.61008   -700.82118    4.3286388    4.3286388    4.3286388   -700.82118    1676.8806   -3788.0217    8.6776444    119.54533   -262.30514   -52.684753    81.106201 
   34900    91.875071   -108.69384  0.083130495   -108.61071    95.221535    4.3296854    4.3296854    4.3296854    95.221535   -1633.2082   -3481.6916    5400.5644    65.307339    471.60666   -161.21646    81.165041 
   35000    105.92951   -108.70631  0.095847243   -108.61046     933.0654    4.3290059    4.3290059    4.3290059     933.0654    1292.9808   -3954.6019    5460.8174    18.201505    1085.3577    157.84446    81.126835 
   35100    101.75159   -108.70229  0.092066979   -108.61022    413.82675    4.3285397    4.3285397    4.3285397    413.82675    4278.7472   -2042.5958   -994.67108        99.04   -327.61127   -125.66308    81.100625 
   35200    84.947075   -108.68724  0.076861898   -108.61038   -16.652732    4.3300292    4.3300292    4.3300292   -16.652732    526.09561     -3451.39    2875.3362   -328.81543   -272.31871   -34.460526    81.184378 
   35300    105.83925   -108.70587  0.095765575    -108.6101    1826.9883    4.3280038    4.3280038    4.3280038    1826.9883    1973.5339   -2616.2258    6123.6567    453.04445   -310.31196   -675.91595     81.07051 
   35400    94.913044   -108.69625  0.085879317   -108.61037    849.16321    4.3296368    4.3296368    4.3296368    849.16321    2095.4806   -4034.5627    4486.5717   -368.62015    1282.2667    182.50021    81.162309 
   35500    122.60586   -108.72125   0.11093636   -108.61031   -2205.6793    4.3294524    4.3294524    4.3294524   -2205.6793   -1999.1146   -4128.4567   -489.46669   -56.300784   -40.732237    573.09919    81.151941 
   35600    96.959246   -108.69799  0.087730763   -108.61026    303.12562    4.3289906    4.3289906    4.3289906    303.12562    4717.9272   -2203.1167   -1605.4335   -725.58575   -914.84019    32.347818    81.125976 
   35700    76.908039   -108.68004   0.06958801   -108.61045   -86.339938    4.3303152    4.3303152    4.3303152   -86.339938   -3906.7957   -4907.1788    8554.9547    362.59661   -35.246622   -637.52633     81.20047 
   35800    89.132892    -108.6911  0.080649314   -108.61045    1201.0381    4.3285754    4.3285754    4.3285754    1201.0381    3723.8295    -2533.222    2412.5068   -283.67978     376.5129    426.30848    81.102634 
   35900    140.68158   -108.73727   0.12729165   -108.60998   -2220.7712    4.3307433    4.3307433    4.3307433   -2220.7712   -2022.8152   -5811.8999    1172.4013    226.49045    155.28889   -221.56447    81.224553 
   36000    95.618708    -108.6969  0.086517816   -108.61039   -1944.1874    4.3295263    4.3295263    4.3295263   -1944.1874   -1342.2146   -3889.5236   -600.82382   -368.56742   -1402.2836   -280.32584    81.156095 
   36100    86.374802   -108.68856  0.078153736    -108.6104   -491.78059    4.3295555    4.3295555    4.3295555   -491.78059   -595.23089   -3377.2991    2497.1882   -59.216464    825.86129   -64.849824     81.15774 
   36200    85.506269   -108.68775  0.077367869   -108.61038    215.48438    4.3302094    4.3302094    4.3302094    215.48438   -1487.9624   -4898.6909    7033.1064    83.547933     768.8732   -696.33704    81.194513 
   36300    97.807724     -108.699  0.088498484    -108.6105   -57.169122    4.3288317    4.3288317    4.3288317   -57.169122    3156.7353   -2369.9022   -958.34044   -286.16593    1140.6248    349.65195    81.117041 
   36400    147.14407    -108.7432   0.13313904   -108.61006   -2249.1841    4.3306743    4.3306743    4.3306743   -2249.1841   -2738.7208   -6412.5149    2403.6835   -138.23308    -1110.053     779.9473     81.22067 
   36500    66.162699   -108.67032    0.0598654   -108.61046    1477.1921    4.3285089    4.3285089    4.3285089    1477.1921    632.01675    -2241.182    6040.7415   -653.42102      328.917   -547.28269    81.098898 
   36600    102.10193   -108.70281  0.092383967   -108.61043   -2231.6117    4.3297563    4.3297563    4.3297563   -2231.6117   -1000.6446   -4390.8053   -1303.3853    398.17135   -195.14146   -642.26073    81.169031 
   36700    89.153153   -108.69113  0.080667646   -108.61046    1459.7197     4.329247     4.329247     4.329247    1459.7197    2897.9054   -2435.8603    3917.1141    24.588629    781.60058    408.71361     81.14039 
   36800     115.1127   -108.71469   0.10415639   -108.61053    399.34865    4.3286141    4.3286141    4.3286141    399.34865    3343.4783   -3503.4483    1358.0159    206.32465   -1535.8717   -677.92651     81.10481 
   36900    104.66988   -108.70515  0.094707507   -108.61044    730.96668     4.329857     4.329857     4.329857    730.96668   -809.75306   -4464.0455    7466.6986   -391.88746    410.89394   -212.85653    81.174696 
   37000    98.448779   -108.69913  0.089078524   -108.61006    827.90835    4.3283848    4.3283848    4.3283848    827.90835    2232.5052   -2357.9321     2609.152     101.2404    1151.2528    -462.2184    81.091919 
   37100    96.323797   -108.69727  0.087155795   -108.61012   -2113.5521    4.3297913    4.3297913    4.3297913   -2113.5521    2686.1717   -4053.2228   -4973.6051    72.551624    728.81491   -143.07629    81.170998 
   37200    83.276582   -108.68562  0.075350401   -108.61027    1078.2588    4.3292884    4.3292884    4.3292884    1078.2588    648.04146    -2079.304    4666.0389    80.973755   -1356.8567    577.11627    81.142717 
   37300    117.98521   -108.71695    0.1067555    -108.6102    1318.1971    4.3287707    4.3287707    4.3287707    1318.1971    3337.3448   -4691.0535    5308.2999   -190.89177     187.1748    482.05806    81.113612 
   37400    101.49697   -108.70239  0.091836591   -108.61056    -217.2549    4.3301648    4.3301648    4.3301648    -217.2549    -2318.018   -3575.5778     5241.831   -96.128937   -602.38825   -437.50057    81.192008 
   37500    106.57638   -108.70669  0.096432546   -108.61025    -738.8934    4.3290764    4.3290764    4.3290764    -738.8934    4378.7851   -3626.0277   -2969.4376    488.29965    3.3900883   -460.20449      81.1308 
   37600    98.510301   -108.69939   0.08913419   -108.61025   -2131.2907    4.3300616    4.3300616    4.3300616   -2131.2907   -519.90104   -3679.6177   -2194.3534    145.71323   -421.80814    201.65497    81.186204 
   37700     53.47497   -108.65902  0.048385276   -108.61063    1211.8627    4.3296544    4.3296544    4.3296544    1211.8627   -125.07113   -3464.1011    7224.7603    372.54255   -1153.8431    32.536775      81.1633 
   37800    150.52233   -108.74632   0.13619577   -108.61012   -1006.8299    4.3293325    4.3293325    4.3293325   -1006.8299   -1693.9612   -4597.2507    3270.7221   -511.09693    1647.2304   -409.59935    81.145198 
   37900    99.386824   -108.70054  0.089927287   -108.61061    97.003205    4.3301087    4.3301087    4.3301087    97.003205    2240.8996   -3826.8548    1876.9648    393.07547    902.44191   -225.24451    81.188851 
   38000     93.42099   -108.69513  0.084529275   -108.61061   -1257.7294    4.3294431    4.3294431    4.3294431   -1257.7294    1067.6766   -3755.5336   -1085.3313    22.009228   -924.55364    702.59211    81.151415 
   38100    92.110495   -108.69365  0.083343512    -108.6103   -731.96723    4.3294834    4.3294834    4.3294834   -731.96723   -12.963244   -3252.3843    1069.4459    197.86199   -682.53906    311.02207    81.153683 
   38200     70.41181   -108.67425  0.063710085   -108.61054     326.4898    4.3296041    4.3296041    4.3296041     326.4898   -936.65332   -3734.5013     5650.624   -169.41804    1380.6558    362.42096     81.16047 
   38300    153.22664   -108.74877   0.13864268   -108.61013   -1679.5224     4.329246     4.329246     4.329246   -1679.5224      17.3363   -3961.0578   -1094.8458   -12.190164   -1052.9827   -394.07519    81.140335 
   38400    90.355484   -108.69231  0.081755541   -108.61056    2583.2923    4.3290488    4.3290488    4.3290488    2583.2923    5090.8022   -3624.3178    6283.3924    486.41622    313.03741   -391.23128     81.12925 
   38500    86.612053   -108.68904  0.078368406   -108.61068   -530.29574    4.3293546    4.3293546    4.3293546   -530.29574    661.45947   -3423.9392    1171.5925    325.85895   -1129.8728    167.22349    81.146439 
   38600    85.485197   -108.68768  0.077348803   -108.61033    151.95206    4.3287804    4.3287804    4.3287804    151.95206     2422.579   -2277.8834     311.1606    190.52054    911.44529    377.64385    81.114158 
   38700    112.14515   -108.71171   0.10147129   -108.61024   -692.15158    4.3296668    4.3296668    4.3296668   -692.15158    1755.1558   -4351.9103    520.29977   -547.79458    604.04539    -767.6213    81.163998 
   38800    112.51187   -108.71209    0.1018031   -108.61029    495.66362    4.3289949    4.3289949    4.3289949    495.66362     2622.233   -3522.2409    2386.9988    592.17566   -424.61284    99.332834    81.126214 
   38900     95.81686   -108.69685  0.086697109   -108.61015    2437.9809    4.3289951    4.3289951    4.3289951    2437.9809    2999.0295   -3958.0094    8272.9227   -184.01094   -1965.0918    729.81558    81.126226 
   39000    97.678039   -108.69859  0.088381142   -108.61021   -936.91951    4.3298596    4.3298596    4.3298596   -936.91951    1361.0278   -3360.3086   -811.47768     382.7855    1643.0336     139.1276    81.174841 
   39100    90.059197   -108.69176  0.081487454   -108.61028   -1725.9877    4.3291848    4.3291848    4.3291848   -1725.9877    2121.5184   -2940.9386   -4358.5428   -610.49251   -622.49815    192.48299    81.136893 
   39200    100.77084    -108.7016  0.091179571   -108.61042    238.95391    4.3301381    4.3301381    4.3301381    238.95391    2921.9781   -4538.7589    2333.6425    351.41731    -386.6291   -589.11888    81.190503 
   39300    119.73835   -108.71881   0.10834177   -108.61046   -518.70982    4.3291497    4.3291497    4.3291497   -518.70982   -2172.7779   -4618.4797    5235.1281   -7.4383075    -532.6189    -218.2604     81.13492 
   39400     76.69559   -108.67991  0.069395782   -108.61051    1564.0728    4.3296802    4.3296802    4.3296802    1564.0728    2236.8463   -3248.2608    5703.6329    600.80383    358.06723    326.07358    81.164752 
   39500    139.32898   -108.73607   0.12606779      -108.61   -3358.8394    4.3302395    4.3302395    4.3302395   -3358.8394    -1494.902   -4211.4316   -4370.1845   -282.01628    469.77013    106.75962    81.196209 
   39600     46.48327   -108.65292  0.042059039   -108.61086    783.53655    4.3287102    4.3287102    4.3287102    783.53655    6014.5733   -2308.5053   -1355.4583   -223.84827   -416.78009   -666.70135    81.110214 
   39700    111.33138   -108.71136   0.10073497   -108.61063   -1114.9235    4.3305652    4.3305652    4.3305652   -1114.9235   -3049.4214   -4996.0226    4700.6733    390.67835    -1474.096    108.91266    81.214532 
   39800    128.69966   -108.72694   0.11645015   -108.61049   -13.633407    4.3285238    4.3285238    4.3285238   -13.633407    26.740591    -3976.333    3908.6921   -106.83278     1003.424    565.14524    81.099736 
   39900    87.139145    -108.6895  0.078845329   -108.61066   -86.316689    4.3300748    4.3300748    4.3300748   -86.316689    577.14336   -2677.6355     1841.542    119.71237    1227.5352    321.50486    81.186946 
   40000    112.72977    -108.7121   0.10200027    -108.6101   -1061.4764     4.329518     4.329518     4.329518   -1061.4764    2705.2641    -4152.418   -1737.2752   -897.56225   -1213.2009   -637.07174    81.155627 
   40100    53.471061   -108.65885   0.04838174   -108.61047    2354.5718    4.3281904    4.3281904    4.3281904    2354.5718    4403.0413   -1268.5256    3929.1996    345.28496   -173.76866   -346.06171    81.080994 
   40200    122.94261   -108.72165   0.11124105   -108.61041   -2154.1595    4.3307109    4.3307109    4.3307109   -2154.1595   -1563.3013   -5652.4884    753.31119   -335.08765   -80.751775    82.391354    81.222732 
   40300    132.74538   -108.73026   0.12011081   -108.61015    819.09549    4.3279522    4.3279522    4.3279522    819.09549    2302.4164   -2150.1427    2305.0128    771.98866    163.07861   -61.654833    81.067609 
   40400    85.735689   -108.68814  0.077575453   -108.61056    1082.9887     4.329823     4.329823     4.329823    1082.9887    4843.9261   -3509.0246    1914.0646   -870.46824   -1133.4836    16.239622    81.172783 
   40500    80.175757   -108.68294   0.07254471    -108.6104    523.13058    4.3291981    4.3291981    4.3291981    523.13058    1934.9511   -3255.6335    2890.0742     404.3836   -334.64012   -524.40208    81.137641 
   40600    83.954519     -108.686  0.075963813   -108.61004    1758.4979    4.3282438    4.3282438    4.3282438    1758.4979    5040.5241   -1626.4414     1861.411   -184.40872   -508.13885     -246.424    81.083994 
   40700    139.11714   -108.73598   0.12587611    -108.6101   -3295.6699    4.3309758    4.3309758    4.3309758   -3295.6699    -860.2124   -6183.2959   -2843.5016    371.67126     1689.747    621.90136    81.237633 
   40800    100.61812   -108.70142  0.091041392   -108.61038    1520.4294    4.3280662    4.3280662    4.3280662    1520.4294    3962.8964   -1779.1522    2377.5441   -683.26118   -815.88357    246.14645    81.074017 
   40900    89.707467   -108.69155  0.081169202   -108.61038     1101.943    4.3300413    4.3300413    4.3300413     1101.943    2674.1039   -4720.5516    5352.2768   -495.25831   -688.91119   -1109.5868    81.185061 
   41000    86.605647   -108.68895  0.078362609   -108.61059   -1444.5636    4.3295556    4.3295556    4.3295556   -1444.5636   -2121.5342    -2993.587    781.43032   -192.55517   -756.11292   -33.824047    81.157743 
   41100    88.106399   -108.69013  0.079720521   -108.61041    338.76066    4.3290539    4.3290539    4.3290539    338.76066    4714.5358   -2681.5702   -1016.6837   -98.472817    996.37004    11.325238    81.129535 
   41200    153.09691   -108.74857    0.1385253   -108.61004   -3684.3687    4.3309929    4.3309929    4.3309929   -3684.3687    -1906.321   -6813.0183   -2333.7669    454.57725   -1398.1626   -49.222794    81.238599 
   41300    53.563409   -108.65936  0.048465298    -108.6109     2813.337    4.3281994    4.3281994    4.3281994     2813.337    4170.6707   -1727.9231    5997.2632   -844.22392   -750.80499   -34.819804    81.081502 
   41400    126.05089   -108.72444   0.11405349   -108.61038   -1864.6139     4.330529     4.330529     4.330529   -1864.6139   -2751.9133    -5183.652    2341.7236    427.14494    270.87083   -466.84702    81.212494 
   41500    81.739137   -108.68474  0.073959289   -108.61078   -477.92306    4.3292254    4.3292254    4.3292254   -477.92306    1321.3341    -2226.375   -528.72829   -205.44085    1442.9416   -72.929782    81.139175 
   41600    93.349841    -108.6953  0.084464898   -108.61084   -685.31313    4.3295837    4.3295837    4.3295837   -685.31313    2804.8054   -3942.4491   -918.29568    664.17135   -502.26013    860.80996    81.159321 
   41700    121.87292   -108.72055   0.11027318   -108.61027    17.928298    4.3298336    4.3298336    4.3298336    17.928298    2275.8813   -5298.1837    3076.0873   -1021.3648   -491.87294   -101.59327    81.173376 
   41800    89.850347   -108.69167  0.081298482   -108.61037    905.21216    4.3285556    4.3285556    4.3285556    905.21216    488.46207   -2170.9242    4398.0986    56.762179   -833.69064   -947.87441    81.101519 
   41900     109.8942   -108.70957  0.099434586   -108.61013   -1292.0031    4.3301144    4.3301144    4.3301144   -1292.0031    2156.1374   -3522.3302   -2509.8165   -546.14746    545.66584   -7.6965378    81.189169 
   42000    93.631207   -108.69481  0.084719484   -108.61009    971.98207    4.3287097    4.3287097    4.3287097    971.98207    2378.4737   -2234.5084    2771.9809    610.90675   -260.46909    28.853899    81.110182 
   42100    73.256757   -108.67688  0.066284253   -108.61059    1658.8963    4.3290721    4.3290721    4.3290721    1658.8963    6248.8112   -3573.1488    2301.0265   -311.37867   -1467.2685    217.61509    81.130558 
   42200    133.61072   -108.73107   0.12089379   -108.61018    -639.4483    4.3296044    4.3296044    4.3296044    -639.4483   -478.45644   -4456.5436    3016.6551   -156.21883    596.55426   -323.98711    81.160489 
   42300    103.11918   -108.70347  0.093304403   -108.61017    1168.8718    4.3286192    4.3286192    4.3286192    1168.8718    5678.9539   -2354.2469    181.90837    116.51703    870.99888   -127.51977    81.105098 
   42400      104.257   -108.70457  0.094333926   -108.61024   -2062.9334    4.3299544    4.3299544    4.3299544   -2062.9334    296.49722   -2868.0406   -3617.2569    361.85276   -543.87153    329.22666    81.180172 
   42500    56.727872   -108.66177   0.05132857   -108.61044    3079.8966    4.3288257    4.3288257    4.3288257    3079.8966    5642.3373   -3046.1118    6643.4644    548.43209   -1370.5856    731.71603    81.116702 
   42600    116.24388   -108.71562   0.10517991   -108.61044   -559.89763    4.3292646    4.3292646    4.3292646   -559.89763   -847.69204   -3669.3866    2837.3857   -521.11356   -278.74581   -62.502372    81.141382 
   42700    123.29608    -108.7222   0.11156088   -108.61064   -2165.3669    4.3301382    4.3301382    4.3301382   -2165.3669    318.28617   -4989.8652   -1824.5216    121.13835   -328.30514    -662.7745    81.190509 
   42800    105.23063   -108.70567  0.095214883   -108.61045    269.81207    4.3291954    4.3291954    4.3291954    269.81207    3414.5522   -2700.6407    95.524667   -180.18751    850.92262   -148.02845     81.13749 
   42900    87.023241   -108.68916  0.078740457   -108.61042   -1505.4427    4.3297455    4.3297455    4.3297455   -1505.4427    396.72216   -3629.9712   -1283.0791    698.89147   -1624.5498    689.83752    81.168424 
   43000    55.139775   -108.66043  0.049891627   -108.61054    1234.8836    4.3297838    4.3297838    4.3297838    1234.8836     12.96197   -3449.2544    7140.9431   -586.49514   -36.192774    220.24769    81.170577 
   43100    149.37661    -108.7453   0.13515909   -108.61014   -1677.9591    4.3292152    4.3292152    4.3292152   -1677.9591   -58.125435   -4065.4397   -910.31213    250.83825     1171.901   -335.09784    81.138602 
   43200    109.35344   -108.70968   0.09894529   -108.61074   -1305.0534    4.3301658    4.3301658    4.3301658   -1305.0534     1541.372   -4932.5339   -523.99822   -71.749165   -487.41121    342.38643    81.192063 
   43300    82.045938   -108.68505  0.074236889   -108.61081    1025.7996    4.3292917    4.3292917    4.3292917    1025.7996    4258.4428   -2988.1279    1807.0837    948.18836   -1851.8362    368.32513    81.142906 
   43400    95.259222   -108.69659  0.086192546    -108.6104   -376.23734    4.3289998    4.3289998    4.3289998   -376.23734    1282.9605   -3152.2274    740.55489    206.99389    1023.4608    586.10426    81.126491 
   43500    76.630814    -108.6798  0.069337171   -108.61046   -260.85593     4.330338     4.330338     4.330338   -260.85593    205.85583   -3661.7444    2673.3207    37.035204   -569.50056   -139.55167    81.201752 
   43600    139.87323   -108.73648   0.12656024   -108.60992    20.620545    4.3284548    4.3284548    4.3284548    20.620545    3873.3936   -3495.9001   -315.63191   -131.93186     910.5593   -624.26168    81.095854 
   43700    102.00082   -108.70254  0.092292489   -108.61025    1403.5901    4.3296736    4.3296736    4.3296736    1403.5901    3795.5035   -4426.2455    4841.5122    179.99026    -406.5549   -200.63941    81.164377 
   43800    73.752023   -108.67724   0.06673238   -108.61051    905.05286    4.3290478    4.3290478    4.3290478    905.05286     4116.564    -2513.818    1112.4125    273.02741   -1087.8665    879.15161    81.129192 
   43900    118.19029   -108.71687   0.10694106   -108.60993   -1296.0481    4.3288409    4.3288409    4.3288409   -1296.0481    1731.4483   -2689.2419   -2930.3507    -595.2517    341.43141   -23.852524    81.117561 
   44000     73.16061   -108.67664  0.066197258   -108.61044    1086.4601    4.3301035    4.3301035    4.3301035    1086.4601    4855.2062    -3704.477    2108.6509    72.870204    207.51366   -288.17755    81.188558 
   44100    134.54861   -108.73194   0.12174241   -108.61019    -563.9447    4.3282052    4.3282052    4.3282052    -563.9447    -273.9541   -3527.2383    2109.3583   -64.879696    -2356.129    109.08255    81.081825 
   44200    80.107614   -108.68285  0.072483053   -108.61037    3233.4356    4.3297156    4.3297156    4.3297156    3233.4356    6311.1702   -3954.6561    7343.7927    1021.9553   -304.95769    464.27576    81.166741 
   44300    117.98474   -108.71725   0.10675508    -108.6105   -3035.7338    4.3293822    4.3293822    4.3293822   -3035.7338   -2894.9347   -2824.9978   -3387.2691    22.453007     868.9044     467.2525    81.147993 
   44400    79.799977   -108.68289  0.072204696   -108.61068   -976.62048    4.3292483    4.3292483    4.3292483   -976.62048    5428.2466   -2608.4334   -5749.6746   -89.759252   -171.87173   -469.15843    81.140461 
   44500     96.12517   -108.69762  0.086976074   -108.61065   -78.048196    4.3303323    4.3303323    4.3303323   -78.048196   -781.31215   -4872.6685     5419.836   -358.77843   -300.44623   -611.93122    81.201428 
   44600    107.13418   -108.70764  0.096937258    -108.6107   -206.96817    4.3283773    4.3283773    4.3283773   -206.96817    -344.5592   -3434.0757    3157.7304    433.76372   -1011.4024    28.844989      81.0915 
   44700    110.47514   -108.71016  0.099960231    -108.6102   -338.51419    4.3309154    4.3309154    4.3309154   -338.51419   -580.56207   -4422.1029    3987.1224   -237.37458    -190.7308    667.20023    81.234237 
   44800    109.73687   -108.70934  0.099292227   -108.61005   -1704.6513    4.3291019    4.3291019    4.3291019   -1704.6513    2903.8012   -2744.4701   -5273.2851   -555.70911    447.68525   -59.243298     81.13223 
   44900    68.695095   -108.67268  0.062156766   -108.61052    -1105.112    4.3296794    4.3296794    4.3296794    -1105.112    1667.3199   -2707.4001   -2275.2557   -137.65857   -1266.1709   -491.44799    81.164708 
   45000    87.009691   -108.68917  0.078728197   -108.61044    1325.2429    4.3301323    4.3301323    4.3301323    1325.2429    2796.0416   -5354.8993    6534.5865      -10.303   -710.99313   -237.09236    81.190178 
   45100    144.34176   -108.74091   0.13060346   -108.61031   -1037.9439    4.3283865    4.3283865    4.3283865   -1037.9439   -2185.0836      -3019.3     2090.552    564.75352    1911.7275    717.58199    81.092018 
   45200    84.499213   -108.68708  0.076456664   -108.61062    896.92039    4.3307559    4.3307559    4.3307559    896.92039    5625.5042   -4202.4752    1267.7322   -225.74226   -217.28168   -139.79583    81.225259 
   45300    120.47335   -108.71892   0.10900681   -108.60991   -464.81356    4.3284683    4.3284683    4.3284683   -464.81356    1753.2598   -2158.6304   -989.07014    -68.98863   -436.68413   -583.94198    81.096613 
   45400    40.847911   -108.64747  0.036960049   -108.61051    2219.2872    4.3290417    4.3290417    4.3290417    2219.2872    7491.7416   -2444.0664    1610.1864   -564.22471   -1099.2859   -398.02682    81.128848 
   45500    125.64274   -108.72399   0.11368419   -108.61031    -1598.761    4.3300884    4.3300884    4.3300884    -1598.761   -1939.8916   -4950.7733    2094.3819    608.38182   -309.85909   -91.161686    81.187707 
   45600    136.81109   -108.73392   0.12378955   -108.61013    956.81243    4.3280934    4.3280934    4.3280934    956.81243    5108.3098   -2960.8488    722.97628   -493.79828   -42.287357    490.60617    81.075543 
   45700    79.610081   -108.68276  0.072032875   -108.61073    959.38962    4.3302098    4.3302098    4.3302098    959.38962    2995.3059   -3676.1537    3559.0167   -413.56831   -416.80186   -102.84193    81.194535 
   45800    95.650495   -108.69685  0.086546578   -108.61031    111.44006      4.32843      4.32843      4.32843    111.44006    1019.7411   -2342.0557    1656.6348   -383.32984   -1270.0579   -896.19488    81.094462 
   45900    71.248731    -108.6747  0.064467349   -108.61024    1073.3256    4.3291712    4.3291712    4.3291712    1073.3256      5406.36   -2650.1109    463.72764    119.27801    849.25975   -197.05892     81.13613 
   46000    128.99937   -108.72719   0.11672134   -108.61047   -3470.3964    4.3302652    4.3302652    4.3302652   -3470.3964   -2511.2713   -5259.9847   -2639.9331    258.44139    339.31784    660.79578    81.197656 
   46100    119.28816   -108.71838   0.10793443   -108.61044    961.99078    4.3285184    4.3285184    4.3285184    961.99078    4321.2181    -3609.902    2174.6563   -339.30561    -1373.163   -354.25079     81.09943 
   46200    79.688562   -108.68299  0.072103886   -108.61088    995.68683    4.3298134    4.3298134    4.3298134    995.68683    49.682108   -3946.4363    6883.8147   -192.91402    -1363.916   -471.75607    81.172243 
   46300    88.535954   -108.69096  0.080109192   -108.61085   -1944.8154    4.3294342    4.3294342    4.3294342   -1944.8154   -1626.8648   -3042.0772   -1165.5043   -214.02987    377.07332   -582.89629    81.150914 
   46400    96.651382   -108.69778  0.087452201   -108.61033   -674.45014    4.3296715    4.3296715    4.3296715   -674.45014    3948.0738   -3502.4066   -2469.0177    655.22541   -51.408046    150.57672    81.164259 
   46500    120.73939   -108.71943   0.10924754   -108.61018   -2442.6735    4.3302305    4.3302305    4.3302305   -2442.6735   -360.30673   -5444.2129   -1523.5008    -523.8198   -21.141417       516.59    81.195703 
   46600    97.923395   -108.69898  0.088603145   -108.61038    934.74961    4.3291824    4.3291824    4.3291824    934.74961    1263.9582   -3909.1048    5449.3954   -9.1339827   -441.54075    -237.2885    81.136758 
   46700    95.175385   -108.69626  0.086116688   -108.61015    1210.5256    4.3296491    4.3296491    4.3296491    1210.5256    2494.6541   -3703.7527    4840.6752   -595.67002    155.54113   -729.51427       81.163 
   46800    104.83569   -108.70511  0.094857532   -108.61025   -2654.0097    4.3300177    4.3300177    4.3300177   -2654.0097   -1661.4778   -3114.4951   -3186.0563    603.87125    127.72225    15.257743    81.183731 
   46900    68.265182   -108.67232  0.061767772   -108.61055    1677.1892    4.3290395    4.3290395    4.3290395    1677.1892    8691.0971   -3073.2441   -586.28548   -210.13866   -683.95894    558.47149    81.128727 
   47000    145.09287   -108.74133   0.13128308   -108.61005   -1494.6002    4.3299745    4.3299745    4.3299745   -1494.6002   -2052.5756   -5400.4266    2969.2016    145.41877   -1484.5414   -83.798967    81.181301 
   47100    66.484411   -108.67079  0.060156492   -108.61064    2938.0347    4.3287259    4.3287259    4.3287259    2938.0347    6845.3685    -2682.413    4651.1486   -476.98077   -322.77477   -638.12846    81.111095 
   47200    138.95028    -108.7358   0.12572514   -108.61007   -1533.9577    4.3293967    4.3293967    4.3293967   -1533.9577   -1375.0979   -3064.7039   -162.07141    304.63589    1363.2005   -425.33789    81.148805 
   47300    71.064845   -108.67482  0.064300965   -108.61052    1279.2851    4.3294513    4.3294513    4.3294513    1279.2851    6585.1267   -2927.5294    180.25785    496.38102   -575.26532    663.89602    81.151879 
   47400     76.61317   -108.68021  0.069321206   -108.61089     573.1465    4.3284678    4.3284678    4.3284678     573.1465    1008.6219   -2739.7194     3450.537   -93.267342   -798.24991    333.77516    81.096588 
   47500    132.15197   -108.72998   0.11957388    -108.6104   -503.66828    4.3299078    4.3299078    4.3299078   -503.66828    1679.3108   -5567.4345    2377.1188    -99.35344    177.64527   -161.00629    81.177552 
   47600    109.29873   -108.70928  0.098895785   -108.61038   -60.540493    4.3288254    4.3288254    4.3288254   -60.540493     1550.016   -2206.1784    474.54087   -156.36579   -470.78394   -486.14677     81.11669 
   47700    94.107552   -108.69558   0.08515049   -108.61043   -896.86329    4.3293207    4.3293207    4.3293207   -896.86329    1894.9893   -3084.3909   -1501.1883    856.23199   -1070.8234    196.05333    81.144532 
   47800    88.294529   -108.69013  0.079890745   -108.61024    381.83532    4.3298294    4.3298294    4.3298294    381.83532   -543.90229   -3596.5593    5285.9675   -204.48667    -848.6619    685.49984     81.17314 
   47900    65.896894   -108.67033  0.059624894    -108.6107    1081.3173    4.3281427    4.3281427    4.3281427    1081.3173    2406.1876    -2876.519    3714.2835    189.84586   -668.91451    109.00213    81.078315 
   48000    158.22859   -108.75344   0.14316856   -108.61027   -4201.2468    4.3311211    4.3311211    4.3311211   -4201.2468   -3011.5546   -6302.6238   -3289.5619   -466.98122    1481.5411   -737.81347    81.245811 
   48100    93.692276    -108.6953   0.08477474   -108.61052     1507.356    4.3286411    4.3286411    4.3286411     1507.356     6155.978   -2470.8399    836.92989    559.50867    39.527376    116.34325     81.10633 
   48200    91.703152   -108.69344  0.082974939   -108.61046   -1768.5046    4.3297956    4.3297956    4.3297956   -1768.5046   -2473.0435   -3516.0557    683.58547   -151.70654    -1322.322    804.04113    81.171239 
   48300    59.929518    -108.6646  0.054225487   -108.61037     1776.431      4.33017      4.33017      4.33017     1776.431     2397.385   -3921.8628    6853.7708    401.80279    -152.5014    356.28444    81.192299 
   48400    128.21382   -108.72607   0.11601055   -108.61006   -1042.8803    4.3284827    4.3284827    4.3284827   -1042.8803    476.77811   -3326.7598   -278.65905   -359.43872    153.29201    97.755083    81.097426 
   48500    122.36053   -108.72109   0.11071438   -108.61037    -2244.574    4.3313137    4.3313137    4.3313137    -2244.574    2381.2505   -6270.6978   -2844.2747    299.71272   -1526.6536   -432.21842     81.25665 
   48600    89.002992   -108.69096  0.080531777   -108.61043    2585.6564    4.3282108    4.3282108    4.3282108    2585.6564    4971.9076   -2242.8393    5027.9008    601.99648    -75.88618    461.74332     81.08214 
   48700    96.678884   -108.69784  0.087477086   -108.61036   -687.24348    4.3298219    4.3298219    4.3298219   -687.24348    368.64681   -3663.1113    1232.7341    119.59576   -328.46635    693.42132    81.172722 
   48800    62.202877    -108.6668   0.05628247   -108.61052    967.41866    4.3300601    4.3300601    4.3300601    967.41866    2781.7844   -3132.1898    3252.6614   -126.69263    369.03476   -66.270587    81.186115 
   48900    151.05627   -108.74674   0.13667889   -108.61007   -840.92798    4.3281029    4.3281029    4.3281029   -840.92798    1198.8515   -3414.2355   -307.39989   -461.48554    919.11158   -706.67723    81.076079 
   49000    93.086186   -108.69494  0.084226337   -108.61071      486.388    4.3306241    4.3306241    4.3306241      486.388    4498.0004   -5740.0368    2701.2004    369.28748   -1690.5192    129.71318    81.217848 
   49100    85.409717   -108.68812  0.077280506   -108.61084    1037.2054    4.3280119    4.3280119    4.3280119    1037.2054    237.11201   -1816.1197     4690.624   -278.38877   -970.60642    632.87932    81.070965 
   49200    111.13143   -108.71105   0.10055405    -108.6105   -1287.1519    4.3297787    4.3297787    4.3297787   -1287.1519    3139.2027   -3808.4588   -3192.1997    228.74201    1003.5197    486.09791    81.170293 
   49300    76.116956   -108.67956  0.068872221   -108.61069   -620.05747    4.3296845    4.3296845    4.3296845   -620.05747   -1764.7308   -2559.8498    2464.4082   -429.89624   -1232.4386   -507.28724    81.164994 
   49400     112.3705   -108.71202   0.10167519   -108.61035    584.96841     4.328151     4.328151     4.328151    584.96841    2300.9707   -3999.7691    3453.7036    500.10201   -750.35112    -433.7508     81.07878 
   49500    119.10798   -108.71796    0.1077714   -108.61019    -491.5168    4.3305331    4.3305331    4.3305331    -491.5168   -1474.6438   -5394.0287    5394.1221      336.632     517.1343    567.16535    81.212725 
   49600    74.842112   -108.67819  0.067718715   -108.61048   -166.70676    4.3282704    4.3282704    4.3282704   -166.70676    2320.6146   -1755.8138   -1064.9211    171.24639   -341.81596    245.83255    81.085491 
   49700    131.17546   -108.72862   0.11869032   -108.60993   -3472.0964    4.3303631    4.3303631    4.3303631   -3472.0964   -509.98523   -4032.5238   -5873.7803   -645.15204   -15.347147   -263.57776    81.203159 
   49800    48.559545   -108.65458  0.043937697   -108.61065    2498.2982    4.3292098    4.3292098    4.3292098    2498.2982    2817.2983   -2909.7339    7587.3301    -22.03843    -750.8912   -795.36587    81.138299 
   49900    128.86928   -108.72696   0.11660363   -108.61036    -1526.642    4.3290604    4.3290604    4.3290604    -1526.642   -3858.6126   -4554.1028    3832.7895   -110.65825    -1546.144   -18.123702    81.129898 
   50000    104.02304   -108.70432  0.094122236    -108.6102    1163.3737    4.3304895    4.3304895    4.3304895    1163.3737    5107.5782   -4819.3395    3201.8825   -124.57596    313.80357    654.57276    81.210273 
   50100    125.40845   -108.72363   0.11347221   -108.61016   -2805.0424     4.329033     4.329033     4.329033   -2805.0424   -1812.5416   -2421.0034   -4181.5821    91.657928    669.30176    91.575715    81.128356 
   50200     57.58238    -108.6628  0.052101747    -108.6107    694.44301    4.3300998    4.3300998    4.3300998    694.44301    7173.8858   -3561.2083   -1529.3484   -481.34632   -1416.4021   -950.90141    81.188348 
   50300    89.960346   -108.69177  0.081398011   -108.61037    1681.6813    4.3292673    4.3292673    4.3292673    1681.6813   -1761.4833   -3703.5789    10510.106    237.72355    161.82906   -189.03267     81.14153 
   50400    121.21281    -108.7202    0.1096759   -108.61053   -357.62563    4.3293215    4.3293215    4.3293215   -357.62563    2789.2299   -4152.7925    290.68575    302.30685    110.53515    250.28229     81.14458 
   50500    121.51711   -108.72021   0.10995123   -108.61026   -397.90051    4.3303597    4.3303597    4.3303597   -397.90051    1398.7961   -4204.6765    1612.1788    59.539746   -647.70661    129.46164    81.202973 
   50600    98.466583   -108.69923  0.089094633   -108.61013    688.63837    4.3284983    4.3284983    4.3284983    688.63837    3690.4383   -2382.9661    758.44286   -636.32081   -947.00173    -468.3291      81.0983 
   50700    58.450413   -108.66354  0.052887162   -108.61065    166.56896    4.3296869    4.3296869    4.3296869    166.56896    2674.7144   -3033.2198    858.21228   -7.4076584   -890.30899    -850.2337    81.165127 
   50800     97.16139   -108.69837  0.087913667   -108.61046    697.29003    4.3292256    4.3292256    4.3292256    697.29003   -168.34401   -3988.2339    6248.4479   -43.981303     182.1857    16.973549    81.139188 
   50900     156.5286   -108.75186   0.14163037   -108.61023   -1685.6882      4.32921      4.32921      4.32921   -1685.6882    1053.4352    -4123.424   -1987.0758   -192.71715    944.02129    553.54992    81.138308 
   51000     78.71536   -108.68216  0.071223312   -108.61093    851.20428    4.3295152    4.3295152    4.3295152    851.20428    64.583363   -3616.3172    6105.3467   -129.37497   -558.03657   -339.02152    81.155472 
   51100    93.358049   -108.69486  0.084472325   -108.61039    212.90004    4.3287808    4.3287808    4.3287808    212.90004    808.56296   -2944.4729    2774.6101   -323.65228   -580.91855   -870.87037    81.114181 
   51200    81.307551   -108.68388  0.073568781   -108.61032   -1385.6631    4.3293732    4.3293732    4.3293732   -1385.6631    747.94363   -2674.7293   -2230.2036    108.54913   -174.97973    -179.0704    81.147487 
   51300    100.94938   -108.70169  0.091341124   -108.61035    -1448.353    4.3298108    4.3298108    4.3298108    -1448.353   -1280.9231   -4581.2278     1517.092    198.59153   -586.27288     212.8309    81.172098 
   51400    147.62878   -108.74365   0.13357762   -108.61007    -459.8748    4.3289492    4.3289492    4.3289492    -459.8748    603.87827   -4378.0484    2394.5457    199.67572    -1352.068    339.63747    81.123646 
   51500    58.097747   -108.66335  0.052568062   -108.61078    2162.7604    4.3294477    4.3294477    4.3294477    2162.7604     766.7709   -3616.3279    9337.8383    -412.2035   -838.66072   -813.84354    81.151676 
   51600    112.89072   -108.71238    0.1021459   -108.61024   -2657.3133    4.3297349    4.3297349    4.3297349   -2657.3133   -2258.6957   -3306.2504   -2406.9937    193.61027     335.3071    -565.4973    81.167827 
   51700    84.535269    -108.6866  0.076489288   -108.61011   -198.41959    4.3292186    4.3292186    4.3292186   -198.41959    5746.2285   -2598.8397   -3742.6475   -78.248379    429.55618    339.93165    81.138794 
   51800    112.68329   -108.71235   0.10195821   -108.61039   -2015.4383    4.3305701    4.3305701    4.3305701   -2015.4383   -3701.1646   -5469.8776    3124.7274    89.722028    104.99764    444.27457     81.21481 
   51900     97.27419   -108.69856  0.088015731   -108.61055    2949.9754    4.3286001    4.3286001    4.3286001    2949.9754    6778.0438   -4254.2621    6326.1445   -432.99379   -1080.3297   -247.05856     81.10402 
   52000    114.52282   -108.71405   0.10362266   -108.61043    23.059199    4.3299991    4.3299991    4.3299991    23.059199   -2678.5278   -3615.4877    6363.1931   -229.28051   -576.05929   -725.16923    81.182687 
   52100    88.960153    -108.6911  0.080493016    -108.6106   -1650.1079     4.329994     4.329994     4.329994   -1650.1079    4057.6103   -3266.3107   -5741.6233    130.66792     -236.671   -155.91201    81.182401 
   52200    93.602715   -108.69505  0.084693704   -108.61035    16.436305    4.3288786    4.3288786    4.3288786    16.436305      1321.46   -2444.3358    1172.1847    261.84687    -714.5774    727.12626    81.119678 
   52300    83.868727   -108.68634  0.075886187   -108.61046    1516.9288    4.3302822    4.3302822    4.3302822    1516.9288    3561.4523   -5473.1743    6462.5082    303.91786   -1224.6363    112.13738    81.198609 
   52400    130.54284   -108.72841   0.11811791   -108.61029   -327.37042    4.3285669    4.3285669    4.3285669   -327.37042    -217.4346   -3642.1451    2877.4684   -281.74602    789.01728    -817.7951    81.102155 
   52500    104.35813   -108.70468  0.094425426   -108.61026    927.72706    4.3297717    4.3297717    4.3297717    927.72706    2619.5765   -3186.6081    3350.2128    392.41671    683.16095    58.504629    81.169895 
   52600    103.16871   -108.70364  0.093349215   -108.61029   -2340.0292    4.3296874    4.3296874    4.3296874   -2340.0292   -1695.4545   -3459.5169   -1865.1163    1.9385592   -612.55677    448.69542    81.165155 
   52700    41.757953   -108.64862  0.037783474   -108.61084    2235.6154    4.3279755    4.3279755    4.3279755    2235.6154    2681.7486   -1792.9129    5818.0104    196.98943   -224.04782    559.67491     81.06892 
   52800    140.46141   -108.73732   0.12709244   -108.61023   -1804.9931     4.330698     4.330698     4.330698   -1804.9931   -1603.8347   -6088.9877    2277.8429   -502.79632   -591.62755   -256.40392    81.222003 
   52900    120.07983   -108.71898   0.10865075   -108.61033   -356.52612    4.3279704    4.3279704    4.3279704   -356.52612    1581.0155    -2346.501    -304.0928    103.38413   -834.61675   -602.09798    81.068633 
   53000    96.672368   -108.69785   0.08747119   -108.61037   -11.604332    4.3300492    4.3300492    4.3300492   -11.604332   -1818.3771   -3754.6885    5538.2526   -176.87304    199.95078    363.19939    81.185503 
   53100    77.081042   -108.68009  0.069744547   -108.61035    430.99575    4.3290276    4.3290276    4.3290276    430.99575    809.52188     -3269.84    3753.3053    486.12144   -1317.4606    882.90054    81.128057 
   53200    66.492762   -108.67079  0.060164049   -108.61063   -209.06288    4.3286308    4.3286308    4.3286308   -209.06288   -501.56865   -2109.6267    1984.0067    33.754071   -643.75323   -118.46406    81.105749 
   53300     154.7118   -108.75015   0.13998648   -108.61016   -3001.4543    4.3311966    4.3311966    4.3311966   -3001.4543    64.100763   -6574.8469   -2493.6168    7.4332024     1120.452   -369.79034    81.250062 
   53400    109.23277   -108.70922  0.098836102   -108.61038    1731.7681    4.3276849    4.3276849    4.3276849    1731.7681    3181.8127   -1727.0239    3740.5154    43.456573    -890.5772    166.83232    81.052592 
   53500    73.781428   -108.67727  0.066758987   -108.61051    401.38412    4.3307718    4.3307718    4.3307718    401.38412   -1466.6994   -4746.0703    7416.9221    272.93468   -1083.1149    660.73165    81.226157 
   53600    82.443704   -108.68488  0.074596796   -108.61028    646.55768    4.3291527    4.3291527    4.3291527    646.55768    3225.9742   -3108.6566    1822.3554    384.93501   -61.434286    578.90704    81.135086 
   53700    112.59333   -108.71224   0.10187681   -108.61036   -2051.1353    4.3293174    4.3293174    4.3293174   -2051.1353   -1522.8632   -3041.4965   -1589.0462   -495.69999   -409.17197   -496.46431    81.144349 
   53800    113.58177   -108.71336   0.10277118   -108.61059   -990.80147    4.3311873    4.3311873    4.3311873   -990.80147    3883.3539   -6613.1887   -242.56958    184.60596   -157.55297   -357.23014    81.249538 
   53900    113.31884   -108.71291   0.10253327   -108.61038    2531.3723    4.3275515    4.3275515    4.3275515    2531.3723    1045.3862   -2151.4344     8700.165   -150.00506    74.478804    501.09079    81.045097 
   54000    65.278399   -108.66966  0.059065267    -108.6106    1121.3147    4.3308611    4.3308611    4.3308611    1121.3147    4456.7015   -4455.5535     3362.796    316.36933   -1290.8818    560.65619    81.231182 
   54100    116.49933   -108.71548   0.10541105   -108.61007   -2478.3655    4.3292608    4.3292608    4.3292608   -2478.3655    -3223.766   -3023.0346   -1188.2959     -311.029    515.11767   -343.87662    81.141168 
   54200    86.478998   -108.68856  0.078248015   -108.61031    1146.7978    4.3287151    4.3287151    4.3287151    1146.7978    3905.9591   -3538.0585    3072.4929    208.51314    19.557019   -476.08298    81.110485 
   54300    117.99246   -108.71721   0.10676206   -108.61044   -1854.0396    4.3308425    4.3308425    4.3308425   -1854.0396   -2451.3378   -6092.8872    2982.1062   -303.21708    -1540.587   -133.21078    81.230136 
   54400     92.74018   -108.69433  0.083913264   -108.61042    2460.6291    4.3272825    4.3272825    4.3272825    2460.6291    4017.4852   -2231.2756    5595.6778    626.60667   -51.334693    847.05743    81.029982 
   54500    118.23441   -108.71707   0.10698098   -108.61009   -1945.1011    4.3308473    4.3308473    4.3308473   -1945.1011   -994.58625   -3753.9764   -1086.7407     225.3273    691.02439  -0.43592264    81.230401 
   54600    71.346665   -108.67498  0.064555962   -108.61043    -601.0095    4.3287413    4.3287413    4.3287413    -601.0095   -1086.8855   -3196.6553    2480.5124   -152.57337   -344.16298   -845.90483    81.111959 
   54700    91.669291   -108.69321  0.082944301   -108.61027    776.07085    4.3286391    4.3286391    4.3286391    776.07085   -1525.9179   -3871.5229    7725.6534   -137.91714      159.559   -148.56348    81.106218 
   54800    119.48877   -108.71852   0.10811595   -108.61041    -1345.019    4.3303665    4.3303665    4.3303665    -1345.019    1261.0968    -5601.323    305.16927   -38.439852   -1171.7907     339.4497    81.203355 
   54900    117.20859   -108.71655    0.1060528    -108.6105   -1064.4509    4.3282308    4.3282308    4.3282308   -1064.4509    -1048.535   -2482.8302    338.01245    -91.14138   -747.04869    137.26623    81.083267 
   55000    92.257374   -108.69409  0.083476411   -108.61061    368.39787    4.3303446    4.3303446    4.3303446    368.39787    3131.6563    -3289.799    1263.3362   -303.60022   -8.0376271   -599.59747    81.202123 
   55100    70.440803   -108.67438  0.063736319   -108.61064    649.75413    4.3287338    4.3287338    4.3287338    649.75413   -2288.3942   -3373.4771    7611.1337     94.72713   -1243.9091   -734.82285     81.11154 
   55200     90.00974    -108.6919  0.081442704   -108.61046    422.42374    4.3292857    4.3292857    4.3292857    422.42374    1573.4187   -3799.4736    3493.3261   -336.68091    -929.2688    90.038524    81.142568 
   55300     154.2009   -108.74944   0.13952421   -108.60991   -2332.0509    4.3306045    4.3306045    4.3306045   -2332.0509    1404.7208   -5733.0405   -2667.8331    843.65344    983.12789    672.31482    81.216743 
   55400    99.300265    -108.7003  0.089848967   -108.61045    120.99039    4.3287359    4.3287359    4.3287359    120.99039    556.06053   -2121.8153    1928.7259    89.691212    506.76788   -538.74852    81.111655 
   55500    61.905941   -108.66656  0.056013797   -108.61055     1983.796    4.3301293    4.3301293    4.3301293     1983.796     4938.378   -3718.4231    4731.4331   -205.82011   -764.24755   -557.14088    81.190012 
   55600     101.0356   -108.70161   0.09141913   -108.61019    356.64915    4.3292679    4.3292679    4.3292679    356.64915   -1162.4494   -3513.0868    5745.4836   -415.77034   -426.62821   -258.15381    81.141568 
   55700     92.21219   -108.69391  0.083435528   -108.61048    283.53891    4.3295085    4.3295085    4.3295085    283.53891    4916.0718   -3527.1347   -538.32031    86.719633   -829.00088     338.1635    81.155097 
   55800    161.28889   -108.75597   0.14593758   -108.61003   -2907.4079    4.3303694    4.3303694    4.3303694   -2907.4079   -3044.4781   -6008.6238     330.8783   -497.00945   -365.60608   -62.490143    81.203516 
   55900    58.096568   -108.66315  0.052566996   -108.61058    3497.1954    4.3283586    4.3283586    4.3283586    3497.1954    5352.0074   -1565.6319    6705.2106   -46.383462   -557.31654   -832.80993    81.090451 
   56000    88.802185   -108.69086  0.080350083   -108.61051   -1395.1844    4.3299708    4.3299708    4.3299708   -1395.1844   -684.96741   -4200.7303    700.14437   -217.75973    -478.4941   -575.67049    81.181094 
   56100    96.277235   -108.69741  0.087113666    -108.6103    682.42436    4.3292742    4.3292742    4.3292742    682.42436    2623.3437   -3396.8225    2820.7519   -83.391038    243.85666    411.64456    81.141918 
   56200     123.1231   -108.72169   0.11140437   -108.61029   -835.79955    4.3288856    4.3288856    4.3288856   -835.79955   -1173.9407   -3404.4133    2070.9554    431.35847    1291.8847    323.84178    81.120071 
   56300    103.88139   -108.70451  0.093994067   -108.61052   -933.40426    4.3299463    4.3299463    4.3299463   -933.40426   -1453.0039   -5912.1884    4564.9796    221.48109     -131.175   -381.58028    81.179719 
   56400    92.097589   -108.69353  0.083331834    -108.6102    854.21644    4.3285423    4.3285423    4.3285423    854.21644    214.67717   -1833.3185    4181.2906   -419.27725   -1142.9534   -617.94852    81.100773 
   56500    88.128044   -108.69009  0.079740106   -108.61035   -1726.7787    4.3293806    4.3293806    4.3293806   -1726.7787    2626.0976   -3822.1529   -3984.2809   -590.55303   -907.43201   -130.57383    81.147905 
   56600    101.14332   -108.70199  0.091516605   -108.61047    -884.8118    4.3299534    4.3299534    4.3299534    -884.8118   -3105.5499    -4324.414    4775.5286    27.347177    267.33372    691.14689    81.180115 
   56700    100.00841   -108.70121  0.090489711   -108.61072    2343.4932    4.3281584    4.3281584    4.3281584    2343.4932    4174.7828   -3494.8906    6350.5875   -220.96421   -1445.1352   -298.11356    81.079195 
   56800     117.9495   -108.71749   0.10672318   -108.61077   -2178.4117    4.3304876    4.3304876    4.3304876   -2178.4117   -3635.3566   -5537.2706    2637.3922   -216.13499   -540.43032   -669.13959    81.210167 
   56900    87.449609   -108.68952  0.079126244    -108.6104    154.01787    4.3290518    4.3290518    4.3290518    154.01787    4875.3721   -2584.4819   -1828.8366   -191.30186    148.28059   -92.682082    81.129417 
   57000    107.75534   -108.70754  0.097499298   -108.61005   -1584.0712    4.3294102    4.3294102    4.3294102   -1584.0712      272.391   -3368.4265   -1656.1781   -25.511007     534.0989    550.04197    81.149569 
   57100    66.037831   -108.67021  0.059752417   -108.61046    1321.0591    4.3304412    4.3304412    4.3304412    1321.0591    1958.1395   -5422.6714    7427.7092    306.58241    229.84591    246.77624    81.207555 
   57200    120.29517   -108.71897    0.1088456   -108.61013    2036.9418    4.3280802    4.3280802    4.3280802    2036.9418    3859.9431    -3183.737    5434.6192    170.05429   -1034.2456   -132.55568      81.0748 
   57300    133.76628   -108.73116   0.12103454   -108.61013   -1821.4682    4.3308528    4.3308528    4.3308528   -1821.4682     816.3216   -5059.7677   -1220.9584   -421.30882   -838.54706   -741.50547    81.230714 
   57400    71.640586   -108.67528  0.064821908   -108.61046    8.5685288    4.3292227    4.3292227    4.3292227    8.5685288    3058.7453   -2763.0675   -269.97213   -296.72941    567.56102    328.86876    81.139022 
   57500    103.73082   -108.70393  0.093857825   -108.61007   -528.41758    4.3289511    4.3289511    4.3289511   -528.41758   -475.70589   -2964.2146    1854.6677    184.14433   -157.50826     772.8265    81.123756 
   57600    63.618495   -108.66808  0.057563351   -108.61052    2166.9995    4.3304962    4.3304962    4.3304962    2166.9995    4745.3828   -5644.9852     7400.601   -25.630807   -1236.0164   -382.95795    81.210648 
   57700    142.95047   -108.73965   0.12934459    -108.6103   -607.55167    4.3281427    4.3281427    4.3281427   -607.55167    1098.7527   -2661.1959   -260.21178   -179.65122    569.83441    -323.4042    81.078314 
   57800    123.19363   -108.72179   0.11146819   -108.61033   -647.22477    4.3307847    4.3307847    4.3307847   -647.22477    1477.5666   -5236.5551    1817.3141   -160.60952    384.29982    187.55845    81.226883 
   57900    64.007697   -108.66865  0.057915509   -108.61074   -257.76119    4.3285529    4.3285529    4.3285529   -257.76119   -2104.0897   -1572.0208    2902.8269    77.830439    124.67471    584.68892     81.10137 
   58000    83.953471   -108.68644  0.075962865   -108.61048   -927.12871    4.3291539    4.3291539    4.3291539   -927.12871    33.273283   -3798.0933    983.43383    457.82789   -592.54291    330.43961    81.135154 
   58100    108.36708   -108.70821  0.098052809   -108.61015    26.834204    4.3304815    4.3304815    4.3304815    26.834204    1977.2533   -5023.4364    3126.6857    116.23659   -669.58705   -369.11657    81.209822 
   58200    122.05244   -108.72076   0.11043561   -108.61033     99.20601    4.3276958    4.3276958    4.3276958     99.20601    1976.9585   -2211.9406    532.60015   -177.79144    112.45252   -454.24259    81.053203 
   58300    117.15994   -108.71627   0.10600878   -108.61026   -676.30325    4.3308282    4.3308282    4.3308282   -676.30325   -2985.9867   -5568.1664    6525.2434   -305.54406     807.3681    736.57915    81.229327 
   58400    51.811563   -108.65757  0.046880191   -108.61069    1733.2939    4.3279999    4.3279999    4.3279999    1733.2939    3353.5197   -683.20334    2529.5655    572.65484   -2342.3685     412.6161    81.070289 
   58500    110.06128   -108.71013  0.099585759   -108.61054   -3663.8588    4.3299977    4.3299977    4.3299977   -3663.8588   -2405.7416   -4972.4032   -3613.4315   -29.999441   -54.449614   -66.683121    81.182608 
   58600    94.565374   -108.69608  0.085564737   -108.61051    1913.9349    4.3299561    4.3299561    4.3299561    1913.9349    7198.4691   -4077.9011    2621.2368    2.7124684     116.8412   -353.60482    81.180268 
   58700    142.95876   -108.73954   0.12935209   -108.61019    123.15252    4.3279584    4.3279584    4.3279584    123.15252   -1275.4496   -3050.9374    4695.8446   -266.41919   -401.27672    260.17011    81.067959 
   58800    65.692578   -108.66996  0.059440025   -108.61052    1894.5017     4.330904     4.330904     4.330904    1894.5017    4946.4147   -5156.9646    5894.0549    486.04007   -525.44303    642.08739    81.233596 
   58900    106.49941   -108.70633    0.0963629   -108.60997   -745.50551    4.3283856    4.3283856    4.3283856   -745.50551    447.52484   -1433.4531   -1250.5883    302.07727   -68.415364    27.541981    81.091968 
   59000    91.713724   -108.69327  0.082984504   -108.61028   -1988.9501    4.3300538    4.3300538    4.3300538   -1988.9501     3124.821   -4720.5975   -4371.0737    188.95207    94.155159   -476.33735    81.185761 
   59100     92.31581   -108.69403  0.083529285    -108.6105    1080.8569    4.3301616    4.3301616    4.3301616    1080.8569    1676.6883   -4725.0303    6290.9126   -232.48671    1154.1262   -266.85878    81.191825 
   59200     142.0389   -108.73856   0.12851978   -108.61004    1337.2878    4.3280368    4.3280368    4.3280368    1337.2878    3215.4211    -3551.005    4347.4475   -188.42341   -862.78305      449.346    81.072362 
   59300    67.122584   -108.67126  0.060733925   -108.61052    1041.8513    4.3309012    4.3309012    4.3309012    1041.8513    4031.9877   -4409.9749    3503.5409    243.36772   -1566.0904     283.9187    81.233439 
   59400    110.14917   -108.70973  0.099665287   -108.61007   -2136.2891     4.328731     4.328731     4.328731   -2136.2891    546.19313   -3213.0413   -3742.0189    185.41683    667.49244   -238.95001    81.111381 
   59500    92.268918   -108.69387  0.083486856   -108.61039   -1144.6138    4.3297298    4.3297298    4.3297298   -1144.6138   -1220.8353   -3877.6391     1664.633   -84.235317    217.97649   -635.38646    81.167538 
   59600    82.256333   -108.68549  0.074427259   -108.61106    319.32699    4.3297878    4.3297878    4.3297878    319.32699    1344.9199   -5551.8408    5164.9019   -273.51999   -773.39463    433.24807    81.170802 
   59700    147.96906   -108.74437   0.13388551   -108.61049    -56.49379    4.3284962    4.3284962    4.3284962    -56.49379    1743.6065   -3306.0075    1392.9196    995.65024   -0.5916379    477.34907    81.098183 
   59800    80.708103   -108.68363  0.073026388    -108.6106    395.50398    4.3303736    4.3303736    4.3303736    395.50398    3302.5814   -3951.3399    1835.2704   -6.5468183    801.96733   -188.60669    81.203752 
   59900    88.634745   -108.69051   0.08019858   -108.61031   -2290.3501    4.3290535    4.3290535    4.3290535   -2290.3501   -3558.7914   -3944.0454    631.78642    205.65467    398.56688   -600.97532    81.129509 
   60000    88.844528    -108.6905  0.080388396   -108.61012    55.912804    4.3292729    4.3292729    4.3292729    55.912804   -318.49267   -3144.7371    3630.9682   -614.10288   -201.29281   -106.57433    81.141849 
   60100    103.63922   -108.70422  0.093774946   -108.61045   -396.87874    4.3297327    4.3297327    4.3297327   -396.87874    2994.2525   -5517.1265    1332.2377    35.064338   -2350.0742    268.77742    81.167706 
   60200    138.31764    -108.7354    0.1251527   -108.61025    -601.8825     4.329025     4.329025     4.329025    -601.8825    1666.9843   -2734.3535   -738.27827   -194.03517    528.05367     84.55511    81.127909 
   60300    78.590327    -108.6815   0.07111018   -108.61039      2396.11    4.3294354    4.3294354    4.3294354      2396.11    5176.4005   -3324.8011    5336.7305    570.88349   -119.55218   -452.66107    81.150985 
   60400    87.359464   -108.68939  0.079044679   -108.61035   -1291.7775    4.3294351    4.3294351    4.3294351   -1291.7775   -2723.1317   -3692.8459    2540.6451    -511.3006     -306.384    -509.7765    81.150969 
   60500    74.326912   -108.67753  0.067252552   -108.61028    1393.2676    4.3289119    4.3289119    4.3289119    1393.2676    6170.0664   -3073.0469    1082.7833    181.10403   -666.60899     450.1261    81.121552 
   60600    150.96273   -108.74658   0.13659425   -108.60999   -1743.0481    4.3300965    4.3300965    4.3300965   -1743.0481    979.54634   -4781.3081   -1427.3826    585.67177    1070.4152    283.78479    81.188166 
   60700    102.06435   -108.70281  0.092349968   -108.61046     1134.656    4.3288952    4.3288952    4.3288952     1134.656    4253.8993   -2547.2953    1697.3639    143.69487    321.87665   -212.33703    81.120613 
   60800     79.59176   -108.68248  0.072016297   -108.61046     2043.742    4.3294355    4.3294355    4.3294355     2043.742    1923.8651    -3351.534    7558.8948    -495.5905    82.267237   -800.24794    81.150992 
   60900    92.214824   -108.69381  0.083437911   -108.61037   -606.17431    4.3299316    4.3299316    4.3299316   -606.17431    2681.1885    -3938.833   -560.87843   -510.83988   -1648.4534   -43.633645    81.178892 
   61000    85.379048   -108.68765  0.077252757    -108.6104   -601.40089    4.3288112    4.3288112    4.3288112   -601.40089    1415.4824   -3522.9689    303.28382    -192.6305    36.575185    173.41801     81.11589 
   61100    142.99088   -108.73944   0.12938115   -108.61006   -1814.3707    4.3306626    4.3306626    4.3306626   -1814.3707    912.31678   -4917.4192   -1438.0099   -216.07767    586.79192   -146.77204    81.220013 
   61200    103.87015   -108.70445  0.093983897   -108.61046    544.64624     4.328668     4.328668     4.328668    544.64624   -1359.0522   -3104.9604    6097.9513    495.49937   -4.5041011   -545.19784    81.107842 
   61300    53.106331   -108.65892  0.048051725   -108.61087    1543.3915    4.3295003    4.3295003    4.3295003    1543.3915    5259.6576   -3457.8985    2828.4153   -829.63452   -1047.3986   -126.53846    81.154633 
   61400     125.6176   -108.72402   0.11366144   -108.61036   -2422.5034    4.3303251    4.3303251    4.3303251   -2422.5034   -1233.6592   -4737.8798   -1295.9711    381.59249    667.47193    252.97122    81.201024 
   61500    77.302855   -108.68069  0.069945248   -108.61075    165.19293    4.3281217    4.3281217    4.3281217    165.19293    1957.8152   -3268.4684    1806.2321     30.67515    857.51653    483.99627    81.077136 
   61600    136.22805   -108.73361     0.123262   -108.61034   -2783.5862    4.3312755    4.3312755    4.3312755   -2783.5862   -4421.2295    -5969.865     2040.336    154.06183   -343.05684   -315.35449    81.254499 
   61700    92.596859   -108.69401  0.083783584   -108.61023    2126.2685      4.32794      4.32794      4.32794    2126.2685    4823.5457   -2569.6215    4124.8813   -1035.2398   -906.60226   -826.33292    81.066926 
   61800    80.389278   -108.68306  0.072737908   -108.61032   -653.98686    4.3296886    4.3296886    4.3296886   -653.98686    1712.5762   -3183.1312   -491.40554   -306.10979   -413.95724    356.72924    81.165221 
   61900    106.81547   -108.70676  0.096648879   -108.61011   -845.99164    4.3302426    4.3302426    4.3302426   -845.99164     1995.791   -5243.5609    709.79499   -352.73577    1147.4825    96.621013    81.196385 
   62000    92.187367   -108.69372  0.083413067   -108.61031    2038.5711    4.3274894    4.3274894    4.3274894    2038.5711    1790.0688   -1881.2874    6206.9318     68.30003    -662.5329    47.284447    81.041604 
   62100    121.85969   -108.72062   0.11026121   -108.61036   -2131.2823    4.3314908    4.3314908    4.3314908   -2131.2823    519.59773   -7069.9751     156.5305     4.266557   -266.05757   -350.76883     81.26662 
   62200    96.134201    -108.6971  0.086984245   -108.61012    1794.8099    4.3277529    4.3277529    4.3277529    1794.8099    5492.2402   -1076.9212    969.11065   -379.30989   -912.20684    146.23206    81.056413 
   62300    98.499719    -108.6992  0.089124616   -108.61008   -754.82675    4.3298096    4.3298096    4.3298096   -754.82675    2388.8757   -3766.0641   -887.29187    14.688403    1174.1069    259.06746    81.172028 
   62400    81.853654   -108.68445  0.074062907   -108.61039    321.80444    4.3301963    4.3301963    4.3301963    321.80444    1094.6036   -4997.6463     4868.456    345.93699    125.16364    529.85295    81.193779 
   62500    95.034342   -108.69645   0.08598907   -108.61046    2985.4805    4.3274181    4.3274181    4.3274181    2985.4805     4868.194   -1551.7325    5639.9801    196.56818   -538.37605   -488.25998    81.037602 
   62600    145.82572   -108.74244   0.13194618    -108.6105   -3825.7481    4.3317635    4.3317635    4.3317635   -3825.7481   -94.702689   -7489.4523   -3893.0893   -821.04339   -477.52642   -622.59988    81.281967 
   62700    73.356261   -108.67711  0.066374286   -108.61074    956.09709    4.3277853    4.3277853    4.3277853    956.09709    1251.7828   -310.80321    1927.3117     127.7471    2093.0538    459.74607    81.058231 
   62800    109.46323   -108.70928  0.099044633   -108.61024   -1508.1478    4.3303072    4.3303072    4.3303072   -1508.1478    342.82588   -5336.4004    469.13113   -190.11471   -750.92057     475.6149    81.200015 
   62900    63.437735     -108.668  0.057399796    -108.6106    978.69096    4.3299471    4.3299471    4.3299471    978.69096     386.1037   -3778.2645    6328.2337    327.43906   -517.45601   -56.076093    81.179761 
   63000    112.35706   -108.71202   0.10166303   -108.61036    710.14941     4.328223     4.328223     4.328223    710.14941    5221.3465   -3202.2949    111.39666    -311.1668   -819.87766   -172.39586    81.082826 
   63100    151.93386   -108.74761   0.13747295   -108.61014   -3634.6839    4.3316226    4.3316226    4.3316226   -3634.6839   -3445.1502   -5908.6761   -1550.2254    76.536571    997.08707    261.35601    81.274036 
   63200    56.636159   -108.66203  0.051245586   -108.61079    620.99231    4.3279985    4.3279985    4.3279985    620.99231    85.868057   -1814.6056    3591.7145    170.64767    366.64086    73.187793    81.070209 
   63300    103.35159   -108.70379  0.093514694   -108.61028   -1732.5951     4.330483     4.330483     4.330483   -1732.5951   -1630.6808   -5180.9896    1613.8853    570.73746    27.861628    395.41303    81.209905 
   63400    73.563248   -108.67694  0.066561573   -108.61038    1735.6082    4.3294861    4.3294861    4.3294861    1735.6082    5497.7898   -3105.3848    2814.4196    228.23612   -602.04829   -618.49162    81.153833 
   63500    135.25168   -108.73268   0.12237856    -108.6103   -949.80706    4.3286944    4.3286944    4.3286944   -949.80706    117.87899   -3809.3389    842.03873   -457.16458    1408.4525   -198.60183    81.109323 
   63600     118.3881   -108.71731   0.10712004   -108.61019    52.830249     4.330583     4.330583     4.330583    52.830249    1511.2587   -4131.8006    2779.0326    87.717223    162.03772    494.27118    81.215535 
   63700    71.989377   -108.67547  0.065137502   -108.61034    863.25679    4.3280159    4.3280159    4.3280159    863.25679    109.10268   -2603.4033     5084.071    44.784785   -1679.3234     741.4729    81.071191 
   63800    89.011389   -108.69087  0.080539375   -108.61033   -1268.6861    4.3299935    4.3299935    4.3299935   -1268.6861    3163.8987   -4219.9465   -2750.0106    133.66047   -151.96706    -273.6952     81.18237 
   63900    104.46196   -108.70464   0.09451938   -108.61012    1369.8372    4.3294128    4.3294128    4.3294128    1369.8372     4325.982   -3251.5058    3035.0355   -335.48047    47.422965   -33.297161    81.149711 
   64000    123.38491   -108.72193   0.11164126   -108.61029    1059.0796     4.328379     4.328379     4.328379    1059.0796     2854.398   -3271.4456    3594.2864    127.08319    919.65523    225.43236    81.091597 
   64100    100.05547   -108.70087  0.090532296   -108.61034    680.29928    4.3302231    4.3302231    4.3302231    680.29928    817.20816   -4108.2422    5331.9318    228.27594   -49.572368    75.733434    81.195288 
   64200    78.003064   -108.68083  0.070578811   -108.61025    774.91706    4.3284684    4.3284684    4.3284684    774.91706    4873.0312    -2843.301    295.02093    587.29194   -346.49082    157.11529    81.096619 
   64300    111.85498   -108.71169   0.10120874   -108.61048   -3917.9189    4.3299159    4.3299159    4.3299159   -3917.9189   -2581.5432   -4424.2396   -4747.9739   -29.624819     659.6849   -525.74478    81.178006 
   64400    77.726662   -108.68127  0.070328717   -108.61094    1796.0834    4.3297234    4.3297234    4.3297234    1796.0834     3445.122   -4150.9383    6094.0665   -160.52454    1619.7833   -30.435454    81.167183 
   64500    137.70384   -108.73499   0.12459733   -108.61039    346.22874    4.3286924    4.3286924    4.3286924    346.22874    329.15061   -3659.4375    4368.9732   -84.471368   -2274.5649    510.79885    81.109213 
   64600    81.415751   -108.68431  0.073666682   -108.61065   -19.352181    4.3302457    4.3302457    4.3302457   -19.352181    2162.9413   -4847.6252    2626.6274     306.7646    181.96421    626.65584     81.19656 
   64700    105.14814   -108.70522  0.095140249   -108.61008   -2326.3308    4.3295847    4.3295847    4.3295847   -2326.3308   -394.55707    -3218.163   -3366.2723    229.38425    231.64832   -521.79681    81.159378 
   64800    95.427143    -108.6966  0.086344485   -108.61026   -2480.7861    4.3294265    4.3294265    4.3294265   -2480.7861   -3193.0131   -4638.2652    388.91984   -604.11609    1271.7642   -19.337653    81.150482 
   64900    72.928014   -108.67664  0.065986799   -108.61065    805.92154    4.3303258    4.3303258    4.3303258    805.92154    1156.4593   -5075.9458    6337.2512    519.48074    -520.1485   -36.223753    81.201063 
   65000    141.74928   -108.73838   0.12825773   -108.61012    542.07425    4.3287016    4.3287016    4.3287016    542.07425    2239.4287    -3357.504    2744.2981   -101.11599    496.07497    313.77646    81.109726 
   65100    96.195508   -108.69741  0.087039718   -108.61037   -411.14483    4.3301363    4.3301363    4.3301363   -411.14483    2666.5103   -4823.1918    923.24699     422.4162   -294.21684   -300.11613    81.190404 
   65200    89.829409   -108.69156  0.081279537   -108.61028   -1793.2102    4.3300128    4.3300128    4.3300128   -1793.2102   -2951.9876   -3177.6936     750.0505   -71.053039    1524.8823   -343.21201    81.183459 
   65300    87.757882   -108.68946  0.079405176   -108.61005    30.485199    4.3285585    4.3285585    4.3285585    30.485199    721.20054   -4026.7572    3397.0123    30.451467   -1139.9015    74.375048    81.101682 
   65400    86.096573   -108.68833  0.077901989   -108.61043     641.8364    4.3305104    4.3305104    4.3305104     641.8364    2538.5794    -4281.083    3668.0128   -86.302967   -848.66131    299.58258     81.21145 
   65500    153.66223   -108.74918   0.13903681   -108.61014   -148.75905    4.3282945    4.3282945    4.3282945   -148.75905    3391.4597    -3339.527   -498.20989    710.67846    805.16993    484.70683    81.086844 
   65600    84.894745   -108.68732   0.07681455   -108.61051    2216.3094    4.3296728    4.3296728    4.3296728    2216.3094    3211.0355   -2883.3409    6321.2335   -97.617979    831.59461   -563.09315    81.164337 
   65700    80.924557   -108.68366   0.07322224   -108.61044    -928.3502    4.3296362    4.3296362    4.3296362    -928.3502   -949.20954   -3897.8005    2061.9594   -499.66951   -313.49401   -174.18485    81.162276 
   65800    86.062165   -108.68804  0.077870856   -108.61017    501.28364    4.3280415    4.3280415    4.3280415    501.28364    1688.6035   -1845.7092    1660.9566    149.81504   -297.51312    181.01503    81.072627 
   65900    113.47465   -108.71287   0.10267425   -108.61019   -410.21413    4.3308406    4.3308406    4.3308406   -410.21413    3875.3909   -4846.2928   -259.74055   -176.93258    283.01681    245.18824    81.230028 
   66000    141.44761   -108.73832   0.12798477   -108.61034    -657.7039    4.3280185    4.3280185    4.3280185    -657.7039   -1989.9301   -2941.3963    2958.2147   -7.9342769    1128.9006   -663.64226    81.071337 
   66100    56.666898     -108.662    0.0512734   -108.61072    3572.0129     4.329744     4.329744     4.329744    3572.0129    4701.1399   -2891.4122     8906.311   -340.10434    101.20783   -124.46636    81.168341 
   66200    109.81507   -108.70983  0.099362984   -108.61047   -3041.4858     4.329843     4.329843     4.329843   -3041.4858   -3059.2329   -5083.6396   -981.58504    183.10638   -1125.8776   -42.383434    81.173907 
   66300    73.049015   -108.67665  0.066096284   -108.61056   -388.00816    4.3285177    4.3285177    4.3285177   -388.00816    2099.2835   -1195.3716   -2067.9364   -411.54157    1474.5529    322.31911    81.099389 
   66400    140.91103   -108.73773   0.12749926   -108.61023    -2445.447    4.3314843    4.3314843    4.3314843    -2445.447   -2949.7715   -6655.8319    2269.2624    890.68707    315.28976    56.473527    81.266253 
   66500    97.490827   -108.69875  0.088211749   -108.61053    1318.4576    4.3277995    4.3277995    4.3277995    1318.4576   -367.87501   -2241.7882    6565.0361   -697.44197    435.58305   -273.88301    81.059028 
   66600     80.37475   -108.68313  0.072724763    -108.6104     316.2014    4.3307189    4.3307189    4.3307189     316.2014    1087.8491   -4690.5569    4551.3119   -250.27944   -1198.3691   -169.89992    81.223179 
   66700    111.74997   -108.71111   0.10111372      -108.61   -2282.8724    4.3297883    4.3297883    4.3297883   -2282.8724    531.10918   -4579.4659   -2800.2604   -620.42611    977.88471    354.05744    81.170829 
   66800    75.686244   -108.67884  0.068482504   -108.61036   -386.39401     4.328791     4.328791     4.328791   -386.39401   -514.16099   -2210.5272    1565.5062   -69.947483    502.85926    312.81115    81.114753 
   66900    123.67927    -108.7221   0.11190761    -108.6102     -1346.53     4.331264     4.331264     4.331264     -1346.53   -2992.8349   -6495.7072    5448.9521    -456.6249    986.50565   -639.88935    81.253856 
   67000    106.14774   -108.70629  0.096044702   -108.61025    1588.6063    4.3277089    4.3277089    4.3277089    1588.6063    2148.6565   -1912.1641    4529.3266   -211.70788   -1387.8183    187.03037    81.053939 
   67100    89.942672   -108.69172   0.08138202   -108.61034   -694.52357     4.330645     4.330645     4.330645   -694.52357    1281.4317   -4958.7257    1593.7233    148.56253     870.0427    156.29914    81.219021 
   67200    103.22526   -108.70354  0.093400388   -108.61014   -442.41696    4.3291278    4.3291278    4.3291278   -442.41696    1939.3902    -3751.196      484.555    25.861789    469.99944    622.27082    81.133691 
   67300    71.352607   -108.67514  0.064561338   -108.61058    2035.0963    4.3283657    4.3283657    4.3283657    2035.0963    1271.6774   -2541.0043    7374.6158    567.68589   -12.293855   -229.21702    81.090846 
   67400    131.63198   -108.72961   0.11910338    -108.6105   -2192.1391    4.3309143    4.3309143    4.3309143   -2192.1391    -1218.648   -5747.1384    389.36919   -360.68965   -1127.1209    184.51999    81.234177 
   67500    115.26278   -108.71452   0.10429218   -108.61022    1420.4814    4.3275803    4.3275803    4.3275803    1420.4814    3417.7761   -1350.9007    2194.5687   -314.53842     426.9496   -84.417958    81.046715 
   67600    83.091649   -108.68561   0.07518307   -108.61043    291.31458    4.3302975    4.3302975    4.3302975    291.31458    818.02097   -4787.0899    4843.0126   -573.51048     1182.061     350.6002    81.199471 
   67700    81.442389    -108.6841  0.073690785   -108.61041    386.99302    4.3289817    4.3289817    4.3289817    386.99302   -69.300083   -3304.8513    4535.1304    292.94559    1138.0847    191.47871    81.125476 
   67800    94.073719   -108.69541  0.085119878   -108.61029     1312.172    4.3286053    4.3286053    4.3286053     1312.172    3626.3848    -3044.692    3354.8234   -786.78598   -815.19006   -475.21934    81.104315 
   67900     142.4447   -108.73929   0.12888696    -108.6104   -3513.4761    4.3308623    4.3308623    4.3308623   -3513.4761   -3276.7136   -5048.7031   -2215.0114    511.14788    791.31564    116.45935    81.231248 
   68000    90.909926   -108.69284  0.082257212   -108.61058    1251.9691    4.3280858    4.3280858    4.3280858    1251.9691    1994.4292    -2325.117    4086.5953    -168.1626    1226.0377    752.05013    81.075118 
   68100    84.077945   -108.68643  0.076075491   -108.61036    8.8783616    4.3304235    4.3304235    4.3304235    8.8783616   -4876.1995   -4236.4445    9139.2791    478.72109   -640.66252    192.60372     81.20656 
   68200    79.101012     -108.682  0.071572258   -108.61042   -692.87892    4.3294605    4.3294605    4.3294605   -692.87892    1718.3474   -4004.1643    207.18021    237.33078     5.676465   -296.99322    81.152397 
   68300    126.57897   -108.72468   0.11453131   -108.61015   -1408.4782    4.3295304    4.3295304    4.3295304   -1408.4782   -577.01972    -3104.391   -544.02384    77.960363   -330.90441    362.01605    81.156324 
   68400    113.33532   -108.71279   0.10254818   -108.61024   -1000.3899    4.3305404    4.3305404    4.3305404   -1000.3899   -57.467792   -5554.6174    2610.9156   -412.36394    1561.0012   -513.47815    81.213138 
   68500    83.729711    -108.6862  0.075760402   -108.61044     256.3402    4.3288447    4.3288447    4.3288447     256.3402   -3082.6049   -2852.0855    6703.7109   -276.15847    641.10637    451.07073    81.117773 
   68600    96.520733   -108.69746  0.087333988   -108.61012   -747.47292    4.3302087    4.3302087    4.3302087   -747.47292   -2942.7924   -3617.1295    4317.5031    145.11283    185.77756   -146.00369    81.194476 
   68700    98.150325   -108.69895  0.088808476   -108.61014   -1026.0762    4.3297369    4.3297369    4.3297369   -1026.0762    2465.1616   -4153.3421    -1390.048   -546.17039   -721.07369   -141.74393    81.167939 
   68800    100.43008   -108.70125  0.090871246   -108.61038     701.8455    4.3289932    4.3289932    4.3289932     701.8455    418.60402   -2331.7389    4018.6714    228.41165    1589.5348    209.95477    81.126123 
   68900    111.25443    -108.7109   0.10066535   -108.61023    725.22916    4.3298067    4.3298067    4.3298067    725.22916    1714.4786   -5332.8494    5794.0583   -231.65976   -359.38505    1007.2759    81.171867 
   69000    98.696156   -108.69963  0.089302356   -108.61033   -331.95276    4.3288285    4.3288285    4.3288285   -331.95276    -1945.375   -2213.9428    3163.4595    587.69843   -437.96003   -295.77041    81.116861 
   69100    99.921524   -108.70078  0.090411095   -108.61037   -963.28032    4.3295574    4.3295574    4.3295574   -963.28032    235.94254   -3223.3865    97.603047   -144.70844   -220.52854   -153.13954    81.157846 
   69200    90.520286   -108.69237  0.081904657   -108.61046    1567.9574    4.3292046    4.3292046    4.3292046    1567.9574    3531.5521   -3372.1203    4544.4405    356.79937    1059.9344   -7.4804508    81.138009 
   69300    85.445857   -108.68793  0.077313207   -108.61062    2361.9493    4.3283573    4.3283573    4.3283573    2361.9493    2274.8885     -2341.03    7151.9892   -550.19906    893.18521   -114.02734    81.090376 
   69400    130.63141   -108.72838   0.11819805   -108.61018   -920.02282    4.3299724    4.3299724    4.3299724   -920.02282    749.91189   -4652.5573    1142.5769    208.29554     378.5998    118.82438    81.181186 
   69500    111.45085   -108.71099   0.10084307   -108.61015   -736.27407    4.3290196    4.3290196    4.3290196   -736.27407    1609.3506   -3150.6091   -667.56364   -204.41311   -520.14379   -169.75567    81.127603 
   69600    70.217784   -108.67412  0.063534526   -108.61059    -20.81284    4.3294004    4.3294004    4.3294004    -20.81284   -1807.4746   -3319.1137    5064.1498    95.411289    1559.8471    195.38765    81.149018 
   69700    85.776203   -108.68811  0.077612111    -108.6105    1170.5146    4.3296921    4.3296921    4.3296921    1170.5146    2353.2141   -4135.9967    5294.3265   -115.76827    398.62718    367.04912     81.16542 
   69800    122.00001   -108.72065   0.11038817   -108.61026   -518.18283    4.3291217    4.3291217    4.3291217   -518.18283   -1275.9152   -3490.2338    3211.6005    156.36033   -678.71701    638.78344    81.133345 
   69900    118.74601    -108.7177   0.10744389   -108.61026   -2178.0131    4.3305673    4.3305673    4.3305673   -2178.0131    979.27138     -4685.99   -2827.3205    490.69156   -116.40539    -436.4277    81.214652 
   70000    102.07082   -108.70247   0.09235582   -108.61012    -752.3122    4.3295044    4.3295044    4.3295044    -752.3122   -1194.4552   -4696.0539    3633.5726   -27.520186    612.27102   -99.653535    81.154864 
   70100    47.903395   -108.65385  0.043343998   -108.61051    1047.9984    4.3293469    4.3293469    4.3293469    1047.9984   -249.95752    -3352.679    6746.6318    481.38646    1198.7509    -438.3774    81.146006 
   70200    121.40306    -108.7201   0.10984804   -108.61026   -2738.2586    4.3306748    4.3306748    4.3306748   -2738.2586   -3630.2237   -5095.6667    511.11452   -260.29567   -264.68726    483.45945    81.220699 
   70300    124.15419   -108.72262   0.11233732   -108.61028    37.888069    4.3287559    4.3287559    4.3287559    37.888069    1905.9157   -3081.6921    1289.4406     249.8413   -9.7196123   -423.89521    81.112778 
   70400    101.25456   -108.70209  0.091617256   -108.61048   -839.73606    4.3303374    4.3303374    4.3303374   -839.73606   -401.54157   -4498.0666       2380.4   -27.257671    648.82329    185.25385    81.201718 
   70500    75.614867   -108.67877  0.068417921   -108.61036    855.94279    4.3291169    4.3291169    4.3291169    855.94279    1357.7425   -4222.4801     5432.566     189.6683    1241.4417    317.48902    81.133074 
   70600    88.570221   -108.69023  0.080140197   -108.61008    56.800168    4.3289515    4.3289515    4.3289515    56.800168    199.74751   -2048.6401    2019.2931   -319.28177   -626.37346    191.64698    81.123776 
   70700    130.85908   -108.72853   0.11840404   -108.61012   -2746.6394    4.3304866    4.3304866    4.3304866   -2746.6394   -1867.0403   -5224.7216   -1148.1562    384.59889   -114.51487    374.33977    81.210112 
   70800    90.621311    -108.6926  0.081996066    -108.6106     3292.552    4.3278114    4.3278114    4.3278114     3292.552    4745.6869    -1171.986     6303.955    215.41327     493.1383   -140.44468    81.059697 
   70900    110.33895   -108.71038  0.099837001   -108.61054    197.70265    4.3299304    4.3299304    4.3299304    197.70265    522.40662   -5213.0137     5283.715    61.195478    1185.1651   -471.97301    81.178821 
   71000    73.647751   -108.67728  0.066638033   -108.61065    797.55755    4.3289184    4.3289184    4.3289184    797.55755    3949.4366   -1811.4245    254.66057    159.96237   -354.32342    64.220071    81.121915 
   71100    119.48388   -108.71833   0.10811153   -108.61022   -853.11237     4.329009     4.329009     4.329009   -853.11237    862.73081   -2966.5114   -455.55648    -56.79276   -203.60698    349.23252    81.127011 
   71200    101.12221   -108.70192    0.0914975   -108.61042    414.45988    4.3300678    4.3300678    4.3300678    414.45988    2002.1869    -4455.192    3696.3848   -27.323797    721.79134   -539.85116    81.186551 
   71300    77.760692   -108.68093  0.070359509   -108.61057    3043.4628    4.3281352    4.3281352    4.3281352    3043.4628    2221.8847   -1934.8178    8843.3214   -84.802331    1248.8921    351.84677    81.077893 
   71400    134.45079   -108.73178    0.1216539   -108.61013   -1555.5651     4.330268     4.330268     4.330268   -1555.5651    110.91155   -5397.1007     619.4939    138.26938   -484.83013    162.43901    81.197814 
   71500    85.740131   -108.68793  0.077579473   -108.61036   -807.11762    4.3295367    4.3295367    4.3295367   -807.11762    2248.1355   -2086.1549   -2583.3335   -354.25826    426.98726    310.19177    81.156679 
   71600    91.873757   -108.69359  0.083129306   -108.61046   -218.19018    4.3292959    4.3292959    4.3292959   -218.19018    1288.5265   -4016.1257    2073.0287    228.71906   -114.77493    -89.99055    81.143139 
   71700     96.84869   -108.69798   0.08763073   -108.61035    864.30351    4.3301636    4.3301636    4.3301636    864.30351     -51.1911   -4656.8192    7300.9209     173.2902    979.86951    211.86457    81.191942 
   71800    96.005725   -108.69721  0.086867998   -108.61034     33.34434    4.3289596    4.3289596    4.3289596     33.34434    525.12905   -3344.5391    2919.4431   -126.20082    488.46618   -454.75007    81.124234 
   71900    147.43229    -108.7433   0.13339983    -108.6099   -4076.2794     4.330684     4.330684     4.330684   -4076.2794   -5027.8846   -5339.3415    -1861.612   -137.56019   -1062.1388    385.89369    81.221214 
   72000    58.070657   -108.66315   0.05254355   -108.61061    1410.8313    4.3291809    4.3291809    4.3291809    1410.8313    5601.3773   -3049.9792    1681.0957    -240.9832     577.3467    259.45768    81.136673 
   72100    88.164826   -108.69044  0.079773387   -108.61067   -720.67781    4.3294601    4.3294601    4.3294601   -720.67781   -1802.0788   -4179.8019    3819.8473   -138.90835    1783.8943   -175.72904    81.152375 
   72200    104.13667   -108.70467   0.09422505   -108.61045     463.0182    4.3300363    4.3300363    4.3300363     463.0182    2287.6091   -4664.5583    3766.0038   -310.84774   -304.95411    195.56027    81.184779 
   72300    131.60554   -108.72935   0.11907946   -108.61027   -1623.7315    4.3289838    4.3289838    4.3289838   -1623.7315   -1826.2341   -3567.8537    522.89331    217.53588   -19.171041    422.40195     81.12559 
   72400    101.95705   -108.70262  0.092252882   -108.61037   -1640.0193    4.3301175    4.3301175    4.3301175   -1640.0193   -1697.9134   -4840.8661    1618.7216   -374.13156     818.0042    430.17384    81.189344 
   72500    53.691968   -108.65901  0.048581621   -108.61043    2911.1986    4.3286271    4.3286271    4.3286271    2911.1986    5939.0903   -2965.6213    5760.1268    360.29429    389.74401   -375.88708    81.105539 
   72600    114.75795   -108.71423   0.10383541    -108.6104   -1233.1037    4.3293337    4.3293337    4.3293337   -1233.1037    406.51464   -3518.3634   -587.46225    31.007162    569.98226    283.97213    81.145263 
   72700    112.54391   -108.71228   0.10183209   -108.61044    201.26698    4.3297057    4.3297057    4.3297057    201.26698     3388.388   -3858.3028    1073.7158   -259.76111   -692.75764   -305.36433    81.166187 
   72800    122.95794   -108.72172   0.11125493   -108.61047    766.48582    4.3286026    4.3286026    4.3286026    766.48582     692.8162   -3390.1103    4996.7515   -289.75908   -418.88652    96.063039    81.104161 
   72900    70.543163   -108.67457  0.063828936   -108.61074    791.21851    4.3295307    4.3295307    4.3295307    791.21851     707.1317   -4205.3673    5871.8912   -127.94373    1930.8616    8.9193646    81.156345 
   73000    80.999793   -108.68363  0.073290315   -108.61034    689.70173    4.3290635    4.3290635    4.3290635    689.70173    4132.4934   -2822.1842    758.79599   -282.45689    510.77951    90.481774    81.130071 
   73100    135.75823   -108.73285    0.1228369   -108.61002    -1485.744    4.3293867    4.3293867    4.3293867    -1485.744    1325.2308    -3348.484   -2433.9786   -230.04141   -907.44617   -188.33887    81.148248 
   73200    90.777748   -108.69279  0.082137614   -108.61065    1024.4258    4.3297063    4.3297063    4.3297063    1024.4258    2783.2197   -3926.0859    4216.1435    350.60984    1561.7811    727.32323    81.166217 
   73300    100.36926   -108.70121   0.09081622   -108.61039    1721.6689    4.3289699    4.3289699    4.3289699    1721.6689     512.9987   -3264.1132    7916.1211   -459.12908    291.31385   -155.74489    81.124811 
   73400    96.010572   -108.69725  0.086872383   -108.61038   -1003.6938    4.3297475    4.3297475    4.3297475   -1003.6938   -1560.5071   -4608.5676    3157.9934     518.1452    114.64607   -406.59774    81.168534 
   73500    88.312296   -108.69028  0.079906821   -108.61037   -1924.8109    4.3300294    4.3300294    4.3300294   -1924.8109    1126.8896   -2622.0972   -4279.2251   -239.33179   -226.80717    187.27988    81.184392 
   73600    133.80454   -108.73097   0.12106916    -108.6099   -1564.8094    4.3295284    4.3295284    4.3295284   -1564.8094   -676.96643   -4675.0033    657.54153    1.8100745   -364.12526   -349.22855    81.156213 
   73700    55.204865   -108.66068  0.049950522   -108.61073    3472.9408    4.3293971    4.3293971    4.3293971    3472.9408    4600.9226   -3279.0885    9096.9883    -647.4317    1002.7627     32.12303    81.148829 
   73800    130.40015   -108.72853    0.1179888   -108.61054   -1858.0542    4.3297621    4.3297621    4.3297621   -1858.0542   -3482.2074   -4271.5882    2179.6329    251.97815    1661.0069    151.52308    81.169359 
   73900    99.905916   -108.70078  0.090396972   -108.61038    -678.7801    4.3295323    4.3295323    4.3295323    -678.7801    504.89294   -3768.1697    1226.9364   -617.36813   -1226.3194    246.54693    81.156434 
   74000    92.398907   -108.69422  0.083604473   -108.61062    -2259.789    4.3300268    4.3300268    4.3300268    -2259.789   -1817.7696   -3193.6992   -1767.8981    146.43316    830.79433   -71.929462    81.184244 
   74100    87.460877   -108.68962   0.07913644   -108.61048    1022.6499    4.3290854    4.3290854    4.3290854    1022.6499    3373.6043    -4624.943    4319.2883   -73.030722    1201.9741    685.65246    81.131305 
   74200    100.32871   -108.70099  0.090779528   -108.61021    1854.4297    4.3292559    4.3292559    4.3292559    1854.4297    2126.6231   -3068.2502    6504.9162   -128.21623    25.159889   -426.09488    81.140892 
   74300    129.41309   -108.72736   0.11709568   -108.61026   -2077.6203    4.3297964    4.3297964    4.3297964   -2077.6203   -222.36837   -4209.8898   -1800.6029    261.00243   -540.73059   -224.94069    81.171287 
   74400    89.543131   -108.69139  0.081020507   -108.61037    611.17161    4.3290397    4.3290397    4.3290397    611.17161    152.98708   -2852.8062     4533.334   -280.40021    478.38912   -365.95915    81.128733 
   74500    81.675611   -108.68432  0.073901809   -108.61041    288.08904    4.3293287    4.3293287    4.3293287    288.08904    1394.9774    -3762.694    3231.9837    209.11321    327.06912     245.2366    81.144983 
   74600    86.855973   -108.68907  0.078589109   -108.61048    274.09775    4.3291744    4.3291744    4.3291744    274.09775    3013.2813    -3675.619     1484.631   -599.52252    1569.4033   -257.07396    81.136307 
   74700    137.10776   -108.73407   0.12405799   -108.61001   -42.326411    4.3292524    4.3292524    4.3292524   -42.326411    1419.0529   -3708.6935    2162.6614    521.93939   -99.317118    249.02611    81.140693 
   74800    109.63867   -108.70937  0.099203372   -108.61017    184.91347     4.329425     4.329425     4.329425    184.91347    1726.9455   -3906.2574    2734.0523   -514.71149    -143.1472    394.52886      81.1504 
   74900    59.974406    -108.6649  0.054266103   -108.61063    1868.3898    4.3289096    4.3289096    4.3289096    1868.3898    585.11383   -2753.5999    7773.6554    286.57521    1053.2556    197.96654    81.121418 
   75000    107.63202   -108.70764  0.097387711   -108.61025   -813.89406    4.3295581    4.3295581    4.3295581   -813.89406    1286.0232   -4533.9377    806.23234   -375.60187      763.008    136.01657    81.157887 
   75100    106.83096   -108.70707  0.096662901   -108.61041   -1820.7709    4.3295468    4.3295468    4.3295468   -1820.7709    403.56931   -3052.3246   -2813.5575    439.55838   -923.33977   -243.36262    81.157251 
   75200    116.20111   -108.71549   0.10514121   -108.61035   -396.79259     4.329703     4.329703     4.329703   -396.79259   -909.11474   -5094.7111    4813.4481   -271.45198   -97.033354   -103.37842    81.166033 
   75300    97.659482   -108.69854  0.088364352   -108.61017    1500.9848    4.3293739    4.3293739    4.3293739    1500.9848    2138.4881   -3601.1568    5965.6232    427.56569     1168.903   -553.69379    81.147526 
   75400    62.042018    -108.6666  0.056136922   -108.61047    683.92462    4.3295342    4.3295342    4.3295342    683.92462    593.14005    -3824.631    5283.2648    100.25814    850.21603    738.86917    81.156543 
   75500    135.16278   -108.73238   0.12229812   -108.61008   -3576.8403    4.3301484    4.3301484    4.3301484   -3576.8403   -1601.0262   -4045.4712   -5084.0236    78.461881   -141.12469    -276.1692    81.191085 
   75600    94.925658   -108.69644  0.085890731   -108.61055   -417.88425    4.3295763    4.3295763    4.3295763   -417.88425    853.07237   -3741.0761     1634.351    527.69992   -229.28008    336.30527    81.158908 
   75700    98.147006   -108.69948  0.088805474   -108.61067   -565.89266    4.3298936    4.3298936    4.3298936   -565.89266    -3628.342     -4954.18     6884.844   -126.00806    827.22614    507.64817    81.176754 
   75800    87.510786   -108.68955  0.079181598   -108.61037    2227.6436    4.3291769    4.3291769    4.3291769    2227.6436    6033.3404   -3124.5565    3774.1468     227.2485    273.08273    302.63285    81.136449 
   75900    122.52924   -108.72103   0.11086703   -108.61016   -2203.8308    4.3298785    4.3298785    4.3298785   -2203.8308   -2459.5374    -4119.945   -32.009927   -334.64944    362.02928   -306.37042    81.175901 
   76000    78.880633   -108.68191  0.071372854   -108.61053    -68.06064    4.3294262    4.3294262    4.3294262    -68.06064    2440.9987    -2484.291   -160.88965    438.68224   -754.80356    279.43935    81.150464 
   76100    113.56945   -108.71299   0.10276002   -108.61023   -44.011584    4.3292464    4.3292464    4.3292464   -44.011584   -945.08606   -4290.1802    5103.2315    -315.9344    1435.3848   -429.64351    81.140357 
   76200    85.532312   -108.68793  0.077391433   -108.61054    1092.5104    4.3290476    4.3290476    4.3290476    1092.5104    264.85986   -2662.2055    5674.8768    447.13226    1271.7646    99.355185    81.129181 
   76300    116.41039    -108.7155   0.10533057   -108.61017   -407.54946    4.3293533    4.3293533    4.3293533   -407.54946    3742.1483   -3401.1801   -1563.6165    38.190252   -154.60928    465.86997    81.146366 
   76400    109.55601   -108.70924  0.099128584   -108.61011    671.41367    4.3291665    4.3291665    4.3291665    671.41367   -281.04989    -3093.248    5388.5389     412.2497   -702.16335   -185.78837    81.135864 
   76500    63.763577   -108.66818  0.057694624   -108.61049    1517.6864    4.3288914    4.3288914    4.3288914    1517.6864    3426.3245   -2577.4687    3704.2035    256.71163    1358.0667    250.00579    81.120398 
   76600     111.3442   -108.71093   0.10074657   -108.61019     -460.958    4.3294995    4.3294995    4.3294995     -460.958   -462.86766   -4175.8993     3255.893    196.60838   -310.57917    464.98141    81.154589 
   76700    124.53387   -108.72288   0.11268086    -108.6102   -849.05215     4.329317     4.329317     4.329317   -849.05215    -407.9457   -2855.4056     716.1949   -254.37265    613.60483    198.51885    81.144328 
   76800    94.153088   -108.69589  0.085191693   -108.61069    -466.0827    4.3294742    4.3294742    4.3294742    -466.0827    1069.9126   -3617.6917     1149.531   -88.039158   -473.62615   -497.98395    81.153166 
   76900    87.781692   -108.68986   0.07942672   -108.61044    1534.0309    4.3295472    4.3295472    4.3295472    1534.0309     50.47306   -3827.0251    8378.6447    30.028974    647.37288     443.9472     81.15727 
   77000    85.933124    -108.6881  0.077754096   -108.61034    502.53015    4.3291006    4.3291006    4.3291006    502.53015    3584.9009   -3359.7678    1282.4574   -299.88183    1103.2122   -245.21391    81.132159 
   77100     119.8469   -108.71863      0.10844   -108.61019   -3127.6755    4.3304512    4.3304512    4.3304512   -3127.6755   -1827.0322   -4702.2574   -2853.7369    77.982264    249.25809    305.62173    81.208118 
   77200    117.61592   -108.71651   0.10642135   -108.61009   -545.14937    4.3294193    4.3294193    4.3294193   -545.14937   -2192.1991   -3441.2462    3997.9972    150.06925   -1769.8073     54.33487    81.150078 
   77300    81.557686   -108.68435  0.073795108   -108.61055    281.15646    4.3294179    4.3294179    4.3294179    281.15646    1071.3058   -3974.8923    3747.0559    338.89542    1303.9217     216.2661    81.149997 
   77400    84.444363   -108.68691  0.076407035    -108.6105    59.988613    4.3302155    4.3302155    4.3302155    59.988613    -305.0434   -4174.3305    4659.3397    169.48859    816.12329   -159.45655     81.19486 
   77500    110.80349   -108.71035   0.10025733   -108.61009    17.969565     4.328847     4.328847     4.328847    17.969565    5596.4596   -3581.3527   -1961.1983    373.42021   -392.23029    499.37905    81.117902 
   77600     119.9949   -108.71889   0.10857391   -108.61031   -3033.5591    4.3305201    4.3305201    4.3305201   -3033.5591   -4620.9352   -4584.0541    104.31216   -203.07977    811.65164    67.131718    81.211996 
   77700    71.694009   -108.67541  0.064870246   -108.61054    1957.4421    4.3289699    4.3289699    4.3289699    1957.4421    1239.9228   -3704.1987    8336.6023   -218.20855    213.81651   -473.87267    81.124812 
   77800    122.81212   -108.72128   0.11112299   -108.61016   -1079.7988    4.3293039    4.3293039    4.3293039   -1079.7988   -1058.1631   -3148.8285    967.59523    125.22236    882.15694    39.672697    81.143588 
   77900    75.685379   -108.67907  0.068481722   -108.61059    179.09645    4.3299577    4.3299577    4.3299577    179.09645    3722.4829   -3940.9325    755.73903   -531.06713    282.20574    74.064142    81.180358 
   78000    118.64202   -108.71774   0.10734979   -108.61039    310.49187    4.3284896    4.3284896    4.3284896    310.49187    1864.5674   -2430.6342    1497.5424   -181.39749   -1131.8857   -102.04325    81.097812 
   78100    95.925289   -108.69728  0.086795217   -108.61048    694.10722    4.3297694    4.3297694    4.3297694    694.10722   -339.78716   -4667.1818    7089.2906     203.8714   -76.632429   -189.59697    81.169764 
   78200    85.110357   -108.68747  0.077009639   -108.61046    337.11296    4.3289637    4.3289637    4.3289637    337.11296    81.834433   -2424.7354    3354.2398    88.114647     1913.322    377.78075    81.124461 
   78300    133.53695   -108.73065   0.12082704   -108.60983   -1368.1024    4.3292112    4.3292112    4.3292112   -1368.1024    412.76246   -3174.4484   -1342.6212     418.9757   -646.58731   -338.78998     81.13838 
   78400    78.668602   -108.68153  0.071181004   -108.61035    668.77261    4.3298212    4.3298212    4.3298212    668.77261    2177.8985    -3349.599    3178.0184    221.41522     221.0551    456.75859    81.172679 
   78500    85.736919   -108.68824  0.077576566   -108.61067    1523.1937    4.3284058    4.3284058    4.3284058    1523.1937   -28.565935   -2055.2787    6653.4258   -23.096618    258.79069   -199.64934    81.093101 
   78600    120.06279   -108.71903   0.10863533    -108.6104   -9.9942524    4.3299873    4.3299873    4.3299873   -9.9942524    1664.3651   -5189.7143    3495.3665    -227.0974    721.78499   -394.60254    81.182023 
   78700    94.537443   -108.69613  0.085539465   -108.61059    -993.9742    4.3293607    4.3293607    4.3293607    -993.9742   -991.40175   -1703.5616   -286.95921    1.6499936   -665.77841   -82.873124    81.146786 
   78800    124.50073   -108.72282   0.11265087   -108.61017   -2527.8805    4.3297294    4.3297294    4.3297294   -2527.8805   -1164.6928   -4650.9703   -1767.9783   -781.86996    -44.27347    309.48215    81.167515 
   78900    55.465315   -108.66065  0.050186182   -108.61046    2746.7898    4.3297652    4.3297652    4.3297652    2746.7898    748.00968    -2636.886    10129.246    -165.4371   -725.56387    -146.2739    81.169532 
   79000    109.94571      -108.71  0.099481192   -108.61052   -1381.6748    4.3290652    4.3290652    4.3290652   -1381.6748   -760.32866   -3446.3015    61.605784   -250.76105    2145.5653    137.37274    81.130171 
   79100      113.694   -108.71314   0.10287272   -108.61027   -429.02054    4.3305118    4.3305118    4.3305118   -429.02054    2081.3894   -4558.6295    1190.1785    276.73924     172.6456    252.35071    81.211527 
   79200    114.69939   -108.71397   0.10378242   -108.61019   -1116.6679    4.3293362    4.3293362    4.3293362   -1116.6679   -576.88001   -3061.8677    288.74412    50.239517   -19.200663    200.93585    81.145406 
   79300    79.086928     -108.682  0.071559515   -108.61044   -785.84853    4.3295275    4.3295275    4.3295275   -785.84853   -2300.8784   -4358.7974    4302.1302    416.89985    216.51425    33.556743    81.156166 
   79400    80.749722   -108.68322  0.073064046   -108.61015    1189.8365    4.3299024    4.3299024    4.3299024    1189.8365    2495.1786   -3191.0256    4265.3564   -175.40049    387.97929   -375.07918    81.177248 
   79500    133.16759    -108.7306   0.12049283   -108.61011   -1946.6904     4.328919     4.328919     4.328919   -1946.6904   -2223.7449    -3366.809   -249.51739   -141.25472    273.23311   -201.76398     81.12195 
   79600     82.54179   -108.68536  0.074685546   -108.61067    1100.9848    4.3300383    4.3300383    4.3300383    1100.9848    4875.0059   -3740.9401    2168.8886   -189.12489   -834.73472   -282.02951    81.184893 
   79700    119.47336   -108.71832   0.10810201   -108.61022    359.69656    4.3287779    4.3287779    4.3287779    359.69656   -2867.1845   -3761.2707    7707.5448   -814.59613    60.909255    647.31605    81.114017 
   79800    76.760032   -108.68012   0.06945409   -108.61066   -170.38435    4.3291756    4.3291756    4.3291756   -170.38435    2902.6205   -3145.1462   -268.62738   -264.23293    1467.2057    1.1815021    81.136376 
   79900    98.136101   -108.69918  0.088795606   -108.61038   -880.30935    4.3299933    4.3299933    4.3299933   -880.30935   -422.78205    -3898.383     1680.237   -382.84533    743.65883     220.2307     81.18236 
   80000    129.12145   -108.72677    0.1168318   -108.60994    137.44386    4.3284501    4.3284501    4.3284501    137.44386    403.73408   -2732.2225      2740.82    514.33873   -811.01074     442.6837     81.09559 
   80100    59.574985   -108.66456  0.053904698   -108.61066    2528.6308    4.3297254    4.3297254    4.3297254    2528.6308    1797.1187   -3548.2025    9336.9762   -329.86402    221.47898    564.21698    81.167291 
   80200    136.67051   -108.73388   0.12366235   -108.61022   -1465.0243    4.3292241    4.3292241    4.3292241   -1465.0243   -1533.1043   -4321.2695     1459.301    723.67912   -91.698573    -636.6466    81.139102 
   80300    89.492437   -108.69136  0.080974637   -108.61038   -120.04845    4.3291383    4.3291383    4.3291383   -120.04845    4433.4318   -2290.6326   -2502.9446   -404.78376    533.51358    71.013613    81.134276 
   80400    89.080942   -108.69125  0.080602308   -108.61065   -1790.5021    4.3303795    4.3303795    4.3303795   -1790.5021   -2848.1135   -5423.5637    2900.1708    278.65294   -1046.5128    38.338364    81.204085 
   80500     97.63711   -108.69867  0.088344109   -108.61032    1978.1004    4.3284229    4.3284229    4.3284229    1978.1004   -305.46353    -1922.408    8162.1727   -522.91964    353.19516   -194.35805    81.094061 
   80600    107.01679    -108.7072  0.096831036   -108.61037   -403.88365    4.3301952    4.3301952    4.3301952   -403.88365   -834.09437   -4836.3602    4458.8036   -206.23703    1009.6992    846.07701    81.193716 
   80700    115.82157    -108.7152   0.10479779    -108.6104   -2115.0332      4.32973      4.32973      4.32973   -2115.0332   -119.01784    -3112.599   -3113.4827   -524.42765    1529.7959    289.88382     81.16755 
   80800    96.616129   -108.69768  0.087420304   -108.61026    2.1215534    4.3292663    4.3292663    4.3292663    2.1215534    2894.6564   -3159.9559     271.6641    100.11504   -1443.5328    -146.3229    81.141476 
   80900    70.531327    -108.6743  0.063818227   -108.61048   -456.10443    4.3303539    4.3303539    4.3303539   -456.10443   -2907.0422   -5041.4457    6580.1747      160.153    903.84552    536.71308    81.202642 
   81000    104.04288   -108.70441  0.094140185   -108.61027    93.955695    4.3288817    4.3288817    4.3288817    93.955695   -1826.9469   -1808.1979    3917.0119    -19.58442    109.48779    207.31971    81.119853 
   81100    138.04254    -108.7349   0.12490379      -108.61   -1234.7007    4.3301717    4.3301717    4.3301717   -1234.7007     561.6882   -4924.7024    658.91212    549.21552    460.25782   -826.78983    81.192397 
   81200    88.017909   -108.69003  0.079640453   -108.61039   -466.98129    4.3296547    4.3296547    4.3296547   -466.98129    88.002151   -2311.7814    822.83534   -410.97644    332.74789    314.53938    81.163316 
   81300    74.781001   -108.67798  0.067663422   -108.61032     1489.938     4.328794     4.328794     4.328794     1489.938    4095.5526   -3537.0185      3911.28     503.3079   -513.18776   -134.93619    81.114924 
   81400    105.70129   -108.70587  0.095640745   -108.61023   -821.91301    4.3302213    4.3302213    4.3302213   -821.91301   -3159.4168   -3758.8865    4452.5643   -518.35652    903.53434    324.39552    81.195183 
   81500    105.62059   -108.70609  0.095567728   -108.61053   -399.99623     4.328772     4.328772     4.328772   -399.99623    2104.9364   -2666.1875   -638.73752    234.97874    1167.8854    448.51728    81.113688 
   81600     120.3639   -108.71933   0.10890779   -108.61042    799.64461    4.3294029    4.3294029    4.3294029    799.64461    -1063.014   -3645.7123    7107.6602   -609.75775   -1216.8249    179.69384    81.149155 
   81700    82.593001   -108.68523  0.074731883    -108.6105    1376.6931    4.3292833    4.3292833    4.3292833    1376.6931     3792.311   -3046.0911    3383.8593    538.81568   -414.64982   -277.46405    81.142432 
   81800     82.43875   -108.68493  0.074592313   -108.61034   -45.457916    4.3286414    4.3286414    4.3286414   -45.457916    793.94676   -2750.5432    1820.2227   -269.29883    1097.0177     467.0405    81.106346 
   81900    123.43284   -108.72177   0.11168463   -108.61008   -907.77144    4.3302047    4.3302047    4.3302047   -907.77144    1471.0084    -3597.914   -596.40869    366.96379    38.573894   -178.04612     81.19425 
   82000    94.804528   -108.69631  0.085781129   -108.61053    1072.9011    4.3284479    4.3284479    4.3284479    1072.9011    1371.3056    -3329.202    5176.5997   -237.86015    152.72014   -333.14684    81.095469 
   82100    98.199924   -108.69937  0.088853355   -108.61052    578.86769    4.3294967    4.3294967    4.3294967    578.86769   -2315.1102   -3501.9478     7553.661    223.42315   -244.60191    -101.6228    81.154433 
   82200    101.74958   -108.70229  0.092065161   -108.61023     89.10781    4.3297516    4.3297516    4.3297516     89.10781     3027.241   -4436.3355    1676.4179    118.83898    378.46939    224.37043    81.168766 
   82300     107.8407   -108.70783  0.097576533   -108.61025   -2955.9805    4.3290624    4.3290624    4.3290624   -2955.9805   -1324.6322   -2323.9407   -5219.3685   -148.64697    649.33398    167.42316    81.130012 
   82400    75.018898   -108.67836  0.067878675   -108.61048      936.193    4.3304315    4.3304315    4.3304315      936.193    3336.3562   -4752.8097    4225.0325    306.58856    131.50915   -111.18677    81.207011 
   82500    121.17868   -108.71986   0.10964502   -108.61022    67.449839    4.3288802    4.3288802    4.3288802    67.449839   -2017.5739   -3638.7579    5858.6813   -375.89575   -1471.6084     44.75982    81.119767 
   82600    84.236263   -108.68687  0.076218741   -108.61065   -464.84542    4.3299985    4.3299985    4.3299985   -464.84542   -2130.8238   -3992.3365     4728.624    411.43414    2123.2113   -366.51892    81.182653 
   82700    135.31338   -108.73249   0.12243439   -108.61006   -3234.0384    4.3306247    4.3306247    4.3306247   -3234.0384    559.16808   -5389.3793   -4871.9039   -227.74022    645.02903    170.21975     81.21788 
   82800    72.652551   -108.67618  0.065737555   -108.61045    386.58132    4.3284745    4.3284745    4.3284745    386.58132    1064.9772   -1740.1867    1834.9534     359.0775    360.31755   -177.31011    81.096963 
   82900    77.418801   -108.68054  0.070050158   -108.61049    -295.6221    4.3309593    4.3309593    4.3309593    -295.6221    1795.5873   -5843.8459    3161.3924   -540.77398   -421.90731   -145.02041    81.236709 
   83000    122.34308   -108.72068   0.11069859   -108.60998    1217.9139    4.3284844    4.3284844    4.3284844    1217.9139   -485.63931   -1953.6577    6093.0386    654.53292    434.00521    -475.4655    81.097519 
   83100    126.24867   -108.72447   0.11423245   -108.61024   -2075.9381    4.3299335    4.3299335    4.3299335   -2075.9381    -942.2263   -4609.3962   -676.19183   -213.18367    343.40544    659.69226    81.178997 
   83200    75.581854   -108.67913   0.06838805   -108.61075    100.55503    4.3300435    4.3300435    4.3300435    100.55503    3169.4902   -3762.3265    894.50141    410.88796   -381.88884    -147.3241    81.185187 
   83300    95.290884   -108.69664  0.086221194   -108.61042    1006.1363    4.3276683    4.3276683    4.3276683    1006.1363    233.40186    -2171.057    4956.0642   -162.66527   -1086.7448   -102.40397    81.051657 
   83400    71.683134   -108.67561  0.064860406   -108.61075    778.48711    4.3306765    4.3306765    4.3306765    778.48711    4227.5917    -4141.094    2248.9637    244.10476    1186.2309    128.30004    81.220792 
   83500    158.57538   -108.75353   0.14348234   -108.61005   -1117.5419    4.3283893    4.3283893    4.3283893   -1117.5419   -1437.0625   -2059.8176    144.25433   -156.11243    1212.8361     -34.9543    81.092172 
   83600    87.968086    -108.6901  0.079595373   -108.61051     2645.344     4.329026     4.329026     4.329026     2645.344    5620.6457   -3471.9584    5787.3447     223.4665   -112.08516   -145.25389    81.127965 
   83700    79.394181   -108.68249  0.071837523   -108.61065   -785.25874    4.3300433    4.3300433    4.3300433   -785.25874   -793.86012   -3622.0082    2060.0921    102.85075   -760.68176    137.15608    81.185171 
   83800    89.470836   -108.69112  0.080955092   -108.61017    783.55111    4.3277475    4.3277475    4.3277475    783.55111     1332.162   -2423.5802    3442.0716   -344.29451    479.13213   -327.21916    81.056108 
   83900    115.81003   -108.71493   0.10478735   -108.61014   -1374.1472    4.3311077    4.3311077    4.3311077   -1374.1472    2070.7345   -3600.4189    -2592.757    578.00752    320.56013   -227.73377    81.245059 
   84000    118.53571   -108.71757   0.10725361   -108.61032   -134.59086    4.3285825    4.3285825    4.3285825   -134.59086    316.66812   -3620.9249    2900.4842   -153.54681   -327.35653    552.50699    81.103035 
   84100    75.987361   -108.67904  0.068754961   -108.61028    3311.3544    4.3291678    4.3291678    4.3291678    3311.3544    5139.2932   -2511.1354    7305.9055    246.17342   -257.78334    136.42803    81.135938 
   84200    109.00373   -108.70884  0.098628866   -108.61021   -3219.5236    4.3307826    4.3307826    4.3307826   -3219.5236   -4100.9413   -5479.7629   -77.866521   -198.67885    754.77078    77.677506    81.226765 
   84300    81.033407   -108.68357  0.073320729   -108.61025    -1042.179    4.3284809    4.3284809    4.3284809    -1042.179    784.81412   -2055.5589   -1855.7922    230.15989    1482.0146   -53.005185    81.097322 
   84400    126.81625   -108.72503   0.11474601   -108.61028   -1644.1656    4.3311896    4.3311896    4.3311896   -1644.1656    509.22156   -5183.8432   -257.87509   -377.62054   -52.272693    419.30091    81.249667 
   84500    87.754942   -108.69022  0.079402516   -108.61082    1327.1594    4.3286125    4.3286125    4.3286125    1327.1594    1808.4258   -3986.4992    6159.5518    436.04951   -404.67764   -452.63845    81.104719 
   84600    90.396883   -108.69235  0.081792999   -108.61056    983.46095    4.3296162    4.3296162    4.3296162    983.46095    2457.8279   -2863.6243    3356.1792   -364.63248   -417.35693    198.73684    81.161154 
   84700    134.29816   -108.73159   0.12151579   -108.61008   -3540.3756    4.3307169    4.3307169    4.3307169   -3540.3756   -2160.9031   -5775.7862   -2684.4375   -43.822254    1299.0697    -173.2702    81.223065 
   84800    57.288436    -108.6626  0.051835781   -108.61076    267.23034    4.3282461    4.3282461    4.3282461    267.23034    1687.8571   -1375.1178    488.95177    32.904256   -337.65074    236.68973    81.084127 
   84900    111.77954   -108.71158   0.10114048   -108.61044   -526.19084    4.3307768    4.3307768    4.3307768   -526.19084    743.98589   -6202.5774    3880.0189    10.457433   -955.00898    489.62297    81.226438 
   85000    112.15936   -108.71191   0.10148415   -108.61043    1384.5565     4.328361     4.328361     4.328361    1384.5565    2152.7465   -2777.9055    4778.8286   -405.98879    636.54572     763.3825    81.090586 
   85100    93.018118   -108.69462  0.084164748   -108.61046    268.33199    4.3294659    4.3294659    4.3294659    268.33199     4187.846   -3400.5374    17.687296    -131.8474    1014.9793   -131.68387    81.152699 
   85200    130.29929   -108.72788   0.11789754   -108.60998   -1978.0823    4.3301094    4.3301094    4.3301094   -1978.0823   -366.38648   -4698.7686   -869.09168    43.441715   -635.58508    107.06051    81.188891 
   85300    31.600674   -108.63934  0.028592954   -108.61075    3777.0103    4.3276179    4.3276179    4.3276179    3777.0103    5142.6198   -1070.7023    7259.1134   -516.11001   -71.481547    393.82604    81.048823 
   85400    139.39882   -108.73653   0.12613099    -108.6104   -3151.3485    4.3306718    4.3306718    4.3306718   -3151.3485   -4123.1126   -6193.1023    862.16943    440.89425   -578.09598   -571.15307    81.220528 
   85500    107.09303   -108.70713  0.096900026   -108.61023    2441.8997    4.3283147    4.3283147    4.3283147    2441.8997    6407.6805   -1565.7631    2483.7818   -351.54173    1136.9144    286.45314    81.087981 
   85600     117.4327   -108.71658   0.10625557   -108.61032   -1335.3966    4.3295164    4.3295164    4.3295164   -1335.3966    1758.2646   -4866.6691   -897.78523   -254.95899    628.58535    84.454688     81.15554 
   85700    58.404354   -108.66342  0.052845486   -108.61057    1647.4363    4.3298932    4.3298932    4.3298932    1647.4363    2588.2945   -3025.4298    5379.4441    2.4632591   -874.08584     229.5989    81.176731 
   85800    94.420307   -108.69557  0.085433478   -108.61014    614.40025    4.3282794    4.3282794    4.3282794    614.40025    709.33251   -2651.1973    3785.0656   -76.223256    -43.29389     331.1234       81.086 
   85900    129.59604   -108.72749   0.11726122   -108.61023   -3787.9367    4.3309207    4.3309207    4.3309207   -3787.9367   -4788.4338   -4781.5936   -1793.7828   -275.46539    1773.9384     810.3947    81.234535 
   86000    106.25324   -108.70635  0.096140168   -108.61021    838.57078    4.3292059    4.3292059    4.3292059    838.57078    5668.2395   -2957.1197   -195.40741   -16.182625   -879.14499   -674.43961    81.138082 
   86100    98.354233   -108.69928  0.088992977   -108.61029     648.4925    4.3291323    4.3291323    4.3291323     648.4925    1470.4709   -4524.9895    4999.9961    129.94976   -504.14515    98.943374     81.13394 
   86200    62.138604   -108.66696  0.056224315   -108.61073   -124.34336    4.3306259    4.3306259    4.3306259   -124.34336    748.21643   -3249.5791    2128.3326   -189.13365    535.27223   -42.176788    81.217948 
   86300    115.36757   -108.71472     0.104387   -108.61034   -650.91698    4.3286415    4.3286415    4.3286415   -650.91698   -117.62932   -3164.2608    1329.1391    229.67695    585.21305   -280.82378    81.106349 
   86400    137.06145   -108.73442   0.12401608    -108.6104   -3218.8173    4.3306425    4.3306425    4.3306425   -3218.8173   -2808.1024   -3841.6093   -3006.7402   -228.30636    1036.0891    14.577835    81.218884 
   86500    62.716096    -108.6677  0.056746841   -108.61096    2336.0914    4.3292062    4.3292062    4.3292062    2336.0914    5507.2222   -4403.3591    5904.4111   -96.905296   -788.73085    294.18022    81.138098 
   86600    119.32367   -108.71827   0.10796657    -108.6103    231.98201    4.3288194    4.3288194    4.3288194    231.98201    197.89161   -2928.8158    3426.8703    5.0562688   -1176.6087    78.707563    81.116353 
   86700    75.979402   -108.67929   0.06874776   -108.61054    -270.0029    4.3305276    4.3305276    4.3305276    -270.0029    2597.1859   -4445.2004    1038.0057    215.62346    1231.2505     250.8791    81.212414 
   86800    111.54286    -108.7113   0.10092633   -108.61037   -568.91795    4.3284937    4.3284937    4.3284937   -568.91795    922.97685   -2158.7916   -470.93907   -175.47037   -322.86339    272.46896    81.098043 
   86900     114.4855    -108.7138   0.10358889   -108.61021    408.42248    4.3296315    4.3296315    4.3296315    408.42248   -160.12402   -4112.1459    5497.5374    161.63302   -1401.4778   -629.65558    81.162014 
   87000    77.405693   -108.68065  0.070038297   -108.61062    895.46986    4.3294319    4.3294319    4.3294319    895.46986    3587.2737   -4244.4332    3343.5691    123.70804    1000.5889     9.430669     81.15079 
   87100    124.31987   -108.72251   0.11248723   -108.61003   -939.49905    4.3287002    4.3287002    4.3287002   -939.49905   -1532.1552   -2552.6996    1266.3576   -318.43877    728.71753   -446.15884    81.109647 
   87200    86.167985   -108.68815  0.077966604   -108.61019    604.50058    4.3301888    4.3301888    4.3301888    604.50058    6557.0411   -4775.4189    31.879548    146.45043    305.47131    335.44796    81.193354 
   87300    87.667081   -108.68981  0.079323017   -108.61048    574.43105    4.3284949    4.3284949    4.3284949    574.43105   -992.74315   -2429.4332    5145.4695   -450.36384   -62.556642   -556.68586    81.098109 
   87400     109.0976   -108.70898  0.098713799   -108.61026    752.75414    4.3294669    4.3294669    4.3294669    752.75414    1545.7356   -4704.1842    5416.7111    159.15069   -1019.3354    351.77609    81.152756 
   87500    113.98887   -108.71344   0.10313953    -108.6103   -1572.6243    4.3299525    4.3299525    4.3299525   -1572.6243   -546.19456   -3840.1499   -331.52842   -194.78939    228.86409    -352.5027    81.180063 
   87600    105.76522   -108.70601  0.095698597   -108.61031   -1870.4968    4.3289122    4.3289122    4.3289122   -1870.4968   -527.52889   -3320.8604    -1763.101    741.77558    1263.1609    39.076837    81.121566 
   87700    66.036083    -108.6703  0.059750836   -108.61055    2380.9592    4.3301361    4.3301361    4.3301361    2380.9592    5271.4753   -4375.4906     6246.893   -136.01076   -1510.4944   -229.63939    81.190392 
   87800    100.63524   -108.70156  0.091056885    -108.6105    59.209033    4.3287306    4.3287306    4.3287306    59.209033   -1402.1061   -3264.7853    4844.5186    284.07557    337.01136   -219.02646    81.111358 
   87900    120.04429   -108.71893    0.1086186   -108.61032   -1686.8186     4.330149     4.330149     4.330149   -1686.8186   -553.38183   -4882.3571    375.28324   -80.049664     1333.186   -412.27367    81.191117 
   88000    122.60461   -108.72104   0.11093523   -108.61011   -1717.1369     4.330087     4.330087     4.330087   -1717.1369   -129.94184   -3593.3292   -1428.1398    19.557346    244.07927   -151.23502    81.187631 
   88100    78.195209   -108.68127  0.070752669   -108.61051   -641.99171    4.3288738    4.3288738    4.3288738   -641.99171   -202.51631     -3965.19    2241.7312   -336.98159    -855.8234    537.49953     81.11941 
   88200    57.726503   -108.66292  0.052232153   -108.61069    2295.0308    4.3302331    4.3302331    4.3302331    2295.0308    2780.8176   -3169.1488    7273.4235     71.97053   -497.69464   -592.27097    81.195846 
   88300    146.16379   -108.74255   0.13225207    -108.6103   -1449.2071    4.3290613    4.3290613    4.3290613   -1449.2071   -779.25258    -4409.174    840.80538    96.971383   -346.61186    487.90387    81.129951 
   88400     100.9704   -108.70205  0.091360142   -108.61069   -742.47505    4.3300087    4.3300087    4.3300087   -742.47505    970.03275   -3494.1097    296.65183    91.559433    895.84702   -94.345519    81.183228 
   88500    109.92994   -108.70971  0.099466915   -108.61025   -567.61898     4.329712     4.329712     4.329712   -567.61898    228.01884   -4503.4718     2572.596    946.16852   -646.80105    252.63854    81.166539 
   88600    61.941952   -108.66643   0.05604638   -108.61038    1710.9925    4.3284444    4.3284444    4.3284444    1710.9925    1118.8051   -2156.2089    6170.3813   -54.798684   -663.52614   -326.41599    81.095271 
   88700    98.733724   -108.69963  0.089336349    -108.6103   -1245.1596    4.3303895    4.3303895    4.3303895   -1245.1596   -1088.0295   -3424.6537    777.20445    517.53673     851.8745    450.94665    81.204649 
   88800    135.99846   -108.73304   0.12305426   -108.60998    433.61161    4.3287952    4.3287952    4.3287952    433.61161     1927.932   -3622.1428    2995.0456   -450.29276    571.80591   -769.98635     81.11499 
   88900    91.482701   -108.69326   0.08277547   -108.61048    1538.9375    4.3291469    4.3291469    4.3291469    1538.9375    2686.5165   -2831.7722    4762.0682     459.2956   -1086.0407    522.69293    81.134761 
   89000     88.94454   -108.69094  0.080478889   -108.61046   -301.40213    4.3296179    4.3296179    4.3296179   -301.40213   -514.81763   -5118.6273    4729.2386   -792.25103   -479.24346    126.62905    81.161249 
   89100    95.324565   -108.69625  0.086251669   -108.60999    37.658219    4.3285299    4.3285299    4.3285299    37.658219    1354.5677   -654.30581   -587.28722    451.43617    263.79918    12.298394    81.100079 
   89200    107.03089   -108.70708  0.096843799   -108.61024   -1944.6824    4.3302986    4.3302986    4.3302986   -1944.6824   -3959.2706   -4877.9013    3003.1248   -216.39888    805.01969    52.703904    81.199531 
   89300     100.5843   -108.70144  0.091010786   -108.61043    1991.8614    4.3288042    4.3288042    4.3288042    1991.8614     4492.594   -2495.4549    3978.4453    407.73198   -235.63185    388.92795    81.115497 
   89400    100.04222    -108.7009  0.090520303   -108.61038    2026.5803    4.3290933    4.3290933    4.3290933    2026.5803    1285.9325   -4400.5777    9194.3862    487.99791   -753.19709    216.75888    81.131747 
   89500    104.34127   -108.70496   0.09441017   -108.61055   -2825.8853    4.3301778    4.3301778    4.3301778   -2825.8853    79.059647   -4744.0613   -3812.6541    412.74838    197.78853   -69.090967    81.192737 
   89600    93.013528   -108.69454  0.084160595   -108.61038   -1049.2205    4.3291859    4.3291859    4.3291859   -1049.2205   -1767.5469   -1858.6792    478.56457   0.33774293    608.60442    382.30335    81.136955 
   89700    106.37536   -108.70652   0.09625066   -108.61027   -999.28294    4.3301489    4.3301489    4.3301489   -999.28294   -2824.1034   -5551.3028    5377.5575   -349.78395   -278.67951   -635.04308    81.191112 
   89800     64.70958   -108.66925  0.058550588    -108.6107    2906.2093    4.3290348    4.3290348    4.3290348    2906.2093      4041.89   -2414.3514    7091.0894    219.72599   -1181.1357    833.92839     81.12846 
   89900    159.49946   -108.75434   0.14431846   -108.61002   -2041.8597    4.3298461    4.3298461    4.3298461   -2041.8597   -598.32617   -5599.3804    72.127522   -880.19577    365.23722    169.09644     81.17408 
   90000    76.544222    -108.6799  0.069258821   -108.61064   -436.78045    4.3298587    4.3298587    4.3298587   -436.78045    1694.1031   -3478.4394    473.99492    369.63653    869.13624    738.95537     81.17479 
   90100    93.362871    -108.6951  0.084476688   -108.61062   -2262.2581    4.3296727    4.3296727    4.3296727   -2262.2581   -3217.8146   -4034.2872    465.32739   -570.46828   -406.96734   -341.12485    81.164331 
   90200    79.329841   -108.68218  0.071779307    -108.6104    1911.4165    4.3294116    4.3294116    4.3294116    1911.4165   -7.8538978   -4080.7165    9822.8199    564.05074   -1066.3866     1049.914    81.149644 
   90300    119.79085   -108.71872   0.10838928   -108.61033   -754.14714     4.329578     4.329578     4.329578   -754.14714    2628.1118   -3537.1159   -1353.4373   -48.568668    237.33272   -259.12798    81.159001 
   90400    128.90008   -108.72676    0.1166315   -108.61012   -893.63762    4.3295701    4.3295701    4.3295701   -893.63762   -1664.0554   -4440.2181    3423.3606    961.36729    401.18258    24.769761    81.158557 
   90500    80.121035   -108.68267  0.072495196   -108.61018     1152.063     4.329311     4.329311     4.329311     1152.063    4035.8137   -2665.9549    2086.3302   -615.06555    110.49851   -251.36234    81.143987 
   90600    72.499803   -108.67601  0.065599345   -108.61041   -767.87222    4.3293426    4.3293426    4.3293426   -767.87222   -1874.1938   -4496.9003    4067.4774    71.271091    -579.2347   -154.16992    81.145763 
   90700    104.98075    -108.7052  0.094988787   -108.61022     66.60423     4.329319     4.329319     4.329319     66.60423    454.28458   -2168.6331    1914.1613   -124.43736   -144.57183    399.44366    81.144439 
   90800    134.85805   -108.73225    0.1220224   -108.61023   -189.41566    4.3291946    4.3291946    4.3291946   -189.41566    1807.0933   -4668.4839    2293.1436   -473.46594    1087.2191    248.90412    81.137446 
   90900    99.460618   -108.70047  0.089994057   -108.61048     291.9817    4.3293133    4.3293133    4.3293133     291.9817    -2195.715   -2205.8756    5277.5357   -152.45048    169.48479    175.16634    81.144121 
   91000    62.557449   -108.66694  0.056603294   -108.61034    2674.5394    4.3289036    4.3289036    4.3289036    2674.5394    7023.9518   -3490.9651    4490.6315   -406.81322   -1685.4447   -542.93771    81.121083 
   91100    119.15741   -108.71805   0.10781613   -108.61023   -2745.0051    4.3296711    4.3296711    4.3296711   -2745.0051   -1625.0291   -3482.6113   -3127.3748    308.97426     324.1743    706.18225     81.16424 
   91200     82.32664   -108.68521  0.074490874   -108.61072    479.86437    4.3293051    4.3293051    4.3293051    479.86437    794.33066   -2917.3262    3562.5886   -28.170127    701.43949   -584.45269     81.14366 
   91300    147.76179   -108.74405   0.13369797   -108.61035   -778.26202    4.3295159    4.3295159    4.3295159   -778.26202    -1259.624   -5010.9866    3935.8245    856.54322   -28.851704   -165.26282    81.155512 
   91400    70.755286   -108.67475  0.064020869   -108.61073    1734.6623    4.3294777    4.3294777    4.3294777    1734.6623    1271.8474   -2576.9584    6509.0978   -738.39926   -416.34918    -746.0741    81.153363 
   91500    86.217215   -108.68829  0.078011148   -108.61028   -683.82922    4.3295398    4.3295398    4.3295398   -683.82922     4256.741   -3855.5632   -2452.6655    232.18326   -466.05664    473.74446    81.156854 
   91600    121.65897   -108.72007   0.11007959   -108.60999   -2017.1224    4.3300811    4.3300811    4.3300811   -2017.1224   -439.17808   -3500.6754   -2111.5138   -416.87238    718.35941   -186.24801    81.187301 
   91700     76.49279   -108.67981  0.069212284    -108.6106    553.14721    4.3294418    4.3294418    4.3294418    553.14721     -637.744   -4407.6821    6704.8677    19.698428    458.51345    464.02143    81.151347 
   91800    129.90356   -108.72791   0.11753947   -108.61037   -1022.2679    4.3299161    4.3299161    4.3299161   -1022.2679   -955.70243   -4973.6085    2862.5071   -763.94759   -1217.3466   -465.55954     81.17802 
   91900    87.931588   -108.69002  0.079562349   -108.61046    956.68897      4.32959      4.32959      4.32959    956.68897    3134.3989   -3557.9435    3293.6116   -9.4381547   -365.76452   -252.65466    81.159676 
   92000    96.403235   -108.69769  0.087227673   -108.61047   -2262.9714    4.3296288    4.3296288    4.3296288   -2262.9714    622.75751   -3493.5283   -3918.1433   -294.11904    1469.3115  0.074194171    81.161859 
   92100    91.568705   -108.69314  0.082853289   -108.61029    317.37798     4.329734     4.329734     4.329734    317.37798    407.32473   -3554.8532    4099.6624    96.522615    40.072879   -211.29002    81.167776 
   92200    101.12579   -108.70184  0.091500739   -108.61034    680.60058    4.3289935    4.3289935    4.3289935    680.60058    1442.5461   -4418.6197    5017.8753     521.0285    -386.6051    -301.2841    81.126139 
   92300    116.58589   -108.71594   0.10548936   -108.61045   -1085.2284    4.3296477    4.3296477    4.3296477   -1085.2284    232.80852    -4410.526    922.03224   -480.59967   -50.768708   -856.86854     81.16292 
   92400    106.87947   -108.70689  0.096706791   -108.61018    162.04476    4.3293012    4.3293012    4.3293012    162.04476    2516.4912    -3477.469    1447.1121   -54.361427    413.11041    730.90062    81.143436 
   92500     77.30094   -108.68034  0.069943515    -108.6104    159.20755     4.328883     4.328883     4.328883    159.20755    -588.0961   -2708.6027    3774.3214   -188.50043    766.68304     -337.047    81.119927 
   92600    93.494956   -108.69499  0.084596201   -108.61039   -194.31532    4.3296286    4.3296286    4.3296286   -194.31532    2722.7266   -3851.9362    546.26362    144.65891   -874.56481    359.89706    81.161847 
   92700    102.02574   -108.70251  0.092315029    -108.6102     2207.433    4.3286409    4.3286409    4.3286409     2207.433    4627.7851   -3356.0888    5350.6027    -893.8258   -894.42693   -728.03972    81.106318 
   92800    145.67585   -108.74203   0.13181057   -108.61022   -2981.7437    4.3298948    4.3298948    4.3298948   -2981.7437   -622.81856   -4666.5249   -3655.8876    5.6054767    1413.2243     128.6366    81.176819 
   92900    54.829862   -108.66036  0.049611212   -108.61075    2333.9054    4.3291145    4.3291145    4.3291145    2333.9054    1025.8453   -2890.2054    8866.0762   -341.10875    342.27469   -96.717558     81.13294 
   93000    115.74881   -108.71505   0.10473195   -108.61031   -1659.2713    4.3292651    4.3292651    4.3292651   -1659.2713   -1549.1257   -3259.5847   -169.10352    411.73498    -824.0914    586.65772    81.141411 
   93100    66.993712   -108.67132  0.060617319    -108.6107    654.18081    4.3299176    4.3299176    4.3299176    654.18081    6011.0456   -4603.5812    555.07806    215.37017   -215.78989   -772.99646    81.178103 
   93200    138.70486   -108.73576   0.12550308   -108.61026   -883.97764    4.3293699    4.3293699    4.3293699   -883.97764      647.879   -2806.8186   -492.99336   -144.16323    431.21393   -76.854935    81.147302 
   93300      111.259   -108.71095   0.10066948   -108.61028    -124.1104    4.3299005    4.3299005    4.3299005    -124.1104    786.50347   -5545.0004    4386.1658   -100.23345    465.55643    847.40134    81.177141 
   93400    67.127073   -108.67123  0.060737986   -108.61049   -209.26123    4.3297043    4.3297043    4.3297043   -209.26123   -1795.4561    -2119.685    3287.3574    319.49221     -397.737    28.532203    81.166104 
   93500    105.44285   -108.70548  0.095406909   -108.61007   -1358.1007    4.3295913    4.3295913    4.3295913   -1358.1007    748.31404    -4843.385    20.768885     261.0809   -767.70184     217.4903    81.159752 
   93600    95.602616   -108.69674  0.086503256   -108.61023   -628.79407    4.3301193    4.3301193    4.3301193   -628.79407    4772.2103   -3907.1337   -2751.4589   -606.82365    987.29301   -245.64087    81.189449 
   93700     113.9958   -108.71353   0.10314579   -108.61039   -273.06078    4.3293522    4.3293522    4.3293522   -273.06078   -1941.2582   -3837.9772    4960.0531    222.02021    1103.7147    441.38685    81.146306 
   93800    115.62155   -108.71484    0.1046168   -108.61022    341.45482    4.3296581    4.3296581    4.3296581    341.45482    2594.4013    -4205.468    2635.4312   -140.51758   -969.60402    -72.74413    81.163508 
   93900    65.594755   -108.66978  0.059351513   -108.61043    225.20978     4.329399     4.329399     4.329399    225.20978    112.79515   -2479.5224    3042.3566    569.92145   -45.841782    689.04039    81.148939 
   94000    115.90038   -108.71504    0.1048691   -108.61017   -2560.1016    4.3294562    4.3294562    4.3294562   -2560.1016    -724.3428   -4391.3659   -2564.5961    25.976585     679.4883   -853.87836    81.152155 
   94100    84.358417   -108.68688  0.076329268   -108.61055    1855.7732    4.3293472    4.3293472    4.3293472    1855.7732      4101.26   -3424.4397    4890.4993    126.90789    813.11797    403.58842    81.146024 
   94200    125.42484   -108.72397   0.11348703   -108.61049    -772.2595    4.3291807    4.3291807    4.3291807    -772.2595   -2142.6916     -4451.31    4277.2232   -67.966748   -140.30171    447.57607    81.136664 
   94300     96.24937    -108.6975  0.087088453   -108.61041    1573.4285    4.3290488    4.3290488    4.3290488    1573.4285     6823.303   -2144.7965    41.778994     545.0128    -822.8665    615.05099    81.129248 
   94400    90.628828   -108.69223  0.082002868   -108.61022    157.47518    4.3293164    4.3293164    4.3293164    157.47518    487.74194   -3452.7057    3437.3893    476.41678    571.84347   -359.35135     81.14429 
   94500    94.054006   -108.69539  0.085102041   -108.61029   -1362.3227    4.3292349    4.3292349    4.3292349   -1362.3227   -1975.2055   -3282.2121    1170.4494   -343.21989    1062.6725   -17.400627    81.139709 
   94600    89.931436   -108.69173  0.081371854   -108.61036     1826.176    4.3292735    4.3292735    4.3292735     1826.176    3257.1562   -4293.5694    6514.9412    252.96685   -989.98574    318.19962    81.141882 
   94700    144.88883   -108.74144   0.13109846   -108.61034   -1455.9843    4.3293785    4.3293785    4.3293785   -1455.9843    627.77521   -4716.4568   -279.27129     19.54065   -443.08427    184.62451    81.147786 
   94800    70.640035   -108.67462  0.063916588    -108.6107     1618.723    4.3292506    4.3292506    4.3292506     1618.723    6567.3022   -2014.3124    303.17912    718.38139    761.78723    114.28162    81.140594 
   94900    109.93732   -108.70972    0.0994736   -108.61025   -1191.9015    4.3299333    4.3299333    4.3299333   -1191.9015   -2941.2631   -4510.2021    3875.7608   -365.61087    862.55284    -531.4707    81.178988 
   95000    68.660877   -108.67261  0.062125804   -108.61049    318.85039    4.3293364    4.3293364    4.3293364    318.85039   -706.90662   -3311.5129    4974.9707    152.16329   -214.16475    629.46279    81.145419 
   95100    122.55385    -108.7212    0.1108893   -108.61031   -2005.6729    4.3301018    4.3301018    4.3301018   -2005.6729    612.56391   -5123.2143   -1506.3683   -328.92273   -410.31416    356.15932    81.188461 
   95200    122.13689   -108.72065   0.11051202   -108.61014   -9.2451294    4.3296202    4.3296202    4.3296202   -9.2451294    2893.5262   -4823.9353    1902.6738    795.54221    252.05433    970.54673    81.161376 
   95300    83.925557   -108.68629  0.075937608   -108.61035   -288.00063     4.329582     4.329582     4.329582   -288.00063    1891.9755    -2384.454   -371.52341    266.78837    1218.0126   -871.85773     81.15923 
   95400    81.015083   -108.68351  0.073304149    -108.6102   -318.34131    4.3300861    4.3300861    4.3300861   -318.34131    -2776.917   -4628.0206    6449.9137   -19.631778   -295.46069    218.03532    81.187577 
   95500    110.44025   -108.70992  0.099928658   -108.60999   -1117.4706    4.3293456    4.3293456    4.3293456   -1117.4706    690.62467   -3007.5826   -1035.4539   -8.7764239   -671.81193    27.884366    81.145937 
   95600    99.308757    -108.7003   0.08985665   -108.61044   -805.63189    4.3298501    4.3298501    4.3298501   -805.63189    528.35458   -5018.9808    2073.7306    201.44686    1233.8811    172.18691    81.174306 
   95700    127.35564   -108.72535   0.11523406   -108.61012   -575.42404    4.3294759    4.3294759    4.3294759   -575.42404    417.44905   -3616.9637    1473.2425    444.55797    1024.9213   -499.26408    81.153262 
   95800    71.211304   -108.67486  0.064433484   -108.61043     1672.053     4.328727     4.328727     4.328727     1672.053    1771.6052   -2681.1405    5925.6944   -655.31559    336.91948   -218.62086    81.111158 
   95900    101.28849   -108.70212  0.091647958   -108.61047   -1977.0278    4.3302736    4.3302736    4.3302736   -1977.0278   -1632.9393   -3569.3142   -728.82976    71.863114   -660.12239    273.66126    81.198129 
   96000    94.365793   -108.69585  0.085384153   -108.61047    1694.8377     4.328279     4.328279     4.328279    1694.8377    4183.1502   -2853.7281     3755.091   -508.87005    272.78275    470.66408    81.085974 
   96100    116.48302   -108.71586   0.10539629   -108.61046   -484.64482    4.3296603    4.3296603    4.3296603   -484.64482   -1455.1246   -3914.9167    3916.1068    870.69724    878.42236    119.62934    81.163632 
   96200    90.313707   -108.69221   0.08171774   -108.61049    1064.4256    4.3292029    4.3292029    4.3292029    1064.4256    524.39245   -3153.5104    5822.3947   -78.748647   -153.20856   -1040.9404    81.137913 
   96300    120.69919   -108.71921   0.10921116      -108.61   -764.40874    4.3287961    4.3287961    4.3287961   -764.40874    1413.1082   -2450.7111   -1255.6233    288.40855   -769.35655    -29.26918    81.115039 
   96400    70.094163   -108.67394  0.063422672   -108.61051    383.67498    4.3302048    4.3302048    4.3302048    383.67498    2440.3764   -3951.3652    2662.0138   -556.59086    891.36747    187.27402    81.194255 
   96500    100.67804   -108.70153  0.091095611   -108.61044    1066.9497    4.3283749    4.3283749    4.3283749    1066.9497    1824.5637   -3241.2983    4617.5838     561.0074    1129.6849    97.424258    81.091364 
   96600    114.58361   -108.71394   0.10367766   -108.61027    475.87927    4.3299816    4.3299816    4.3299816    475.87927   -1828.5812   -4044.6586    7300.8776    -135.2562    369.17233   -895.82532    81.181701 
   96700    110.70823   -108.71045   0.10017113   -108.61028   -1760.3461    4.3299709    4.3299709    4.3299709   -1760.3461     83.35267   -3773.7222   -1590.6688   -491.70928   -734.59319    437.36862    81.181103 
   96800    97.439663    -108.6983  0.088165454   -108.61014    -455.6852    4.3289214    4.3289214    4.3289214    -455.6852   -93.316744   -2154.0714     880.3325   -439.22122    440.99783    193.29016    81.122087 
   96900    72.082769   -108.67545  0.065222004   -108.61023    589.18604    4.3306027    4.3306027    4.3306027    589.18604    4157.4044   -5694.6118    3304.7655   -189.63797    920.91722    455.20529     81.21664 
   97000    96.973875   -108.69806     0.087744   -108.61031     186.7136    4.3287063    4.3287063    4.3287063     186.7136   -2479.8362   -3256.4164    6296.3934    480.02368    573.51163   -419.57261    81.109994 
   97100    133.76862    -108.7311   0.12103666   -108.61007   -1000.1841    4.3302867    4.3302867    4.3302867   -1000.1841    106.91147   -4302.4771    1195.0135   -54.465673   -437.91087   -501.86507    81.198866 
   97200    110.44651   -108.71021  0.099934323   -108.61027   -1857.8615    4.3300298    4.3300298    4.3300298   -1857.8615   -1368.1691   -3697.1805   -508.23481    209.24533    642.06836   -94.392766    81.184411 
   97300    61.931349   -108.66655  0.056036786   -108.61051     344.2935    4.3285875    4.3285875    4.3285875     344.2935    -624.2972   -1808.0968    3465.2745   -839.10508    1205.7175    673.39733    81.103312 
   97400    88.783115   -108.69045  0.080332828   -108.61012    3.1803913    4.3306307    4.3306307    4.3306307    3.1803913    2696.9674   -5894.1566    3206.7304    512.88771    504.73433   -24.105521    81.218218 
   97500     126.6285   -108.72472   0.11457613   -108.61015   -992.37955    4.3284967    4.3284967    4.3284967   -992.37955   -2006.5412   -3154.8451    2184.2476   -405.99958   -265.43224   -898.35953     81.09821 
   97600    111.16865   -108.71118   0.10058773   -108.61059    153.60258    4.3299298    4.3299298    4.3299298    153.60258    1618.8981   -3752.1656    2594.0753   -270.54689   -448.39122    561.42996    81.178791 
   97700    98.867669   -108.70003  0.089457545   -108.61057    213.96538    4.3293122    4.3293122    4.3293122    213.96538    168.46023   -3553.5075    4026.9434   -855.30091    1936.6351    335.86277    81.144056 
   97800    69.240977   -108.67341  0.062650691   -108.61076   -197.91315    4.3284011    4.3284011    4.3284011   -197.91315    -2188.852   -1619.3908    3214.5033    240.36844    241.01821    282.12605    81.092835 
   97900     99.50042   -108.70037  0.090030071   -108.61034   -653.96018    4.3305996    4.3305996    4.3305996   -653.96018     3483.826   -5234.5107   -211.19581   -23.958215   -507.31078   -481.12987     81.21647 
   98000    141.78523   -108.73841   0.12829026   -108.61012   -119.36169    4.3282154    4.3282154    4.3282154   -119.36169   -380.88844   -3316.7871    3339.5904     259.7974    166.44665    36.889113    81.082402 
   98100    69.677815   -108.67378  0.063045951   -108.61074    2899.7961    4.3296121    4.3296121    4.3296121    2899.7961    5250.8928   -3490.9939    6939.4894   -243.34902    864.57221    192.86985    81.160922 
   98200    112.93946   -108.71241      0.10219   -108.61022    -571.7282    4.3294244    4.3294244    4.3294244    -571.7282   -1564.2083     -3329.64    3178.6637   -703.46891   -141.21003     1022.406    81.150368 
   98300    85.301713    -108.6874  0.077182783   -108.61022   -754.06613    4.3287494    4.3287494    4.3287494   -754.06613   -563.25967     -2173.34    474.40126    228.11031    424.40782   -623.40759    81.112413 
   98400    101.05032   -108.70183  0.091432457    -108.6104   -1858.4305    4.3309412    4.3309412    4.3309412   -1858.4305    1911.1299   -4986.5895   -2499.8319   -151.96098   -706.65784   -252.44565    81.235688 
   98500    111.81126   -108.71133   0.10116918   -108.61016    2379.7646    4.3283229    4.3283229    4.3283229    2379.7646    1865.1879   -3871.2575    9145.3636   -214.87268    1723.6152    464.74974    81.088445 
   98600    86.967232   -108.68907  0.078689779   -108.61038    1837.5516    4.3298944    4.3298944    4.3298944    1837.5516    5959.9076   -3292.1354    2844.8825   -610.59279    1229.2165     658.4829    81.176797 
   98700    122.96503    -108.7213   0.11126134   -108.61004   -2995.8642    4.3303137    4.3303137    4.3303137   -2995.8642   -4880.4738   -4017.9497   -89.168988    507.34637   -455.48557    177.91559    81.200383 
   98800    83.926122   -108.68607  0.075938119   -108.61013   -457.37975    4.3287964    4.3287964    4.3287964   -457.37975    2263.8225   -2237.7403   -1398.2215   -180.53854   -565.56583   -338.59628    81.115055 
   98900    88.907067   -108.69098  0.080444982   -108.61054   -1698.5354    4.3308876    4.3308876    4.3308876   -1698.5354    -1814.082   -5270.4253    1988.9011    383.64253     1278.998     3.993043     81.23267 
   99000    104.44883   -108.70505  0.094507501   -108.61055    1741.5153    4.3286563    4.3286563    4.3286563    1741.5153    3426.7678   -3391.0929    5188.8712   -568.37854   -267.14659    483.14646    81.107184 
   99100    115.40487   -108.71472   0.10442075    -108.6103    587.17524    4.3296104    4.3296104    4.3296104    587.17524     2336.452    -2659.207    2084.2808   -396.94942    354.80583    381.43752    81.160827 
   99200    117.71941   -108.71677   0.10651499   -108.61026   -3675.0852    4.3304361    4.3304361    4.3304361   -3675.0852   -4061.3616   -4000.2333   -2963.6607    70.276506    -68.21444    -591.6312    81.207269 
   99300    48.436813   -108.65443  0.043826646   -108.61061     2068.019    4.3280628    4.3280628    4.3280628     2068.019     2087.682   -1951.3542     6067.729    494.73016    528.84482   -185.96126    81.073824 
   99400    111.75626   -108.71156   0.10111941   -108.61044   -1894.5848    4.3303682    4.3303682    4.3303682   -1894.5848   -530.31468   -5164.6541     11.21444   -291.27149    1727.2354    330.88422     81.20345 
   99500    110.31435   -108.71039  0.099814738   -108.61058    686.35014    4.3288247    4.3288247    4.3288247    686.35014    959.62296   -2287.1461    3386.5736   -101.85409   -895.33541     923.3631    81.116646 
   99600    126.14812   -108.72457   0.11414147   -108.61043    1010.6493    4.3289152    4.3289152    4.3289152    1010.6493    4319.9663   -2045.5631    757.54472    629.96316   -958.52797   -323.55462    81.121735 
   99700    86.779472   -108.68909   0.07851989   -108.61057   -442.14979    4.3299901    4.3299901    4.3299901   -442.14979   -1827.0099   -4104.4318    4604.9923   -11.722078    930.29783   -646.52993    81.182179 
   99800      49.6378   -108.65546  0.044913325   -108.61054    1797.9462    4.3282509    4.3282509    4.3282509    1797.9462    5436.2753   -2114.7495    2072.3129    342.61763    393.68592   -86.170501    81.084394 
   99900      143.859    -108.7401   0.13016665   -108.60994   -2631.5279    4.3302053    4.3302053    4.3302053   -2631.5279   -1926.7297   -5484.5664   -483.28776   -452.52093   -655.76029    586.04508    81.194283 
  100000    105.72397     -108.706  0.095661274   -108.61034    846.71674    4.3293737    4.3293737    4.3293737    846.71674    3978.0651   -2013.3024    575.38751   -189.59367    896.24073   -326.16958    81.147515 
Loop time of 21.7141 on 1 procs for 100000 steps with 8 atoms

Pair  time (%) = 6.73309 (31.0079)
Kspce time (%) = 5.27865 (24.3098)
Neigh time (%) = 0 (0)
Comm  time (%) = 1.06793 (4.91814)
Outpt time (%) = 0.0235858 (0.10862)
Other time (%) = 8.61087 (39.6556)

Nlocal:    8 ave 8 max 8 min
Histogram: 1 0 0 0 0 0 0 0 0 0
Nghost:    2189 ave 2189 max 2189 min
Histogram: 1 0 0 0 0 0 0 0 0 0
Neighs:    2056 ave 2056 max 2056 min
Histogram: 1 0 0 0 0 0 0 0 0 0

Total # of neighbors = 2056
Ave neighs/atom = 257
Neighbor list builds = 0
Dangerous builds = 0
unfix 20
unfix 21
print "seeds:1513669"
seeds:1513669
