LAMMPS (10 Feb 2015)
# ---- initialize simulations
clear
units metal
dimension 3
boundary p p p
atom_style charge
atom_modify map array
# ---- create atoms
read_data /Users/eugeneragasa/pyflamestk_git/pypospack/tests/tests_integration/workflow/WorkflowLammpsThermalExpansion/param_7521/MgO_NaCl_unit.npt.T1600/lammps.structure
  triclinic box = (0 0 0) to (4.2565 4.2565 4.2565) with tilt (0 0 0)
  1 by 1 by 1 MPI processor grid
  reading atoms ...
  8 atoms
# ---- define interatomic potential
include potential.mod
mass 1 24.305
mass 2 15.999

group Mg type 1
4 atoms in group Mg
group O type 2
4 atoms in group O

set group Mg charge 1.63791250839
  4 settings made for charge
set group O charge -1.63791250839
  4 settings made for charge

variable R_cut equal 10.0

pair_style buck/coul/long ${R_cut}
pair_style buck/coul/long 10
pair_coeff 1 1 0.0 0.5 0.0 ${R_cut}
pair_coeff 1 1 0.0 0.5 0.0 10
pair_coeff 1 2 1465.92328509 0.282476486176 0.0 ${R_cut}
pair_coeff 1 2 1465.92328509 0.282476486176 0.0 10
pair_coeff 2 2 5816.20442115 0.096233749689 18.932341092 ${R_cut}
pair_coeff 2 2 5816.20442115 0.096233749689 18.932341092 10

kspace_style pppm 1.0e-5

neighbor 1.0 bin
neigh_modify every 1 delay 0 check yes
# ---- define settings
compute eng all pe/atom
compute eatoms all reduce sum c_eng
# ---- run minimization
reset_timestep 0
fix 1 all box/relax iso 0.0 vmax 0.001
thermo 10
thermo_style custom step pe lx ly lz xy xz yz press pxx pyy pzz pxy pxz pyz c_eatoms
min_style cg
minimize 1e-25 1e-25 5000 10000
PPPM initialization ...
  G vector (1/distance) = 0.35267
  grid = 8 8 8
  stencil order = 5
  estimated absolute RMS force accuracy = 3.88211e-05
  estimated relative force accuracy = 2.69597e-06
  using double precision FFTs
  3d grid and FFT values/proc = 3375 512
Neighbor list info ...
  1 neighbor list requests
  update every 1 steps, delay 0 steps, check yes
  master list distance cutoff = 11
Memory usage per processor = 4.06549 Mbytes
Step PotEng Lx Ly Lz Xy Xz Yz Press Pxx Pyy Pzz Pxy Pxz Pyz eatoms 
       0   -108.70031       4.2565       4.2565       4.2565            0            0            0    82041.316    82041.316    82041.316    82041.316 -4.6499549e-11 -1.1702618e-10 1.7098221e-10   -108.70031 
      10   -108.77917     4.299065     4.299065     4.299065            0            0            0    28384.418    28384.418    28384.418    28384.418 -2.893711e-10 1.1285336e-10 8.1895601e-11   -108.77917 
      19   -108.79132    4.3240425    4.3240425    4.3240425            0            0            0 -0.024351241 -0.024351241 -0.024351241 -0.024351241 1.5580285e-11 -3.1606067e-12 1.2588801e-10   -108.79132 
Loop time of 0.00860691 on 1 procs for 19 steps with 8 atoms

Minimization stats:
  Stopping criterion = linesearch alpha is zero
  Energy initial, next-to-last, final = 
        -108.700309346      -108.79131697      -108.79131697
  Force two-norm initial, final = 11.8468 7.13952e-05
  Force max component initial, final = 11.8468 1.5084e-05
  Final line search alpha, max atom move = 0.5 7.54202e-06
  Iterations, force evaluations = 19 24

Pair  time (%) = 0.00228453 (26.5429)
Kspce time (%) = 0.0015204 (17.6648)
Neigh time (%) = 0 (0)
Comm  time (%) = 0.000268936 (3.12465)
Outpt time (%) = 1.5974e-05 (0.185596)
Other time (%) = 0.00451708 (52.482)

Nlocal:    8 ave 8 max 8 min
Histogram: 1 0 0 0 0 0 0 0 0 0
Nghost:    2189 ave 2189 max 2189 min
Histogram: 1 0 0 0 0 0 0 0 0 0
Neighs:    2344 ave 2344 max 2344 min
Histogram: 1 0 0 0 0 0 0 0 0 0

Total # of neighbors = 2344
Ave neighs/atom = 293
Neighbor list builds = 0
Dangerous builds = 0
unfix 1
# ---- define output variables ----
variable natoms equal "count(all)"
variable tot_energy equal "c_eatoms"
variable length_x equal "lx"
variable length_y equal "ly"
variable length_z equal "lz"
variable tilt_xy equal "xy"
variable tilt_xz equal "xz"
variable tilt_yz equal "yz"
variable tot_press equal "press"
variable press_xx equal "pxx"
variable press_yy equal "pyy"
variable press_zz equal "pzz"
variable press_xy equal "pxy"
variable press_xz equal "pxz"
variable press_yz equal "pyz"

# ---- output ----
print "pypospack:output_section:begin"
pypospack:output_section:begin
print "tot_energy = ${tot_energy}"
tot_energy = -108.791316969709
print "num_atoms = ${natoms}"
num_atoms = 8
print "xx = ${length_x}"
xx = 4.32404254484564
print "yy = ${length_y}"
yy = 4.32404254484564
print "zz = ${length_z}"
zz = 4.32404254484564
print "xy = ${tilt_xy}"
xy = 0
print "xz = ${tilt_xz}"
xz = 0
print "yz = ${tilt_yz}"
yz = 0
print "tot_press = ${tot_press}"
tot_press = -0.0243512411551094
print "pxx = ${press_xx}"
pxx = -0.0243512413415371
print "pyy = ${press_yy}"
pyy = -0.0243512409516822
print "pzz = ${press_zz}"
pzz = -0.024351241172109
print "pxy = ${press_xy}"
pxy = 1.55802849425254e-11
print "pxz = ${press_xz}"
pxz = -3.16060668162342e-12
print "pyz = ${press_yz}"
pyz = 1.25888006757422e-10
print "pypospack:output_section:done"
pypospack:output_section:done
print "pypospack:lammps_sim:done"
pypospack:lammps_sim:done
#------------------------------------------------------------------------------
# RUN THERMOSTAT
# running using an NPT Nose-Hoover style thermostat
#------------------------------------------------------------------------------
variable tempdamp equal 0.1
variable pressdamp equal 1.0
# set initial velocities
velocity all create 1600 1842867 mom yes dist gaussian loop all
# fix for Nose-Hoover style thermostat
fix 20 all npt temp 1600 1600 0.1 aniso 0.0 0.0 1.0 drag 1.0 couple xyz
variable boxx equal lx
variable boxy equal ly
variable boxz equal lz
variable boxp equal press
variable boxt equal temp
# calculate averages every 10000 steps
reset_timestep 0
fix 21 all ave/time 10 10 100 v_boxx v_boxy v_boxz v_boxp v_boxt file lattice.out
thermo_style custom step temp pe ke etotal press lx ly lz press pxx pyy pzz pxy pxz pyz vol
thermo_modify flush yes
thermo 100
run 100000
PPPM initialization ...
  G vector (1/distance) = 0.351996
  grid = 8 8 8
  stencil order = 5
  estimated absolute RMS force accuracy = 4.00454e-05
  estimated relative force accuracy = 2.781e-06
  using double precision FFTs
  3d grid and FFT values/proc = 3375 512
Memory usage per processor = 3.06549 Mbytes
Step Temp PotEng KinEng TotEng Press Lx Ly Lz Press Pxx Pyy Pzz Pxy Pxz Pyz Volume 
       0         1600   -108.79133    1.4477136   -107.34361    19124.541    4.3240425    4.3240425    4.3240425    19124.541    30388.248    19678.443    7306.9338   -4660.2105    6616.3847    4159.7013    80.848111 
     100    422.11938   -107.54408   0.38194248   -107.16214    31225.819    4.3456114    4.3456114    4.3456114    31225.819    37798.065     66131.21   -10251.818    554.59594   -6527.0664    634.32505    82.063994 
     200    1128.1154   -107.77005    1.0207425   -106.74931   -32041.131    4.3865448    4.3865448    4.3865448   -32041.131   -30223.533   -937.78053   -64962.079   -12555.774    2097.6179   -2591.6153    84.404909 
     300    1202.8771   -107.51053    1.0883885   -106.42214    7080.5097    4.3854813    4.3854813    4.3854813    7080.5097     44201.25     14727.82   -37687.541    9755.9533    795.35661   -3422.9685    84.343531 
     400    1162.1368   -107.18971    1.0515258   -106.13818   -469.03791    4.3656134    4.3656134    4.3656134   -469.03791   -23485.671    75172.956   -53094.399   -12119.398   -9651.9462   -4143.2031    83.202395 
     500    2033.8438    -107.7934    1.8402646   -105.95314    18738.175    4.3669365    4.3669365    4.3669365    18738.175    51920.399    18745.442   -14451.314    9702.5873    550.98859   -8005.8136    83.278068 
     600    1150.7048   -106.93242    1.0411819   -105.89124   -16126.573     4.389453     4.389453     4.389453   -16126.573   -8583.9151    32624.199   -72420.003    4385.8113     88.56824   -1887.7024    84.572896 
     700    1721.0667   -107.39373    1.5572573   -105.83647   -28733.697      4.40345      4.40345      4.40345   -28733.697   -8563.8741   -10696.686   -66940.531    1534.9448    7983.0804   -3464.0045    85.384534 
     800    1841.8784   -107.48015    1.6665703   -105.81358   -1964.7254    4.3911248    4.3911248    4.3911248   -1964.7254    8413.9456    14840.467   -29148.589    9261.5739   -11017.555   -5025.1382     84.66957 
     900    1270.8273   -106.97558    1.1498712   -105.82571   -15173.525    4.3761638    4.3761638    4.3761638   -15173.525   -21001.624    45417.049       -69936   -1674.6693   -2832.1081    -1878.735    83.807078 
    1000    2106.6886    -107.7451    1.9061761   -105.83893    17175.233    4.3808738    4.3808738    4.3808738    17175.233    68164.699    2059.8503   -18698.849    2499.9796   -6087.7828   -3469.4137    84.077972 
    1100    1077.4008   -106.84577   0.97485486   -105.87091   -13481.475    4.3911156    4.3911156    4.3911156   -13481.475    23328.089    574.10838   -64346.623   -14181.644   -21.150887   -2145.3615    84.669035 
    1200    2130.1807   -107.80285    1.9274323   -105.87541   -25514.499    4.3946603    4.3946603    4.3946603   -25514.499   -11756.851   -6087.2429   -58699.402    25755.522   -4079.8621   -276.25819    84.874248 
    1300    1600.6293    -107.3083    1.4482831   -105.86001    8489.2339    4.3913967    4.3913967    4.3913967    8489.2339    41843.247   -2902.0039   -13473.541    8476.7356    7382.2566   -6050.9297    84.685298 
    1400    1300.8831   -107.03362    1.1770664   -105.85655   -36059.071    4.3891249    4.3891249    4.3891249   -36059.071   -21463.243   -7954.2754   -78759.695    1571.3139   -1806.5909   -1763.9121    84.553934 
    1500    1962.4221   -107.61845    1.7756408   -105.84281    20928.964    4.3815055    4.3815055    4.3815055    20928.964    34089.071    8243.7089    20454.113    5952.6592   -523.63404   -2876.6069    84.114348 
    1600    1261.9519   -107.00848    1.1418406   -105.86664   -29574.999     4.385442     4.385442     4.385442   -29574.999   -39431.324    16326.932   -65620.607     9500.858    19171.498   -3717.6342    84.341264 
    1700    1657.5096   -107.36616    1.4997495   -105.86641    20480.132    4.3895464    4.3895464    4.3895464    20480.132    104131.65   -3208.0035   -39483.247   -2434.3647   -1803.0731   -6364.8392    84.578293 
    1800    1559.5223   -107.26688    1.4110886   -105.85579    1489.3654    4.3960127    4.3960127    4.3960127    1489.3654    25340.476    7588.2418   -28460.621   -808.55181    6952.3521   -12300.804    84.952629 
    1900    1413.2146   -107.12226    1.2787063   -105.84356   -24413.506    4.3948506    4.3948506    4.3948506   -24413.506    8397.1693   -9272.8011   -72364.887    700.62759   -6416.6663    1754.2365    84.885271 
    2000    2120.8954   -107.74191    1.9190307   -105.82288    26271.795    4.3949373    4.3949373    4.3949373    26271.795    65416.945    2215.2668    11183.175   -7029.8776   -739.44853    1259.9864    84.890296 
    2100    1455.6463   -107.14882    1.3170994   -105.83172    -26064.96    4.3918016    4.3918016    4.3918016    -26064.96   -11419.453    19952.088   -86727.514   -4902.8341   -12839.977    -6723.877    84.708722 
    2200    1394.5487   -107.09241     1.261817    -105.8306     12832.92    4.3957281    4.3957281    4.3957281     12832.92    89325.739   -24314.641   -26512.338    9488.7449    3303.8012    419.72828    84.936128 
    2300    2345.5386   -107.95858    2.1222926   -105.83629   -32811.266    4.3895781    4.3895781    4.3895781   -32811.266   -17964.888   -21392.423   -59076.487   -380.56053   -17651.041    -4556.632    84.580127 
    2400    926.28231   -106.70795    0.8381197   -105.86983    22542.173    4.3775542    4.3775542    4.3775542    22542.173    54230.756    41271.036   -27875.273   -4549.1572    2823.0145   -4608.8334    83.886987 
    2500    2127.3783   -107.79745    1.9248966   -105.87256    4155.0844    4.3898909    4.3898909    4.3898909    4155.0844    39952.202   -7098.4548   -20388.494   -3879.2184    4047.9126    15765.298    84.598214 
    2600     1104.878   -106.87282   0.99971685    -105.8731    -19248.15    4.4021791    4.4021791    4.4021791    -19248.15   -39238.194   -4326.7873    -14179.47     120.3386    5751.8907   -1859.9866    85.310625 
    2700    1669.2379   -107.36078    1.5103615   -105.85042    -13785.78    4.3891857    4.3891857    4.3891857    -13785.78    -11826.77    18317.278   -47847.848   -1786.2144    9572.0971   -7159.5526    84.557448 
    2800    1610.1997   -107.29602    1.4569425   -105.83908    39802.904    4.3755649    4.3755649    4.3755649    39802.904    75778.268    8465.8738    35164.569    -16017.87   -4263.2971    8472.9836    83.772677 
    2900    1250.1273   -106.99667    1.1311414   -105.86553   -28493.397    4.3901634    4.3901634    4.3901634   -28493.397   -58570.265    55523.825   -82433.751    17297.871    4363.4859    12614.351    84.613969 
    3000    1648.8554   -107.33809     1.491919   -105.84617    10334.203    4.4118864    4.4118864    4.4118864    10334.203     67327.38   -15330.085   -20994.687   -9951.0258    2748.5484    9077.4439    85.876229 
    3100    1859.1232   -107.52282    1.6821738   -105.84065   -20358.421    4.3938716    4.3938716    4.3938716   -20358.421   -19474.474    21606.798   -63207.586    4408.5397    116.12664     3291.141    84.828559 
    3200    1043.1912   -106.78389   0.94390136   -105.83999    50589.227    4.3684474    4.3684474    4.3684474    50589.227    137204.74    42073.866   -27510.929    18693.759    -1281.339   -139.56472    83.364534 
    3300    2339.7109   -107.97221    2.1170196   -105.85519   -3841.0295    4.3868942    4.3868942    4.3868942   -3841.0295    47067.051   -49314.912    -9275.227   -5430.9055   -6434.9499    3205.3057     84.42508 
    3400    1340.4926   -107.08569    1.2129059   -105.87279   -3957.8932    4.3980259    4.3980259    4.3980259   -3957.8932    16370.272    23807.982   -52051.934   -2460.5504    7339.7148    7567.9909    85.069394 
    3500    1807.0034   -107.48258    1.6350146   -105.84756   -15595.455    4.4068863    4.4068863    4.4068863   -15595.455    11001.051   -23708.212   -34079.205   -6571.8327   -3417.9264    1341.5246    85.584581 
    3600    1357.8458   -107.05319    1.2286074   -105.82458    16712.602     4.395795     4.395795     4.395795    16712.602    58569.822    3580.4037   -12012.419   -24467.113    2273.2452   -7230.0226    84.940006 
    3700    1879.5717   -107.52747     1.700676   -105.82679   -31348.004    4.3894528    4.3894528    4.3894528   -31348.004   -28699.026    1077.0449   -66422.031    5824.3594   -12807.307    5387.8006    84.572887 
    3800    1278.9628   -106.99019    1.1572325   -105.83296    45844.891    4.3833373    4.3833373    4.3833373    45844.891    129395.05    -5867.671    14007.291   -6456.7552   -23495.846   -7791.6016    84.219891 
    3900     1752.463   -107.44803    1.5856654   -105.86237   -46638.488     4.396216     4.396216     4.396216   -46638.488   -65327.197    191.16904   -74779.435    4819.2279    2931.8071      9956.73    84.964416 
    4000    1543.9889   -107.24039    1.3970336   -105.84336   -3333.8122    4.3987301    4.3987301    4.3987301   -3333.8122    15063.377   -938.57591   -24126.238     8993.431     2771.207   -6585.7492    85.110266 
    4100    1645.1733   -107.30854    1.4885873   -105.81995    16053.711    4.3895658    4.3895658    4.3895658    16053.711    32872.303    9427.6125     5861.219    9484.5148   -20395.558    1571.5213    84.579417 
    4200    1181.6651   -106.89952    1.0691954   -105.83032   -9627.3305     4.406085     4.406085     4.406085   -9627.3305   -14422.909    35592.023   -50051.105     12757.47    30345.454    6928.9766    85.537908 
    4300    1986.0818   -107.59745    1.7970485   -105.80041     13999.06    4.3942981    4.3942981    4.3942981     13999.06    40299.626    19425.591   -17728.038    4754.4233    -2868.784   -33.673132    84.853262 
    4400      1195.16   -106.90791    1.0814059   -105.82651   -37220.451    4.3894929    4.3894929    4.3894929   -37220.451    -65097.35     45179.09   -91743.092    356.98615   -14206.377    4696.7339    84.575205 
    4500    1736.9205    -107.4028    1.5716022    -105.8312    9210.4601    4.3847148    4.3847148    4.3847148    9210.4601    36428.615    8722.1977   -17519.433    16876.314     31795.97   -4691.0396    84.299315 
    4600    1673.9544   -107.35478    1.5146291   -105.84015    13813.148    4.3786413    4.3786413    4.3786413    13813.148   -12775.061    53530.853    683.65038   -4231.2136   -11968.226    2525.1899    83.949498 
    4700    1354.4508   -107.07974    1.2255355    -105.8542   -47694.605    4.4057808    4.4057808    4.4057808   -47694.605   -65901.103    7388.3449   -84571.056    4560.7746    -8378.869     6855.548    85.520189 
    4800    1965.4907   -107.59954    1.7784173   -105.82112   -288.22603    4.3939147    4.3939147    4.3939147   -288.22603    26493.349   -14904.862   -12453.165    23440.892    9699.5065   -10670.184    84.831055 
    4900    1081.9896   -106.80804   0.97900693   -105.82903    36648.832    4.3823715    4.3823715    4.3823715    36648.832   -14894.395    74143.568    50697.322   -2426.1319    12161.756   -9580.4748    84.164234 
    5000    1795.5321   -107.46288    1.6246352   -105.83825   -8397.7116    4.3975764    4.3975764    4.3975764   -8397.7116    423.51396   -26390.205    773.55682     36467.14   -15447.214    12971.706    85.043316 
    5100    1221.7148    -106.9445    1.1054333   -105.83907    32227.412     4.397032     4.397032     4.397032    32227.412    64695.071    17191.698    14795.467    8170.5246     18647.73    2602.8813    85.011737 
    5200    1712.4088   -107.39111    1.5494234   -105.84169   -22821.808    4.4039812    4.4039812    4.4039812   -22821.808   -34379.228    6207.4377   -40293.633     10360.74   -17816.527    15727.727    85.415436 
    5300    1461.1171   -107.15153    1.3220495   -105.82948    21675.192     4.395132     4.395132     4.395132    21675.192     27380.76   -27124.369    64769.183    8645.8537    12421.764   -13651.165    84.901578 
    5400    1481.7291   -107.18257    1.3406996   -105.84187    28238.803    4.3836304    4.3836304    4.3836304    28238.803    58068.812    29454.855    -2807.259    -551.9203   -7049.4199    15143.967    84.236788 
    5500    1980.0286   -107.63464    1.7915715   -105.84307   -15652.076    4.4029209    4.4029209    4.4029209   -15652.076   -5078.9382   -31611.457   -10265.834     12507.17   -5794.4161    7054.7588    85.353757 
    5600    1292.0481   -106.99123    1.1690723   -105.82216    3618.4346    4.4049277    4.4049277    4.4049277    3618.4346     19307.02   -18278.964    9827.2484   -6281.0609    10653.372    4415.7394    85.470524 
    5700    2138.0312   -107.74826    1.9345356   -105.81372   -20824.829    4.3904178    4.3904178    4.3904178   -20824.829      6212.28   -33563.396   -35123.372    11685.813   -10820.978    11964.521    84.628675 
    5800    1635.5059   -107.29834    1.4798401    -105.8185    3963.0878    4.3967483    4.3967483    4.3967483    3963.0878    12622.659   -23252.832    22519.437     3090.739    31557.082    -2711.935     84.99528 
    5900    1464.4206   -107.14703    1.3250385   -105.82199   -41055.938    4.4069436    4.4069436    4.4069436   -41055.938   -57927.768    -33518.64   -31721.405    6435.9686   -14000.343      7351.41    85.587921 
    6000    2106.7163   -107.72913    1.9062012   -105.82293   -11306.614    4.4069028    4.4069028    4.4069028   -11306.614    22649.822   -34259.462   -22310.203   -5888.6522    7804.8964   -2746.5539    85.585546 
    6100     1232.934    -106.9693    1.1155846   -105.85372   -8590.5981    4.3947405    4.3947405    4.3947405   -8590.5981   -52066.684    25592.517    702.37292   -2047.6922   -21994.667     10838.64    84.878892 
    6200     1087.961   -106.84689      0.98441   -105.86248     34096.23    4.3771687    4.3771687    4.3771687     34096.23   -3651.2824    45987.284    59952.688    2023.0571   -13125.908   -6658.0324     83.86483 
    6300    1596.2152   -107.32838    1.4442891   -105.88409    8021.1539    4.3900562    4.3900562    4.3900562    8021.1539   -30448.322      37541.8    16969.983    -8383.733    7528.3872    19343.518    84.607767 
    6400    1597.5102   -107.32498    1.4454608   -105.87952   -32855.474    4.4091348    4.4091348    4.4091348   -32855.474   -74055.369    45349.138    -69860.19    7544.6652   -20107.367    -1227.431    85.715651 
    6500    1536.8741   -107.23863     1.390596   -105.84804    6856.3976    4.3960559    4.3960559    4.3960559    6856.3976   -9728.1586   -11947.011    42244.362   -31038.338    8845.5732    6130.3419    84.955129 
    6600    1478.9949   -107.18063    1.3382257    -105.8424    7065.7198     4.377426     4.377426     4.377426    7065.7198   -11634.367    16648.928    16182.599    13632.499   -22793.037   -1073.9597    83.879617 
    6700    1664.4968   -107.35819    1.5060717   -105.85212    15320.277    4.3776934    4.3776934    4.3776934    15320.277    37081.936    2696.5212    6182.3748   -18308.864    613.59593    2291.0068    83.894991 
    6800    1238.2903   -106.98473    1.1204311   -105.86429   -5637.5803    4.3974971    4.3974971    4.3974971   -5637.5803   -44541.342    47968.352   -20339.751    2332.4925   -14273.708   -3015.7883    85.038713 
    6900    1739.5902   -107.41322    1.5740177    -105.8392   -13011.376    4.3979854    4.3979854    4.3979854   -13011.376   -23983.091    34880.688   -49931.724     87.86776   -9046.6158   -19906.424    85.067048 
    7000    1169.3653   -106.88087    1.0580663    -105.8228    56854.926    4.3816482    4.3816482    4.3816482    56854.926    13416.557    82291.193    74857.028   -25040.651    826.02225   -7705.5197    84.122565 
    7100    1647.4818   -107.31859    1.4906761   -105.82791   -15982.662    4.3871689    4.3871689    4.3871689   -15982.662   -16198.938    15846.877   -47595.924    825.26127   -25506.039   -21177.038    84.440942 
    7200    1490.3535     -107.179    1.3485032   -105.83049    20313.598    4.3926935    4.3926935    4.3926935    20313.598   -3945.8848    4363.5935    60523.084   -22625.741    6241.5501   -11121.064    84.760341 
    7300    1657.7088   -107.33191    1.4999297   -105.83198    -19456.35    4.3997721    4.3997721    4.3997721    -19456.35   -3921.1668    4074.3545   -58522.236   -2743.5642   -35153.308   -6507.9082    85.170763 
    7400    1102.8685   -106.82755   0.99789856   -105.82965    3855.9103    4.3943734    4.3943734    4.3943734    3855.9103    1510.5053   -13007.215    23064.441   -13199.301    6497.5308   -721.67913    84.857624 
    7500    1994.8564   -107.62355     1.804988   -105.81856    4175.0453     4.379074     4.379074     4.379074    4175.0453    17540.702   -42.306418   -4973.2597   -5484.0894   -20673.249   -11161.269    83.974391 
    7600    1098.9037   -106.84299   0.99431112   -105.84868    8027.6305     4.392132     4.392132     4.392132    8027.6305   -39164.867    56492.628    6755.1311   -4167.0053   -12941.423   -18398.351    84.727843 
    7700    2092.7979    -107.7164    1.8936075   -105.82279   -7060.1726    4.3975515    4.3975515    4.3975515   -7060.1726   -35830.539    5945.9684    8704.0525   -3113.4054    7304.6359   -18198.759    85.041868 
    7800    1051.3741   -106.77396   0.95130538   -105.82265     19667.79     4.384181     4.384181     4.384181     19667.79   -38460.184    57662.042    39801.513    1570.6286   -22930.717    2954.7983     84.26853 
    7900    1700.1295   -107.36242    1.5383129   -105.82411   -3326.2196    4.3854178    4.3854178    4.3854178   -3326.2196   -9901.3563    24601.246   -24678.548    1219.1859    19456.898   -18300.997    84.339871 
    8000    1780.1252    -107.4386    1.6106947    -105.8279    23141.023    4.3957116    4.3957116    4.3957116    23141.023    33300.063    22754.053    13368.954    9352.3748     -22344.6   -8309.7592     84.93517 
    8100    1395.1172   -107.08957    1.2623313   -105.82724   -1026.3949    4.3980881    4.3980881    4.3980881   -1026.3949   -12787.369    25547.626   -15839.442    7490.8305    18148.593    -8447.445    85.073006 
    8200    1380.4605   -107.06376    1.2490696   -105.81469    11232.851    4.3893179    4.3893179    4.3893179    11232.851    34815.948    25050.406     -26167.8    -5210.948   -7321.0978    -14224.98    84.565089 
    8300     2071.532   -107.68278    1.8743657   -105.80842    13147.154    4.3848608    4.3848608    4.3848608    13147.154    1254.8122    7313.6615     30872.99    14117.975   -17255.588     2643.803    84.307735 
    8400    1263.5754   -106.96737    1.1433096   -105.82406    12422.337    4.3974739    4.3974739    4.3974739    12422.337      30383.2    33366.636   -26482.826     6828.441   -2031.5371   -13260.642    85.037368 
    8500    1313.3224   -107.00627    1.1883217   -105.81795   -4539.0028    4.3986453    4.3986453    4.3986453   -4539.0028    -18833.61    56984.864   -51768.263    9755.9019   -37043.687     7978.273    85.105345 
    8600    1954.3676   -107.57373    1.7683529   -105.80538    9352.1989    4.3825161    4.3825161    4.3825161    9352.1989   -4853.0912    48388.139   -15478.451    11289.921    20313.982   -1614.0567    84.172562 
    8700    1385.5465   -107.09579    1.2536716   -105.84212   -4695.3995    4.3873141    4.3873141    4.3873141   -4695.3995   -40432.924    79222.647   -52875.921   -14499.854   -36220.526    39.897788    84.449323 
    8800    2178.5896    -107.8017    1.9712336   -105.83046   -10795.221    4.3979169    4.3979169    4.3979169   -10795.221     -32589.2    28020.135   -27816.597    8280.0836    10733.829    9007.1177     85.06307 
    8900    863.86522   -106.61822   0.78164341   -105.83657    2833.5989    4.3958994    4.3958994    4.3958994    2833.5989   -34603.359     61712.91   -18608.754   -5926.9866   -20111.317   -26786.993     84.94606 
    9000     2142.019   -107.77811    1.9381438   -105.83996   -18824.543    4.3854124    4.3854124    4.3854124   -18824.543   -7730.5111   -29679.809   -19063.308   -11431.106    3827.5741   -12930.581    84.339557 
    9100    1953.1501   -107.60925    1.7672512     -105.842    18930.043    4.3683142    4.3683142    4.3683142    18930.043   -7318.8337    41973.828    22135.134   -1364.2608   -6448.1703   -9051.7354    83.356912 
    9200    1059.5379   -106.83578   0.95869214   -105.87709    16508.689    4.3868754    4.3868754    4.3868754    16508.689    28496.061    6544.1623    14485.844    7445.9864   -24727.623   -18301.081    84.423994 
    9300    2073.2052   -107.71354    1.8758797   -105.83766   -42492.461    4.4179608    4.4179608    4.4179608   -42492.461   -57812.569   -57247.533   -12417.282    32127.666    13714.012    3801.4038    86.231426 
    9400    1579.8999    -107.2451    1.4295266   -105.81557    2485.1228    4.3899112    4.3899112    4.3899112    2485.1228   -27216.372    12183.143    22488.598   -8491.2486   -17238.261    -28023.49    84.599383 
    9500    1419.8861   -107.09124    1.2847427   -105.80649    7051.3067    4.3718177    4.3718177    4.3718177    7051.3067   -37943.036   -1529.0515    60626.007    2759.6354    6482.2869    5037.4833    83.557635 
    9600    1720.9796    -107.3831    1.5571785   -105.82592    8152.1996    4.3864332    4.3864332    4.3864332    8152.1996   -8046.7082    38024.471   -5521.1641    12943.461   -2282.7681   -5059.2594    84.398465 
    9700    1449.3818   -107.15713    1.3114311    -105.8457   -12191.988    4.3969967    4.3969967    4.3969967   -12191.988   -51619.901   -1887.1854    16931.122   -21203.785    2569.7139   -20466.755    85.009687 
    9800    1111.6746    -106.8477    1.0058666   -105.84183    1492.2181     4.397601     4.397601     4.397601    1492.2181   -3695.1233    15313.801   -7142.0232    19827.149    11412.246    11341.313     85.04474 
    9900     2035.293    -107.6741    1.8415759   -105.83252   -4837.6377    4.3751037    4.3751037    4.3751037   -4837.6377   -10115.916    29864.574   -34261.571   -14424.685     -6363.37   -9313.8347    83.746188 
   10000    1212.2078   -106.96103    1.0968311   -105.86419     -3917.17    4.3726404    4.3726404    4.3726404     -3917.17   -16297.594   -20212.449    24758.533     10787.87    10934.809    -13685.39    83.604818 
   10100     2146.187   -107.80166    1.9419151   -105.85974   -10610.633    4.3816229    4.3816229    4.3816229   -10610.633   -35681.573    28257.359   -24407.686    9040.0569   -9190.6246    1113.6832     84.12111 
   10200    1095.2398   -106.86224   0.99099597   -105.87124   -35773.706    4.4009144    4.4009144    4.4009144   -35773.706    -65769.84    -7769.067    -33782.21   -23871.398    13547.777    3705.0289    85.237118 
   10300    1871.4654    -107.5336    1.6933412   -105.84026   -31369.897    4.3945148    4.3945148    4.3945148   -31369.897    -63571.85   -18988.742     -11549.1    1054.5064    5180.5571    -842.1742    84.865816 
   10400    1551.6737   -107.22538     1.403987   -105.82139    26354.775    4.3652799    4.3652799    4.3652799    26354.775    61143.985     18914.12   -993.77964    7246.8946   -15982.305    6716.0772    83.183328 
   10500    1511.4984   -107.21671    1.3676355   -105.84907   -5602.2031    4.3791492    4.3791492    4.3791492   -5602.2031   -54515.283    36169.266     1539.408   -13178.711    1665.5063    1900.7331    83.978716 
   10600    1802.3395   -107.48189    1.6307946    -105.8511   -15184.693    4.4033178    4.4033178    4.4033178   -15184.693   -8326.2797   -21467.865   -15759.934     11114.58   -6918.3676    32462.156    85.376845 
   10700    1483.6595   -107.18123    1.3424463   -105.83879   -37895.399    4.4154754    4.4154754    4.4154754   -37895.399   -35870.063   -59848.042   -17968.094   -36967.754   -5158.4186    403.05993    86.085976 
   10800    1699.3114   -107.36028    1.5375727   -105.82271    15558.803    4.3716874    4.3716874    4.3716874    15558.803    2651.8205   -14631.888    58656.476   -17806.169   -15155.386    3264.8718    83.550161 
   10900    1187.3473   -106.89045    1.0743368   -105.81611    39020.062    4.3381774    4.3381774    4.3381774    39020.062    10401.379    75182.757    31476.051   -9632.1302   -4274.2431    34359.083    81.643559 
   11000    1626.0942   -107.34718    1.4713242   -105.87585   -4254.8163    4.3829973    4.3829973    4.3829973   -4254.8163   -6855.2524   -29623.202    23714.006   -42137.927    15153.037   -16741.095    84.200296 
   11100    1508.9329   -107.20192    1.3653142    -105.8366    1022.8213     4.407817     4.407817     4.407817    1022.8213    28444.109   -2157.0682   -23218.577   -7589.3672    7155.1604    38747.947    85.638816 
   11200    1507.3013   -107.16793    1.3638379   -105.80409   -6243.5305    4.4034457    4.4034457    4.4034457   -6243.5305    13955.165   -36394.027    3708.2706   -30464.972   -9413.3236   -17751.556    85.384283 
   11300    1761.8343   -107.38942    1.5941447   -105.79528    5036.5727    4.3846231    4.3846231    4.3846231    5036.5727    43604.036     32964.75   -61459.068    6723.2804     9446.898    19861.476    84.294028 
   11400    1276.3217   -106.97083    1.1548427   -105.81599    38135.611    4.3637609    4.3637609    4.3637609    38135.611    51879.078    34880.524     27647.23   -32741.283   -9193.9696    17695.632    83.096519 
   11500    2128.0935   -107.76287    1.9255437   -105.83732    12485.239     4.378786     4.378786     4.378786    12485.239   -263.55411     19972.54    17746.732   -1200.2891   -557.55721   -6988.9356    83.957819 
   11600    1372.8497   -107.08232    1.2421833   -105.84013   -10434.111    4.3958046    4.3958046    4.3958046   -10434.111   -4389.1167   -7030.7898   -19882.428   -4208.6276    8084.3344    29610.661    84.940566 
   11700    1476.6881   -107.15117    1.3361384   -105.81503    26247.339     4.393381     4.393381     4.393381    26247.339   -18778.517    49421.301    48099.233   -21151.698   -5837.2973     4367.051    84.800144 
   11800    1882.2412   -107.51883    1.7030914   -105.81573   -22557.032    4.3904473    4.3904473    4.3904473   -22557.032   -16741.435   -28443.424   -22486.236    4842.6038    18832.989    21296.677    84.630382 
   11900     1556.024   -107.23294    1.4079232   -105.82502    19256.668    4.3697995    4.3697995    4.3697995    19256.668   -11316.227    42014.906    27071.325   -20462.083    -15665.16    67.197977    83.441969 
   12000    1408.0872   -107.12056    1.2740669   -105.84649    6942.0333    4.3764771    4.3764771    4.3764771    6942.0333   -25974.881     22019.15    24781.831    13883.559    20904.814    9210.8512     83.82508 
   12100    1710.0823   -107.39672    1.5473184    -105.8494    -33934.99    4.3815416    4.3815416    4.3815416    -33934.99   -25609.449   -19440.518   -56755.004   -13312.055   -24690.423    10601.054    84.116425 
   12200    1364.4915   -107.08549    1.2346206   -105.85087    42248.143    4.3698508    4.3698508    4.3698508    42248.143   -26636.554    58535.796    94845.186    1714.7296    18181.986   -8555.2794    83.444906 
   12300    2099.0013   -107.75009    1.8992205   -105.85087   -17193.977     4.381479     4.381479     4.381479   -17193.977   -865.36868   -7045.9365   -43670.627    13954.034    463.63232    17889.701     84.11282 
   12400     989.5812   -106.75588   0.89539387   -105.86048    21549.004    4.3784059    4.3784059    4.3784059    21549.004   -2443.3357   -3261.4591    70351.806   -19083.141   -20954.541    5588.6335    83.935957 
   12500     1743.854    -107.4355    1.5778757   -105.85763    21266.162    4.3835546    4.3835546    4.3835546    21266.162    18050.216    16061.488    29686.781    13622.684    22146.295   -2086.6856    84.232415 
   12600    1539.5134   -107.25615    1.3929841   -105.86316    -29660.95    4.3884356    4.3884356    4.3884356    -29660.95   -18026.771   -54524.292   -16431.787    -13862.51   -17096.826    16322.904    84.514101 
   12700    1686.7337   -107.37911    1.5261921   -105.85292   -10397.524    4.3837443    4.3837443    4.3837443   -10397.524   -30709.794    2350.3816   -2833.1599   -6593.2208    6704.1959    16038.192    84.243351 
   12800    1569.9403   -107.27304     1.420515   -105.85252    23551.287    4.3762356    4.3762356    4.3762356    23551.287   -5279.6535     1146.371    74787.143    9918.0188   -214.16761   -1710.4586    83.811202 
   12900    1139.3466   -106.91159    1.0309047   -105.88068   -9287.8201    4.3910416    4.3910416    4.3910416   -9287.8201    -30988.21    41870.598   -38745.848    -31242.89   -8360.8299    1513.9595    84.664754 
   13000     2066.809   -107.73344    1.8700922   -105.86334      11836.4    4.3896974    4.3896974    4.3896974      11836.4   -22570.989    2402.4679     55677.72    22409.393    10793.575   -3606.1995    84.587026 
   13100    991.00041   -106.77296     0.896678   -105.87629   -19311.804    4.3762812    4.3762812    4.3762812   -19311.804   -4575.6613    685.86589   -54045.617   -7154.0929   -32390.975   -7613.7471    83.813825 
   13200    2049.5999   -107.71175    1.8545211   -105.85723    68.959228    4.3667124    4.3667124    4.3667124    68.959228     23092.38   -2873.0775   -20012.425     2215.694   -1368.5967   -742.95031    83.265248 
   13300    1524.7821   -107.24938    1.3796549   -105.86973   -981.30993    4.3754763    4.3754763    4.3754763   -981.30993    -38204.14   -1530.7953    36791.006    28805.888   -12632.146   -6052.8221     83.76759 
   13400    1604.8067   -107.31448    1.4520628   -105.86242    4445.4039    4.3830787    4.3830787    4.3830787    4445.4039    15223.407     20330.46   -22217.656   -20576.363   -33347.457   -2551.5181    84.204985 
   13500    1359.1871   -107.08051    1.2298211   -105.85069   -5424.1324    4.3860415    4.3860415    4.3860415   -5424.1324   -7333.8396   -20255.493    11316.936    18513.012    43663.401    5634.7894    84.375859 
   13600    2020.9723   -107.66787    1.8286182   -105.83925   -19836.237    4.3672644    4.3672644    4.3672644   -19836.237   -26367.673   -8124.9223   -25016.117    1327.5211   -42865.733   -5829.9261    83.296826 
   13700    1218.7967   -106.96071    1.1027929   -105.85792    40335.488    4.3660768    4.3660768    4.3660768    40335.488    62848.014     36260.18     21898.27   -9851.1154    44404.156    -1519.135    83.228891 
   13800    1971.5334   -107.62429    1.7838849   -105.84041   -31905.466    4.3890003    4.3890003    4.3890003   -31905.466    -40218.16    -15572.11   -39926.129    -11818.12    18688.678    6433.1671    84.546735 
   13900    996.02665   -106.74207   0.90122585   -105.84085   -8149.8905    4.3835156    4.3835156    4.3835156   -8149.8905    26788.833    -7097.916   -44140.589    1314.2508    3871.2029   -3808.0199    84.230171 
   14000    1884.9717   -107.54384     1.705562   -105.83828   -10080.719    4.3721729    4.3721729    4.3721729   -10080.719    38107.891   -13055.745   -55294.301   -1777.4065    63664.195   -3359.7747    83.578001 
   14100    2190.8217   -107.82184    1.9823015   -105.83954     20108.52    4.3728448    4.3728448    4.3728448     20108.52    56468.148   -19958.242    23815.655   -15284.876   -133.25184   -12387.444    83.616537 
   14200    973.78267   -106.74237   0.88109903   -105.86127   -36945.457    4.3816887    4.3816887    4.3816887   -36945.457   -26097.841     9399.419   -94137.948    4667.3195    50186.315   -6044.9342      84.1249 
   14300    2100.6907   -107.73612    1.9007491   -105.83537     17222.61    4.3809499    4.3809499    4.3809499     17222.61    18180.199   -13987.244    47474.876    11413.782    -9325.512    5489.6462    84.082355 
   14400    1252.9865   -106.99114    1.1337286   -105.85741    13186.644    4.3776121    4.3776121    4.3776121    13186.644    20646.437    24609.214   -5695.7185   -14430.537    38988.795    6111.4571    83.890318 
   14500    1778.9342   -107.46508    1.6096171   -105.85546   -9387.7878    4.3790732    4.3790732    4.3790732   -9387.7878   -25853.953    16693.246   -19002.656     6479.997   -23511.178   -14001.273    83.974342 
   14600    1504.9427   -107.20459    1.3617038   -105.84288   -22353.832    4.3838845    4.3838845    4.3838845   -22353.832   -7972.2036   -6848.9982   -52240.295    18588.084    27506.567    6421.3581    84.251438 
   14700    1483.4762   -107.17877    1.3422805   -105.83649    15433.944    4.3780464    4.3780464    4.3780464    15433.944    1152.0335    21260.854    23888.945   -12839.364    22665.004   -10667.887    83.915286 
   14800    2106.3432   -107.73746    1.9058636   -105.83159   -5837.5067    4.3828346    4.3828346    4.3828346   -5837.5067   -26939.956    17230.758   -7803.3214    2547.2977   -13371.567    5878.3525    84.190918 
   14900    1224.5484   -106.95656    1.1079971   -105.84856    206.43904    4.3751703    4.3751703    4.3751703    206.43904   -39027.013   -4656.8719    44303.202    1587.0297    45182.395   -2370.9683    83.750014 
   15000    1720.4322   -107.41378    1.5566832    -105.8571    15806.653     4.372969     4.372969     4.372969    15806.653    11915.802    31208.328    4295.8302    -5381.001   -12579.808    -16866.12    83.623662 
   15100    1356.4715   -107.09322     1.227364   -105.86586    1235.9946    4.3834028    4.3834028    4.3834028    1235.9946   -47121.832    2686.8799    48142.936   -1384.9505    34246.407    5266.4201    84.223666 
   15200     1860.482   -107.53426    1.6834032   -105.85085   -9880.6912      4.38559      4.38559      4.38559   -9880.6912   -30915.491    8500.8914   -7227.4737   -2117.9996   -749.36148   -23506.362    84.349806 
   15300    1178.4357   -106.91434    1.0662734   -105.84806     35460.71    4.3801384    4.3801384    4.3801384     35460.71   -34295.777    49529.315    91148.593    10761.303     19584.33    1063.1791    84.035636 
   15400     1501.377   -107.20644    1.3584775   -105.84796   -33229.126    4.3923274    4.3923274    4.3923274   -33229.126   -51467.843   -38273.827   -9945.7085   -11007.304    27420.293   -7139.4004    84.739149 
   15500    1897.8266   -107.55258    1.7171934   -105.83538    9322.6833    4.3737917    4.3737917    4.3737917    9322.6833   -17289.368   -22234.491    67491.909    4714.2088    1170.1556    -17671.05    83.670871 
   15600    1640.1325   -107.33639    1.4840263   -105.85236   -6008.9014    4.3690815    4.3690815    4.3690815   -6008.9014    -25644.65    37681.113   -30063.167    4895.2033    49958.281    2422.1328    83.400842 
   15700    1498.0228   -107.21406    1.3554425   -105.85862   -13823.651    4.3856276    4.3856276    4.3856276   -13823.651   -12202.205   -38220.973    8952.2255   -11004.791   -14508.865   -8671.4921    84.351975 
   15800    1254.2216   -106.98362    1.1348461   -105.84877    17556.579    4.3817179    4.3817179    4.3817179    17556.579     19285.19   -10093.704     43478.25    14691.076    44861.163   -3248.4872     84.12658 
   15900    2091.6793   -107.73088    1.8925954   -105.83828    1074.3884    4.3836684    4.3836684    4.3836684    1074.3884    25613.737    -35086.85    12696.278   -12690.505   -15997.917    5993.0819    84.238979 
   16000    1564.1672    -107.2563    1.4152914   -105.84101   -33640.982    4.3898978    4.3898978    4.3898978   -33640.982   -21308.401   -39195.191   -40419.354    14962.898    7044.2092   -16325.204     84.59861 
   16100    1443.2486   -107.14484    1.3058817   -105.83896    35406.585    4.3781299    4.3781299    4.3781299    35406.585    77753.675    22124.636    6341.4436   -9733.6371   -1118.1687    18143.893    83.920086 
   16200    1565.3983     -107.271    1.4164053   -105.85459   -19922.321    4.3923821    4.3923821    4.3923821   -19922.321   -43059.584   -61028.698     44321.32    23647.564    304.73183   -12314.124    84.742319 
   16300    1472.8379   -107.17333    1.3326547   -105.84067   -12749.778    4.3904049    4.3904049    4.3904049   -12749.778   -43658.536   -30896.237     36305.44    8582.5155    20017.819   -7612.4065    84.627931 
   16400    1708.1972   -107.37359    1.5456127   -105.82798    26639.468     4.370951     4.370951     4.370951    26639.468    38837.565    32982.042    8098.7973    10642.413   -8342.8108   -18325.603    83.507947 
   16500    1217.7898   -106.96586    1.1018818   -105.86397   -20191.117    4.3931737    4.3931737    4.3931737   -20191.117    -29920.72   -19656.061    -10996.57    29257.445    12924.003   -17396.274    84.788143 
   16600     1836.843   -107.49443    1.6620141   -105.83242    8667.4363    4.3952865    4.3952865    4.3952865    8667.4363   -8263.0461    52335.829   -18070.474    9173.1463    6138.6207    2618.1824    84.910532 
   16700    1286.5714   -107.00656    1.1641168   -105.84244    14358.941    4.3814376    4.3814376    4.3814376    14358.941    5249.7448   -9993.9261    47821.005    23052.426   -13236.267   -2355.8185     84.11044 
   16800    1585.9631   -107.28472    1.4350127   -105.84971   -155.24405    4.3847707    4.3847707    4.3847707   -155.24405    484.94759    -4913.642    3962.9622    11401.569    15165.569   -3531.8692    84.302541 
   16900    1470.1166   -107.17711    1.3301924   -105.84692    5612.9705     4.389188     4.389188     4.389188    5612.9705   -27579.813    34153.363    10265.362    8188.8213    -17679.28    18403.301     84.55758 
   17000    1766.8143   -107.43566    1.5986507   -105.83701   -32898.281    4.3953903    4.3953903    4.3953903   -32898.281   -21899.862   -47871.543   -28923.437    11255.678    17861.224   -25964.828    84.916547 
   17100    1437.0975   -107.13203     1.300316   -105.83171    1554.0774    4.3856683    4.3856683    4.3856683    1554.0774    27714.507    21667.215    -44719.49   -729.47994   -2660.5286    34294.715    84.354321 
   17200    1546.4965   -107.23391    1.3993025   -105.83461    17133.416    4.3753138    4.3753138    4.3753138    17133.416   -3636.5378    3633.4602    51403.327    10059.519    -119.8998   -10087.414    83.758257 
   17300    1563.9733   -107.27314    1.4151159   -105.85802    1992.1856    4.3779367    4.3779367    4.3779367    1992.1856    33944.158   -44229.964    16262.362   -716.67745    6965.2076    16935.257     83.90898 
   17400    1681.2792   -107.37928    1.5212568   -105.85802    41388.352    4.3970537    4.3970537    4.3970537    41388.352    24425.632     47507.72    52231.705   -1501.8481   -8344.1627    19453.061    85.012993 
   17500    1521.7226   -107.22859    1.3768866    -105.8517   -12223.865    4.4011259    4.4011259    4.4011259   -12223.865    9368.4816   -25080.613   -20959.464     4161.844    9004.0294    3819.2302     85.24941 
   17600    1814.0708   -107.48197    1.6414094   -105.84056   -5047.6781    4.3815843    4.3815843    4.3815843   -5047.6781    10650.658    -16620.01   -9173.6819    3269.0956    17110.776    17493.854    84.118888 
   17700    1832.0609   -107.51442    1.6576872   -105.85673    11302.103    4.3800851    4.3800851    4.3800851    11302.103   -28696.109    25181.232    37421.186   -1610.7663   -12454.759    -9084.195    84.032573 
   17800    1225.6076   -106.98724    1.1089555   -105.87829   -24489.562    4.4019252    4.4019252    4.4019252   -24489.562   -21252.636   -39246.913   -12969.136   -12926.415    11894.638    10607.451    85.295862 
   17900    1835.0234   -107.50511    1.6603677   -105.84474   -10015.909    4.4087467    4.4087467    4.4087467   -10015.909   -44832.078     30818.06    -16033.71    8912.9042   -15101.733   -5981.6646     85.69302 
   18000    1489.1274   -107.18226    1.3473938   -105.83486   -10565.253    4.3965915    4.3965915    4.3965915   -10565.253   -4111.8081   -32299.051    4715.1001   -10060.741     8009.822    16488.536    84.986186 
   18100      1944.03   -107.57016    1.7589992   -105.81116   -6780.9911    4.3826144    4.3826144    4.3826144   -6780.9911   -31917.595     21549.49   -9974.8677   -9028.6241   -19994.458   -7624.9343    84.178231 
   18200    1749.8038   -107.40663    1.5832592   -105.82337   -27682.854    4.3921993    4.3921993    4.3921993   -27682.854   -41483.603   -21596.279   -19968.679   -6908.7769    -13957.68    14948.532     84.73174 
   18300    1466.6817   -107.15999    1.3270844   -105.83291   -3988.5624    4.4028433    4.4028433    4.4028433   -3988.5624    -25022.65   -9526.0336    22582.997   -15715.805    12986.906    4744.1724    85.349245 
   18400    1760.9662   -107.41836    1.5933592     -105.825   -40182.612    4.4094766    4.4094766    4.4094766   -40182.612   -39315.925   -28299.721    -52932.19    -2337.386   -45255.998    2639.3102     85.73559 
   18500    1832.6203   -107.47527    1.6581934   -105.81708    6846.1658    4.3837104    4.3837104    4.3837104    6846.1658   -2193.6377   -4302.3844    27034.519   -7481.2857     10261.93    21666.349    84.241397 
   18600    1154.1222   -106.88539     1.044274   -105.84112    3531.7027    4.3715073    4.3715073    4.3715073    3531.7027    20480.186    2328.1246   -12213.202   -14239.351   -52389.066   -8689.7871    83.539837 
   18700    2288.1868   -107.92822    2.0703995   -105.85782   -23633.647     4.397015     4.397015     4.397015   -23633.647     -28349.7   -39359.575   -3191.6659    -7018.146    4114.8988   -14208.618    85.010748 
   18800    1195.6547   -106.93831    1.0818535   -105.85645   -17576.062    4.4091947    4.4091947    4.4091947   -17576.062   -41119.596   -17879.445    6270.8537    1349.8826   -34480.658    18139.089    85.719143 
   18900    945.90738   -106.71435   0.85587687   -105.85847    41481.928    4.3790351    4.3790351    4.3790351    41481.928    588.65248    42441.032    81416.099    3520.0634   -12774.644   -13286.348    83.972153 
   19000    2124.8234   -107.77935    1.9225849   -105.85677    15831.746    4.3790689    4.3790689    4.3790689    15831.746   -1138.1421    38694.031    9939.3486   -12833.642   -8898.0906    12460.026    83.974095 
   19100    1574.5679   -107.29768    1.4247021   -105.87297   -22949.588    4.3979108    4.3979108    4.3979108   -22949.588   -50577.786    -1629.647    -16641.33   -1796.8506   -39448.643   -10600.759    85.062717 
   19200    1443.5258   -107.16146    1.3061324   -105.85533    11587.143    4.4002242    4.4002242    4.4002242    11587.143    9795.4403    14076.777    10889.212    5522.9043    18933.417   -27433.605    85.197022 
   19300    2215.5041   -107.84061    2.0046347   -105.83597   -9455.8689    4.3880244    4.3880244    4.3880244   -9455.8689    5408.0505    3615.0978   -37390.755    -3658.035   -44088.414    713.15527    84.490351 
   19400    1037.6317   -106.79483   0.93887098   -105.85596    4375.8067    4.3826034    4.3826034    4.3826034    4375.8067    3327.8456    21659.745    -11860.17    260.97658    17683.223   -16711.511    84.177596 
   19500    1817.1547   -107.51253    1.6441998   -105.86833    10835.734    4.3849384    4.3849384    4.3849384    10835.734    15886.398     2664.382    13956.423   -14885.494   -6017.8376   -11606.117    84.312212 
   19600    1336.6078    -107.0837    1.2093908   -105.87431    -10300.01    4.4065499    4.4065499    4.4065499    -10300.01    28063.847   -6771.9475   -52191.929    6281.4663    9252.3054   -16452.411    85.564984 
   19700    1651.6769   -107.32897    1.4944719    -105.8345   -52391.844    4.4059603    4.4059603    4.4059603   -52391.844   -33179.019   -46529.143   -77467.372   -8574.0688    14354.943   -22336.064    85.530646 
   19800    1748.9955   -107.39618    1.5825279   -105.81365    22473.711    4.3887996    4.3887996    4.3887996    22473.711    53557.872   -1020.2103    14883.471    3426.0042   -7249.0185    3692.8553    84.535137 
   19900     1538.342   -107.23346    1.3919242   -105.84154   -23243.696    4.3780028    4.3780028    4.3780028   -23243.696     28511.16   -61802.197   -36440.052   -7519.5152    2330.1126   -42448.888    83.912779 
   20000    1719.5262   -107.41701    1.5558634   -105.86115    13958.505    4.3832916    4.3832916    4.3832916    13958.505    25387.943    127.51751    16360.054   -3398.5036    20095.364    20855.031    84.217258 
   20100    1559.4894   -107.26995    1.4110588   -105.85889   -19594.081    4.4051568    4.4051568    4.4051568   -19594.081    39396.132   -70326.398   -27851.977    347.20002    61.779883   -35141.421    85.483858 
   20200    1576.7962   -107.26483    1.4267184   -105.83811   -36266.146    4.3941131    4.3941131    4.3941131   -36266.146   -65915.846   -29904.827   -12977.764    10119.208    26787.678    6269.5348    84.842546 
   20300    1627.3973   -107.29626    1.4725033   -105.82375    1988.5675    4.3781503    4.3781503    4.3781503    1988.5675    25882.063   -25212.554    5296.1932    -4622.235   -19614.566   -2576.4863    83.921261 
   20400     2083.392   -107.72329    1.8850969   -105.83819   -23107.414    4.3972599    4.3972599    4.3972599   -23107.414   -35695.022    -33387.51   -239.71026    7209.6647    18643.303   -2696.7357    85.024952 
   20500    903.92117    -106.6658   0.81788687   -105.84791   -3455.3301    4.4033028    4.4033028    4.4033028   -3455.3301   -13004.193   -6174.8467    8813.0491   -4533.7187     8513.104    18639.747    85.375968 
   20600    2121.5275   -107.75195    1.9196026   -105.83235   -1365.8793    4.3875803    4.3875803    4.3875803   -1365.8793   -34384.917   -988.63294    31275.912    9880.4131   -24645.806   -8322.6552    84.464699 
   20700    1151.5086    -106.8849    1.0419092   -105.84299    30267.616    4.3745964    4.3745964    4.3745964    30267.616    18737.059    29691.801    42373.987    901.81222    30500.838     22302.72    83.717062 
   20800    1728.0274   -107.42259    1.5635555   -105.85904   -17390.352    4.3888765    4.3888765    4.3888765   -17390.352   -61842.467    14555.449   -4884.0379   -4174.2517   -27753.712   -2074.0266     84.53958 
   20900    1465.4862    -107.1707    1.3260027    -105.8447   -3188.4112    4.3980457    4.3980457    4.3980457   -3188.4112    5207.0694    -12357.39   -2414.9133    6672.6969     10571.18    8267.1044    85.070544 
   21000    1345.9781   -107.06613    1.2178692   -105.84826   -3751.9405     4.386006     4.386006     4.386006   -3751.9405   -15309.618    7867.8922   -3814.0952   -1927.5175    2128.0612    7407.7967    84.373811 
   21100    1971.8302   -107.62788    1.7841534   -105.84373    12545.092    4.3789036    4.3789036    4.3789036    12545.092   -16969.801    18690.496    35914.581    8232.0247   -12663.236    -960.5665    83.964585 
   21200    1539.2024   -107.24938    1.3927026   -105.85668   -14097.196    4.3832674    4.3832674    4.3832674   -14097.196   -7044.1537   -19751.958   -15495.476    6107.4495    8741.6653    25588.934    84.215862 
   21300    1892.3721    -107.5649     1.712258   -105.85264   -11326.501    4.4010966    4.4010966    4.4010966   -11326.501   -26562.998   -19802.908    12386.402   -11478.817    8955.8332     2767.604    85.247704 
   21400    1652.5478   -107.33699      1.49526   -105.84173   -18247.632    4.3976733    4.3976733    4.3976733   -18247.632    11881.904   -48745.881   -17878.919    17902.905    6888.6285    19112.851    85.048936 
   21500    1829.2001   -107.49027    1.6550987   -105.83517   -10725.962    4.3795974    4.3795974    4.3795974   -10725.962   -14694.209   -9875.1731   -7608.5022   -6905.4175    17411.562    19965.618    84.004504 
   21600    1558.7124   -107.25343    1.4103557   -105.84308    19224.714    4.3872645    4.3872645    4.3872645    19224.714    62423.897   -21943.681    17193.927    4234.1149   -2182.7444   -5581.5783    84.446464 
   21700    1054.7652   -106.82291   0.95437374   -105.86853   -17294.573    4.3918621    4.3918621    4.3918621   -17294.573    39354.865    -57654.66   -33583.922    20650.083      2141.48    25876.819    84.712226 
   21800    1936.6423   -107.60838    1.7523146   -105.85607    26002.182    4.3848773    4.3848773    4.3848773    26002.182    -11326.61    35962.492    53370.663   -8508.9681   -5629.5745    -22805.39    84.308688 
   21900      1524.31   -107.23988    1.3792277   -105.86066    -15580.09    4.3938973    4.3938973    4.3938973    -15580.09    20804.283   -21015.063    -46529.49   -3976.8381    1923.0337    7504.1401    84.830046 
   22000    1278.9302   -106.99901     1.157203   -105.84181    21656.791    4.3965936    4.3965936    4.3965936    21656.791   -17461.683    78835.329    3596.7254    5292.3696    8566.8486    2050.9831     84.98631 
   22100    1921.0896   -107.55553    1.7382422   -105.81728   -2736.2733     4.410568     4.410568     4.410568   -2736.2733    7251.7067    16644.344    -32104.87   -21782.984   -14488.528    -217.0597    85.799267 
   22200    1133.8848   -106.84506    1.0259628   -105.81909   -22149.769    4.4078683    4.4078683    4.4078683   -22149.769   -39924.798    19891.799   -46416.308   -7647.9503    24142.222    11944.929    85.641808 
   22300    1834.0381   -107.45864    1.6594762   -105.79916    7958.1476    4.3793655    4.3793655    4.3793655    7958.1476   -1471.6702    37654.646   -12308.533   -11323.795   -15512.131   -5460.5836     83.99116 
   22400    1502.4481    -107.1824    1.3594466   -105.82295      31087.8    4.3749884    4.3749884    4.3749884      31087.8     50217.86    41634.107    1411.4326   -6362.1533    -7251.744    18903.619    83.739571 
   22500     1431.632   -107.14928    1.2953707   -105.85391   -23454.833    4.3970934    4.3970934    4.3970934   -23454.833   -22323.923   -30055.745    -17984.83   -19751.712    7118.6244    3949.9151    85.015294 
   22600     1555.937   -107.25528    1.4078445   -105.84744    5981.0882    4.4092532    4.4092532    4.4092532    5981.0882    17112.848    13567.737   -12737.321   -7409.3353   -8867.4951   -9210.5497    85.722559 
   22700    1656.7549   -107.34109    1.4990666   -105.84202    -11294.52    4.3951627    4.3951627    4.3951627    -11294.52   -33476.625    1997.5059   -2404.4398   -16643.178    21563.193    9982.2247    84.903358 
   22800    1577.4835   -107.24711    1.4273402   -105.81977    29302.356    4.3718149    4.3718149    4.3718149    29302.356     23592.97    62610.966    1703.1332   -13983.096   -8971.7065   -2469.5417    83.557472 
   22900    1924.0767   -107.57749     1.740945   -105.83654   -3353.9831    4.3821813    4.3821813    4.3821813   -3353.9831    -11000.52   -737.88091    1676.4514    16965.611    28179.145   -1630.4315    84.153274 
   23000    1497.6975   -107.19059    1.3551482   -105.83544   -4195.7952    4.3988389    4.3988389    4.3988389   -4195.7952   -55309.847    21150.846    21571.615   -17128.369    12014.085   -1284.1588    85.116582 
   23100    1647.6046   -107.31158    1.4907872   -105.82079   -7172.0963    4.4059172    4.4059172    4.4059172   -7172.0963    -11361.19    16569.033   -26724.131    13778.192    8812.6233   -15046.501    85.528135 
   23200    1380.3454   -107.05054    1.2489656   -105.80157   -37.361723    4.4045193    4.4045193    4.4045193   -37.361723   -37837.802    24756.421    12969.296   -30450.788    1255.8856    12734.111    85.446752 
   23300    1611.8885   -107.24598    1.4584706   -105.78751     9283.235    4.3972393    4.3972393    4.3972393     9283.235     8289.135    6269.4295     13291.14    10077.279   -15245.444   -16921.654    85.023759 
   23400    1417.0374   -107.07635    1.2821652   -105.79418   -16174.081    4.4090217    4.4090217    4.4090217   -16174.081   -29165.911    25315.269   -44671.599   -32690.374    13515.594    4831.9061    85.709055 
   23500    1517.1763   -107.15792     1.372773   -105.78515    3256.4784    4.4049052    4.4049052    4.4049052    3256.4784    40713.027   -27712.327   -3231.2648   -27800.417   -11074.619   -18280.668    85.469214 
   23600    1599.6281   -107.24004    1.4473771   -105.79266    -11031.37    4.3903849    4.3903849    4.3903849    -11031.37     -4358.98    2381.6106   -31116.741    9419.3383   -8698.3615   -28432.034    84.626776 
   23700    1200.8383   -106.91384    1.0865437    -105.8273   -8305.4113     4.380725     4.380725     4.380725   -8305.4113   -5005.4242   -17263.097   -2647.7121   -38362.009    10473.017    6561.8308    84.069405 
   23800    2092.1308   -107.73475    1.8930039   -105.84174    8163.0646    4.3891356    4.3891356    4.3891356    8163.0646    27384.739   -11961.992     9066.447    17048.183   -26304.812   -25557.519    84.554553 
   23900     1223.896   -106.96916    1.1074068   -105.86175   -41925.117    4.3994437    4.3994437    4.3994437   -41925.117     -54125.8   -39349.315   -32300.235   -14200.076    13800.691    25708.997    85.151694 
   24000    1666.9884   -107.35941    1.5083262   -105.85108   -17751.369    4.3806491    4.3806491    4.3806491   -17751.369   -23530.532   -22100.806    -7622.769   -10455.854    5306.9721    251.46587    84.065033 
   24100    1552.9272   -107.25556    1.4051212   -105.85044    57578.399    4.3792234    4.3792234    4.3792234    57578.399    102794.27    39203.831    30737.098   -1026.0009   -18271.236   -6339.8873    83.982982 
   24200    1493.2336   -107.21749    1.3511091   -105.86639   -18471.081    4.3948851    4.3948851    4.3948851   -18471.081   -47607.171    38433.088    -46239.16   -11212.025    12259.774    14529.615    84.887274 
   24300    1667.2437   -107.35277    1.5085571   -105.84421   -4896.6958    4.3920985    4.3920985    4.3920985   -4896.6958    31069.775   -10915.465   -34844.397    23416.805     6752.621    4011.7727    84.725906 
   24400    1754.0297   -107.43855    1.5870829   -105.85147    5267.1832    4.3851095    4.3851095    4.3851095    5267.1832    27731.728   -25575.707    13645.529     13523.03   -5805.2691   -2651.6059    84.322082 
   24500    1530.9244   -107.25012    1.3852126   -105.86491    43411.892    4.3650423    4.3650423    4.3650423    43411.892    71811.516    52371.085     6053.076    14033.106    24418.438    5573.5425    83.169744 
   24600    1317.2377   -107.08463    1.1918644   -105.89276    2855.6649    4.3836357    4.3836357    4.3836357    2855.6649    4287.8205    1767.5097    2511.6644     28782.52   -5240.2559   -8400.1977    84.237092 
   24700    2316.2157   -107.94006    2.0957607    -105.8443   -15523.836    4.4013849    4.4013849    4.4013849   -15523.836   -4811.8879   -12394.068   -29365.553   -11928.286     14128.49   -13273.909     85.26446 
   24800    1048.6363   -106.78518   0.94882816   -105.83635    33461.552    4.3839435    4.3839435    4.3839435    33461.552    70027.731   -1849.3969    32206.322    48024.372     8167.457    11806.346    84.254838 
   24900      1984.29    -107.6379    1.7954273   -105.84248    -21691.33    4.3869712    4.3869712    4.3869712    -21691.33    6466.7963   -31353.355   -40187.431   -11697.178    1085.3009   -17038.052    84.429524 
   25000    2113.6819    -107.7498    1.9125038   -105.83729   -11630.459    4.3898618    4.3898618    4.3898618   -11630.459    24754.277   -48508.843   -11136.811    1090.9974    16386.939    4833.4717     84.59653 
   25100    921.98705   -106.69681   0.83423326   -105.86258   -8976.2802     4.404259     4.404259     4.404259   -8976.2802    43698.163   -61396.656   -9230.3474    20373.319     847.1584   -7115.1687    85.431599 
   25200    1963.5534   -107.62098    1.7766644   -105.84431   -25525.501    4.4038558    4.4038558    4.4038558   -25525.501     2387.135   -55942.336   -23021.302   -10479.942   -4701.1938    3425.7237     85.40814 
   25300    1765.4444   -107.44254    1.5974112   -105.84513    2876.7068    4.3844434    4.3844434    4.3844434    2876.7068     74072.52   -34391.322   -31051.077        24671    19705.485    4877.2328    84.283661 
   25400    1055.5759    -106.8244   0.95510729   -105.86929    10234.436    4.3674239    4.3674239    4.3674239    10234.436    36740.851   -17382.463    11344.921   -22230.128   -7486.4511   -12397.438    83.305953 
   25500    2146.2832   -107.84191    1.9420021   -105.89991   -7413.6414    4.3854279    4.3854279    4.3854279   -7413.6414   -4740.0071   -29706.446    12205.528   -6970.1729   -11317.682    10058.818    84.340452 
   25600    1846.2864   -107.55235    1.6705587   -105.88179    7314.0155    4.3989415    4.3989415    4.3989415    7314.0155    68756.756   -53989.652    7174.9424    1567.6702   -1691.4509   -7532.7713    85.122538 
   25700    976.80342   -106.75203   0.88383226    -105.8682   -5600.8842    4.3939967    4.3939967    4.3939967   -5600.8842   -18720.807    -13327.91    15246.064   -30086.297   -13761.685    15152.019    84.835806 
   25800    1652.2295    -107.3368     1.494972   -105.84182   -8506.5893    4.3837522    4.3837522    4.3837522   -8506.5893    13276.468   -15056.412   -23739.824    21459.307   -3276.6943    1081.1271    84.243808 
   25900    1458.5661   -107.16322    1.3197412   -105.84348    17406.951    4.3826176    4.3826176    4.3826176    17406.951    67748.575   -13462.264   -2065.4591   -25131.506   -3845.6178    5096.2493    84.178411 
   26000    1311.5383   -107.03506    1.1867074   -105.84835     23137.67    4.3763191    4.3763191    4.3763191     23137.67    16646.372    19898.187     32868.45    23560.333    13580.624    3544.4662    83.816002 
   26100    1641.6386   -107.34445    1.4853891   -105.85906   -19074.841    4.3934618    4.3934618    4.3934618   -19074.841    46823.661   -54553.909   -49494.276    8647.0864   -3545.1441   -14670.446    84.804825 
   26200    2298.0426   -107.92578    2.0793172   -105.84646    6809.5564    4.3801211    4.3801211    4.3801211    6809.5564    49465.483   -8612.6639   -20424.149   -3458.1461     -9705.29   -5335.5031     84.03464 
   26300    976.97915   -106.73572   0.88399126   -105.85172    46183.859    4.3547855    4.3547855    4.3547855    46183.859    19025.414    49877.042    69649.122    26688.411   -3953.9701   -24025.273    82.584836 
   26400    1641.7821   -107.36182     1.485519   -105.87631   -17235.437    4.3839928    4.3839928    4.3839928   -17235.437    20043.132   -61392.336   -10357.108   -38031.392    2191.7065    -3850.288    84.257682 
   26500    2135.8125   -107.78387     1.932528   -105.85134    -17311.23    4.3909637    4.3909637    4.3909637    -17311.23    5156.4336   -15030.696   -42059.429    10143.623   -20776.939    2957.7753    84.660251 
   26600    1030.2024   -106.78741    0.9321488   -105.85526   -21535.302    4.3884757    4.3884757    4.3884757   -21535.302   -17628.688   -62851.183    15873.964   -2663.6175   -490.10071   -17198.827     84.51642 
   26700    1458.6025   -107.16326    1.3197742   -105.84349     20608.14     4.381514     4.381514     4.381514     20608.14    84998.409   -20549.642   -2624.3458     -60087.1    12231.871    2727.2722     84.11484 
   26800    1876.0448   -107.55029    1.6974848    -105.8528    14152.208    4.3792802    4.3792802    4.3792802    14152.208    32013.637    27562.342   -17119.355    3216.2046    1528.3057   -16398.258    83.986253 
   26900    1300.8416   -107.06215    1.1770288   -105.88512   -30156.936    4.3868946    4.3868946    4.3868946   -30156.936    1442.7277   -78456.018   -13457.517   -23341.029   -311.63553    3066.5248    84.425103 
   27000    2122.1656   -107.77944      1.92018   -105.85926   -14762.142    4.3932504    4.3932504    4.3932504   -14762.142   -2140.3374   -21584.766   -20561.323    440.76277    11817.321    5833.2141    84.792584 
   27100    1425.1447   -107.13403    1.2895008   -105.84453    27557.186    4.3758514    4.3758514    4.3758514    27557.186    27156.062    30186.949    25328.545   -30721.893    -4542.267   -784.07028    83.789132 
   27200    1331.9434   -107.05049    1.2051704   -105.84532   -737.35385    4.3847046    4.3847046    4.3847046   -737.35385    34838.809   -44266.991    7216.1206    10925.214    19721.337    11763.533    84.298727 
   27300    2327.1474   -107.92769    2.1056519   -105.82204   -16849.432    4.3891668    4.3891668    4.3891668   -16849.432   -15119.191   -16024.868   -19404.237     2548.123   -12487.567   -4251.5963    84.556355 
   27400    1119.0223   -106.84743    1.0125149   -105.83491    21044.159    4.3822069    4.3822069    4.3822069    21044.159    63642.464    6018.1262   -6528.1136   -24829.575     13798.34    9737.7911    84.154753 
   27500    1740.4003   -107.41302    1.5747507   -105.83827   -11153.004    4.3881915    4.3881915    4.3881915   -11153.004    38794.629   -44252.034   -28001.608    30195.287    5322.9335    6028.3247    84.499999 
   27600    1724.9465    -107.3896    1.5607679   -105.82883    16987.765    4.3764934    4.3764934    4.3764934    16987.765    58019.021   -40310.035     33254.31   -39152.726   -11893.837    -10494.34    83.826016 
   27700    1429.1694   -107.14102    1.2931425   -105.84788   -18606.429    4.3797779    4.3797779    4.3797779   -18606.429   -40926.449   -25271.882    10379.043    30515.076     10176.41    17557.461    84.014893 
   27800     1774.568   -107.44726    1.6056664   -105.84159   -21353.817    4.3979653    4.3979653    4.3979653   -21353.817     -38003.3   -46228.416    20170.264   -9465.5571   -14921.091    -5156.031     85.06588 
   27900    1921.0892   -107.55637    1.7382419   -105.81813    -2617.384    4.3851424    4.3851424    4.3851424    -2617.384   -6842.3476   -22712.766    21702.962    7328.6304   -323.31809    13164.354    84.323979 
   28000    996.88308   -106.73858   0.90200076   -105.83658    5794.5107    4.3836237    4.3836237    4.3836237    5794.5107    40389.971   -10051.572   -12954.866    17316.284    4999.1667      4309.08    84.236398 
   28100    2410.2268   -108.00944    2.1808238   -105.82861    3827.8574    4.3823653    4.3823653    4.3823653    3827.8574    27153.636   -26116.185    10446.122   -13374.921   -10765.554    9090.3138    84.163877 
   28200    1082.6615   -106.83852   0.97961488   -105.85891    16086.336    4.3681171    4.3681171    4.3681171    16086.336    47328.091    -48223.48    49154.395    50866.545    14652.225    15813.347    83.345629 
   28300    2263.4929   -107.90439     2.048056   -105.85633   -8929.0783    4.3778671    4.3778671    4.3778671   -8929.0783    2068.4727   -11486.916   -17368.792   -17639.317    6770.2947   -57.478395    83.904978 
   28400    906.62824    -106.6863   0.82033628   -105.86596    12542.677    4.3970511    4.3970511    4.3970511    12542.677    74924.768   -65276.349    27979.611    25728.365    7091.1027    16773.249     85.01284 
   28500    1609.2769   -107.29347    1.4561075   -105.83736   -392.48303    4.4001706    4.4001706    4.4001706   -392.48303    -759.4453   -21752.957    21334.953    13677.364    12966.506    5252.5902    85.193908 
   28600    2020.3244   -107.65279     1.828032   -105.82476   -18461.967    4.3762341    4.3762341    4.3762341   -18461.967   -11668.842   -16337.765   -27379.296   -2889.7684    -12214.56    18364.207    83.811119 
   28700    1305.0008   -107.01194    1.1807921   -105.83115    41225.994    4.3543836    4.3543836    4.3543836    41225.994    58998.779   -4662.5235    69341.727    34377.544    23799.138   -7555.6294    82.561972 
   28800    1544.6479   -107.25241    1.3976299   -105.85478    6457.9965    4.3791598    4.3791598    4.3791598    6457.9965    47855.889    7332.6642   -35814.564   -19174.641    23261.592    11489.883    83.979324 
   28900    1453.5536   -107.15825    1.3152059   -105.84304   -4489.3009    4.4008206    4.4008206    4.4008206   -4489.3009    31102.389   -16035.084   -28535.208    9110.7369    2683.1845    15273.256    85.231667 
   29000     1574.712    -107.2464    1.4248325   -105.82157   -8579.9285     4.400149     4.400149     4.400149   -8579.9285      5005.38   -12382.592   -18362.573   -5306.2248    34531.436   -10516.446    85.192656 
   29100    2014.1371   -107.62689    1.8224336   -105.80445   -31824.401    4.3941038    4.3941038    4.3941038   -31824.401   -18478.533   -48248.644   -28746.025   -9736.9794   -18370.435    9941.9102    84.842007 
   29200    1590.7166   -107.25601    1.4393138    -105.8167   -1272.4032    4.3742551    4.3742551    4.3742551   -1272.4032   -2835.6161     29205.77   -30187.364    2227.2938    45676.358   -1973.8972     83.69747 
   29300    2147.4198   -107.78325    1.9430305   -105.84022    13915.943      4.37676      4.37676      4.37676    13915.943    74204.406   -23060.238   -9396.3399   -815.04107    11666.874   -2309.6104     83.84134 
   29400    1206.0108   -106.94801    1.0912239   -105.85678   -28804.491     4.405169     4.405169     4.405169   -28804.491   -35177.237     9366.635    -60602.87    11998.544    28197.541     5021.603    85.484571 
   29500    1453.2277   -107.13948     1.314911   -105.82457    -9589.332    4.4121377    4.4121377    4.4121377    -9589.332   -27446.892    58540.784   -59861.889     15925.01    7535.8538    3653.6431    85.890904 
   29600    1725.3128    -107.3667    1.5610993   -105.80561    20652.005    4.3822597    4.3822597    4.3822597    20652.005    12541.201    69579.961   -20165.148    -337.4377    17725.115    14004.511    84.157792 
   29700    1334.0332   -107.01788    1.2070613   -105.81081    27041.696    4.3662882    4.3662882    4.3662882    27041.696   -1529.7516     81328.26    1326.5799    25973.515    12399.029   -850.23312     83.24098 
   29800    1729.7753   -107.39546    1.5651371   -105.83032    10218.914    4.3875345    4.3875345    4.3875345    10218.914    -28659.53    69075.612     -9759.34   -5401.8202    14785.169   -18687.042    84.462053 
   29900    1727.5666   -107.38512    1.5631385   -105.82198   -40695.694    4.4089665    4.4089665    4.4089665   -40695.694   -47025.865   -15613.428    -59447.79    10895.054    27302.263    1223.5779    85.705838 
   30000    1624.5271    -107.2707    1.4699063    -105.8008   -32639.676    4.3973018    4.3973018    4.3973018   -32639.676   -34765.095   -18350.365   -44803.567   -12262.948   -14902.152   -13741.883    85.027383 
   30100    1816.0567   -107.43424    1.6432063   -105.79103   -20375.426    4.3708748    4.3708748    4.3708748   -20375.426   -17512.499     12909.69    -56523.47   -10385.732    48669.813   -6080.2584    83.503579 
   30200    1804.9213   -107.46009    1.6331307   -105.82695     -3873.53    4.3701686    4.3701686    4.3701686     -3873.53   -42143.758    45189.313   -14666.145   -2354.1011   -22240.684   -11738.337    83.463111 
   30300    1315.1173   -107.05532    1.1899458   -105.86538   -15570.126    4.3951024    4.3951024    4.3951024   -15570.126   -46473.288    47032.066   -47269.155   -16535.711    31264.759   -14079.268    84.899863 
   30400    1869.4201   -107.52983    1.6914906   -105.83834   -20147.418    4.4167932    4.4167932    4.4167932   -20147.418   -71955.304    41339.869   -29826.818    31577.656   -10649.174   -9298.6457    86.163079 
   30500    1073.6388   -106.78758   0.97145098   -105.81613    6343.7221    4.4060674    4.4060674    4.4060674    6343.7221    3766.5816    38743.809   -23479.224    12916.467    31198.033   -23539.818    85.536882 
   30600    1839.7923   -107.45769    1.6646828     -105.793    1858.5792    4.3821645    4.3821645    4.3821645    1858.5792    12757.053    24040.383   -31221.698    10159.784   -20064.645   -8351.4827    84.152306 
   30700    1686.4118   -107.33138    1.5259009   -105.80548    23648.609    4.3782983    4.3782983    4.3782983    23648.609     68099.88    26356.989   -23511.042    16450.651    25735.793   -20019.804    83.929773 
   30800     1304.984   -107.02072     1.180777   -105.83994   -33578.215    4.3942916    4.3942916    4.3942916   -33578.215   -65225.577   -11313.691   -24195.377   -21894.794    2875.2104   -10746.299    84.852885 
   30900    2140.5766   -107.77003    1.9368387   -105.83319   -19809.042    4.3987554    4.3987554    4.3987554   -19809.042   -29769.329   -4423.5888   -25234.209   -16838.115   -581.50908     -9131.52    85.111735 
   31000    1747.7234   -107.40912    1.5813769   -105.82774    -30179.19    4.3831546    4.3831546    4.3831546    -30179.19   -9212.5325   -19185.234   -62139.803   -5459.4387     37786.46   -15106.992    84.209363 
   31100    1335.3416   -107.04561    1.2082451   -105.83736    4223.9118    4.3725594    4.3725594    4.3725594    4223.9118   -9607.8561   -7765.3081      30044.9   -27565.018   -21630.798   -512.75177    83.600166 
   31200    1680.0336   -107.36347    1.5201297   -105.84334    9501.1819    4.3763904    4.3763904    4.3763904    9501.1819    13698.173   -11701.506    26506.879     13606.57    7013.9613   -183.21848    83.820097 
   31300    1533.8908   -107.24351    1.3878967   -105.85561    61.494032    4.3860157    4.3860157    4.3860157    61.494032   -24413.466    51581.996   -26984.047   -2674.5754    -19076.81   -873.61412     84.37437 
   31400    1299.3055   -107.01574    1.1756389    -105.8401   -6357.0513    4.4011245    4.4011245    4.4011245   -6357.0513   -69948.428    24614.433    26262.841    13503.098    3069.5212     15228.18    85.249327 
   31500     1317.549   -107.01846     1.192146   -105.82631    1368.7945    4.3826644    4.3826644    4.3826644    1368.7945   -26452.938    69733.688   -39174.366     16642.23    5436.2484    3304.0599    84.181111 
   31600    1921.5703   -107.55544    1.7386772   -105.81676    13840.392    4.3657823    4.3657823    4.3657823    13840.392    8165.1969    36173.553   -2817.5731    816.72181    -25887.08    16585.175    83.212053 
   31700    1513.9792   -107.21419    1.3698802   -105.84431   -12735.814    4.3766426    4.3766426    4.3766426   -12735.814   -58260.136    28890.744   -8838.0501    24845.041    26481.591   -11862.654    83.834591 
   31800    1588.9009   -107.28835    1.4376709   -105.85068   -23332.822    4.3787784    4.3787784    4.3787784   -23332.822    -10345.51   -1128.0691   -58524.887   -12324.058    -26950.47    12640.308    83.957383 
   31900    1859.6586   -107.52898    1.6826582   -105.84633   -20188.898    4.3812202    4.3812202    4.3812202   -20188.898    -27127.16   -36557.597    3118.0635    26511.091    14330.917    -7800.126    84.097916 
   32000     1426.968    -107.1417    1.2911507   -105.85055   -35263.179    4.3860331    4.3860331    4.3860331   -35263.179   -41971.833   -2863.7306   -60953.973    2055.7576    -23717.34    9923.6951    84.375372 
   32100    1777.9614   -107.44751    1.6087368   -105.83878    7372.9168    4.3781675    4.3781675    4.3781675    7372.9168   -23911.671    69084.961    -23054.54     1011.956   -2515.1635    11915.102    83.922252 
   32200    1321.0889    -107.0467     1.195349   -105.85135    8625.7973    4.3737032    4.3737032    4.3737032    8625.7973     -55288.6    88971.645    -7805.653    22151.783     1794.718   -2351.2594    83.665791 
   32300     1463.516   -107.18131    1.3242201   -105.85709   -2663.0904    4.3875155    4.3875155    4.3875155   -2663.0904   -1898.1166    19283.937   -25375.091   -18821.386   -24761.735     364.4988    84.460954 
   32400    2037.4365   -107.67859    1.8435154   -105.83507   -9866.1881    4.3877377    4.3877377    4.3877377   -9866.1881   -24556.626    12671.645   -17713.584   -13699.412    12794.238    17715.759    84.473789 
   32500     1263.224   -106.98505    1.1429916   -105.84205    4796.6831    4.3791934    4.3791934    4.3791934    4796.6831   -6203.8405    8721.9088    11871.981    72.092515   -16194.319   -7542.9123    83.981258 
   32600    1601.3045    -107.2979     1.448894     -105.849   -17605.865    4.3689974    4.3689974    4.3689974   -17605.865   -5780.2158   -36510.819    -10526.56   -23672.932    20562.825    19316.718    83.396027 
   32700    1858.6135   -107.53794    1.6817125   -105.85622    1922.3888    4.3715538    4.3715538    4.3715538    1922.3888    18298.843    30478.518   -43010.194    9171.2061   -16265.158    7680.0596    83.542505 
   32800    1477.9686   -107.19452    1.3372971   -105.85723   -17443.584    4.3907165    4.3907165    4.3907165   -17443.584   -30210.832   -16565.693   -5554.2276   -9829.2938   -4595.1987   -1699.3362    84.645952 
   32900    1256.6364   -106.99695     1.137031   -105.85992   -31236.012    4.3852361    4.3852361    4.3852361   -31236.012   -52800.923   -3998.0389   -36909.074   -11223.692    26318.247    19623.905    84.329386 
   33000    1908.1865    -107.5767    1.7265673   -105.85014    18941.275    4.3627181    4.3627181    4.3627181    18941.275   -5060.1332    76375.093   -14491.136    18889.758   -31948.293   -3404.5947    83.036964 
   33100     1708.217    -107.4105    1.5456307   -105.86487     21621.49    4.3578535    4.3578535    4.3578535     21621.49    4985.8086    69120.481   -9241.8205   -14773.577    16228.127    4055.1792    82.759505 
   33200    1122.8522   -106.91528    1.0159802    -105.8993   -24809.187    4.3850899    4.3850899    4.3850899   -24809.187   -54371.699     11798.66   -31854.524    14045.918   -7262.2912    7454.5118    84.320953 
   33300    1956.5546    -107.6173    1.7703317   -105.84697   -8238.1231    4.3967919    4.3967919    4.3967919   -8238.1231   -771.55542   -10257.406   -13685.408    17438.598   -27123.007    -7667.568    84.997809 
   33400    1708.3491   -107.38452    1.5457502   -105.83877   -5408.1457    4.3791738    4.3791738    4.3791738   -5408.1457    -11462.22    25180.814   -29943.031   -4542.7638    22443.894   -4314.4836    83.980131 
   33500     1312.948   -107.04149    1.1879829    -105.8535   -12463.159    4.3717879    4.3717879    4.3717879   -12463.159   -22681.726   -27978.753    13271.002    11077.574   -13971.228    6098.8168    83.555924 
   33600    1728.0624   -107.42986    1.5635872   -105.86627    18759.906    4.3749095    4.3749095    4.3749095    18759.906   -12056.072    85888.675   -17552.886   -7832.8226    11368.833   -5657.6437     83.73504 
   33700    1429.9789   -107.16458     1.293875   -105.87071   -7000.6154    4.3937806    4.3937806    4.3937806   -7000.6154    12212.634    9250.4515   -42464.932   -12178.055   -3575.5054   -4534.3422     84.82329 
   33800    1117.1854   -106.87108    1.0108529   -105.86022    1361.6544    4.3856388    4.3856388    4.3856388    1361.6544   -52275.061    41286.825    15073.199    10390.955    1585.8816    8881.8012    84.352621 
   33900    2188.7718   -107.82428    1.9804467   -105.84384   -3325.1967     4.368918     4.368918     4.368918   -3325.1967    1399.0107    21907.291   -33281.892   -11587.135     1107.355   -7213.2524    83.391478 
   34000    1389.7155   -107.12111    1.2574437   -105.86367   -14979.881    4.3742725    4.3742725    4.3742725   -14979.881   -21089.083   -4896.5345   -18954.024    24678.711   -16058.251   -3684.1062    83.698467 
   34100    1456.7202   -107.19695     1.318071   -105.87888   -4618.3037    4.3871056    4.3871056    4.3871056   -4618.3037   -33287.895    15887.354    3545.6302   -7731.6403    7445.2732    995.62658    84.437285 
   34200    1887.3673   -107.56709    1.7077296   -105.85936    -5490.353    4.3946016    4.3946016    4.3946016    -5490.353   -19497.472    73987.554    -70961.14   -9208.7035   -22528.335   -12872.976    84.870845 
   34300    1170.0322   -106.91925    1.0586697   -105.86058    6312.7802    4.3746338    4.3746338    4.3746338    6312.7802    1602.7155    14397.714    2937.9111   -806.46442    759.35296    731.10577     83.71921 
   34400     1568.107   -107.28019    1.4188562   -105.86133   -689.86738    4.3673533    4.3673533    4.3673533   -689.86738   -35529.005    24123.385     9336.017   -13096.395   -148.36459   -3114.7338    83.301915 
   34500    2341.4931   -107.98153    2.1186322    -105.8629   -2802.3426    4.3896196    4.3896196    4.3896196   -2802.3426   -19337.023    57713.826   -46783.832    19551.171   -7085.7982   -16088.911    84.582525 
   34600    1169.1271   -106.92235    1.0578508    -105.8645   -29115.103    4.4081996    4.4081996    4.4081996   -29115.103   -94656.797    29711.377   -22399.889   -6530.5997    2374.9521   -66.384279    85.661121 
   34700    1455.6098   -107.16635    1.3170664   -105.84929   -30569.572    4.3902171    4.3902171    4.3902171   -30569.572   -75397.354    14682.808    -30994.17   -9299.0127   -16203.577    5973.1279     84.61707 
   34800    2345.0421   -107.94868    2.1218433   -105.82683    25290.403    4.3604052    4.3604052    4.3604052    25290.403    19618.263    42927.342    13325.604   -12380.379     17491.02   -5743.6315    82.904964 
   34900    1259.6598   -107.01745    1.1397667   -105.87768   -20217.528    4.3722089    4.3722089    4.3722089   -20217.528    -35126.38   -27825.372    2299.1692   -14845.223   -16280.522   -6110.8637    83.580066 
   35000    1060.2538    -106.8476   0.95933991   -105.88826   -9290.4101    4.3945715    4.3945715    4.3945715   -9290.4101    24044.036   -10659.458   -41255.808    5550.7242    24372.866   -8257.9055    84.869099 
   35100    2156.0027   -107.80276    1.9507965   -105.85196   -4437.4901     4.405116     4.405116     4.405116   -4437.4901   -22372.618    18196.744    -9136.596    8805.7622   -2719.9061    -21601.51     85.48148 
   35200    1061.0667   -106.81047   0.96007544    -105.8504   -10528.792    4.3910803    4.3910803    4.3910803   -10528.792   -46076.954   -10713.453    25204.032     16954.33    11146.012    782.17339    84.666995 
   35300    1253.6998   -106.98116    1.1343739   -105.84678    37362.961    4.3733175    4.3733175    4.3733175    37362.961    -11203.45    97718.791    25573.542    11025.491    34239.663   -8805.5089     83.64366 
   35400    2119.3465   -107.77083    1.9176292    -105.8532    27991.129    4.3761248    4.3761248    4.3761248    27991.129   -26308.941    39213.125    71069.202    7137.1784   -2841.4227   -13013.256    83.804841 
   35500    1091.8292   -106.87969   0.98791002   -105.89178   -11184.942    4.3836509    4.3836509    4.3836509   -11184.942   -47979.413    38283.706   -23859.119    15726.174    28386.925    15723.087    84.237966 
   35600    1643.1904   -107.36975    1.4867932   -105.88296   -36524.864    4.3851819    4.3851819    4.3851819   -36524.864   -68846.667    -29954.94   -10772.984    -8856.469   -799.20614    -15070.12    84.326259 
   35700    2018.5074   -107.69022    1.8263879   -105.86384     5713.542     4.385371     4.385371     4.385371     5713.542   -39994.599    78392.993   -21257.767   -9663.2429    8891.4286    7246.1934    84.337168 
   35800     1464.308   -107.19632    1.3249367   -105.87139   -31948.367     4.392688     4.392688     4.392688   -31948.367    -63879.91   -24685.847   -7279.3446    23545.627    8899.3389    6778.1206    84.760025 
   35900    1449.4364   -107.18411    1.3114805   -105.87263   -10129.342    4.3854678    4.3854678    4.3854678   -10129.342   -50642.929    27202.564   -6947.6599   -8329.5388   -8747.0623   -11206.283    84.342755 
   36000    2177.5095   -107.83129    1.9702564   -105.86104    15916.815    4.3779241    4.3779241    4.3779241    15916.815    32257.168    45578.688   -30085.411   -4446.9262    5041.5855   -197.54765    83.908256 
   36100    953.65034   -106.75311   0.86288287   -105.89023    2517.3964    4.3783604    4.3783604    4.3783604    2517.3964   -6084.4842    20377.449   -6740.7762   -22622.128   -10028.086    12803.607    83.933343 
   36200    1661.9082   -107.39234    1.5037294   -105.88861    3920.4498    4.3922869    4.3922869    4.3922869    3920.4498     29527.39    7485.2911   -25251.332    1570.9565   -15473.613   -16259.143    84.736806 
   36300    2056.6754   -107.71892    1.8609231     -105.858    4026.9063    4.3971579    4.3971579    4.3971579    4026.9063   -6912.8022    14288.449     4705.072    569.30549    6672.3852    -4444.657    85.019038 
   36400    1158.9787   -106.90286    1.0486683   -105.85419   -13018.293    4.3979558    4.3979558    4.3979558   -13018.293   -76579.261   -693.84636    38218.228    3143.0579   -13113.459    -8761.125     85.06533 
   36500    2139.8068   -107.75829    1.9361421   -105.82215   -22749.344    4.3990122    4.3990122    4.3990122   -22749.344   -40458.294    -15044.88   -12744.857    13193.673    1160.6295   -165.19227    85.126641 
   36600    1631.2043   -107.28457    1.4759479   -105.80862    25330.839    4.3830284    4.3830284    4.3830284    25330.839   -39396.221     58655.86    56732.876   -7297.5468    6343.5589    925.95277    84.202086 
   36700    1433.9352   -107.11847    1.2974547   -105.82101   -18078.898    4.3979611    4.3979611    4.3979611   -18078.898   -40966.816   -26047.673    12777.795    32090.472    6781.0175   -6558.3116    85.065636 
   36800    1618.8602   -107.26571    1.4647787   -105.80093    20258.073    4.4017769    4.4017769    4.4017769    20258.073   -13708.663    44231.327    30251.554   -1860.5499    13522.507   -4341.6081    85.287244 
   36900    1725.2867   -107.36205    1.5610757   -105.80097    1510.3235    4.3976634    4.3976634    4.3976634    1510.3235   -23016.749   -3168.4685    30716.188     19482.58    9299.9497   -6078.8722     85.04836 
   37000    1523.4183   -107.19528    1.3784209   -105.81686   -17198.586    4.3857942    4.3857942    4.3857942   -17198.586    25487.195   -20638.115   -56444.839   -11184.184    18142.515    33469.025     84.36159 
   37100    1856.6398   -107.49746    1.6799267   -105.81753    23712.417    4.3648491    4.3648491    4.3648491    23712.417   -1692.6249    42700.533    30129.344    20068.857    1822.5603   -9884.7972      83.1587 
   37200    1462.6011   -107.17696    1.3233922   -105.85357   -7896.6275    4.3884174    4.3884174    4.3884174   -7896.6275    10212.929    -20978.03   -12924.781   -6571.5366    1516.0276    17605.791    84.513053 
   37300    1511.1117   -107.20555    1.3672857   -105.83826   -19385.524    4.3966744    4.3966744    4.3966744   -19385.524   -36153.596   -50830.714    28827.736    18585.297     3754.306    27694.474    84.990995 
   37400    1705.1627   -107.36948    1.5428671   -105.82662    13490.566    4.3786609    4.3786609    4.3786609    13490.566   -23635.443    26468.116    37639.026   -3940.8593    1371.7739   -7610.1488    83.950628 
   37500    1663.3428   -107.34595    1.5050275   -105.84092   -26556.055    4.3716758    4.3716758    4.3716758   -26556.055    12252.024   -36454.814   -55465.375   -2993.0646    328.02161    62419.642    83.549498 
   37600    1652.8617   -107.34359     1.495544   -105.84805    46673.459     4.374149     4.374149     4.374149    46673.459    27421.756    41510.175    71088.445    11010.662    10351.555   -2143.1839    83.691379 
   37700    1639.2436   -107.34541    1.4832221   -105.86219   -58527.896    4.4045063    4.4045063    4.4045063   -58527.896   -46111.316   -78473.505   -50998.867   -22060.739   -1307.0858     40420.22    85.445993 
   37800    1679.1784   -107.35979    1.5193559   -105.84044    7645.3803    4.3927221    4.3927221    4.3927221    7645.3803    23095.956   -16733.273    16573.459    11119.683    2784.3739    570.77801       84.762 
   37900    1601.6547   -107.27703    1.4492108   -105.82782    24594.843    4.3609211    4.3609211    4.3609211    24594.843   -6032.0308    25174.065    54642.496   -14478.055    5361.1345    27825.458    82.934396 
   38000    1249.8223   -106.99472    1.1308655   -105.86385   -316.07546    4.3730189    4.3730189    4.3730189   -316.07546    38442.351   -23070.127    -16320.45   -5034.9719   -1304.2316    17505.394    83.626529 
   38100    1918.7315   -107.58505    1.7361086   -105.84894     15064.81    4.3900961    4.3900961    4.3900961     15064.81   -16184.436   -21578.169    82957.034     506.5468    -143.8877    6472.4056    84.610076 
   38200    1241.8696   -106.97673    1.1236697   -105.85306   -50630.046    4.3991927    4.3991927    4.3991927   -50630.046   -25469.517   -69851.143   -56569.479   -15620.692    53.234591     30331.44     85.13712 
   38300    1878.6031   -107.52608    1.6997996   -105.82629    25125.982     4.374714     4.374714     4.374714    25125.982      25126.7   -3627.4735     53878.72   -543.44359    2522.1719   -18308.806    83.723815 
   38400    1447.2031   -107.15098    1.3094598   -105.84152    5258.5271    4.3586342    4.3586342    4.3586342    5258.5271    2306.4622   -4666.8844    18136.003    -11200.49   -1168.6078    43195.794    82.803989 
   38500    1663.3879   -107.35939    1.5050683   -105.85432     6955.671    4.3788577    4.3788577    4.3788577     6955.671    33042.669   -11324.643    -851.0132    5027.4905    84.844947   -48.717394    83.961947 
   38600    1681.5708   -107.37243    1.5215206   -105.85091   -35546.604    4.3957375    4.3957375    4.3957375   -35546.604   -10132.821   -65847.859   -30659.131   -10124.188    2889.1078    24101.719    84.936674 
   38700    1373.9985   -107.08927    1.2432227   -105.84604   -10021.513     4.391866     4.391866     4.391866   -10021.513    7476.7957   -6068.9952    -31472.34    -1660.471     -21348.9    26248.337    84.712448 
   38800    1844.4144   -107.49516    1.6688649    -105.8263   -6197.5899    4.3822788    4.3822788    4.3822788   -6197.5899   -20579.573   -39676.667     41663.47    5007.1039     6153.651    8896.5705    84.158893 
   38900    1059.3676   -106.79082   0.95853803   -105.83228   -7346.9146     4.368979     4.368979     4.368979   -7346.9146    39713.705    -54092.77   -7661.6786   -26815.953    11272.629    45736.384    83.394973 
   39000    2071.5789   -107.70459    1.8744081   -105.83018    903.13357    4.3827661    4.3827661    4.3827661    903.13357   -27674.685   -14976.913    45360.999    9245.1514   -15837.571   -10312.805    84.186969 
   39100    1276.1675   -106.99163    1.1547031   -105.83693   -56872.218    4.4044113    4.4044113    4.4044113   -56872.218   -38006.962   -93498.906   -39110.785   -5232.7729    8614.8575    57481.023    85.440467 
   39200    2105.9506   -107.71893    1.9055084   -105.81342    25313.269    4.3755045    4.3755045    4.3755045    25313.269    11924.682    26531.253    37483.872    1063.1944   -26253.868   -24751.407    83.769206 
   39300    907.31067   -106.66355   0.82095376    -105.8426    38534.141    4.3657017    4.3657017    4.3657017    38534.141    72769.269   -8050.9635    50884.118    10589.218   -5601.2813    17595.599    83.207442 
   39400    2293.1849   -107.92263    2.0749219   -105.84771   -14794.145     4.389352     4.389352     4.389352   -14794.145   -21308.979   -19302.066   -3771.3894   -2503.6584   -16237.275    8148.4399    84.567061 
   39500    1268.7424    -106.9923    1.1479848   -105.84432   -24228.487     4.404263     4.404263     4.404263   -24228.487   -25783.753   -37164.462   -9737.2456    6943.1865   -18710.222   -12034.032    85.431836 
   39600    2032.8879   -107.64671    1.8393997   -105.80731    11612.283    4.3912926    4.3912926    4.3912926    11612.283    20173.502   -36149.396    50812.743   -4338.0163   -13497.034    23813.297    84.679274 
   39700    1081.0866   -106.79359   0.97818987    -105.8154    14158.785    4.3720362    4.3720362    4.3720362    14158.785   -18988.826    36414.238    25050.944    30786.912    1121.3181     -31594.2    83.570163 
   39800    2045.3183   -107.68118     1.850647   -105.83053   -2184.8191    4.3784422    4.3784422    4.3784422   -2184.8191   -35842.617    16633.327    12654.833    -18012.82   -26283.619    11787.178    83.938049 
   39900    1923.7591   -107.56831    1.7406577   -105.82765   -15555.319    4.3952086    4.3952086    4.3952086   -15555.319   -33115.956   -42315.224    28765.224    2087.6923    15823.506   -13817.024    84.906021 
   40000    1086.8973   -106.81536   0.98344749   -105.83191    5655.8612    4.3968547    4.3968547    4.3968547    5655.8612     4154.362    37328.795   -24515.573    2369.4999   -12209.828   -20283.751    85.001451 
   40100    2193.9558   -107.78612    1.9851373   -105.80098   -16615.829    4.4030323    4.4030323    4.4030323   -16615.829    9511.8749   -17623.188   -41736.175   -10270.426    166.87278    1879.8719     85.36024 
   40200    1229.1283   -106.91719    1.1121411   -105.80504   -32579.244    4.3965353    4.3965353    4.3965353   -32579.244   -17453.089    -24306.78   -55977.863    13078.372   -6261.8717   -24623.385    84.982926 
   40300    1856.4587   -107.48489    1.6797628   -105.80512    31530.496    4.3765631    4.3765631    4.3765631    31530.496    86094.198    27785.348   -19288.058   -8374.7128   -15185.489    18670.323    83.830024 
   40400    1527.4247   -107.22715    1.3820459   -105.84511     5030.198     4.364389     4.364389     4.364389     5030.198     23486.48    28628.649   -37024.535     16391.11    8398.1923   -28615.939    83.132407 
   40500    1625.6142    -107.3523    1.4708899   -105.88141    4949.2894    4.3797047    4.3797047    4.3797047    4949.2894   -382.70157    36605.179   -21374.609    7648.1557   -16729.899    3715.5367    84.010679 
   40600    1719.7631   -107.42123    1.5560778   -105.86515   -39612.803    4.4049621    4.4049621    4.4049621   -39612.803    10761.852   -53745.254   -75855.008   -11818.895    6068.1946   -12919.787    85.472523 
   40700    1646.8558   -107.32691    1.4901098    -105.8368    4844.8478    4.3956022    4.3956022    4.3956022    4844.8478    28031.749    38630.852   -52128.057    17262.732    1921.9579   -13310.662    84.928829 
   40800    1612.2713   -107.30067    1.4588169   -105.84186    15745.898    4.3742839    4.3742839    4.3742839    15745.898    35646.949    20719.203    -9128.457   -12526.924   -4689.0848    2815.1597     83.69912 
   40900    1126.7256   -106.89327     1.019485   -105.87379    12746.224    4.3715651    4.3715651    4.3715651    12746.224    18821.076    71345.191   -51927.594    3488.3959    2103.4045   -24847.677    83.543148 
   41000    2055.6607    -107.7333     1.860005    -105.8733    11103.889    4.3922858    4.3922858    4.3922858    11103.889    4709.4722    53904.501   -25302.306    4612.0234   -1630.8681    17046.882    84.736744 
   41100    755.49418   -106.55152   0.68358701   -105.86794   -24610.912    4.4072788    4.4072788    4.4072788   -24610.912    35494.349   -32227.651   -77099.435   -16356.167   -4799.6304     -43100.2    85.607454 
   41200    1996.3253   -107.62647    1.8063171   -105.82015    -17947.22    4.3940927    4.3940927    4.3940927    -17947.22   -769.12019    -13203.93   -39868.611    5073.0294   -423.32982    11370.567    84.841362 
   41300    1715.9749   -107.37027    1.5526501   -105.81762    5774.3286    4.3785573    4.3785573    4.3785573    5774.3286    15895.094   -17225.199    18653.091    -11458.39   -1107.3695    -21158.06     83.94467 
   41400    1459.9874   -107.16112    1.3210273   -105.84009   -14864.671    4.3869461    4.3869461    4.3869461   -14864.671   -9539.2651   -21208.388   -13846.359   -29635.571    1315.2329    7406.2335    84.428076 
   41500    1583.2878   -107.27124    1.4325921   -105.83864    5481.8915    4.3940186    4.3940186    4.3940186    5481.8915    27932.918    8352.4514   -19839.695    45693.675    1543.9662     5780.636    84.837071 
   41600     1392.656   -107.09881    1.2601044   -105.83871   -2194.6183    4.3979679    4.3979679    4.3979679   -2194.6183   -8641.5489    30516.405   -28458.711   -1718.3754   -6999.5433   -4677.0785    85.066028 
   41700    1625.3391   -107.29807    1.4706409   -105.82743    736.56357    4.3958196    4.3958196    4.3958196    736.56357    19842.048   -26044.338    8411.9805    18940.551    310.25697    11861.113    84.941435 
   41800    1136.1199   -106.85664    1.0279852   -105.82866     3845.106    4.3922205    4.3922205    4.3922205     3845.106    15578.415    25735.123   -29778.221   -5459.4087    15020.237   -15324.999    84.732964 
   41900    1831.1512   -107.47474    1.6568641   -105.81788    18835.473    4.3970975    4.3970975    4.3970975    18835.473    55210.697    32858.885   -31563.163   -45831.374   -2865.1519    1005.5889    85.015535 
   42000    658.02073    -106.4209   0.59539098    -105.8255    15335.194      4.40769      4.40769      4.40769    15335.194    60647.848    52055.841   -66698.108   -7025.8289     3395.657   -13546.318    85.631416 
   42100    1745.2605   -107.37496    1.5791484   -105.79581    14391.115      4.40977      4.40977      4.40977    14391.115    20780.529    53627.819   -31235.005   -29568.462   -4687.4412   -2359.6617    85.752702 
   42200    1143.1415   -106.83197    1.0343384   -105.79763    34635.755     4.387215     4.387215     4.387215    34635.755     30865.15    81414.814   -8372.7006   -13796.187   -16765.824    -19662.81    84.443605 
   42300    1141.5071   -106.84412    1.0328596   -105.81126    19968.728     4.385152     4.385152     4.385152    19968.728   -29489.023    359.49445    89035.713    14377.287   -10254.526    -22898.19    84.324533 
   42400    1720.4444   -107.36893    1.5566943   -105.81223    14540.187    4.3932242    4.3932242    4.3932242    14540.187    29211.167    52337.574   -37928.179   -22185.557   -17808.182    1563.6168    84.791068 
   42500    1188.7907   -106.89863    1.0756428   -105.82299   -15541.398    4.4029435    4.4029435    4.4029435   -15541.398   -47950.252   -1043.3562    2369.4139    30908.626    9323.2761   -17690.624     85.35507 
   42600    1880.1357   -107.49821    1.7011863   -105.79703    5733.1529    4.3973722    4.3973722    4.3973722    5733.1529    48524.407   -29745.786   -1579.1623     4098.906   -19613.717    7354.3078    85.031468 
   42700    1024.8079    -106.7434    0.9272677   -105.81613    9633.2464    4.3797991    4.3797991    4.3797991    9633.2464    38244.049   -3848.6827   -5495.6268    19360.654    1260.6059    -17638.89    84.016111 
   42800    2297.9849   -107.89268    2.0792651   -105.81341    16477.954     4.371624     4.371624     4.371624    16477.954    31563.832    6200.4375    11669.592     13055.56   -14778.224    4913.2662    83.546527 
   42900    874.84602   -106.65072   0.79157907   -105.85914    10245.163    4.3828164    4.3828164    4.3828164    10245.163    56149.613   -15088.774   -10325.351   -11762.183    1368.3099   -16296.612    84.189869 
   43000    2009.4767   -107.66486    1.8182168   -105.84664   -2054.4941    4.3953104    4.3953104    4.3953104   -2054.4941    37235.814   -6256.3759    -37142.92    21166.057   -3880.1666    7997.7152    84.911921 
   43100    1470.1353   -107.17778    1.3302093   -105.84757   -33073.724    4.3907093    4.3907093    4.3907093   -33073.724    5180.7021   -32323.887   -72077.988   -18553.614   -12664.907    -24423.46    84.645534 
   43200     1717.122   -107.38202    1.5536881   -105.82833    20519.942    4.3745795    4.3745795    4.3745795    20519.942    71246.464    6855.4176   -16542.055    4365.1691   -4953.9836   -309.24193    83.716092 
   43300    1325.3787   -107.03788    1.1992305   -105.83865    8822.7817    4.3775972    4.3775972    4.3775972    8822.7817     67124.41   -49078.801    8422.7365    8592.7177   -2723.5153   -3041.6923    83.889457 
   43400    1606.8996   -107.29693    1.4539565   -105.84297   -21871.416     4.392207     4.392207     4.392207   -21871.416   -26442.983    1321.9556    -40493.22    9852.8394   -4203.9669    3850.5357    84.732182 
   43500    1705.8697   -107.36916    1.5435067   -105.82566     8028.945    4.3978676    4.3978676    4.3978676     8028.945    56209.536   -11463.632   -20659.068   -11619.618    5502.4973   -16559.371    85.060211 
   43600    1166.8778   -106.88957    1.0558155   -105.83376   -26619.996     4.398123     4.398123     4.398123   -26619.996    25925.124   -71220.395   -34564.718   -2193.2244    10365.399    6496.1542    85.075028 
   43700    2345.8145    -107.9327    2.1225423   -105.81016    1077.0447    4.3748028    4.3748028    4.3748028    1077.0447   -7272.7703    438.64242    10065.262   -8084.3691   -4536.7405   -19715.968    83.728913 
   43800     1019.897   -106.76573    0.9228242    -105.8429    10474.265    4.3739737    4.3739737    4.3739737    10474.265    83796.979    -36821.45   -15552.734   -12904.604    622.30616    5867.0707    83.681315 
   43900    2293.0753   -107.90243    2.0748227   -105.82761   -17789.145     4.387842     4.387842     4.387842   -17789.145   -3354.3791   -28557.138   -21455.917   -22033.145    7813.8321   -4196.6612    84.479815 
   44000    861.92117    -106.6237   0.77988439   -105.84381     12647.77    4.3866128    4.3866128    4.3866128     12647.77    96742.525   -30589.556    -28209.66    15274.185   -9885.0016   -20516.092    84.408834 
   44100    2213.3097   -107.82964    2.0026491   -105.82699   -15607.857    4.3888648    4.3888648    4.3888648   -15607.857   -24049.191   -36346.073    13571.692   -9100.0734    5685.8338    30765.145    84.538902 
   44200    1459.4806   -107.15757    1.3205687     -105.837   -3251.7304    4.3840039    4.3840039    4.3840039   -3251.7304    44788.153    -34288.04   -20255.304   -5419.2141    3183.5024   -39385.898    84.258322 
   44300    1583.4153   -107.27784    1.4327074   -105.84513   -2087.3699    4.3839817    4.3839817    4.3839817   -2087.3699    26122.751   -16873.318   -15511.543    2772.7212   -17486.786    45308.474    84.257039 
   44400    2023.9106   -107.66465    1.8312768   -105.83337   -11144.546     4.384882     4.384882     4.384882   -11144.546   -2143.0448   -20174.745   -11115.849    707.27786    1508.8954   -36483.323    84.308957 
   44500    1293.6322   -107.00814    1.1705056   -105.83763   -23012.187    4.3901054    4.3901054    4.3901054   -23012.187    15201.867   -44070.767   -40167.661     -6286.25   -7799.1535    30851.548    84.610615 
   44600    1900.1597   -107.53019    1.7193044   -105.81089    2007.5786    4.3924362    4.3924362    4.3924362    2007.5786     10550.96    4082.5921   -8610.8165     11214.46   -6740.2376   -5871.7427    84.745451 
   44700    1379.6514   -107.06595    1.2483376   -105.81762   -12048.573    4.3739711    4.3739711    4.3739711   -12048.573    9030.3746   -29244.334    -15931.76    4303.7535    -5033.955   -567.25194    83.681168 
   44800     1708.587   -107.37648    1.5459654   -105.83051    28496.734    4.3679983    4.3679983    4.3679983    28496.734    48098.725    40397.986   -3006.5085    4906.9043    4498.8358    25933.558    83.338829 
   44900    1623.1549    -107.3107    1.4686647   -105.84203     -5229.52    4.3828526    4.3828526    4.3828526     -5229.52   -6699.3821   -11370.504    2381.3265    10661.262   -529.54447   -6541.4811    84.191954 
   45000    1183.9316   -106.91479    1.0712462   -105.84354    9581.2351    4.3935635    4.3935635    4.3935635    9581.2351    16945.406    59106.337   -47308.038   -1185.5116    1153.9446    37909.585    84.810712 
   45100    2213.6546   -107.82121    2.0029612   -105.81825   -26038.996    4.3875698    4.3875698    4.3875698   -26038.996   -33132.604    2851.4276   -47835.811     21095.77    348.69138    -17206.46    84.464094 
   45200    956.59716   -106.69083   0.86554922   -105.82528    9579.6867    4.3716064    4.3716064    4.3716064    9579.6867    20396.838    42355.453   -34013.231   -8502.9177   -1341.1117    21534.095    83.545521 
   45300    2337.4079     -107.932    2.1149358   -105.81707    -4039.934    4.3749461    4.3749461    4.3749461    -4039.934   -13551.822    25369.812   -23937.791    12737.788    9108.1412   -6472.0879    83.737141 
   45400    1094.7435   -106.82489   0.99054695   -105.83434   -9735.7797    4.3784421    4.3784421    4.3784421   -9735.7797    1692.8529    9503.4814   -40403.673    11161.113   -6916.6657    6651.4446    83.938041 
   45500      1987.59   -107.63006    1.7984132   -105.83165   -12839.552    4.3843116    4.3843116    4.3843116   -12839.552    3140.2074   -19424.482   -22234.381   -5760.8514    1642.7577   -4066.1917    84.276062 
   45600    1520.3564   -107.20658    1.3756504   -105.83093   -6402.7403    4.3837384    4.3837384    4.3837384   -6402.7403   -37467.121    30677.241   -12418.342     18958.02   -5066.9851    7012.2817    84.243011 
   45700    1480.3217   -107.16987    1.3394262   -105.83044    4095.1046     4.379963     4.379963     4.379963    4095.1046     52347.19   -22593.505   -17468.371   -6456.7799   -8908.2832   -543.45264    84.025544 
   45800     1729.257   -107.38641    1.5646681   -105.82174    10951.989      4.38032      4.38032      4.38032    10951.989   -34586.109    23149.339    44292.737    16580.508    1127.2456    -3483.425    84.046092 
   45900     1361.058   -107.06742    1.2315139   -105.83591   -5064.5631    4.3798173    4.3798173    4.3798173   -5064.5631    43175.688   -17261.305   -41108.072   -2258.5657    -10471.12    8166.2484    84.017156 
   46000     2180.507    -107.7995    1.9729686   -105.82653    829.41473    4.3823179    4.3823179    4.3823179    829.41473   -17580.873    20412.847   -343.72936    18330.214    4931.0138   -14112.875    84.161144 
   46100    1146.8172   -106.87605    1.0376643   -105.83838   -13288.136    4.3832198    4.3832198    4.3832198   -13288.136   -4193.4734    8410.5737   -44081.507    5291.2751   -5717.4429    18859.972    84.213116 
   46200    2129.0759   -107.75488    1.9264326   -105.82844    4137.9352    4.3759929    4.3759929    4.3759929    4137.9352   -5735.4788   -19621.056    37770.341    675.02691    -1707.486   -2567.8904    83.797261 
   46300    944.16968   -106.71097   0.85430456   -105.85666    11162.334    4.3719437    4.3719437    4.3719437    11162.334    7784.8524    54821.522   -29119.374    4710.7953    7043.9192    6214.7369     83.56486 
   46400    2053.9347   -107.71404    1.8584433   -105.85559    -5964.003    4.3792101    4.3792101    4.3792101    -5964.003   -8467.8531    -12422.14    2997.9844     6185.163   -4439.1665    3841.3983    83.982221 
   46500    1194.2924   -106.94027    1.0806208   -105.85965    -13621.17    4.3900202    4.3900202    4.3900202    -13621.17   -17810.721    24495.222   -47548.012   -1850.4623    7985.2902   -7389.5687    84.605687 
   46600    1659.3204   -107.33897    1.5013879   -105.83758   -28214.699     4.374978     4.374978     4.374978   -28214.699    -26043.82   -10963.134   -47637.143     2877.414   -6946.7848   -731.28975    83.738973 
   46700    1732.4399   -107.39449     1.567548   -105.82695    15765.306    4.3730473    4.3730473    4.3730473    15765.306    28820.585     23152.78   -4677.4455    2505.4288    11062.053    9607.7186    83.628156 
   46800    959.97708   -106.72246   0.86860743   -105.85385   -47215.316    4.3847892    4.3847892    4.3847892   -47215.316   -69139.102    21905.464    -94412.31    4698.8591    8679.0919   -11891.204    84.303607 
   46900     2303.572   -107.91009    2.0843203   -105.82577    27460.513    4.3789426    4.3789426    4.3789426    27460.513    34605.337    36263.115    11513.089   -7509.4905   -3289.3815    25391.179    83.966827 
   47000     486.8013   -106.30024   0.44046805   -105.85977   -23825.247    4.3862306    4.3862306    4.3862306   -23825.247   -51970.244    65840.991   -85346.487    16334.992    22458.987   -19315.463    84.386773 
   47100    2848.1874   -108.41199    2.5770998   -105.83489   -10743.861    4.3798156    4.3798156    4.3798156   -10743.861   -25043.075   -5503.5563   -1684.9504    -16796.76   -11305.563    22897.468    84.017062 
   47200      553.722   -106.36637    0.5010193   -105.86535   -17537.377    4.3867579    4.3867579    4.3867579   -17537.377   -124.50495    6431.8484   -58919.474    9424.8224    34618.991   -24333.883    84.417208 
   47300    2064.4604   -107.71161    1.8679671   -105.84365   -9590.3589    4.3781036    4.3781036    4.3781036   -9590.3589   -19024.225    3009.8171   -12756.669    -8343.845    -13103.32    18033.256    83.918576 
   47400     1257.966   -106.98635    1.1382341   -105.84811   -3120.3992    4.3808457    4.3808457    4.3808457   -3120.3992    9374.6155    21862.779   -40598.592      211.203    29721.909   -16232.939    84.076357 
   47500    1473.6651   -107.17982    1.3334031   -105.84641   -35157.022    4.3853839    4.3853839    4.3853839   -35157.022   -48356.727    798.13766   -57912.478   -15394.955    17848.589   -10301.694    84.337913 
   47600    1930.1788   -107.57819    1.7464664   -105.83173   -6879.6501    4.3781582    4.3781582    4.3781582   -6879.6501    14814.862   -20116.594   -15337.218    2040.0473    -4480.321    21793.272    83.921713 
   47700    1253.7318   -106.98207    1.1344028   -105.84766    -27880.78    4.3785916    4.3785916    4.3785916    -27880.78   -30688.768   -15859.538   -37094.035   -13568.338    33755.855   -27809.316     83.94664 
   47800     1849.925   -107.50914     1.673851   -105.83529    11990.326    4.3691605    4.3691605    4.3691605    11990.326    19326.177    18020.897   -1376.0957    16749.762   -9832.4615    25809.805    83.405368 
   47900    1418.2591   -107.13866    1.2832707   -105.85539   -13916.412    4.3787456    4.3787456    4.3787456   -13916.412    9389.3329   -43265.999   -7872.5712   -15652.152    17657.685    9730.5511    83.955496 
   48000    1891.3994   -107.54841    1.7113779   -105.83703    1850.9221    4.3875823    4.3875823    4.3875823    1850.9221    48908.346   -11556.324   -31799.256    15298.103    10032.127    777.61373    84.464813 
   48100    1328.0631   -107.04299    1.2016594   -105.84133   -17180.792    4.3900656    4.3900656    4.3900656   -17180.792    13835.008   -42735.637   -22641.746    3267.5053    10006.439    50107.047     84.60831 
   48200    1742.3606   -107.40263    1.5765245   -105.82611    20252.922    4.3782573    4.3782573    4.3782573    20252.922     66215.11   -3546.9279   -1909.4155   -254.51711    23461.686   -17021.206    83.927415 
   48300    1490.5513   -107.18111    1.3486822   -105.83243   -4267.1025     4.367651     4.367651     4.367651   -4267.1025    16819.331    -49909.57    20288.931    18958.521   -3567.8449    58587.063     83.31895 
   48400    1900.5951   -107.55216    1.7196984   -105.83246    22558.937    4.3755655    4.3755655    4.3755655    22558.937     43368.23    7175.4348    17133.147   -8406.7967     8859.893   -7962.8165    83.772712 
   48500    1146.7931    -106.8734    1.0376425   -105.83576   -7914.3057    4.3887045    4.3887045    4.3887045   -7914.3057     29.94359   -57084.835    33311.975    14084.658    10021.633    48457.631    84.529642 
   48600    2084.6983   -107.70798    1.8862789    -105.8217   -21149.333    4.3794886    4.3794886    4.3794886   -21149.333   -21191.513   -47047.564    4791.0779    4048.6007    2778.3382    18312.159    83.998241 
   48700    1411.3217   -107.10572    1.2769935   -105.82873    17526.711     4.366648     4.366648     4.366648    17526.711    24764.943   -14615.428    42430.619   -2048.0077    20297.317    28343.033    83.261559 
   48800    1460.3538   -107.16439    1.3213588   -105.84303   -27581.337    4.3726883    4.3726883    4.3726883   -27581.337   -7326.7266   -53667.431   -21749.854    16145.094     5814.006    48826.461    83.607565 
   48900     2037.022   -107.68396    1.8431403   -105.84082    2063.4669    4.3777511    4.3777511    4.3777511    2063.4669   -13197.343    3438.8109    15948.933    8520.6519    9304.5669   -12551.072    83.898308 
   49000    990.32121   -106.76031   0.89606344   -105.86425   -11494.565    4.3797036    4.3797036    4.3797036   -11494.565   -2475.0253   -46552.855    14544.185    8734.0922    18932.943    48763.009    84.010617 
   49100    2251.6853   -107.88722    2.0373722   -105.84985   -157.54082    4.3754405    4.3754405    4.3754405   -157.54082    5063.6938   -8000.5334    2464.2172    26416.135    1152.2455   -23122.331    83.765533 
   49200    1334.7373   -107.07244    1.2076984   -105.86474    6852.2929    4.3707903    4.3707903    4.3707903    6852.2929   -2674.5993    -7568.531    30800.009   -7277.5491    3691.2151    56880.016    83.498739 
   49300     1349.155   -107.09524    1.2207438    -105.8745    2717.0855    4.3777098    4.3777098    4.3777098    2717.0855    7035.2048    -57681.43    58797.482    48177.098    6349.6552    5507.5113    83.895931 
   49400    2000.5921   -107.68149    1.8101778   -105.87131   -15868.571    4.3845185    4.3845185    4.3845185   -15868.571      1180.41    -15515.77   -33270.353    1961.8148   -13255.927    30659.246    84.287996 
   49500     949.2133   -106.73435   0.85886814   -105.87548    -9436.104    4.3858982    4.3858982    4.3858982    -9436.104   -15462.377   -45346.099    32500.164    30483.461    8130.7657     32222.47    84.367588 
   49600    1903.4282   -107.57634    1.7222618   -105.85407   -3253.6562    4.3810407    4.3810407    4.3810407   -3253.6562   -34344.889    -26705.07     51288.99    35007.988   -16272.446   -12448.004    84.087581 
   49700    1754.2458   -107.45249    1.5872785   -105.86521   -13177.228    4.3779591    4.3779591    4.3779591   -13177.228    7730.2536   -41372.559   -5889.3788     3775.451    16823.839    28917.162    83.910267 
   49800     1603.279   -107.32654    1.4506806   -105.87585   -17947.803    4.3765799    4.3765799    4.3765799   -17947.803   -63296.438   -6107.1963    15560.226     44474.51   -392.95829    -907.9481     83.83099 
   49900    2038.7652    -107.7119    1.8447176   -105.86718    9795.1456    4.3762234    4.3762234    4.3762234    9795.1456    13470.647   -33799.107    49713.897   -8499.0889   -10647.973    13511.663    83.810505 
   50000     683.2456   -106.50854   0.61821498   -105.89032   -8643.8635    4.3809177    4.3809177    4.3809177   -8643.8635   -38658.615   -9996.1566    22723.181    53948.983    7967.1992    37541.258    84.080497 
   50100     2626.699   -108.23022    2.3766925   -105.85353   -8318.7098    4.3779517    4.3779517    4.3779517   -8318.7098   -20597.979    -5046.737    688.58632   -19934.292   -17728.204    3224.9608    83.909841 
   50200    712.89883   -106.52423   0.64504585   -105.87919    34492.646    4.3698038    4.3698038    4.3698038    34492.646    724.87034    12637.464    90115.605     54089.94   -6751.6864    30259.274    83.442213 
   50300    2026.4774   -107.69512    1.8335994   -105.86152   -18544.079    4.3805623    4.3805623    4.3805623   -18544.079   -28692.876    618.22521   -27557.586    7181.2078   -5663.1208    21158.046    84.060037 
   50400    1369.4066   -107.09291    1.2390679   -105.85384    17574.161    4.3850197    4.3850197    4.3850197    17574.161   -6444.2223    541.61949    58625.085    23056.223   -8709.5248   -7959.2864    84.316905 
   50500     1459.383   -107.15711    1.3204804   -105.83663   -11701.544    4.3806537    4.3806537    4.3806537   -11701.544    2018.6072   -18595.607   -18527.631    39664.831   -7217.4417    40566.057    84.065303 
   50600    1448.6627   -107.13614    1.3107805   -105.82536    30490.301    4.3819356    4.3819356    4.3819356    30490.301    45299.867    17861.113    28309.924    8899.2529   -4441.3087   -1787.3873    84.139119 
   50700    1038.3317   -106.77195   0.93950431   -105.83245    14283.933    4.3986059    4.3986059    4.3986059    14283.933    92036.145   -39760.618   -9423.7263    48113.725   -15933.427    34455.849    85.103056 
   50800    1744.2286   -107.36984    1.5782147   -105.79163   -11208.045    4.4128922    4.4128922    4.4128922   -11208.045    35514.969   -12645.419   -56493.683   -2405.1122    10997.734   -3816.2158    85.934975 
   50900     925.7145   -106.62395   0.83760593   -105.78634   -2699.1456    4.3912247    4.3912247    4.3912247   -2699.1456    39470.297   -9997.4869   -37570.247    44948.394    1.3425737    16252.826    84.675346 
   51000    1829.0255   -107.44334    1.6549407    -105.7884    34763.231    4.3654473    4.3654473    4.3654473    34763.231     51214.17    54481.684   -1406.1607   -626.76418    6726.8845    12944.159      83.1929 
   51100    1360.3466   -107.06059    1.2308702   -105.82972    7415.5516    4.3778895    4.3778895    4.3778895    7415.5516    8313.9479    34381.324   -20448.617    23382.811    3050.6909    6531.3565    83.906263 
   51200    1439.9625   -107.14897    1.3029084   -105.84606   -10197.494    4.3904459    4.3904459    4.3904459   -10197.494   -19297.427   -33385.598    22090.542     18655.85   -3896.7678    51013.965    84.630302 
   51300    1881.7582   -107.53738    1.7026544   -105.83472   -278.90141    4.3909735    4.3909735    4.3909735   -278.90141     -21499.3   -11513.914     32176.51   -13901.197    19177.041   -16693.457    84.660814 
   51400    1113.5797   -106.85101    1.0075903   -105.84342    -4514.629    4.3684856    4.3684856    4.3684856    -4514.629    3976.9984   -28866.621    11345.736    19081.241   -5465.6421    50327.352    83.366723 
   51500    2310.7083   -107.93231    2.0907774   -105.84153    7320.0011    4.3676652    4.3676652    4.3676652    7320.0011    20534.951   -19630.534    21055.587   -10929.162    11168.174   -2679.5454    83.319761 
   51600    1109.7467   -106.86319    1.0041221   -105.85907    3108.9351    4.3817873    4.3817873    4.3817873    3108.9351    19085.801   -14714.153    4955.1578     7269.846    27890.001    28230.958    84.130579 
   51700    1628.3321   -107.32335    1.4733491      -105.85   -12251.658    4.3918353    4.3918353    4.3918353   -12251.658   -12771.068    -36919.53    12935.622    11786.322   -4563.4802    18194.372    84.710673 
   51800    2361.7125   -107.97255    2.1369271   -105.83563   -15262.071    4.3846991    4.3846991    4.3846991   -15262.071   -27566.733   -29481.709    11262.228   -4079.8649    7243.0692    3084.7648    84.298411 
   51900    1015.4997   -106.77081   0.91884545   -105.85196    36569.497    4.3411972    4.3411972    4.3411972    36569.497    42646.054   -991.40145     68053.84    17055.668    4636.1277    59235.575     81.81417 
   52000    2024.9422   -107.70086    1.8322103   -105.86865    35877.731    4.3541792    4.3541792    4.3541792    35877.731      42812.8    44913.173    19907.219    -1579.271   -2791.6116   -29342.911    82.550347 
   52100    1502.7201   -107.22141    1.3596927   -105.86172   -30678.577    4.3930433    4.3930433    4.3930433   -30678.577   -5017.4661   -66325.121   -20693.143    4938.3621   -4098.9118    31117.668    84.780594 
   52200    1395.3822   -107.10082    1.2625712   -105.83825    11846.803    4.3931868    4.3931868    4.3931868    11846.803   -9618.5978    24771.814    20387.194    14309.611    10506.793    6060.0672    84.788902 
   52300    2005.3468   -107.64166    1.8144799   -105.82718   -9111.8639     4.376541     4.376541     4.376541   -9111.8639     7121.485    11710.546   -46167.622   -3194.4395   -26726.477   -9522.0983    83.828751 
   52400    1285.2914   -107.00593    1.1629587   -105.84297    8909.7777    4.3547211    4.3547211    4.3547211    8909.7777    4759.5265   -1041.2141    23011.021    22487.024     3848.202    35470.093    82.581173 
   52500     1835.383   -107.52102    1.6606931   -105.86033    13507.637    4.3727529    4.3727529    4.3727529    13507.637   -27436.466    69519.926   -1560.5501    18472.011    6784.4001    -14652.51    83.611268 
   52600    1692.1695   -107.39208    1.5311105   -105.86097   -13936.135    4.3803328    4.3803328    4.3803328   -13936.135    4280.0938   -18296.144   -27792.354     6662.827   -15320.272     23771.58    84.046826 
   52700    1493.6971   -107.20288    1.3515285   -105.85135    3463.8092    4.3682321    4.3682321    4.3682321    3463.8092   -33569.559    34079.172    9881.8148    18811.033    22894.525    14952.866    83.352211 
   52800    1860.2153   -107.52153    1.6831619   -105.83837    21861.043    4.3710434    4.3710434    4.3710434    21861.043    31441.668     49212.72    -15071.26   -7316.8704    -8229.128    5803.2597    83.513245 
   52900    1099.5711   -106.85723   0.99491501   -105.86231     1569.315    4.3635345    4.3635345    4.3635345     1569.315   -2537.0138   -19523.355    26768.314    32615.215     14390.69    19101.356    83.083586 
   53000    2041.3175   -107.71169     1.847027   -105.86466   -8641.4535    4.3722721    4.3722721    4.3722721   -8641.4535   -12049.321   -1463.9843   -12411.055   -7197.9748    15295.135   -5665.0506     83.58369 
   53100    1650.4742   -107.34488    1.4933838    -105.8515   -9620.1239    4.3862281    4.3862281    4.3862281   -9620.1239    38426.183   -37768.506   -29518.049    7686.8998   -960.29512    17260.741    84.386627 
   53200     966.0088    -106.7373   0.87406507   -105.86323   -14622.299    4.3737604    4.3737604    4.3737604   -14622.299   -48489.864   -46409.461    51032.428    36155.257    36465.794    10416.974    83.669072 
   53300    2241.0575   -107.87815    2.0277559    -105.8504    33246.745    4.3500391    4.3500391    4.3500391    33246.745    76905.284    3813.3669    19021.584   -2439.3769    3790.9519   -13660.188    82.315094 
   53400     1415.272   -107.17443    1.2805678   -105.89386   -7953.8081    4.3616417    4.3616417    4.3616417   -7953.8081   -19978.795   -25837.459    21954.829    30429.126    12141.746     13833.76    82.975515 
   53500    1254.4515   -107.01954    1.1350541   -105.88448   -30627.738    4.3882222    4.3882222    4.3882222   -30627.738   -4821.6725   -39844.035   -47217.506    1318.7591    26692.188    6742.5206    84.501772 
   53600    2130.8727   -107.78163    1.9280584   -105.85357    31595.724    4.3652208    4.3652208    4.3652208    31595.724    52143.089    5631.3152    37012.769    13375.793   -20750.454   -5139.9737    83.179951 
   53700    1096.4774   -106.86178   0.99211583   -105.86966   -2122.7144    4.3520545    4.3520545    4.3520545   -2122.7144    -27282.52    13901.817    7012.5601    11677.798    45683.599    8449.6427    82.429556 
   53800    1717.3617   -107.42869    1.5539049   -105.87479    16568.633    4.3630759    4.3630759    4.3630759    16568.633    67831.473   -15432.667    -2692.907   -8357.5532    5114.2212    963.94344    83.057394 
   53900    1747.2627   -107.45513      1.58096   -105.87417    690.09282    4.3776524    4.3776524    4.3776524    690.09282   -12593.498    11545.895     3117.882    10092.861   -6019.6072    6847.6981     83.89263 
   54000     1109.009   -106.87752    1.0034547   -105.87406   -15395.615    4.3753275    4.3753275    4.3753275   -15395.615    11033.697   -17217.619   -40002.922    7018.5776    47025.535    16103.789    83.759041 
   54100    2204.0681   -107.84891    1.9942871   -105.85462    9889.0928    4.3573466    4.3573466    4.3573466    9889.0928    28499.651    5233.2845   -4065.6571   -2923.4322   -42321.952   -9212.1882    82.730628 
   54200    1427.1709   -107.15908    1.2913342   -105.86775    19822.657    4.3577167    4.3577167    4.3577167    19822.657    33017.376    39480.288   -13029.693    20784.098    16225.586    10299.925    82.751713 
   54300    1697.1473   -107.41918    1.5356145   -105.88356   -19907.798    4.3699118    4.3699118    4.3699118   -19907.798   -22754.221    1453.7854   -38422.957    8781.1254    10456.545    15863.805    83.448402 
   54400    1807.2166   -107.51205    1.6352075   -105.87684    1467.4693    4.3784972    4.3784972    4.3784972    1467.4693    11830.996    11038.162   -18466.749   -17423.594   -25908.105   -23030.074    83.941209 
   54500    1479.5265   -107.20392    1.3387067   -105.86521    14408.651    4.3717821    4.3717821    4.3717821    14408.651    3121.4064    42722.484   -2617.9376   -6017.9218    23550.316    13083.518     83.55559 
   54600    1406.9813    -107.1356    1.2730662   -105.86254   -3182.8678    4.3636169    4.3636169    4.3636169   -3182.8678   -17051.821    29552.359   -22049.142    16244.716   -14947.411    7931.1003    83.088293 
   54700     1667.703   -107.37312    1.5089727   -105.86415    21964.563    4.3606598    4.3606598    4.3606598    21964.563    68388.515    17822.264   -20317.091   -20263.182   -3587.0991    -41330.68    82.919492 
   54800    1799.2033   -107.50083    1.6279569   -105.87287   -9187.4112    4.3749865    4.3749865    4.3749865   -9187.4112    13880.181   -2484.3724   -38958.043    24174.399    17026.626    35211.448    83.739461 
   54900    748.48237   -106.55266   0.67724258   -105.87542   -22554.216    4.3762256    4.3762256    4.3762256   -22554.216    63016.349   -39593.425   -91085.573    -7812.091   -15470.782   -54047.307    83.810629 
   55000    1884.2796   -107.56776    1.7049358   -105.86282    12128.259    4.3574051    4.3574051    4.3574051    12128.259    28512.081    31820.349   -23947.654     8156.168    10609.188   -4542.4346    82.733962 
   55100    1756.2743   -107.46278    1.5891139   -105.87367   -11027.259    4.3572407    4.3572407    4.3572407   -11027.259    24852.703   -4567.7798     -53366.7    3973.1175   -18171.293   -18517.969    82.724597 
   55200    1290.0806   -107.04637     1.167292   -105.87908   -13890.963    4.3759673    4.3759673    4.3759673   -13890.963    60005.069   -23860.914   -77817.044    6603.5075    39.076884   -36520.852    83.795788 
   55300    2207.5955   -107.84298    1.9974788    -105.8455   -4335.8928    4.3848713    4.3848713    4.3848713   -4335.8928    42825.891   -16830.323   -39003.246   -6197.6978    1043.8329   -295.00812    84.308343 
   55400    1429.7099   -107.14822    1.2936315   -105.85459    -11298.98    4.3675156    4.3675156    4.3675156    -11298.98     56376.08   -38767.943   -51505.077    13563.017   -24256.046   -45226.661    83.311198 
   55500    1487.9235   -107.18858    1.3463044   -105.84228    27851.301    4.3528613    4.3528613    4.3528613    27851.301    72442.899     37860.54   -26749.536   -15639.661    19953.127    21571.462    82.475411 
   55600    1910.6205    -107.5834    1.7287696   -105.85463   -8559.0059    4.3666886    4.3666886    4.3666886   -8559.0059    34031.919   -18599.631   -41109.306    3059.0299    1104.4124   -43011.439    83.263886 
   55700     1602.911   -107.30397    1.4503475   -105.85362    7328.2479    4.3825783    4.3825783    4.3825783    7328.2479    55238.051     21239.05   -54492.357   -11762.219   -16055.554    13894.051    84.176147 
   55800    1653.2301   -107.33579    1.4958774   -105.83991   -34352.476    4.3909778    4.3909778    4.3909778   -34352.476   -19508.125   -13372.912    -70176.39   -4760.7761    23862.505   -9857.8048    84.661065 
   55900    1815.8428    -107.4753    1.6430128   -105.83229    10805.492    4.3574074    4.3574074    4.3574074    10805.492     55959.61   -2749.0099   -20794.125   -10590.923   -25198.603   -9451.0142    82.734089 
   56000    1126.2607   -106.86512    1.0190643   -105.84605    15929.138    4.3432253    4.3432253    4.3432253    15929.138    52952.404    39539.343   -44704.334   -3048.7021    21273.999     14576.14    81.928889 
   56100    2128.7551   -107.78509    1.9261424   -105.85895    16368.398    4.3630524    4.3630524    4.3630524    16368.398    55388.786     28673.27    -34956.86   -17552.687    9638.3286   -10952.997    83.056052 
   56200    1554.1939   -107.27666    1.4062673   -105.87039   -41394.894    4.3874707    4.3874707    4.3874707   -41394.894    -18746.64   -28914.831   -76523.211   -2616.8752    -2491.969     14908.85    84.458369 
   56300    1481.5777   -107.19826    1.3405627   -105.85769   -28923.615    4.3879291    4.3879291    4.3879291   -28923.615   -19093.245   -1838.5841   -65839.015   -5199.0138    21296.355   -2787.4916    84.484846 
   56400    2044.5584   -107.68095    1.8499594   -105.83099    29243.841    4.3638301    4.3638301    4.3638301    29243.841    112218.18   -2473.9447    -22012.71    -18102.02   -16058.519    5053.8517    83.100475 
   56500    891.02095   -106.66242   0.80621448   -105.85621    4555.8826    4.3629817    4.3629817    4.3629817    4555.8826    34093.667    24630.579   -45056.598    7626.6567    23274.682    10338.516    83.052018 
   56600      2005.91   -107.66631    1.8149895   -105.85132    -4775.584    4.3810671    4.3810671    4.3810671    -4775.584    32507.391   -35486.538   -11347.605    4190.3881   -15023.721   -5717.6255      84.0891 
   56700    1512.0468   -107.21942    1.3681317   -105.85129   -22467.614    4.3871432    4.3871432    4.3871432   -22467.614   -12367.454   -9471.5441   -45563.845    841.49195    38260.995   -4000.3777    84.439458 
   56800    1546.2188   -107.23819    1.3990513   -105.83914    7412.8703    4.3685497    4.3685497    4.3685497    7412.8703    15228.556    25460.801   -18450.746    4910.5861    6522.7667     -263.977     83.37039 
   56900    1616.5213   -107.30563    1.4626624   -105.84297    10874.626    4.3677372    4.3677372    4.3677372    10874.626    66399.707   -23641.349   -10134.479    4069.1362    10601.091   -699.67308     83.32388 
   57000    1284.4162   -107.01255    1.1621668   -105.85038    4861.6418    4.3685407    4.3685407    4.3685407    4861.6418    842.34659     40209.92   -26467.341    4121.3195    55066.177   -6213.6076    83.369877 
   57100    1660.3013   -107.35547    1.5022755    -105.8532    8189.3787    4.3683214    4.3683214    4.3683214    8189.3787    26876.398    19777.039   -22085.301    11286.757   -29526.302   -2766.1628    83.357324 
   57200    1585.8513   -107.28394    1.4349116   -105.84903   -43990.124      4.38806      4.38806      4.38806   -43990.124    -37987.33   -29764.139   -64218.903   -8285.9619    35168.051   -1409.2685    84.492402 
   57300    1797.4714   -107.45655    1.6263899   -105.83016    12335.668    4.3700701    4.3700701    4.3700701    12335.668   -11688.344     79423.92   -30728.572    933.70865   -6418.3474   -6665.0529    83.457471 
   57400    1941.7905   -107.59029    1.7569728   -105.83332   -6155.0495    4.3616542    4.3616542    4.3616542   -6155.0495   -11073.823    5292.3594   -12683.685    84.586979    434.18048   -8221.8049    82.976231 
   57500    1155.7024   -106.90626    1.0457038   -105.86056   -32838.122    4.3795415    4.3795415    4.3795415   -32838.122   -32995.187    4884.4661   -70403.646    -12114.75     23421.56    7811.7001    84.001288 
   57600     2233.966   -107.86366    2.0213394   -105.84232     7710.803     4.376131     4.376131     4.376131     7710.803   -25706.041    59222.133   -10383.683   -6197.1556   -21759.729   -224.69206    83.805197 
   57700    1415.5396    -107.1358      1.28081   -105.85499   -10216.558    4.3746315    4.3746315    4.3746315   -10216.558   -13668.081    26179.216   -43160.809    902.27524    30520.655    1016.4186    83.719076 
   57800    1748.8691   -107.42857    1.5824135   -105.84616   -10473.769    4.3738452    4.3738452    4.3738452   -10473.769   -22248.448    19276.187   -28449.047    6439.3896   -3436.2632    19509.638    83.673941 
   57900    1863.3126   -107.53505    1.6859644   -105.84909    9652.1651    4.3667632    4.3667632    4.3667632    9652.1651   -2339.5748    28012.323    3283.7473   -4475.8047    15713.505   -13405.857    83.268153 
   58000     1221.167   -106.98328    1.1049375   -105.87835    13503.406    4.3801585    4.3801585    4.3801585    13503.406    15807.937    66564.708   -41862.428    -8869.045    15861.416    38783.649    84.036793 
   58100    2433.8225   -108.05608    2.2021737   -105.85391   -36917.885    4.3913087    4.3913087    4.3913087   -36917.885   -41852.971    -38802.32   -30098.366    -12531.13   -8296.4767   -16053.918    84.680205 
   58200    872.46508   -106.65231   0.78942474   -105.86288    5743.3906    4.3703823    4.3703823    4.3703823    5743.3906    16056.923    55754.143   -54580.894   -8257.2354    21631.345    10605.673    83.475358 
   58300    2452.8161   -108.05741    2.2193596   -105.83805    8271.0945    4.3675521    4.3675521    4.3675521    8271.0945     9283.066    13644.711     1885.507     4946.311   -6705.3007    8147.6511    83.313288 
   58400    1106.7047   -106.85708    1.0013696   -105.85571   -9371.7187     4.378785     4.378785     4.378785   -9371.7187    -18692.71    53525.662   -62948.108   -4606.4667    14056.583   -5933.7715    83.957764 
   58500    1731.1157   -107.42037    1.5663499   -105.85402   -1395.7264    4.3790074    4.3790074    4.3790074   -1395.7264    38147.446   -15979.977   -26354.648    4239.0796   -2336.0925    19281.525    83.970558 
   58600    1476.3418   -107.18842    1.3358251    -105.8526    18198.008    4.3747115    4.3747115    4.3747115    18198.008   -1816.9767    89610.089   -33199.089    15216.757   -17902.535   -14507.913    83.723668 
   58700    1454.8734   -107.16986       1.3164   -105.85346   -2131.1898    4.3629314    4.3629314    4.3629314   -2131.1898    77776.167   -34336.288   -49833.448   -15130.051    27169.556     25939.31    83.049143 
   58800    1707.2849   -107.40651    1.5447873   -105.86172    1290.2889    4.3661028    4.3661028    4.3661028    1290.2889   -12078.094    45533.973   -29585.013    874.63323   -43842.751    2449.6124    83.230376 
   58900    1516.0458   -107.23886    1.3717501   -105.86711    -16361.79    4.3727922    4.3727922    4.3727922    -16361.79   -14272.109    26700.084   -61513.344   -915.41548    43373.822    9818.4239    83.613523 
   59000    1859.9452    -107.5331    1.6829175   -105.85018   -16423.972    4.3674547    4.3674547    4.3674547   -16423.972    10265.423   -11524.502   -48012.835   -14155.335   -19230.726    19157.831    83.307713 
   59100    1254.8653   -106.99319    1.1354285   -105.85776    1713.2187    4.3625384    4.3625384    4.3625384    1713.2187   -40373.722    91213.664   -45700.286    12979.258       -16893   -9720.8773    83.026701 
   59200    1390.5431   -107.12561    1.2581926   -105.86742    2084.9168    4.3613942    4.3613942    4.3613942    2084.9168    59326.205    6061.6007   -59133.055   -14257.755     37929.53    27456.368    82.961389 
   59300    2156.3674   -107.81374    1.9511265   -105.86261    -11291.21     4.368666     4.368666     4.368666    -11291.21    -7964.874     12201.89   -38110.645    5203.5585   -44569.949   -8550.3552    83.377049 
   59400    967.78092   -106.74729   0.87566851   -105.87162   -40803.359    4.3836937    4.3836937    4.3836937   -40803.359   -48470.603   -7789.7201   -66149.755    -4619.934    47743.605    9913.1986    84.240433 
   59500    1655.1202   -107.35696    1.4975875   -105.85937    4900.2849    4.3735608    4.3735608    4.3735608    4900.2849    96162.727   -34247.233   -47214.639    6550.1752   -9458.8843    17389.278    83.657622 
   59600    1865.6209   -107.54732     1.688053   -105.85927    22645.305    4.3517905    4.3517905    4.3517905    22645.305    27675.548     79631.55   -39371.183    207.86783    40126.129   -4318.8992    82.414559 
   59700     1556.192   -107.29648    1.4080752   -105.88841   -7617.0784    4.3683439    4.3683439    4.3683439   -7617.0784    52884.629   -10663.051   -65072.813    13098.788    14046.084     19622.19    83.358612 
   59800    1679.1723   -107.38573    1.5193503   -105.86638   -4729.6956    4.3954484    4.3954484    4.3954484   -4729.6956    63379.741   -37170.064   -40398.764    5491.8864    8356.9999   -3121.0982    84.919914 
   59900    1279.4435   -107.02188    1.1576674   -105.86421   -20023.211    4.3936057    4.3936057    4.3936057   -20023.211    16370.232   -13563.132   -62876.732   -3053.3084    23006.575    14537.727    84.813156 
   60000    1646.5794   -107.34196    1.4898596    -105.8521   -4047.4542    4.3656708    4.3656708    4.3656708   -4047.4542   -11603.546    4527.3742   -5066.1908    3467.3544   -18765.437   -2664.3901    83.205678 
   60100    2046.3066   -107.70091    1.8515412   -105.84937     12290.98    4.3564116    4.3564116    4.3564116     12290.98    55625.761    -7564.169   -11188.652   -22727.519    2819.3933    10863.498    82.677381 
   60200    1292.6801    -107.0383    1.1696441   -105.86866    12312.498    4.3737967    4.3737967    4.3737967    12312.498      85873.7   -43972.363   -4963.8419    9139.7963    3400.2099    15943.207    83.671157 
   60300    1590.2294   -107.30708    1.4388729   -105.86821   -35742.953    4.3864002    4.3864002    4.3864002   -35742.953   -60119.048   -15096.231    -32013.58   -28562.533   -11860.414   -1426.5243    84.396562 
   60400    1489.3723   -107.20332    1.3476153   -105.85571    10713.966    4.3656416    4.3656416    4.3656416    10713.966    92668.781   -33729.931   -26796.952   -10421.746   -1710.1757    50956.366    83.204005 
   60500     2029.112   -107.67844    1.8359831   -105.84246   -326.54014    4.3507135    4.3507135    4.3507135   -326.54014   -12926.716   -19573.288    31520.384    6126.3774    5015.9504   -14450.774    82.353384 
   60600    882.49512   -106.67398   0.79850013   -105.87548    -6814.223    4.3624326    4.3624326    4.3624326    -6814.223    6705.0196   -18521.351    -8626.337   -4721.3726   -13807.666    60166.916     83.02066 
   60700    2056.3924   -107.71934    1.8606671   -105.85867    9115.5117    4.3872507    4.3872507    4.3872507    9115.5117    72017.666   -24745.488   -19925.643    4091.3902     23582.45     244.6259    84.445666 
   60800      1430.35   -107.15879    1.2942108   -105.86458   -30112.148    4.3889784    4.3889784    4.3889784   -30112.148    8009.6951   -41053.536   -57292.604    16687.132   -24656.061    24856.887     84.54547 
   60900    1256.0232   -106.98794    1.1364762   -105.85146     21581.38    4.3554898    4.3554898    4.3554898     21581.38    92882.987   -12816.542   -15322.306     2678.046    2776.2556    26774.184    82.624912 
   61000    1998.5662   -107.66855    1.8083447   -105.86021    14205.775    4.3573154    4.3573154    4.3573154    14205.775    28789.303    18383.555   -4555.5324   -2190.9603    8449.1462    12040.296    82.728853 
   61100    1370.8351   -107.12633    1.2403604   -105.88597    87.246287    4.3801498    4.3801498    4.3801498    87.246287    54202.416   -16370.455   -37570.223    -3701.802   -19661.891    41093.608    84.036292 
   61200    1674.0721   -107.36736    1.5147357   -105.85262   -36972.844    4.3999992    4.3999992    4.3999992   -36972.844   -34854.779    -44658.73   -31405.023   -6280.8722    15435.543   -11496.136    85.183953 
   61300    1525.7214   -107.21796    1.3805048   -105.83746     10555.19    4.3700997    4.3700997    4.3700997     10555.19    39032.991    14259.897   -21627.318    11861.751    4291.6459    53638.995    83.459165 
   61400    1943.0425   -107.57162    1.7581057   -105.81351    55647.484    4.3462364    4.3462364    4.3462364    55647.484    96427.713    29606.955    40907.782   -40859.357    4427.6455   -17324.713    82.099411 
   61500    938.45688   -106.72277    0.8491355   -105.87363   -12043.839    4.3745385    4.3745385    4.3745385   -12043.839    3700.9911   -10138.867   -29693.641     20296.71    16395.583    50716.182    83.713738 
   61600    2305.9162   -107.92198    2.0864415   -105.83553    -10411.68    4.3930931    4.3930931    4.3930931    -10411.68    7417.6803     3223.681   -41876.402   -17680.927    -13953.82    4775.7132    84.783475 
   61700    1387.4676   -107.09518    1.2554099   -105.83977    22420.998    4.3790725    4.3790725    4.3790725    22420.998    62048.291    25001.951   -19787.247   -24871.436    14499.254    26381.333    83.974303 
   61800    1373.3565   -107.08042    1.2426418   -105.83778   -12802.321    4.3706838    4.3706838    4.3706838   -12802.321   -17862.068    19638.198   -40183.091    19678.414    4387.8083    32448.865    83.492632 
   61900    2275.5672   -107.89361     2.058981   -105.83463    21461.314    4.3699612    4.3699612    4.3699612    21461.314    19006.829    44095.513    1281.5987    -12112.33   -8817.1257    4313.8096    83.451228 
   62000    993.04179   -106.75643   0.89852508    -105.8579    4958.9444    4.3941755    4.3941755    4.3941755    4958.9444    13795.155    24210.252   -23128.574   -2421.9807    14320.553    40756.749    84.846159 
   62100    2085.0241   -107.69523    1.8865737   -105.80865   -17485.971    4.3977147    4.3977147    4.3977147   -17485.971    -10948.08   -23939.732   -17570.102   -5128.6423   -6076.5933   -15413.569    85.051337 
   62200    1258.4933    -106.9435    1.1387112   -105.80479   -2965.0012    4.3778204    4.3778204    4.3778204   -2965.0012    4975.9042   -9765.4699    -4105.438   -5946.7341    11596.676    50002.232    83.902293 
   62300    1956.4993   -107.58983    1.7702816   -105.81955   -9462.5341    4.3722019    4.3722019    4.3722019   -9462.5341    -26791.16    23645.865   -25242.307    23373.463    14933.086   -7365.4756    83.579663 
   62400     1725.055   -107.39174    1.5608661   -105.83088    33815.423    4.3712382    4.3712382    4.3712382    33815.423    47687.507    18233.678    35525.085   -198.78742   -3836.9367    33414.205    83.524411 
   62500    1165.5522   -106.92511    1.0546161   -105.87049     10229.56    4.3897907    4.3897907    4.3897907     10229.56    1846.5033    18849.025    9993.1528    1131.1556    21139.389   -2386.2548    84.592418 
   62600     2187.825   -107.81087    1.9795901   -105.83128   -25496.459    4.3984735    4.3984735    4.3984735   -25496.459   -48268.857    -30675.84    2455.3212    12243.423    3078.4529    3227.0687    85.095374 
   62700    1246.1241   -106.96171    1.1275192    -105.8342     19325.79    4.3650157    4.3650157    4.3650157     19325.79    40451.871    9647.0675    7878.4313   -690.86977    4148.1108    13873.799    83.168227 
   62800    1903.8076   -107.55986    1.7226052   -105.83725    17105.223    4.3562486    4.3562486    4.3562486    17105.223   -8664.8567    31860.618    28119.909   -2606.2358    26252.047   -9199.0632    82.668101 
   62900    1643.6102   -107.34342     1.487173   -105.85625    -8033.049    4.3863022    4.3863022    4.3863022    -8033.049   -3220.5506   -19204.722   -1673.8744   -3468.3168   -21680.141    18942.563    84.390907 
   63000    1407.7655   -107.10646    1.2737758   -105.83268   -20163.938    4.4124354    4.4124354    4.4124354   -20163.938   -25496.159   -53815.077    18819.423   -2150.5818    38904.571   -12756.397    85.908289 
   63100    1756.0902   -107.38821    1.5889473   -105.79927   -11797.112    4.3957218    4.3957218    4.3957218   -11797.112   -18819.607   -19693.008    3121.2784    10430.174   -31085.713     18168.42    84.935761 
   63200    1390.1679   -107.04783    1.2578532   -105.78997    24609.646    4.3581121    4.3581121    4.3581121    24609.646    27312.804    13961.722    32554.413    1254.4367    23034.883     12995.22     82.77424 
   63300     1669.243   -107.32546    1.5103662    -105.8151    12542.516    4.3558254    4.3558254    4.3558254    12542.516   -4633.8735    18665.926    23595.496   -8835.7642   -15150.678    4419.8261     82.64401 
   63400    1572.6646   -107.28443      1.42298   -105.86145   -7166.2905    4.3853753    4.3853753    4.3853753   -7166.2905   -141.77061   -21619.145    262.04367    6558.6479   -29389.085    14005.922     84.33742 
   63500    1990.8879   -107.64632    1.8013972   -105.84492   -36777.868    4.4012996    4.4012996    4.4012996   -36777.868    -45604.99   -24902.985   -39825.629   -5667.4227    6094.1188    1069.2247    85.259501 
   63600    829.66884   -106.60691    0.7507018   -105.85621    15786.893     4.363785     4.363785     4.363785    15786.893    -45634.74    66851.982    26143.437   -10409.556   -60614.296    10855.923    83.097899 
   63700    2196.0534   -107.81075    1.9870353   -105.82372    41395.634    4.3446261    4.3446261    4.3446261    41395.634    6085.5405    46247.502    71853.859    16574.299    16164.717   -579.17142    82.008191 
   63800    1379.3331   -107.11976    1.2480495   -105.87171   -4830.7881    4.3631301    4.3631301    4.3631301   -4830.7881   -43632.652    62831.178    -33690.89   -14564.885   -58940.411   -11094.199    83.060491 
   63900    1713.8267   -107.43125    1.5507065   -105.88054   -16761.031    4.3869756    4.3869756    4.3869756   -16761.031   -51198.737    -34153.41    35069.053    7870.5233      16729.2   -6502.6918    84.429778 
   64000    1413.4972   -107.14373    1.2789619   -105.86477   -17302.681    4.3846748    4.3846748    4.3846748   -17302.681   -62376.549    44971.718    -34503.21    16037.084   -34335.815   -3250.5884    84.297011 
   64100    1981.6842   -107.63758    1.7930695   -105.84451    11385.682    4.3529593    4.3529593    4.3529593    11385.682    -34810.34    49124.894    19842.492   -27069.585   -7817.4395   -6381.3364     82.48098 
   64200    1336.7554   -107.07525    1.2095244   -105.86572    3549.7354    4.3545562    4.3545562    4.3545562    3549.7354   -37079.331    9936.9945    37791.543    38784.011    3447.4468    6591.6683    82.571791 
   64300    1773.5397   -107.47012     1.604736   -105.86539    8899.4387    4.3808513    4.3808513    4.3808513    8899.4387   -35073.519    62092.207   -320.37259   -15671.801   -20797.708   -6205.0716    84.076678 
   64400     1215.079   -106.96478     1.099429   -105.86535   -32681.657    4.3850262    4.3850262    4.3850262   -32681.657    -101413.4    -56264.05    59632.474    23805.975    20219.669   -2263.3494    84.317276 
   64500    1800.2135   -107.47049     1.628871   -105.84162    40656.073    4.3550962    4.3550962    4.3550962    40656.073   -21284.584    71053.811    72198.991    12173.695    1551.6081   -7671.1937    82.602512 
   64600      1478.26   -107.20234    1.3375607   -105.86478    14220.588    4.3583928    4.3583928    4.3583928    14220.588    -49636.81    18659.635    73638.939    13820.259    7133.3302    3635.4264    82.790234 
   64700    1461.8068   -107.18889    1.3226736   -105.86621   -41579.325    4.3966143    4.3966143    4.3966143   -41579.325   -78800.382   -24099.555   -21838.039    3588.9791    21584.385   -7287.7139     84.98751 
   64800    2385.3779   -107.97709      2.15834   -105.81875   -17033.781    4.3972767    4.3972767    4.3972767   -17033.781   -60201.861    12028.537    -2928.019    15920.403   -4850.0786    12237.364    85.025926 
   64900    1014.9837   -106.75716   0.91837856   -105.83878   -28695.044    4.3674986    4.3674986    4.3674986   -28695.044   -83365.319   -19751.951    17032.137    17827.668    22139.443   -13676.602    83.310231 
   65000    2161.8429   -107.78527    1.9560809   -105.82919    21432.898    4.3475485    4.3475485    4.3475485    21432.898    4863.8404    20712.776    38722.078   -4451.4235   -7353.8846    15553.603    82.173787 
   65100    1052.0565   -106.83011   0.95192284   -105.87818    7707.7101    4.3767285    4.3767285    4.3767285    7707.7101   -60135.461    235.73631    83022.855     28042.11   -397.23559    9836.3659    83.839529 
   65200    1772.6759   -107.44354    1.6039544   -105.83958   -20348.013    4.3993839    4.3993839    4.3993839   -20348.013   -47403.042   -49392.484    35751.487   -6936.0883    4370.6078    15908.971    85.148221 
   65300    1103.8168   -106.82593   0.99875666   -105.82717    6015.8043    4.3875314    4.3875314    4.3875314    6015.8043   -29997.163   -9295.6177    57340.193    8653.4226   -25778.534    7440.0101    84.461875 
   65400    1623.7292   -107.28304    1.4691843   -105.81385    878.47425    4.3779176    4.3779176    4.3779176    878.47425   -12775.465   -19169.965    34580.853    -15207.89    9400.4438    10134.836    83.907881 
   65500    2092.9523    -107.7109    1.8937472   -105.81715    -4503.069    4.3686729    4.3686729    4.3686729    -4503.069   -15460.529    16131.679   -14180.357    12214.831   -37499.947   -2905.7705    83.377448 
   65600    1006.4773   -106.76302    0.9106818   -105.85234    6466.1126      4.37064      4.37064      4.37064    6466.1126    22782.607    485.62483   -3869.8944   -15353.557   -6638.3192    16836.259    83.490125 
   65700    2168.9369   -107.80692    1.9624997   -105.84442    -19656.78    4.3841872    4.3841872    4.3841872    -19656.78   -16165.073   -18153.584   -24651.683    7151.2411   -5899.0107   -3575.7925    84.268888 
   65800     1408.578   -107.12126     1.274511   -105.84675    847.72599    4.3732526    4.3732526    4.3732526    847.72599   -1406.7028    31925.307   -27975.426   -4613.5639   -34239.206    4387.1391    83.639933 
   65900    1703.5338   -107.37943    1.5413932   -105.83803    5386.6826    4.3741734    4.3741734    4.3741734    5386.6826    4726.5698    -2508.691    13942.169    5304.8289    17545.055    11682.279    83.692779 
   66000    1477.0847    -107.1717    1.3364973    -105.8352   -28889.387     4.380595     4.380595     4.380595   -28889.387    -54449.81    6168.1241   -38386.474   -281.34874   -59936.903   -21052.767     84.06192 
   66100     1860.553   -107.50627    1.6834674    -105.8228    18632.955    4.3730189    4.3730189    4.3730189    18632.955    23185.131    37456.046   -4742.3104   -5241.9505    25201.256     12123.83    83.626527 
   66200    1203.4618   -106.93033    1.0889176   -105.84141   -41780.982    4.3803469    4.3803469    4.3803469   -41780.982   -32700.493   -15149.405   -77493.046    6235.1588    -70366.85   -11866.774    84.047642 
   66300    1792.5499   -107.45075    1.6219369   -105.82881    15790.154    4.3673603    4.3673603    4.3673603    15790.154     9898.746     42360.55   -4888.8329    2187.2609   -6906.8131   -5939.6689    83.302312 
   66400    1387.5863   -107.10277    1.2555173   -105.84725   -916.41011    4.3702592    4.3702592    4.3702592   -916.41011    54665.073   -14372.324    -43041.98   -5167.9018   -19.526637   -7205.3022    83.468301 
   66500    1669.4275   -107.35788    1.5105331   -105.84734   -22395.646    4.3861239    4.3861239    4.3861239   -22395.646   -17709.014   -17921.717   -31556.209    11844.162   -39119.599   -10328.553    84.380613 
   66600    1919.6736   -107.57285     1.736961   -105.83589   -6512.6118    4.3789926    4.3789926    4.3789926   -6512.6118   -7011.9956    3996.0966   -16521.936   -4090.2831    40365.316   -1621.0683    83.969708 
   66700    1543.2098   -107.23888    1.3963287   -105.84255   -24751.784    4.3789945    4.3789945    4.3789945   -24751.784   -26686.605   -7999.2441   -39569.504   -1057.9934   -37298.367   -20445.324    83.969817 
   66800    1885.5062   -107.53923    1.7060457   -105.83318   -5282.9607    4.3811075    4.3811075    4.3811075   -5282.9607   -7780.4816   -45223.552    37155.151    18269.379   -1237.2782    6549.4904    84.091426 
   66900    1428.8014    -107.1333    1.2928095   -105.84049    25966.938    4.3690525    4.3690525    4.3690525    25966.938    46710.571    22638.464    8551.7792   -9428.6359   -18225.116   -23768.581    83.399184 
   67000    1208.6842   -106.95457    1.0936428   -105.86093    26771.126    4.3732339    4.3732339    4.3732339    26771.126    10164.718    10315.708    59832.952    10778.428   -42364.733    2813.6911    83.638865 
   67100    2009.3327    -107.6602    1.8180864   -105.84212    10896.764    4.3926836    4.3926836    4.3926836    10896.764    5751.0277    4729.4005    22209.864    341.95692   -7249.8008   -11074.081    84.759767 
   67200    1310.1449   -107.02099    1.1854467   -105.83554   -8472.0782    4.3922778    4.3922778    4.3922778   -8472.0782   -39299.641    31656.517   -17773.111    3546.0773   -44020.629    -9058.747     84.73628 
   67300    1342.7493   -107.02774    1.2149478   -105.81279    21083.936    4.3798781    4.3798781    4.3798781    21083.936   -18176.765    58894.603    22533.969    8129.2253    561.16702    7001.4185    84.020655 
   67400    1386.1648   -107.07888     1.254231   -105.82465    15362.755    4.3650367    4.3650367    4.3650367    15362.755    63226.069    18318.324   -35456.127   -16394.005   -41713.601   -35965.705    83.169425 
   67500     1677.872   -107.36106    1.5181738   -105.84288    18242.376     4.363276     4.363276     4.363276    18242.376    -28587.01     62347.85    20966.289    27805.836   -14092.059    9311.7626    83.068823 
   67600    1584.3988   -107.28644    1.4335973   -105.85285   -9773.2606    4.3809283    4.3809283    4.3809283   -9773.2606    3823.9962   -29135.596   -4008.1815    2485.5383   -15664.853   -8355.5871    84.081113 
   67700    1426.5024   -107.12956    1.2907294   -105.83883    11396.833    4.3852208    4.3852208    4.3852208    11396.833    3402.9157    39799.109   -9011.5254     701.0086   -21244.309   -16995.176    84.328502 
   67800     1699.619   -107.36004     1.537851   -105.82219    14060.287    4.3785887    4.3785887    4.3785887    14060.287    19205.539    13420.161    9555.1603    5734.6414    6467.0569    37187.289    83.946474 
   67900    1337.1942   -107.04442    1.2099214    -105.8345    6993.1568     4.371138     4.371138     4.371138    6993.1568    10235.181    43299.158   -32554.869   -9153.6075   -22439.067   -8915.8563    83.518667 
   68000    1467.8097   -107.16731    1.3281051    -105.8392    22454.382    4.3750328    4.3750328    4.3750328    22454.382    39463.761    41286.282   -13386.898    8336.0862    4442.4279    13953.494    83.742119 
   68100    1610.5602   -107.30016    1.4572687   -105.84289   -12992.434    4.3849509    4.3849509    4.3849509   -12992.434    11204.999    6516.5299   -56698.831    3141.9983   -15163.089    18281.951    84.312933 
   68200     1830.947   -107.48627    1.6566793   -105.82959   -23245.545    4.3813975    4.3813975    4.3813975   -23245.545   -44028.934   -16618.451   -9089.2517   -18537.059    15283.239   -12716.047    84.108128 
   68300    1473.1636   -107.16336    1.3329493   -105.83041    247.18538     4.378407     4.378407     4.378407    247.18538    13118.773    -3605.268   -8771.9492     2457.376    -1220.549    23823.004    83.936021 
   68400    2053.6864   -107.67681    1.8582186   -105.81859    2705.9119    4.3788778    4.3788778    4.3788778    2705.9119    23491.356    12484.274   -27857.894    -9042.587   -5527.6546    3521.3689      83.9631 
   68500    1076.7471   -106.81316   0.97426338   -105.83889    11839.497    4.3744092    4.3744092    4.3744092    11839.497   -53363.714     64653.21    24228.996   -24626.036     16003.97   -10173.685    83.706315 
   68600    1674.3809   -107.36447     1.515015   -105.84945    6551.5579    4.3787153    4.3787153    4.3787153    6551.5579    63583.326    1793.0317   -45721.684    18419.078   -7665.5449     35762.35    83.953755 
   68700     1767.728   -107.44769    1.5994775   -105.84821    1261.2852    4.3802007    4.3802007    4.3802007    1261.2852   -304.90612    12250.446   -8161.6846    -6414.191    10108.025   -10636.322    84.039225 
   68800    1400.8358   -107.11268    1.2675057   -105.84518   -15583.819    4.3784065    4.3784065    4.3784065   -15583.819    5575.5645   -76155.628    23828.607   -9836.6633   -5016.3043     46666.97    83.935996 
   68900    2027.3228   -107.65862    1.8343643   -105.82425   -486.72686    4.3871016    4.3871016    4.3871016   -486.72686    26735.861   -36700.868    8504.8267     14283.84   -10283.318   -2467.1869    84.437054 
   69000    1085.9289   -106.81356   0.98257127   -105.83099    6753.3813    4.3853283    4.3853283    4.3853283    6753.3813    24202.291   -23891.112    19948.964   -27311.959   -7065.4419    20436.023    84.334703 
   69100     1413.622   -107.11205    1.2790749   -105.83298    1936.2481    4.3784732    4.3784732    4.3784732    1936.2481   -14697.983   -16403.809    36910.537    1734.2023   -22277.279     20683.21     83.93983 
   69200    2002.8691   -107.63928    1.8122381   -105.82704     10248.99    4.3747178    4.3747178    4.3747178     10248.99    23164.694   -13663.387    21245.662   -13267.195    -8739.057   -8371.4874    83.724028 
   69300    969.59443   -106.73178   0.87730942   -105.85447   -21411.707    4.3826449    4.3826449    4.3826449   -21411.707    31137.061   -54125.672   -41246.509   -15399.555    8389.2769    60271.559    84.179986 
   69400    2175.0628    -107.7916    1.9680425   -105.82356   -1596.2566    4.3851456    4.3851456    4.3851456   -1596.2566        41049    -26572.73    -19265.04    15136.919   -3629.2099   -25458.015    84.324167 
   69500    1178.3442   -106.91502    1.0661906   -105.84883   -14283.876    4.3766801    4.3766801    4.3766801   -14283.876    49193.648   -67220.141   -24825.134   -13896.781    14807.002    56754.583    83.836747 
   69600    2091.2358   -107.72844    1.8921941   -105.83625    6776.1532    4.3732086    4.3732086    4.3732086    6776.1532    36696.873   -15676.649   -691.76507   -15017.089   -1064.8273   -21153.593    83.637409 
   69700    1474.6541   -107.17678     1.334298   -105.84248   -17454.476    4.3750064    4.3750064    4.3750064   -17454.476    73022.566   -57069.601   -68316.393    4849.6769    9525.9314     48063.37    83.740601 
   69800    1889.9506   -107.56192     1.710067   -105.85185   -22576.041    4.3685606    4.3685606    4.3685606   -22576.041   -34526.328    -40929.46    7727.6656    -55618.78    13860.248    1747.2222    83.371016 
   69900    1762.1138   -107.45896    1.5943976   -105.86456   -6074.0668     4.367035     4.367035     4.367035   -6074.0668    29383.517   -14653.172   -32952.545    11683.454   -7441.2471    37827.503    83.283699 
   70000    1403.9042   -107.13281     1.270282   -105.86253   -18492.336     4.380846     4.380846     4.380846   -18492.336     16780.53    -43997.76   -28259.779   -43299.394    -4048.316    14026.545    84.076371 
   70100    1822.6033   -107.48415    1.6491298   -105.83502    11673.689    4.3721107    4.3721107    4.3721107    11673.689    27648.272   -31184.823    38557.618   -17370.175    1.6411905    8103.1199    83.574434 
   70200    1225.9547    -106.9439    1.1092695   -105.83464    32353.261    4.3630774    4.3630774    4.3630774    32353.261    70856.114    11517.764    14685.904   -5521.0039   -10366.922    28421.347    83.057483 
   70300    1520.2584   -107.21852    1.3755617   -105.84296     602.1002    4.3731432    4.3731432    4.3731432     602.1002   -1795.3283   -14662.546    18264.175   -37556.885   -10878.906   -18664.016    83.633658 
   70400     2038.269   -107.67161    1.8442687   -105.82735      5283.77      4.38088      4.38088      4.38088      5283.77    22810.319   -2813.0165   -4145.9928    7600.5521    6567.8287    34940.948    84.078331 
   70500     1163.937   -106.89008    1.0531547   -105.83692   -24919.403     4.384758     4.384758     4.384758   -24919.403   -52325.767   -30180.425     7747.983   -53638.759   -22975.179      -7901.3     84.30181 
   70600    2165.6253    -107.7718    1.9595032    -105.8123   -13266.432    4.3765751    4.3765751    4.3765751   -13266.432     24136.55   -32320.086   -31615.759    29196.357   -1733.6581    7482.9842    83.830711 
   70700    1172.9665   -106.89469    1.0613248   -105.83336   -13398.812    4.3615322    4.3615322    4.3615322   -13398.812   -40996.739   -23353.855    24154.159   -83078.632    1097.7509   -2120.1831    82.969267 
   70800    2185.7947   -107.80699     1.977753   -105.82923   -2401.9401    4.3746803    4.3746803    4.3746803   -2401.9401    26102.661   -13081.854   -20226.628    15909.011   -5388.2629   -2460.5268    83.721879 
   70900    814.32539   -106.56916   0.73681873   -105.83234    -50097.24    4.3953366    4.3953366    4.3953366    -50097.24   -93701.293   -40321.704   -16268.724   -71811.644     7669.374    13603.869     84.91344 
   71000    1647.2167   -107.31514    1.4904363    -105.8247    15270.751    4.3661575    4.3661575    4.3661575    15270.751   -37895.226    66147.127    17560.352   -19725.051   -5414.7889    5068.4881    83.233505 
   71100    1383.5978   -107.08013    1.2519083   -105.82822    23890.492     4.357978     4.357978     4.357978    23890.492    -14345.68    23470.319    62546.838    -51616.55   -3221.4578    5512.4763    82.766596 
   71200    1366.6307   -107.08346    1.2365561    -105.8469   -16073.015    4.3821161    4.3821161    4.3821161   -16073.015   -13483.904   -39280.533    4545.3927   -45292.987    16574.485    13899.278    84.149521 
   71300    1712.8623   -107.35924    1.5498338   -105.80941   -9140.8608    4.3972517    4.3972517    4.3972517   -9140.8608   -25295.996   -38334.901    36208.315   -26146.051   -8739.4921   -449.18394     85.02448 
   71400    1272.9361   -106.96734    1.1517793   -105.81556   -34171.017    4.3856298    4.3856298    4.3856298   -34171.017   -38539.015    -67899.59    3925.5553    -53320.35    28454.485     8864.897    84.352099 
   71500    1735.2469   -107.36671    1.5700879   -105.79662    34886.091    4.3514972    4.3514972    4.3514972    34886.091    78310.642     9815.424    16532.208    2958.3162    26808.806    7071.0328    82.397899 
   71600    1191.5782     -106.919     1.078165   -105.84083    7602.3021    4.3590549    4.3590549    4.3590549    7602.3021    11742.485   -57544.801    68609.222   -64829.829    3679.5538   -364.09762    82.827969 
   71700    1661.5922   -107.33292    1.5034435   -105.82948   -16341.987    4.3918507    4.3918507    4.3918507   -16341.987    -24675.14   -15086.948   -9263.8729    19575.897    54262.999    9563.7842    84.711563 
   71800    1305.1416   -107.00701    1.1809195   -105.82609   -20287.244    4.3894399    4.3894399    4.3894399   -20287.244    -68206.54    -57823.25    65168.058   -68109.574    1645.8247     377.4793    84.572142 
   71900    2277.8088   -107.86668    2.0610092   -105.80567   -10362.328    4.3628524    4.3628524    4.3628524   -10362.328   -16491.058    -2160.262   -12435.664    17335.536    6702.7308    15731.558    83.044634 
   72000    545.63331   -106.33102   0.49370048   -105.83732    16418.266    4.3462668    4.3462668    4.3462668    16418.266   -31852.169    5021.6092    76085.357   -74527.618    21513.072   -4448.5719    82.101133 
   72100     2946.668   -108.49442    2.6662072   -105.82821    6646.7318    4.3617567    4.3617567    4.3617567    6646.7318    11252.698    848.64063    7838.8571    11036.321   -16217.814    11671.523     82.98208 
   72200     834.8464   -106.60791   0.75538657   -105.85252   -54309.466    4.3866041    4.3866041    4.3866041   -54309.466   -70817.157   -79573.186   -12538.055   -86046.921    20411.087    6986.5735    84.408331 
   72300    1983.5694   -107.61152    1.7947753   -105.81675    7143.2758    4.3694711    4.3694711    4.3694711    7143.2758   -14211.847    2155.1114    33486.563    7970.0507    -9705.382   -4058.8505    83.423158 
   72400    1391.9066   -107.07983    1.2594263    -105.8204   -26545.566    4.3642878    4.3642878    4.3642878   -26545.566   -48509.311    -51044.59    19917.204   -59047.112    5460.2214    14930.527    83.126622 
   72500    1744.9017   -107.40845    1.5788237   -105.82962    -15283.15    4.3590596    4.3590596    4.3590596    -15283.15   -30332.987   -15208.987   -307.47689   -33099.904    23874.143   -1891.9933     82.82824 
   72600    1625.3785   -107.30623    1.4706767   -105.83555    11340.529    4.3594485    4.3594485    4.3594485    11340.529   -10277.757     24932.98    19366.364   -11764.214   -21267.507   -5362.0582    82.850408 
   72700     1147.475   -106.89176    1.0382595    -105.8535   -16179.711    4.3699746    4.3699746    4.3699746   -16179.711   -42856.925   -20526.947    14844.738   -54837.681    24110.749    16453.961       83.452 
   72800    2212.4193   -107.83312    2.0018435   -105.83127   -5631.7272    4.3736448    4.3736448    4.3736448   -5631.7272    12833.702    15742.504   -45471.388    11768.881    5663.9948   -8675.0605     83.66244 
   72900    1162.8303   -106.89378    1.0521533   -105.84163   -37167.587    4.3722531    4.3722531    4.3722531   -37167.587   -65626.973   -48603.831    2728.0434   -76272.514    2513.5176   -7391.3443    83.582599 
   73000    1808.3089   -107.46903    1.6361959   -105.83283    10898.152    4.3568189    4.3568189    4.3568189    10898.152    13687.677    22459.403   -3452.6243    21365.678    28385.236    25048.433    82.700572 
   73100    1395.2681    -107.1055    1.2624679   -105.84303    7443.7172     4.350496     4.350496     4.350496    7443.7172   -4283.8209   -31877.617     58492.59   -73108.112   -3451.7501   -9878.5554    82.341036 
   73200    1943.1446   -107.59437    1.7581981   -105.83617   -18103.184    4.3705915    4.3705915    4.3705915   -18103.184   -15370.211    -15425.82   -23513.522     4698.709    25911.899     13574.54    83.487346 
   73300     770.7935   -106.53697   0.69743016   -105.83954   -2491.5782    4.3771218    4.3771218    4.3771218   -2491.5782    27005.315   -65418.609     30938.56   -47794.331    19756.171    29491.187    83.862132 
   73400    2483.3603   -108.06785    2.2469966   -105.82085   -10900.514    4.3660674    4.3660674    4.3660674   -10900.514   -30646.054   -16398.716    14343.229   -13289.625     1074.503   -5852.9978    83.228352 
   73500    959.68793   -106.71777   0.86834581   -105.84943    8772.5597    4.3594303    4.3594303    4.3594303    8772.5597    25874.597   -39703.257    40146.339   -41007.933    17572.526     26341.24     82.84937 
   73600    1732.3308   -107.41453    1.5674493   -105.84708   -6091.1557    4.3672868    4.3672868    4.3672868   -6091.1557    1015.7533   -29444.717    10155.496   -34945.005     10564.84    14978.239    83.298111 
   73700    2047.8061   -107.69773     1.852898   -105.84483   -7561.3532     4.371975     4.371975     4.371975   -7561.3532   -22280.163   -1538.1152    1134.2188   -5181.2192   -1381.3152   -7296.7407    83.566651 
   73800    782.56423   -106.56685   0.70808056   -105.85877   -9545.1187     4.371982     4.371982     4.371982   -9545.1187   -37197.877   -37313.026    45875.547    -55078.62    10489.765    16397.488    83.567056 
   73900    2449.2982   -108.03984    2.2161765   -105.82367    6104.9096    4.3681319    4.3681319    4.3681319    6104.9096    8176.3277   -3901.5713    14039.972    19773.486   -14310.709   -17251.258    83.346475 
   74000    885.82737   -106.64735   0.80151522   -105.84583   -12411.382    4.3653446    4.3653446    4.3653446   -12411.382   -65814.902    -31803.49    60384.244   -76526.327    10806.358    17962.896    83.187026 
   74100    2110.0695   -107.73925    1.9092353   -105.83001    16038.139    4.3619766    4.3619766    4.3619766    16038.139   -149.36355    12338.385    35925.396    24865.762     2329.099   -19.003181    82.994632 
   74200    1201.1999   -106.93719    1.0868709   -105.85032   -27649.447    4.3791243    4.3791243    4.3791243   -27649.447   -62306.122   -41657.556    21015.338   -70451.417   -5857.8035   -13379.792    83.977281 
   74300    1974.7841   -107.61277    1.7868261   -105.82594    5922.3751    4.3765402    4.3765402    4.3765402    5922.3751   -32036.802   -11350.769    61154.696    7743.6105    5157.0257    9704.0632    83.828707 
   74400    1263.7248    -106.9802    1.1434448   -105.83676    23208.194    4.3580524    4.3580524    4.3580524    23208.194     8294.639    14060.755    47269.187   -58896.079    4813.8562   -10977.615    82.770837 
   74500    1887.5277   -107.54658    1.7078747    -105.8387    7859.2493    4.3699009    4.3699009    4.3699009    7859.2493    4424.1624    -18128.94    37282.526    523.13394    7565.3818   -10588.413    83.447773 
   74600    1523.7436   -107.23028    1.3787152   -105.85157   -1861.3513    4.3699102    4.3699102    4.3699102   -1861.3513    -33118.64    6856.0791    20678.507   -48489.956    18305.977    16964.086    83.448309 
   74700    1520.6023   -107.22542    1.3758729   -105.84955    13222.803    4.3751354    4.3751354    4.3751354    13222.803    36222.762   -23364.935    26810.581   -16837.552   -1173.2473   -7885.7598    83.748009 
   74800     2033.191    -107.6799     1.839674   -105.84022   -17995.085    4.3715943    4.3715943    4.3715943   -17995.085   -29667.377   -17132.181   -7185.6964   -19010.063    13837.445   -2775.7142    83.544826 
   74900    1068.1927   -106.80844    0.9665232   -105.84192    48714.995    4.3517211    4.3517211    4.3517211    48714.995    58154.749    12474.493    75515.743   -45180.634    19504.531    15216.006    82.410618 
   75000    2029.4236    -107.6744    1.8362651   -105.83814   -12566.401    4.3694111    4.3694111    4.3694111   -12566.401   -9067.7664   -16155.519   -12475.918    4455.3593   -6309.9516   -6169.0574    83.419719 
   75100     1163.072   -106.90447     1.052372   -105.85209    1127.6893      4.37566      4.37566      4.37566    1127.6893   -24859.047   -48207.552    76449.666   -56434.686    7653.0175    5839.4856    83.778136 
   75200    1989.9904   -107.62337    1.8005852   -105.82279   -4749.7162    4.3824835    4.3824835    4.3824835   -4749.7162    33194.361   -11190.873   -36252.637    11196.498    7767.1633    21232.513    84.170689 
   75300    998.47545   -106.74429   0.90344157   -105.84085   -39243.347    4.3711449    4.3711449    4.3711449   -39243.347   -52189.313   -69289.408    3748.6805   -69038.541   -19485.385   -20698.848    83.519061 
   75400     2230.131   -107.83839    2.0178694   -105.82053     53830.12    4.3521068    4.3521068    4.3521068     53830.12     45553.11    84263.174    31674.075    21373.338     17014.68    30185.022    82.432528 
   75500    1244.1242   -106.99342    1.1257097   -105.86771   -27702.667    4.3668915    4.3668915    4.3668915   -27702.667   -47276.381    -65100.03    29268.411   -77089.852   -16945.366    5643.2008     83.27549 
   75600    1538.0516    -107.2491    1.3916614   -105.85744     17635.17    4.3795384    4.3795384    4.3795384     17635.17   -19206.061    32800.993    39310.577   -1269.5932    -5921.715   -7464.5144     84.00111 
   75700    1793.2019   -107.45628    1.6225268   -105.83376   -16756.245    4.3878674    4.3878674    4.3878674   -16756.245   -33930.739   -36698.563    20360.566   -53012.024    11409.559     6887.884     84.48128 
   75800    1428.1279   -107.12094    1.2922001   -105.82874   -17263.008    4.3694763    4.3694763    4.3694763   -17263.008   -26556.499   -10778.689   -14453.837    -41174.45   -23419.946   -15036.665    83.423452 
   75900    1639.9131   -107.29497    1.4838278   -105.81114    39594.709    4.3473604    4.3473604    4.3473604    39594.709    28283.301    41006.536     49494.29   -17757.919    2334.5456   -9083.3772    82.163122 
   76000    1467.8022   -107.17625    1.3280983   -105.84815   -8360.1613    4.3674044    4.3674044    4.3674044   -8360.1613    3128.9465   -59665.637    31456.207    -66305.55    981.51957   -5489.5879     83.30484 
   76100    1911.0807   -107.55874     1.729186   -105.82955   -3596.3529    4.3844325    4.3844325    4.3844325   -3596.3529    15449.518    6402.9531   -32641.529    18285.409   -9818.1811   -10309.943    84.283037 
   76200    1347.4258   -107.05124    1.2191792   -105.83206   -23551.357    4.3778716    4.3778716    4.3778716   -23551.357     -39108.5   -52641.849    21096.277   -74241.872    16886.779   -624.40191    83.905234 
   76300    1852.8878   -107.50837    1.6765319   -105.83184    13684.606    4.3660115    4.3660115    4.3660115    13684.606    55785.436   -17716.669    2985.0503    40195.088   -18664.069   -7643.2643    83.225157 
   76400     1101.946   -106.86012   0.99706386   -105.86306   -3948.9395    4.3549341    4.3549341    4.3549341   -3948.9395   -14903.462   -17624.767    20681.411   -68578.577    6798.5437   -10760.565    82.593291 
   76500    2040.9155   -107.69687    1.8466632   -105.85021   -4511.5205    4.3736398    4.3736398    4.3736398   -4511.5205   -16103.207   -7709.0292    10277.675    11880.388   -1256.0446    8828.0384    83.662155 
   76600    1128.3742   -106.87124    1.0209767   -105.85026   -6335.3859    4.3778938    4.3778938    4.3778938   -6335.3859   -26390.031   -31404.013    38787.886   -23166.702    3127.3428   -2658.6891    83.906514 
   76700    1806.8254    -107.4605    1.6348536   -105.82565    10604.524     4.374008     4.374008     4.374008    10604.524     1639.517    18337.073    11836.981   -15795.934     1333.149    4190.8875    83.683286 
   76800    1605.1591   -107.26972    1.4523817   -105.81734    -12386.72    4.3792831    4.3792831    4.3792831    -12386.72   -11218.188   -32460.827    6518.8547    7380.6513   -2015.3126    4568.3927    83.986418 
   76900    1690.5142   -107.34828    1.5296128   -105.81867    7157.4327    4.3649781    4.3649781    4.3649781    7157.4327   -16413.674    16891.452     20994.52   -45066.495    6147.9975   -9467.4166    83.166075 
   77000    1718.0596   -107.38051    1.5545364   -105.82597    29637.281    4.3616798    4.3616798    4.3616798    29637.281    41153.986    19192.106    28565.751    21667.701    2250.4634    28488.355    82.977688 
   77100     1095.629   -106.84239    0.9913481   -105.85104   -8986.7639    4.3710028    4.3710028    4.3710028   -8986.7639   -60787.011    -38759.84    72586.559   -47262.644    -8716.008   -16407.738    83.510919 
   77200    2311.0342   -107.91491    2.0910723   -105.82384    9966.3786    4.3744767    4.3744767    4.3744767    9966.3786   -13141.787    65266.658   -22225.735    14447.424    3120.8969      8571.37    83.710187 
   77300    1024.6958   -106.77443   0.92716633   -105.84726   -31388.262     4.373717     4.373717     4.373717   -31388.262   -47726.051   -83752.308    37313.572   -64521.059    2613.9339    23403.057    83.666585 
   77400    1768.0888   -107.43233    1.5998039   -105.83253     18723.96    4.3666407    4.3666407    4.3666407     18723.96   -5137.7326    30135.834    31173.778    21940.887    -4643.738   -19392.991    83.261144 
   77500    1532.7666   -107.23066    1.3868794   -105.84378    1503.2044    4.3686341    4.3686341    4.3686341    1503.2044   -14563.457   -38428.456    57501.526   -58753.305   -89.221722    4430.9649    83.375223 
   77600    1609.6993   -107.29454    1.4564898   -105.83805   -10013.194    4.3826324    4.3826324    4.3826324   -10013.194   -10386.648   -24353.437    4700.5039    9435.2905     3463.756   -4831.9402    84.179268 
   77700    1577.4984   -107.25359    1.4273537   -105.82623   -11936.942     4.375964     4.375964     4.375964   -11936.942    4561.0137   -35641.625   -4730.2161   -30687.481   -6225.9002   -29976.652    83.795603 
   77800    1432.9296   -107.11828    1.2965448   -105.82174    22865.989    4.3585081    4.3585081    4.3585081    22865.989     41468.52    -13102.74    40232.188   -30336.816    7401.7656     13330.09    82.796801 
   77900    1648.9692   -107.32652     1.492022   -105.83449   -15877.543    4.3682923    4.3682923    4.3682923   -15877.543    10052.899   -14181.016   -43504.514    7935.5198    4660.9652   -28352.004    83.355657 
   78000    1914.4297   -107.56704    1.7322163   -105.83482    1974.3999    4.3815957    4.3815957    4.3815957    1974.3999   -7004.7142    14000.097   -1072.1826   -27970.265    687.37703    6424.3453    84.119542 
   78100     1532.737   -107.21441    1.3868526   -105.82755   -37509.038    4.3867883    4.3867883    4.3867883   -37509.038   -15270.437   -52407.936   -44848.741    19725.078    8477.7285   -9216.0774    84.418965 
   78200    1389.1385   -107.08659    1.2569217   -105.82967    16492.363    4.3644432    4.3644432    4.3644432    16492.363    -22446.11    45022.979    26900.219   -19442.094    -201.1676   -13648.571    83.135504 
   78300    1973.1433   -107.61499    1.7853415   -105.82965    11221.783     4.355632     4.355632     4.355632    11221.783    11950.967    46102.765   -24388.383    2902.6044    12664.573   -6582.3379    82.633004 
   78400    949.87519   -106.72591   0.85946703   -105.86644   -12680.682    4.3711741    4.3711741    4.3711741   -12680.682   -9900.4549    -5279.747   -22861.845    9388.7197    8042.6089   -33106.767    83.520734 
   78500    2419.2173   -108.02942    2.1889586   -105.84047   -3641.8083    4.3856909    4.3856909    4.3856909   -3641.8083   -24431.027   -136.72596    13642.328   -8276.2037   -5892.3244    5216.1026    84.355629 
   78600    1143.9547    -106.8887    1.0350743   -105.85363   -29381.059    4.3744291    4.3744291    4.3744291   -29381.059    14042.536   -59454.105   -42731.607    198.90124    12257.331   -39930.353    83.707458 
   78700    1975.7766   -107.61407    1.7877242   -105.82634    18635.628    4.3567458    4.3567458    4.3567458    18635.628    2020.6623    31141.543    22744.679    9274.4836   -6189.5166    9679.6619    82.696411 
   78800    1418.2613   -107.13153    1.2832726   -105.84825   -21855.501    4.3659078    4.3659078    4.3659078   -21855.501   -6077.5468   -37298.736   -22190.222   -11169.968   -23514.463   -23479.754    83.219229 
   78900    1880.7809   -107.54541    1.7017701   -105.84364   -16501.609    4.3700128    4.3700128    4.3700128   -16501.609    11434.795   -37860.831    -23078.79    13872.073    13015.911   -16147.843    83.454185 
   79000    1732.0557   -107.41331    1.5672004   -105.84611   -2105.2757    4.3703285    4.3703285    4.3703285   -2105.2757   -26360.998    30082.345   -10037.175   -13598.576    -39695.33    11514.413    83.472272 
   79100    1205.5209   -106.95057    1.0907806   -105.85978   -21135.427    4.3632223    4.3632223    4.3632223   -21135.427    5170.1871   -72755.423    4178.9552    8186.6543    2618.2791   -57391.558    83.065757 
   79200    2126.6056   -107.77179    1.9241974   -105.84759    17404.756    4.3604935    4.3604935    4.3604935    17404.756    15215.898    41994.708   -4996.3373   -4501.8201    -10362.43    13555.106    82.910005 
   79300    1093.7562    -106.8544   0.98965363   -105.86474   -13494.194    4.3725237    4.3725237    4.3725237   -13494.194    -20395.49   -49746.387    29659.295   -11186.064   -11545.812   -43676.549    83.598121 
   79400    1984.0635   -107.63431    1.7952223   -105.83908   -13268.694    4.3769391    4.3769391    4.3769391   -13268.694   -6869.1694   -14973.156   -17963.756    18373.277    4467.0557   -23624.933    83.851628 
   79500    1305.6799   -107.01898    1.1814066   -105.83757     299.9732    4.3626147    4.3626147    4.3626147     299.9732   -30541.092    17283.443    14157.569   -23171.596   -14015.594   -10000.569    83.031059 
   79600    1656.7547   -107.34074    1.4990665   -105.84168    2841.1126    4.3545733    4.3545733    4.3545733    2841.1126    15158.446   -10607.479    3972.3706    4840.6269   -6283.4152   -50462.479    82.572766 
   79700    1877.2247   -107.54929    1.6985524   -105.85074   -9246.7932    4.3623511    4.3623511    4.3623511   -9246.7932   -45642.912     39622.26   -21719.728   -5799.2244     42213.92    20597.804    83.016007 
   79800    998.69867   -106.75823   0.90364355   -105.85458    -912.2855    4.3716132    4.3716132    4.3716132    -912.2855   -4859.8725   -1043.2808    3166.2968   -14961.642   -27510.929   -36946.476    83.545907 
   79900    2221.1192   -107.84315    2.0097153   -105.83344   -26906.819     4.379927     4.379927     4.379927   -26906.819   -38608.368    -16992.14   -25119.949    13324.242    39763.994    11493.817    84.023472 
   80000     1525.113   -107.23306    1.3799543   -105.85311   -14196.087    4.3578461    4.3578461    4.3578461   -14196.087   -32132.252   -6226.7756   -4229.2342   -23600.991   -16380.037   -9330.0558    82.759081 
   80100    1548.0723   -107.24536    1.4007284   -105.84463    29830.205    4.3373279    4.3373279    4.3373279    29830.205    23101.752    14484.906    51903.956    11929.615    7853.1629   -19842.087    81.595602 
   80200    1743.7356   -107.42788    1.5777686   -105.85011   -25306.933    4.3657784    4.3657784    4.3657784   -25306.933   -51440.814   -3506.2015   -20973.785   -4204.6222    12624.134    3535.6771     83.21183 
   80300    1715.1877    -107.3846    1.5519379   -105.83267   -24408.067    4.3769029    4.3769029    4.3769029   -24408.067   -23159.273   -42013.228   -8051.7007   -18468.775   -22270.095   -24062.062     83.84955 
   80400    1766.3711   -107.42088    1.5982497   -105.82263   -5118.9359    4.3764543    4.3764543    4.3764543   -5118.9359   -25694.202    18147.613   -7810.2188    21431.939    19599.424    4026.9444    83.823771 
   80500    1273.6616   -106.98747    1.1524358   -105.83503   -14862.479    4.3661689    4.3661689    4.3661689   -14862.479   -31178.621   -20330.704    6921.8888   -38247.167   -18213.589   -28130.526    83.234161 
   80600    2029.3012   -107.65608    1.8361543   -105.81993    227.68919    4.3494053    4.3494053    4.3494053    227.68919   -5991.5117    2758.1358    3916.4436    17603.381    9885.1691    126.30726    82.279122 
   80700     1499.783   -107.19739    1.3570352   -105.84035   -4553.6026    4.3690615    4.3690615    4.3690615   -4553.6026   -33820.066    966.57428    19192.684   -24120.444    -6914.669   -16548.683    83.399695 
   80800    1407.0783   -107.10385     1.273154    -105.8307    -40918.02    4.3806013    4.3806013    4.3806013    -40918.02   -37651.031    -58449.84   -26653.189   -15307.181   -16619.674   -28747.504    84.062284 
   80900    2155.7343   -107.77193    1.9505537   -105.82138    8274.6178    4.3537497    4.3537497    4.3537497    8274.6178   -343.30118   -6141.2753     31308.43    14282.089    12317.518    13571.672    82.525917 
   81000    1039.1313   -106.78655   0.94022784   -105.84633    6743.5273    4.3496745    4.3496745    4.3496745    6743.5273    3917.3382   -5109.4999    21422.743   -44150.002   -42049.011   -32260.049      82.2944 
   81100    1776.8451   -107.45155    1.6077268   -105.84383    7578.9402    4.3675133    4.3675133    4.3675133    7578.9402    61073.187    -23950.62   -14385.747     31904.82   -657.27224   -1691.2212    83.311071 
   81200    1158.4928   -106.89525    1.0482286   -105.84702    -12322.86     4.383891     4.383891     4.383891    -12322.86    210.70055   -39575.544    2396.2652   -36698.308   -14418.059    1076.4199    84.251811 
   81300    1444.1982   -107.13819    1.3067409   -105.83145   -20634.552    4.3782326    4.3782326    4.3782326   -20634.552    21568.102   -34215.426   -49256.331    4229.1098   -27666.993   -20767.534    83.925994 
   81400    1901.5514   -107.53212    1.7205637   -105.81155    45777.078    4.3472662    4.3472662    4.3472662    45777.078    57096.081    23212.843     57022.31   -7540.0138    433.43969     2307.329    82.157781 
   81500    990.75061   -106.74384   0.89645198   -105.84739   -19099.579     4.355874     4.355874     4.355874   -19099.579   -10157.209   -21284.593   -25856.937   -40269.684   -33753.578   -22794.109    82.646776 
   81600    2476.4404   -108.05652    2.2407353   -105.81579   -785.43377    4.3781657    4.3781657    4.3781657   -785.43377   -12115.823    8774.4506    985.07074    9752.4708    8278.4585    1586.4636    83.922148 
   81700    1152.7447   -106.88652    1.0430276   -105.84349    -36188.17     4.377725     4.377725     4.377725    -36188.17   -75410.525   -21104.542   -12049.442   -52441.308    -12429.39   -16351.242    83.896808 
   81800    1865.8169   -107.52318    1.6882303   -105.83495   -110.77043    4.3601467    4.3601467    4.3601467   -110.77043    5757.1377    23536.098   -29625.547    18061.926   -31249.157   -29001.531    82.890225 
   81900    1522.0025   -107.21497    1.3771398   -105.83783    33397.257    4.3460115    4.3460115    4.3460115    33397.257    6950.4165    33883.859    59357.494   -39959.247     24629.95    26.256686    82.086667 
   82000    1695.7619   -107.38795     1.534361   -105.85359   -19231.307    4.3658886    4.3658886    4.3658886   -19231.307   -16503.191    6193.1757   -47383.907    2680.4971   -29629.294   -42142.335    83.218129 
   82100    1872.6778   -107.52446    1.6944382   -105.83002   -7042.8309    4.3726503    4.3726503    4.3726503   -7042.8309   -32647.069    15825.867   -4307.2908   -17350.927    13785.228   -989.05375    83.605384 
   82200    1212.1145   -106.93169    1.0967466   -105.83494    7460.7007    4.3629901    4.3629901    4.3629901    7460.7007    1767.6046    24761.951   -4147.4538    -30473.51   -7138.6056    -18067.33    83.052493 
   82300    2059.6846   -107.68592    1.8636459   -105.82228    10855.213    4.3625307    4.3625307    4.3625307    10855.213    15938.031    45261.247    -28633.64    9787.9762   -4829.3403   -12449.792    83.026261 
   82400    1288.2777   -107.00989    1.1656607   -105.84423    11341.196    4.3538632    4.3538632    4.3538632    11341.196   -28663.724    13893.955    48793.356   -49856.195    20846.781    3323.1091    82.532376 
   82500     1936.079   -107.59067     1.751805   -105.83886    9688.2822    4.3620017    4.3620017    4.3620017    9688.2822    8376.7084    3875.4645    16812.674    19339.042   -14595.642    -28463.23    82.996063 
   82600    1296.3079   -107.02854    1.1729266   -105.85561   -30587.268    4.3636127    4.3636127    4.3636127   -30587.268   -36732.854   -31052.083   -23976.867   -42367.903     22122.62    35284.676    83.088056 
   82700    1817.6352   -107.49657    1.6446345   -105.85193    20823.275    4.3490873    4.3490873    4.3490873    20823.275   -1048.0873    11208.572     52309.34   -6604.9525   -5345.3119   -17396.616    82.261075 
   82800    1685.8057   -107.37173    1.5253525   -105.84638   -21463.505    4.3721074    4.3721074    4.3721074   -21463.505   -51276.426    2542.4025   -15656.492   -15210.568    20884.709    20637.021    83.574247 
   82900    713.75435   -106.49552   0.64581993    -105.8497   -33761.916    4.3764582    4.3764582    4.3764582   -33761.916   -52841.007   -45603.494   -2841.2466    -37200.79    12315.548    27520.567    83.823997 
   83000    2592.5565   -108.16167    2.3457996   -105.81587    25771.682    4.3481268    4.3481268    4.3481268    25771.682    20033.534    55882.271    1399.2412    17172.386   -3908.6656   -16300.025    82.206585 
   83100    819.80924   -106.60178   0.74178063      -105.86   -34560.441    4.3541202    4.3541202    4.3541202   -34560.441   -61327.837   -22143.142   -20210.345   -60567.994    28010.533    29314.916    82.546993 
   83200    2137.3063   -107.77494    1.9338797   -105.84106    15052.914     4.368429     4.368429     4.368429    15052.914    22698.024   -16842.274    39302.994    8079.8377   -3885.6761    7661.5083    83.363482 
   83300    1288.8629   -107.02044    1.1661903   -105.85425   -38080.844    4.3854769    4.3854769    4.3854769   -38080.844   -68566.339   -26009.312    -19666.88   -35118.062    13045.191   -10180.669    84.343282 
   83400    1498.1755   -107.20406    1.3555806   -105.84848   -25029.909    4.3680678    4.3680678    4.3680678   -25029.909   -42360.388    -26167.87   -6561.4693   -28653.884    14482.423    28793.604    83.342803 
   83500    1917.2672   -107.56241    1.7347836   -105.82763    16224.962    4.3369942    4.3369942    4.3369942    16224.962     10172.53    10877.101    27625.255    11046.453   -13305.789   -21696.899    81.576774 
   83600    803.71499   -106.59446   0.72721822   -105.86724   -12404.118    4.3534171    4.3534171    4.3534171   -12404.118   -41919.671   -8118.7302    12826.046   -65296.685    36325.738    5678.2989     82.50701 
   83700    2165.0947   -107.79687    1.9590232   -105.83784   -2068.3822    4.3732556    4.3732556    4.3732556   -2068.3822    1763.8221    -16145.04    8176.0713    40799.145     4493.974   -972.65937     83.64011 
   83800    1185.7727   -106.91972    1.0729121   -105.84681   -42696.593    4.3736858    4.3736858    4.3736858   -42696.593   -82594.858     -59443.1    13948.179   -72228.273    11185.064   -6125.7412    83.664796 
   83900     1830.336   -107.49357    1.6561265   -105.83745    7799.2128    4.3540762    4.3540762    4.3540762    7799.2128   -17556.592    59181.368   -18227.137    4689.9801    7951.8864     -16182.5     82.54449 
   84000    1428.8141   -107.14221     1.292821   -105.84939    8945.5911    4.3397511    4.3397511    4.3397511    8945.5911   -34441.579   -10996.461    72274.813   -20299.324      -296.37    6323.8443    81.732439 
   84100    1611.4943   -107.32865    1.4581139   -105.87054    3133.9386    4.3567972    4.3567972    4.3567972    3133.9386   -31245.983    30865.955    9781.8435    -43717.31    6451.9621   -15200.881    82.699337 
   84200    1758.8976   -107.43868    1.5914875   -105.84719    -2129.639    4.3734529    4.3734529    4.3734529    -2129.639   -38815.218    16351.586    16074.715    3643.5065   -736.52015    -5527.539     83.65143 
   84300     1047.385   -106.79986   0.94769593   -105.85217   -10789.278    4.3672697    4.3672697    4.3672697   -10789.278   -71466.585    5830.2824     33268.47   -43654.473   -1030.7274   -4434.9215    83.297128 
   84400    2528.6777   -108.11555    2.2880007   -105.82755    9785.3699    4.3585272    4.3585272    4.3585272    9785.3699    9564.9514    44105.324   -24314.166    13732.127    2385.2522   -12956.686    82.797894 
   84500     850.9345   -106.62625   0.76994342   -105.85631    9075.8889    4.3477933    4.3477933    4.3477933    9075.8889   -30866.363    6121.2788    51972.751   -54626.578   -20643.904     6999.862    82.187667 
   84600    1966.6887   -107.63331    1.7795013   -105.85381    26021.487    4.3574629    4.3574629    4.3574629    26021.487   -18715.022     62340.33    34439.151    43461.151   -6400.2289   -9209.1233    82.737255 
   84700    1640.3716   -107.33807    1.4842427   -105.85383   -1174.6255    4.3666402    4.3666402    4.3666402   -1174.6255   -18515.417    -5425.628    20417.169   -53944.017   -3152.1861    1980.6275    83.261118 
   84800    1540.3856   -107.23667    1.3937732   -105.84289   -499.51746      4.36164      4.36164      4.36164   -499.51746   -30529.017    16194.789    12835.675    25007.752   -15837.766   -1615.7015    82.975419 
   84900    1667.6991   -107.34512    1.5089692   -105.83615    18786.604    4.3569365    4.3569365    4.3569365    18786.604    -18942.71    22745.512     52557.01   -9816.6214    10750.263    3517.6947    82.707271 
   85000     1361.207   -107.08165    1.2316487      -105.85    257.60955    4.3509745    4.3509745    4.3509745    257.60955   -50220.582    1657.5625    49335.848   -36543.826   -23508.374   -6824.9822    82.368206 
   85100    2008.5383   -107.65693    1.8173677   -105.83956     10305.35    4.3658228    4.3658228    4.3658228     10305.35   -6678.1296    41624.111     -4029.93    28021.805    11782.385     9539.421    83.214365 
   85200    1282.5608   -107.01674     1.160488   -105.85625   -35743.342     4.366074     4.366074     4.366074   -35743.342   -59277.204   -36664.811   -11288.012   -62599.758    15604.153     7697.087     83.22873 
   85300     1913.322   -107.57248    1.7312139   -105.84127    17474.187    4.3547794    4.3547794    4.3547794    17474.187   -6771.3538    45914.978    13278.937    5064.3451   -26075.154    523.60694    82.584488 
   85400    1420.0662   -107.14909    1.2849057   -105.86419   -10797.394    4.3537626    4.3537626    4.3537626   -10797.394    -10258.07   -8022.3326    -14111.78   -35576.009    37491.646    16597.642    82.526652 
   85500    1571.0032   -107.28965    1.4214767   -105.86818    645.50554    4.3538135    4.3538135    4.3538135    645.50554   -20364.219    20373.533    1927.2019   -27390.703   -11099.845   -2770.7546    82.529546 
   85600    1914.2628   -107.58048    1.7320652   -105.84842     -10459.8    4.3709928    4.3709928    4.3709928     -10459.8   -14375.399   -4798.8867   -12205.113    6456.8678    6385.5681    13727.144    83.510344 
   85700    957.15089    -106.7293   0.86605024   -105.86325   -34485.456    4.3578883    4.3578883    4.3578883   -34485.456   -47004.653   -37545.313   -18906.403   -56958.584    16606.085    14188.375    82.761486 
   85800    2139.0066   -107.77538    1.9354181   -105.83996     34037.07    4.3379887    4.3379887    4.3379887     34037.07    1093.2689    75287.764    25730.178    27940.762   -7466.9145   -5738.3961    81.632905 
   85900    1183.5811   -106.94073    1.0709291    -105.8698   -19813.709    4.3506237    4.3506237    4.3506237   -19813.709   -26620.536   -36496.537    3675.9456   -22238.361    22284.274      6076.26    82.348283 
   86000    1831.9133   -107.51586    1.6575537   -105.85831   -6184.9701     4.367143     4.367143     4.367143   -6184.9701   -57597.909    41471.702   -2428.7032   -24367.362    12723.954   -3383.0548    83.289883 
   86100    1593.3514    -107.3021    1.4416978    -105.8604   -9793.3382    4.3634284    4.3634284    4.3634284   -9793.3382   -48411.229   -15589.105    34620.319    28157.429   -5377.6986   -2887.8506    83.077526 
   86200    1259.9686    -107.0031     1.140046   -105.86305    14362.144    4.3490342    4.3490342    4.3490342    14362.144   -50390.137    60992.444    32484.124   -40417.203     23668.93   -4962.8422    82.258062 
   86300    2078.1977    -107.7302     1.880397   -105.84981   -2440.6316    4.3550798    4.3550798    4.3550798   -2440.6316   -13135.021    17829.124   -12015.998    26452.448   -6419.5637   -13035.399     82.60158 
   86400      1184.47   -106.93912    1.0717334   -105.86739   -10557.505    4.3555688    4.3555688    4.3555688   -10557.505   -66188.031    1174.3775     33341.14   -26347.054    11950.567    2128.4151    82.629406 
   86500    2149.1053   -107.79505    1.9445556   -105.85049    6300.8447    4.3655246    4.3655246    4.3655246    6300.8447   -49441.641    57704.187    10639.988   -1476.4958   -9776.0148    -655.2645    83.197315 
   86600    1043.9833     -106.806   0.94461805   -105.86138   -8885.8186    4.3589026    4.3589026    4.3589026   -8885.8186   -29512.777    37122.181   -34266.859   -18164.744    -16522.88   -8721.5608    82.819291 
   86700    1969.1788   -107.62845    1.7817544    -105.8467    24288.625    4.3445468    4.3445468    4.3445468    24288.625   -16762.472    4999.8216    84628.525   -26028.862     7125.955    3699.1134    82.003698 
   86800    1372.5465    -107.0976    1.2419089   -105.85569    3141.2465    4.3529113    4.3529113    4.3529113    3141.2465   -22770.109    18329.346    13864.502    2797.7842   -23324.415    18648.637    82.478252 
   86900    1352.1876    -107.0882    1.2234878   -105.86471   -5866.0093    4.3641856    4.3641856    4.3641856   -5866.0093   -26693.185   -37224.262    46319.419   -28658.479    15879.523   -10620.931    83.120786 
   87000    1899.0143   -107.55257    1.7182681   -105.83431   -7315.4182    4.3755556    4.3755556    4.3755556   -7315.4182   -27563.728   -15796.292    21413.765    4182.6205    21488.788    9825.8128    83.772143 
   87100    1259.4066   -106.97699    1.1395376   -105.83746   -13593.891    4.3583585    4.3583585    4.3583585   -13593.891   -22430.869   -25903.554    7552.7506   -30888.963   -14904.096    3062.4986     82.78828 
   87200    1987.9441   -107.62312    1.7987336   -105.82439    14464.636    4.3490161    4.3490161    4.3490161    14464.636   -8284.4082    40088.968    11589.349    4049.0404    48550.043   -10304.109    82.257034 
   87300    1570.6689   -107.25858    1.4211742   -105.83741   -14814.481    4.3619419    4.3619419    4.3619419   -14814.481   -14198.111   -45614.071    15368.739   -17844.825   -14922.472    16536.148    82.992649 
   87400    1424.3985   -107.12186    1.2888257   -105.83303    28679.433    4.3559884    4.3559884    4.3559884    28679.433    17968.114    21957.305     46112.88   -7999.4902     17988.03   -9437.7753    82.653291 
   87500     1281.717   -107.00958    1.1597245   -105.84985   -1887.2324    4.3592954    4.3592954    4.3592954   -1887.2324   -53696.137    9091.3917    38943.048     3824.204    33596.388   -4422.5779     82.84168 
   87600    1908.1128   -107.56498    1.7265006   -105.83848    11884.775    4.3595205    4.3595205    4.3595205    11884.775    8322.6389   -11998.534     39330.22   -20969.764   -13640.816     7693.334    82.854512 
   87700     1773.969   -107.44672    1.6051244   -105.84159   -2823.8786    4.3565503    4.3565503    4.3565503   -2823.8786   -32454.691    44074.852   -20091.798    7389.7532    60582.287   -10613.908    82.685277 
   87800    1484.6848   -107.18339     1.343374   -105.84002   -18333.041    4.3645657    4.3645657    4.3645657   -18333.041   -25850.664   -32373.413    3224.9534   -6924.0855   -6081.3112    8570.4276    83.142505 
   87900    1864.0581   -107.52047    1.6866389   -105.83383    9955.7253    4.3604636    4.3604636    4.3604636    9955.7253   -15080.635    9458.8543    35488.956   -2725.5681    15902.371   -2833.7309    82.908296 
   88000    1578.3412   -107.28097    1.4281163   -105.85286   -2254.7476    4.3547743    4.3547743    4.3547743   -2254.7476   -19789.701   -14843.671    27869.129    32111.721    29007.332   -4801.8546      82.5842 
   88100    1941.0124   -107.60165    1.7562688   -105.84538    33359.974    4.3555506    4.3555506    4.3555506    33359.974    10670.137    7602.4737    81807.311   -24201.514   -25196.237   -3096.2451    82.628373 
   88200    1104.9608   -106.85811   0.99979177   -105.85832   -6599.8563    4.3641521    4.3641521    4.3641521   -6599.8563   -18150.002   -27229.418    25579.851    41082.887   -1569.9355    8850.7565    83.118873 
   88300     1709.263   -107.39168    1.5465771    -105.8451    6873.7861    4.3614249    4.3614249    4.3614249    6873.7861    15020.972   -13345.607    18945.993   -2633.0172    3649.6018   -14748.936    82.963142 
   88400    1476.3544   -107.18837    1.3358365   -105.85253    1570.3644    4.3518106    4.3518106    4.3518106    1570.3644   -2032.5944    5791.5319    952.15573    15427.052   -53288.733    11399.915    82.415699 
   88500    1839.9373   -107.51817     1.664814   -105.85336   -419.53614    4.3469234    4.3469234    4.3469234   -419.53614   -17071.758   -25962.732    41775.882    43480.228     24618.94   -10199.447    82.138345 
   88600    1492.7085   -107.21078     1.350634   -105.86014   -403.82211    4.3551722    4.3551722    4.3551722   -403.82211    9778.9745   -13663.318    2672.8773   -20730.052   -24696.394   -3971.3876    82.606838 
   88700    1334.1335   -107.07237     1.207152   -105.86522   -28804.274     4.370207     4.370207     4.370207   -28804.274   -58271.683   -44516.393    16375.253     64954.23   -16145.948    6685.2589    83.465311 
   88800    2509.2487   -108.11009    2.2704209   -105.83967   -2469.7123    4.3601663    4.3601663    4.3601663   -2469.7123   -11094.161   -18051.967    21736.991   -19616.145    5962.8626   -19395.359    82.891342 
   88900    689.67636   -106.48392   0.62403366   -105.85989    6060.4641    4.3465522    4.3465522    4.3465522    6060.4641   -28160.828   -23008.261    69350.481    41420.666   -38489.027    4237.3536    82.117309 
   89000    1974.6607   -107.63634    1.7867145   -105.84962    5573.6158    4.3517125    4.3517125    4.3517125    5573.6158   -9730.3771   -2043.9663    28495.191    8498.2979    5506.4806     6339.443    82.410129 
   89100    1720.2457   -107.41308    1.5565144   -105.85656   -4056.5175    4.3668638    4.3668638    4.3668638   -4056.5175   -8368.6895   -26817.453     23016.59    13987.382   -16418.198   -11673.332    83.273905 
   89200    1107.5771   -106.86466     1.002159    -105.8625   -39040.071    4.3682451    4.3682451    4.3682451   -39040.071   -51022.126    -30316.91   -35781.178    47900.698   -30872.502    20304.123    83.352954 
   89300    1853.9303   -107.51784    1.6774751   -105.84037    29631.105    4.3429008    4.3429008    4.3429008    29631.105    45350.326    17066.988        26476    -15667.71     32464.03   -3429.2135    81.910529 
   89400    1345.3146    -107.0737    1.2172689   -105.85643   -21174.185    4.3530837    4.3530837    4.3530837   -21174.185   -55904.446   -17093.946    9475.8378     67837.61   -37053.011    10510.598    82.488054 
   89500    1730.2882   -107.40523    1.5656011   -105.83963   -6747.3565     4.363923     4.363923     4.363923   -6747.3565   -7688.7723    27584.004   -40137.301   -20238.757      18357.5    10449.081     83.10578 
   89600    1487.9454   -107.18562    1.3463242    -105.8393   -5748.3065    4.3601103    4.3601103    4.3601103   -5748.3065   -18822.761    3679.6787   -2101.8373    37827.152   -1587.9204   -506.54015    82.888148 
   89700    1122.7511   -106.87159    1.0158888    -105.8557   -15831.759    4.3598643    4.3598643    4.3598643   -15831.759   -11724.581   -8349.4708   -27421.226    14974.184   -26683.282    17614.166    82.874115 
   89800    2325.5953   -107.94704    2.1042475    -105.8428    12134.483    4.3470024    4.3470024    4.3470024    12134.483    5070.5604    21611.426    9721.4635   -4448.7659    22340.188   -2684.3017    82.142827 
   89900    884.98245   -106.67171   0.80075072   -105.87096   -9628.8103    4.3495498    4.3495498    4.3495498   -9628.8103   -15622.248   -30058.191    16794.008    81248.042   -24129.236     5144.599    82.287322 
   90000    2029.6863   -107.68744    1.8365028   -105.85094    7055.5237    4.3606064    4.3606064    4.3606064    7055.5237    50270.956    3464.3819   -32568.767   -28030.664   -8105.5542    19335.646    82.916441 
   90100    1373.4666   -107.09531    1.2427414   -105.85257   -31114.758    4.3785107    4.3785107    4.3785107   -31114.758   -33955.694   -65187.545    5798.9655    74549.299    3789.8092   -12621.542    83.941988 
   90200    2042.1991   -107.67984    1.8478246   -105.83202   -13116.638    4.3623444    4.3623444    4.3623444   -13116.638   -172.51262    10267.527    -49444.93   -9202.4019     -29354.7    22728.318    83.015624 
   90300    1531.9302    -107.2194    1.3861226   -105.83328     4836.643    4.3418527    4.3418527    4.3418527     4836.643   -18158.884    8483.1461    24185.667    41517.156    2277.7927     4380.324    81.851241 
   90400    1479.3375    -107.1925    1.3385357   -105.85397   -11757.974    4.3548431    4.3548431    4.3548431   -11757.974   -15751.156    912.76447    -20435.53    26338.624   -13278.342    1932.4747    82.588114 
   90500     1686.368   -107.37841    1.5258612   -105.85255    2803.8413    4.3702229    4.3702229    4.3702229    2803.8413    8571.7532    40880.627   -41040.856    19720.815    -14802.78    24558.852    83.466225 
   90600    1361.1026   -107.08346    1.2315542   -105.85191   -8135.7351    4.3746028    4.3746028    4.3746028   -8135.7351    32032.775   -48056.172   -8383.8084    58939.017    5420.0168   -7247.4704    83.717428 
   90700    1605.6133   -107.30004    1.4527926   -105.84724    11478.287    4.3497817    4.3497817    4.3497817    11478.287    59234.953      26699.1   -51499.193   -15000.334   -22256.668    19453.817    82.300481 
   90800    1396.0256   -107.11492    1.2631533   -105.85177    10036.857    4.3367844    4.3367844    4.3367844    10036.857    7548.7011   -9523.4108     32085.28     69701.07   -1164.8776   -1721.4953    81.564937 
   90900     2067.583   -107.72506    1.8707925   -105.85427   -2302.0236     4.361592     4.361592     4.361592   -2302.0236    35978.416   -14187.632   -28696.855   -11584.243    6496.8322    12626.678     82.97268 
   91000    1228.7069   -106.97079    1.1117599   -105.85903   -3663.4336    4.3725285    4.3725285    4.3725285   -3663.4336    42358.129   -30216.032   -23132.398    32221.398   -18793.421    5883.4731    83.598394 
   91100    1705.9838   -107.39289      1.54361   -105.84928   -13964.455    4.3647736    4.3647736    4.3647736   -13964.455    -10381.08   -30016.604   -1495.6821    36320.528    23166.536    927.65318    83.154387 
   91200    1941.9179   -107.60264    1.7570881   -105.84556    13430.528    4.3436431    4.3436431    4.3436431    13430.528    56563.546    3142.1026   -19414.065    3610.2422    6578.0035    17076.005    81.952535 
   91300    1507.3251   -107.22727    1.3638594   -105.86341    2149.8001    4.3491602    4.3491602    4.3491602    2149.8001    2521.4721   -17821.708    21749.636    55019.251    2485.0634   -2173.8798    82.265212 
   91400    1518.1252   -107.23346    1.3736316   -105.85983   -1326.8151    4.3712816    4.3712816    4.3712816   -1326.8151    53388.998   -2731.5251   -54637.919   -15663.354    39706.756    3666.1092    83.526898 
   91500    1723.8089   -107.40411    1.5597385   -105.84438   -3825.9952    4.3728398    4.3728398    4.3728398   -3825.9952    -16526.29    8427.7128   -3379.4082    33458.328   -13194.525   -32.550379    83.616255 
   91600    1365.2641   -107.08252    1.2353196    -105.8472   -8663.7953     4.358125     4.358125     4.358125   -8663.7953    -42298.08    33205.471   -16898.777    12171.347    38205.608    5684.6233    82.774971 
   91700    1922.5073   -107.57586     1.739525   -105.83633    27168.616    4.3347867    4.3347867    4.3347867    27168.616    23331.147    66728.031   -8553.3304   -5154.2696      10516.1    12279.312     81.45227 
   91800     1071.801     -106.839   0.96978808   -105.86921    -9256.423      4.34856      4.34856      4.34856    -9256.423   -31094.363   -17909.635    21234.729     64634.22    12263.483   -1387.5751    82.231156 
   91900    1944.1067   -107.61584    1.7590686   -105.85678    2975.1033    4.3690205    4.3690205    4.3690205    2975.1033    17317.899    36848.518   -45241.107   -9595.9516    32128.395    4400.4607    83.397352 
   92000    1467.5947    -107.1812    1.3279105   -105.85329   -9508.2086    4.3713455    4.3713455    4.3713455   -9508.2086   -16154.971   -9760.0289    -2609.626    43402.339   -12506.487    9230.5309    83.530559 
   92100     1258.027   -106.98755    1.1382892   -105.84926   -13440.491    4.3572256    4.3572256    4.3572256   -13440.491   -7902.9404   -78.703503   -32339.828     3537.839    39603.446   -984.20112    82.723735 
   92200    2212.4914   -107.83566    2.0019087   -105.83375    15170.289    4.3435022    4.3435022    4.3435022    15170.289   -886.95206    47024.513   -626.69403    6390.4637   -5252.1979    1452.0841    81.944564 
   92300    1243.0028   -106.98627    1.1246951   -105.86158   -23872.209    4.3564145    4.3564145    4.3564145   -23872.209   -64808.783    8232.5212   -15040.365    47617.849    20662.494    -1679.015    82.677549 
   92400     1726.663   -107.41436     1.562321   -105.85204   -2388.8782    4.3674128    4.3674128    4.3674128   -2388.8782    34922.457    4427.5135   -46516.605   -21623.129    17798.636   -3856.1109    83.305319 
   92500    1475.4261   -107.18535    1.3349966   -105.85035    16995.919    4.3558243    4.3558243    4.3558243    16995.919    26731.459    26520.601   -2264.3015     46001.87   -10463.348    5066.3642     82.64395 
   92600    1285.2831   -107.02067    1.1629512   -105.85771    4500.6753    4.3528489    4.3528489    4.3528489    4500.6753    44696.938    21664.073   -52858.985   -5932.4075    46877.117   -6751.8597    82.474705 
   92700    2048.6207   -107.69692    1.8536351   -105.84329   -9735.8001    4.3625509    4.3625509    4.3625509   -9735.8001   -3388.9959   -11894.593   -13923.811     14089.31   -12982.608   -3676.4317    83.027418 
   92800    1539.0638   -107.25286    1.3925773   -105.86028   -24266.602    4.3556777    4.3556777    4.3556777   -24266.602   -42830.192    6757.9181   -36727.533    30677.907    39243.148    525.39167    82.635607 
   92900    1719.5919   -107.41607    1.5559229   -105.86015   -6507.0686    4.3547778    4.3547778    4.3547778   -6507.0686    36674.467   -18785.588   -37410.085   -22304.393    3617.0428   -10874.118    82.584397 
   93000    1457.3963   -107.16898    1.3186828    -105.8503   -6498.7309     4.365169     4.365169     4.365169   -6498.7309   -9943.1551    12464.476   -22017.514    28020.825    12781.643    3290.4452    83.176986 
   93100     1704.212   -107.37824    1.5420068   -105.83623   -20168.257    4.3689359    4.3689359    4.3689359   -20168.257   -23437.391   -7518.9023   -29548.478   -3427.1442    22723.498   -8235.1557    83.392503 
   93200    1631.4521   -107.30689    1.4761721   -105.83071   -7832.5188    4.3618942    4.3618942    4.3618942   -7832.5188    23087.175   -30149.668   -16435.063   -5229.9335     -28960.6    6132.7052    82.989929 
   93300     1797.249   -107.45011    1.6261887   -105.82392    10738.785    4.3524415    4.3524415    4.3524415    10738.785   -19416.578    49434.087    2198.8462    18014.995    30768.751    1569.6803    82.451549 
   93400     1194.199   -106.92467    1.0805363   -105.84414   -9973.1389     4.360975     4.360975     4.360975   -9973.1389    8747.4165   -7812.1208   -30854.713   -10036.478   -15015.961   -32791.463    82.937474 
   93500     1969.593   -107.62099    1.7821291   -105.83886    350.21596    4.3683231    4.3683231    4.3683231    350.21596   -4027.0359   -4132.7521    9210.4359    12552.906    -2377.592    22396.153    83.357418 
   93600    1361.0769   -107.08157     1.231531   -105.85004    12381.549    4.3590668    4.3590668    4.3590668    12381.549    6304.0729   -2517.3122    33357.885   -15350.181     22980.68   -66300.861    82.828649 
   93700    1471.4996   -107.17831    1.3314437   -105.84687    18103.968    4.3560339    4.3560339    4.3560339    18103.968   -4893.6247    9986.2416    49219.287   -8097.7702   -10424.279    8894.3973    82.655878 
   93800    1555.6689   -107.25542    1.4076019   -105.84782    13924.691    4.3546948    4.3546948    4.3546948    13924.691    41195.312   -10110.824    10689.584    4756.9973    6539.6168   -33727.381    82.579675 
   93900    1181.6548   -106.93438    1.0691861    -105.8652   -14811.512    4.3581249    4.3581249    4.3581249   -14811.512    -4767.236   -29599.886   -10067.414   -28022.056    7399.0233   -43235.729     82.77497 
   94000    2423.4102   -108.04003    2.1927525   -105.84728   -2105.7007    4.3583315    4.3583315    4.3583315   -2105.7007   -3010.0668   -6417.8044     3110.769    9697.3208   -5023.7847    18910.157    82.786742 
   94100    896.72378   -106.67807   0.81137452   -105.86669    -7704.797    4.3568302    4.3568302    4.3568302    -7704.797    24458.919   -11425.264   -36148.046   -14587.628   -1170.0957   -57654.504    82.701219 
   94200    2065.1672   -107.71655    1.8686067   -105.84794   -12347.073     4.366301     4.366301     4.366301   -12347.073    -48028.66   -32370.899    43358.342   -28383.737    6813.7749     19241.76    83.241711 
   94300    1685.0409   -107.36514    1.5246604   -105.84048   -24175.611    4.3689701    4.3689701    4.3689701   -24175.611    34865.288   -33322.098   -74070.023   -649.57674   -21292.545   -47247.866    83.394461 
   94400    1656.3949   -107.33067    1.4987409   -105.83193   -6481.3661    4.3567985    4.3567985    4.3567985   -6481.3661    8945.4047   -24095.149   -4294.3541   -33350.981    5191.9033   -13660.679    82.699412 
   94500    1752.1183   -107.41803    1.5853534   -105.83267    13922.812    4.3539278    4.3539278    4.3539278    13922.812    16026.919    21538.949    4202.5673    2777.6625    3682.8027   -10398.324     82.53605 
   94600    1067.2601   -106.81983   0.96567941   -105.85415   -1548.7556    4.3588985    4.3588985    4.3588985   -1548.7556    15496.479    24177.879   -44320.624   -10295.887   -19873.325   -40537.101    82.819056 
   94700    2210.6966   -107.84198    2.0002847    -105.8417    4288.9078    4.3606342    4.3606342    4.3606342    4288.9078   -13866.218    28800.256   -2067.3154   -19622.842    14180.505    12127.054    82.918031 
   94800    1203.3224   -106.94369    1.0887914    -105.8549   -30155.672    4.3655301    4.3655301    4.3655301   -30155.672   -4004.5893   -10482.762   -75979.665    10010.632   -20767.467   -60994.584    83.197633 
   94900    1811.5689   -107.48251    1.6391456   -105.84336   -10446.532    4.3549202    4.3549202    4.3549202   -10446.532   -28682.269   -6478.7452    3821.4197   -44480.528   -5779.3021    11830.803    82.592498 
   95000    1704.8991   -107.38955    1.5426286   -105.84692   -14955.532    4.3546772    4.3546772    4.3546772   -14955.532   -2999.6234   -8456.0004   -33410.972    6429.5721   -286.68154   -31341.943    82.578674 
   95100     1355.041   -107.08028    1.2260695   -105.85421   -18568.822    4.3654951    4.3654951    4.3654951   -18568.822   -21255.151    20026.466    -54477.78   -12330.808    -19815.91   -10932.428    83.195631 
   95200    2014.4667     -107.661    1.8227318   -105.83826    8231.9406    4.3652113    4.3652113    4.3652113    8231.9406   -38172.913    30220.454     32648.28   -23151.611    5509.0703    11863.112    83.179403 
   95300    951.27605   -106.71581   0.86073456   -105.85507   -20563.924    4.3628639    4.3628639    4.3628639   -20563.924   -12861.552   -14953.872   -33876.349    32499.135   -16159.847   -45943.132    83.045289 
   95400    2202.6619   -107.83144    1.9930148   -105.83843    9887.0066    4.3515585    4.3515585    4.3515585    9887.0066    19557.599   -663.59058    10767.012   -18777.703    -3821.458    18631.661    82.401379 
   95500    1590.1012   -107.30099     1.438757   -105.86223   -9207.6053    4.3522597    4.3522597    4.3522597   -9207.6053   -14856.758   -15833.754    3067.6963    23049.125    4336.3042   -29772.647    82.441222 
   95600    1476.8274   -107.21345    1.3362644   -105.87719   -20737.019    4.3581838    4.3581838    4.3581838   -20737.019   -17784.106    -19538.62   -24888.331    26361.671   -37241.561   -29687.934    82.778321 
   95700    1981.7912   -107.64461    1.7931664   -105.85145     26068.52    4.3597323    4.3597323    4.3597323     26068.52    21217.836    19632.285    37355.439   -14669.251    26338.004    10166.802     82.86659 
   95800    850.90463   -106.63132   0.76991639    -105.8614   -19977.767    4.3697569    4.3697569    4.3697569   -19977.767   -47444.768    9127.7284   -21616.262    34689.247   -25336.759   -33372.982    83.439529 
   95900    2271.8544   -107.89017    2.0556216   -105.83454    14112.769    4.3611402    4.3611402    4.3611402    14112.769    2408.9617    44014.885   -4085.5391   -4937.2294   -7956.0228    7722.7747    82.946899 
   96000    1297.0629    -107.0199    1.1736098   -105.84629    24250.408    4.3472493    4.3472493    4.3472493    24250.408    20996.501    65721.069   -13966.346   -6911.3422    16284.937   -16956.302    82.156825 
   96100    1343.9352   -107.07096    1.2160208   -105.85494   -1780.3619    4.3593656    4.3593656    4.3593656   -1780.3619   -12902.798     15810.64   -8248.9275    10559.042   -22603.403   -22255.421    82.845685 
   96200    1984.9394   -107.63749    1.7960149   -105.84148    174.76182    4.3690357    4.3690357    4.3690357    174.76182    9952.3589    183.79819   -9611.8716    -20934.63    18231.481     17008.93    83.398217 
   96300    1338.6949    -107.0622    1.2112792   -105.85092   -6308.2638    4.3667489    4.3667489    4.3667489   -6308.2638    17801.381    106.14539   -36832.318     7428.524   -16422.361   -55202.951    83.267335 
   96400    1971.3183    -107.6308    1.7836902   -105.84711    13236.346    4.3538701    4.3538701    4.3538701    13236.346    18292.089    25926.152   -4509.2039    12375.258   -74.357299    46661.195    82.532768 
   96500    1227.7597   -106.96537    1.1109028   -105.85447    20925.008    4.3450085    4.3450085    4.3450085    20925.008    64058.999    12645.171   -13929.145    -7666.796   -2021.9836   -54753.464    82.029843 
   96600     1499.928     -107.214    1.3571664   -105.85684    11236.075    4.3607625    4.3607625    4.3607625    11236.075    20325.383    25932.884   -12550.041    10718.359   -17007.698    2426.3996    82.925351 
   96700    1930.1026   -107.58274    1.7463974   -105.83634   -12002.828    4.3758239    4.3758239    4.3758239   -12002.828    22742.861    -10997.14   -47754.206   -9978.5802    11294.996   -6608.5633    83.787553 
   96800    1269.0238   -106.98966    1.1482394   -105.84142   -26327.432    4.3678987    4.3678987    4.3678987   -26327.432   -7097.7295   -15770.977   -56113.591   -1348.3986   -26826.632   -59447.662    83.333127 
   96900    2015.8165   -107.65667    1.8239531   -105.83272    32996.787    4.3404565    4.3404565    4.3404565    32996.787    37013.467    72902.507   -10925.612    9652.6336    241.97157     21245.89    81.772302 
   97000    1027.0968   -106.79053   0.92933881   -105.86119    19767.411    4.3418633    4.3418633    4.3418633    19767.411    60184.889    16602.863   -17485.518   -3487.5599   -6087.3055   -74315.521    81.851841 
   97100    2074.3676   -107.72482    1.8769314   -105.84789   -8981.6396    4.3693425    4.3693425    4.3693425   -8981.6396   -40206.728    56887.971   -43626.162    2598.9121   -24162.972    18234.738    83.415789 
   97200    1172.4818   -106.91353    1.0608862   -105.85265   -10894.581    4.3669142    4.3669142    4.3669142   -10894.581    59748.425   -25931.922   -66500.245    3895.9809    10531.296   -65924.945    83.276788 
   97300    1972.9094   -107.61722    1.7851299   -105.83209     3837.087    4.3593821    4.3593821    4.3593821     3837.087    21110.396    11845.404    -21444.54    3069.8541   -23053.695    4906.0725    82.846622 
   97400    1423.8096   -107.14181    1.2882928   -105.85351   -14556.706    4.3516853    4.3516853    4.3516853   -14556.706    12919.701    3971.6996   -60561.518   -13596.756    7342.0327   -53771.541    82.408584 
   97500    1462.5094   -107.17449    1.3233093   -105.85118    27531.373    4.3423591    4.3423591    4.3423591    27531.373    91796.664    10388.539   -19591.084    13265.868    8825.2398   -7468.0271    81.879881 
   97600    1702.4012   -107.38584    1.5403684   -105.84548   -2710.7113    4.3637268    4.3637268    4.3637268   -2710.7113    52957.363   -20554.765   -40534.731   -20195.791   -9635.5825   -19225.574    83.094571 
   97700    1454.7978   -107.16076    1.3163316   -105.84442   -19369.039    4.3634886    4.3634886    4.3634886   -19369.039    43237.212   -45908.136   -55436.194    -4719.036    16434.291   -39619.341    83.080967 
   97800      1846.24   -107.49737    1.6705168   -105.82685    21651.032    4.3528163    4.3528163    4.3528163    21651.032    47191.797     31865.97   -14104.671   -7681.8247    4775.7304    20127.157    82.472852 
   97900     1453.923   -107.14786    1.3155401   -105.83232   -20852.765    4.3567534    4.3567534    4.3567534   -20852.765    41080.643    -65368.94   -38269.997   -20580.583   -6868.3995   -64761.332    82.696846 
   98000    1575.8145   -107.25851    1.4258301   -105.83268    6060.6877    4.3514523    4.3514523    4.3514523    6060.6877    30372.054    933.99467   -13123.986    472.44318    15428.832    46036.014    82.395343 
   98100    1797.9383    -107.4685    1.6268124   -105.84169   -18658.012    4.3612474    4.3612474    4.3612474   -18658.012    37896.185   -51369.653   -42500.567   -2993.5587   -15237.457   -68295.861    82.953017 
   98200    1906.0022   -107.54896    1.7245908   -105.82437   -7103.4823    4.3674055    4.3674055    4.3674055   -7103.4823    28711.911   -30568.537   -19453.821   -4530.2352    1068.0439    42394.179    83.304902 
   98300    1103.2164   -106.83266   0.99821335   -105.83445   -13197.465    4.3685379    4.3685379    4.3685379   -13197.465     63259.16   -64584.513   -38267.042   -132.98666   -5089.4255   -46713.208    83.369716 
   98400    2486.5572   -108.06146    2.2498892   -105.81157   -3277.9833    4.3675926    4.3675926    4.3675926   -3277.9833     14312.91   -17217.538   -6929.3221    -8520.478   -9644.2963    20267.004    83.315609 
   98500     1355.403   -107.05412    1.2263971   -105.82772    6632.1795    4.3577742    4.3577742    4.3577742    6632.1795     78141.09   -24196.135   -34048.417   -4857.7465    11176.843   -8268.5571    82.754987 
   98600    1748.2622   -107.41266    1.5818644   -105.83079    5243.1065    4.3583256    4.3583256    4.3583256    5243.1065    30116.454   -42299.577    27912.442    7974.1632    1946.3659   -20726.106    82.786403 
   98700     1669.421   -107.34836    1.5105272   -105.83784    5977.3525    4.3603225    4.3603225    4.3603225    5977.3525    13894.294   -23298.141    27335.905   -8549.7163   -1877.9733     31962.18    82.900251 
   98800     1501.285   -107.20399    1.3583942   -105.84559    13113.081    4.3617205    4.3617205    4.3617205    13113.081    59217.409   -25294.742    5416.5749    433.85155    4083.2309    -51170.43     82.98001 
   98900    1774.0095   -107.44743    1.6051611   -105.84226    4855.4796    4.3613124    4.3613124    4.3613124    4855.4796    10789.458   -22767.854    26544.835    8666.1563   -6935.5977    13259.192    82.956725 
   99000    934.12095   -106.70837   0.84521226   -105.86316   -27551.385    4.3518841    4.3518841    4.3518841   -27551.385    9846.5924   -46270.665   -46230.081    -8910.906    13532.757   -40613.812    82.419877 
   99100    2583.8935   -108.18244    2.3379611   -105.84448    12401.601    4.3535892    4.3535892    4.3535892    12401.601    26381.144    2159.1813    8664.4782   -4497.1947   -13556.522   -9426.1829    82.516791 
   99200    981.68348   -106.75012   0.88824784   -105.86187   -36306.385    4.3761019    4.3761019    4.3761019   -36306.385   -33997.997   -4628.3775    -70292.78     -5472.06     -2386.25    2012.8468    83.803521 
   99300    1616.4356   -107.30446    1.4625849   -105.84188   -16498.903    4.3722529    4.3722529    4.3722529   -16498.903    11743.274   -46348.615   -14891.368   -112.42486    10895.226   -24953.797    83.582591 
   99400    1798.1872   -107.46265    1.6270375   -105.83561     27633.75    4.3455191    4.3455191    4.3455191     27633.75    43272.317    10948.602    28680.329    2810.7414   -18584.127    20871.215    82.058766 
   99500    1080.9508   -106.84099   0.97806699   -105.86292    17090.966    4.3461097    4.3461097    4.3461097    17090.966    22154.636    6687.4837    22430.777   -12369.271    21159.174   -14595.146    82.092232 
   99600     1980.862   -107.64806    1.7923255   -105.85573    16384.337    4.3632514    4.3632514    4.3632514    16384.337    21069.623   -21352.271    49435.659    9394.3777   -6285.2629    11811.931    83.067416 
   99700    1111.5157   -106.86256    1.0057227   -105.85684    2369.4889    4.3726635    4.3726635    4.3726635    2369.4889    48235.114    1503.2951   -42629.942   -7180.4284    3476.4079   -13387.573    83.606139 
   99800    1804.2162   -107.48015    1.6324927   -105.84766   -13465.797    4.3631798    4.3631798    4.3631798   -13465.797    4606.8094   -30530.703   -14473.498    8112.6876    6478.0905   -14492.768    83.063328 
   99900    1686.1577   -107.37639    1.5256709   -105.85072    21279.806     4.337612     4.337612     4.337612    21279.806    35835.497    24669.494    3334.4266    12072.835   -13963.355    8326.2372    81.611641 
  100000    1464.4659   -107.20359    1.3250795   -105.87851   -18686.156     4.347568     4.347568     4.347568   -18686.156   -1009.6364    3710.3792   -58759.212    6687.4975    3710.3894   -47871.081    82.174895 
Loop time of 22.3369 on 1 procs for 100000 steps with 8 atoms

Pair  time (%) = 6.7813 (30.3591)
Kspce time (%) = 5.48779 (24.5682)
Neigh time (%) = 0.188306 (0.843026)
Comm  time (%) = 1.03693 (4.64224)
Outpt time (%) = 0.0246696 (0.110443)
Other time (%) = 8.81794 (39.4769)

Nlocal:    8 ave 8 max 8 min
Histogram: 1 0 0 0 0 0 0 0 0 0
Nghost:    2020 ave 2020 max 2020 min
Histogram: 1 0 0 0 0 0 0 0 0 0
Neighs:    2156 ave 2156 max 2156 min
Histogram: 1 0 0 0 0 0 0 0 0 0

Total # of neighbors = 2156
Ave neighs/atom = 269.5
Neighbor list builds = 2306
Dangerous builds = 0
unfix 20
unfix 21
print "seeds:1842867"
seeds:1842867
