LAMMPS (10 Feb 2015)
# ---- initialize simulations
clear
units metal
dimension 3
boundary p p p
atom_style charge
atom_modify map array
# ---- create atoms
read_data /Users/eugeneragasa/pyflamestk_git/pypospack/tests/tests_integration/workflow/WorkflowLammpsThermalExpansion/param_2424/MgO_NaCl_unit.npt.T1800/lammps.structure
  triclinic box = (0 0 0) to (4.2565 4.2565 4.2565) with tilt (0 0 0)
  1 by 1 by 1 MPI processor grid
  reading atoms ...
  8 atoms
# ---- define interatomic potential
include potential.mod
mass 1 24.305
mass 2 15.999

group Mg type 1
4 atoms in group Mg
group O type 2
4 atoms in group O

set group Mg charge 1.67924051174
  4 settings made for charge
set group O charge -1.67924051174
  4 settings made for charge

variable R_cut equal 10.0

pair_style buck/coul/long ${R_cut}
pair_style buck/coul/long 10
pair_coeff 1 1 0.0 0.5 0.0 ${R_cut}
pair_coeff 1 1 0.0 0.5 0.0 10
pair_coeff 1 2 1306.98043044 0.288034123545 0.0 ${R_cut}
pair_coeff 1 2 1306.98043044 0.288034123545 0.0 10
pair_coeff 2 2 2032.48006166 0.252585756474 14.8401495582 ${R_cut}
pair_coeff 2 2 2032.48006166 0.252585756474 14.8401495582 10

kspace_style pppm 1.0e-5

neighbor 1.0 bin
neigh_modify every 1 delay 0 check yes
# ---- define settings
compute eng all pe/atom
compute eatoms all reduce sum c_eng
# ---- run minimization
reset_timestep 0
fix 1 all box/relax iso 0.0 vmax 0.001
thermo 10
thermo_style custom step pe lx ly lz xy xz yz press pxx pyy pzz pxy pxz pyz c_eatoms
min_style cg
minimize 1e-25 1e-25 5000 10000
PPPM initialization ...
  G vector (1/distance) = 0.352997
  grid = 8 8 8
  stencil order = 5
  estimated absolute RMS force accuracy = 4.02799e-05
  estimated relative force accuracy = 2.79728e-06
  using double precision FFTs
  3d grid and FFT values/proc = 3375 512
Neighbor list info ...
  1 neighbor list requests
  update every 1 steps, delay 0 steps, check yes
  master list distance cutoff = 11
Memory usage per processor = 4.06549 Mbytes
Step PotEng Lx Ly Lz Xy Xz Yz Press Pxx Pyy Pzz Pxy Pxz Pyz eatoms 
       0   -114.09861       4.2565       4.2565       4.2565            0            0            0    83013.551    83013.551    83013.551    83013.551 1.023811e-10 -6.100653e-11 -2.0427431e-10   -114.09861 
      10   -114.17745     4.299065     4.299065     4.299065            0            0            0    27173.213    27173.213    27173.213    27173.213 -1.7620305e-11 8.177727e-11 3.0587737e-11   -114.17745 
      19   -114.18814    4.3219883    4.3219883    4.3219883            0            0            0 -0.014642896 -0.014642896 -0.014642896 -0.014642896 -4.2788838e-11 1.5607732e-10 -4.5124802e-11   -114.18814 
Loop time of 0.00816011 on 1 procs for 19 steps with 8 atoms

Minimization stats:
  Stopping criterion = linesearch alpha is zero
  Energy initial, next-to-last, final = 
        -114.098610965     -114.188144107     -114.188144107
  Force two-norm initial, final = 11.9872 7.95763e-05
  Force max component initial, final = 11.9872 1.65313e-05
  Final line search alpha, max atom move = 0.5 8.26564e-06
  Iterations, force evaluations = 19 24

Pair  time (%) = 0.00218749 (26.8071)
Kspce time (%) = 0.00131297 (16.0901)
Neigh time (%) = 0 (0)
Comm  time (%) = 0.000250816 (3.07369)
Outpt time (%) = 1.5974e-05 (0.195758)
Other time (%) = 0.00439286 (53.8333)

Nlocal:    8 ave 8 max 8 min
Histogram: 1 0 0 0 0 0 0 0 0 0
Nghost:    2189 ave 2189 max 2189 min
Histogram: 1 0 0 0 0 0 0 0 0 0
Neighs:    2344 ave 2344 max 2344 min
Histogram: 1 0 0 0 0 0 0 0 0 0

Total # of neighbors = 2344
Ave neighs/atom = 293
Neighbor list builds = 0
Dangerous builds = 0
unfix 1
# ---- define output variables ----
variable natoms equal "count(all)"
variable tot_energy equal "c_eatoms"
variable length_x equal "lx"
variable length_y equal "ly"
variable length_z equal "lz"
variable tilt_xy equal "xy"
variable tilt_xz equal "xz"
variable tilt_yz equal "yz"
variable tot_press equal "press"
variable press_xx equal "pxx"
variable press_yy equal "pyy"
variable press_zz equal "pzz"
variable press_xy equal "pxy"
variable press_xz equal "pxz"
variable press_yz equal "pyz"

# ---- output ----
print "pypospack:output_section:begin"
pypospack:output_section:begin
print "tot_energy = ${tot_energy}"
tot_energy = -114.188144106894
print "num_atoms = ${natoms}"
num_atoms = 8
print "xx = ${length_x}"
xx = 4.32198834005221
print "yy = ${length_y}"
yy = 4.32198834005221
print "zz = ${length_z}"
zz = 4.32198834005221
print "xy = ${tilt_xy}"
xy = 0
print "xz = ${tilt_xz}"
xz = 0
print "yz = ${tilt_yz}"
yz = 0
print "tot_press = ${tot_press}"
tot_press = -0.0146428956780545
print "pxx = ${press_xx}"
pxx = -0.0146428956419126
print "pyy = ${press_yy}"
pyy = -0.0146428958165915
print "pzz = ${press_zz}"
pzz = -0.0146428955756593
print "pxy = ${press_xy}"
pxy = -4.27888380608005e-11
print "pxz = ${press_xz}"
pxz = 1.56077321107314e-10
print "pyz = ${press_yz}"
pyz = -4.51248020389503e-11
print "pypospack:output_section:done"
pypospack:output_section:done
print "pypospack:lammps_sim:done"
pypospack:lammps_sim:done
#------------------------------------------------------------------------------
# RUN THERMOSTAT
# running using an NPT Nose-Hoover style thermostat
#------------------------------------------------------------------------------
variable tempdamp equal 0.1
variable pressdamp equal 1.0
# set initial velocities
velocity all create 1800 4748505 mom yes dist gaussian loop all
# fix for Nose-Hoover style thermostat
fix 20 all npt temp 1800 1800 0.1 aniso 0.0 0.0 1.0 drag 1.0 couple xyz
variable boxx equal lx
variable boxy equal ly
variable boxz equal lz
variable boxp equal press
variable boxt equal temp
# calculate averages every 10000 steps
reset_timestep 0
fix 21 all ave/time 10 10 100 v_boxx v_boxy v_boxz v_boxp v_boxt file lattice.out
thermo_style custom step temp pe ke etotal press lx ly lz press pxx pyy pzz pxy pxz pyz vol
thermo_modify flush yes
thermo 100
run 100000
PPPM initialization ...
  G vector (1/distance) = 0.35233
  grid = 8 8 8
  stencil order = 5
  estimated absolute RMS force accuracy = 4.15437e-05
  estimated relative force accuracy = 2.88505e-06
  using double precision FFTs
  3d grid and FFT values/proc = 3375 512
Memory usage per processor = 3.06549 Mbytes
Step Temp PotEng KinEng TotEng Press Lx Ly Lz Press Pxx Pyy Pzz Pxy Pxz Pyz Volume 
       0         1800   -114.18815    1.6286778   -112.55948    21545.984    4.3219883    4.3219883    4.3219883    21545.984    24411.309    25813.813    14412.828   -2061.9295    2321.5733    1473.1593    80.732941 
     100    924.98903   -113.19295   0.83694952     -112.356    29489.825    4.3503404    4.3503404    4.3503404    29489.825    26192.427     33739.38    28537.667    3067.9653    -2716.697    3445.5731    82.332202 
     200    1571.2364    -113.3314    1.4216877   -111.90971   -33436.192    4.3980478    4.3980478    4.3980478   -33436.192   -43940.925    -25711.91   -30655.742    7169.5542   -8957.2539   -5629.9887    85.070666 
     300    2203.6173   -113.50705    1.9938793   -111.51317   -39159.374    4.4094917    4.4094917    4.4094917   -39159.374   -41662.264   -32302.562   -43513.297   -3633.6409   -1647.8575    -1648.674    85.736467 
     400    822.64643    -111.9495   0.74434778   -111.20515     39803.79    4.3796449    4.3796449    4.3796449     39803.79   -14256.232    116163.51    17504.096   -11838.358   -11465.002    1330.8448    84.007235 
     500    1649.4374   -112.49718    1.4924457   -111.00473   -4717.1093    4.3834404    4.3834404    4.3834404   -4717.1093   -22562.374   -16915.483    25326.529    15013.427   -20490.963   -5336.7741    84.225836 
     600    1381.8042   -112.14727    1.2502855   -110.89698   -4473.6633    4.4072322    4.4072322    4.4072322   -4473.6633    6079.6295    8728.8472   -28229.467    8262.2732   -1493.5863    27706.014    85.604737 
     700    1154.1768   -111.90325    1.0443234   -110.85893      22099.2    4.4166955    4.4166955    4.4166955      22099.2    94704.627   -4279.0956   -24127.931    3321.1387   -4918.5269     6884.216    86.157359 
     800    2284.2955   -112.90527    2.0668786   -110.83839     -6005.73    4.4112255    4.4112255    4.4112255     -6005.73    12170.797    3519.6723   -33707.659   -9808.2086    4867.4259    3843.2449    85.837642 
     900     2344.617   -112.96279    2.1214588   -110.84134    14938.886    4.3837067    4.3837067    4.3837067    14938.886    92255.229   -13178.247   -34260.325      12423.1   -3724.1204    25850.544    84.241182 
    1000    1870.8333   -112.57746    1.6927693   -110.88469    6983.7791    4.3877039    4.3877039    4.3877039    6983.7791    11181.661    2518.5073    7251.1686   -4477.0241    -14705.47   -5914.2336    84.471837 
    1100     2214.005   -112.88749    2.0032783   -110.88421   -13069.814     4.403322     4.403322     4.403322   -13069.814   -24124.502    11129.164   -26214.103    5907.2177    26367.922    4930.9371    85.377085 
    1200    1336.5477   -112.07989    1.2093365   -110.87055    33200.291    4.4044869    4.4044869    4.4044869    33200.291    79184.113    36522.916   -16106.156   -10843.302   -2123.9553    23796.049    85.444867 
    1300    1899.3151   -112.57108    1.7185402   -110.85254   -11775.823    4.4045611    4.4045611    4.4045611   -11775.823   -32916.068    13.083758   -2424.4856   -12349.853   -7439.7349   -2769.0587    85.449185 
    1400    1745.7053   -112.43428    1.5795509   -110.85473    8379.3788    4.3869651    4.3869651    4.3869651    8379.3788   -26779.677    79452.495   -27534.681    741.14786    -1910.915    1526.3761    84.429175 
    1500     1593.084   -112.31844    1.4414559   -110.87698    33098.771    4.3855901    4.3855901    4.3855901    33098.771    7069.2889    29112.646    63114.378    1900.9646   -3713.6738    12116.137    84.349813 
    1600    1907.2221   -112.60542    1.7256947   -110.87973   -18008.293    4.4158996    4.4158996    4.4158996   -18008.293   -55764.002   -18477.786    20216.909    6920.1974    785.01765   -1147.1386    86.110791 
    1700    1963.3854   -112.61217    1.7765124   -110.83566   -26219.606    4.4172036    4.4172036    4.4172036   -26219.606   -16920.916   -48230.501     -13507.4    17731.035    18101.515     7231.201    86.187098 
    1800    1749.2373   -112.38985    1.5827467   -110.80711    26268.487     4.394986     4.394986     4.394986    26268.487    78090.256   -51696.295    52411.501   -5891.8805   -22648.455    7679.3364    84.893117 
    1900    1689.9758   -112.36829    1.5291256   -110.83917    29332.017    4.3986413    4.3986413    4.3986413    29332.017    43512.035    10643.909    33840.106     15157.79   -31650.041    8760.5696    85.105109 
    2000    1895.6807   -112.57126    1.7152517   -110.85601   -10895.816    4.4118292    4.4118292    4.4118292   -10895.816    5839.0058   -42926.459    4400.0053    10077.833   -20902.104    3811.4775    85.872889 
    2100    1574.7324   -112.27551     1.424851   -110.85066    7532.5384    4.4078261    4.4078261    4.4078261    7532.5384   -30628.569    47708.483    5517.7006   -11798.677   -19631.967    11578.161    85.639349 
    2200     1647.999   -112.34412    1.4911442   -110.85297   -13169.348    4.3908944    4.3908944    4.3908944   -13169.348   -58753.675    11506.633    7738.9983    1049.1192   -8606.9239   -2280.5688    84.656242 
    2300    1626.8895   -112.32703    1.4720438   -110.85498    5180.4163    4.3745732    4.3745732    4.3745732    5180.4163   -39783.642      30720.1     24604.79    21576.504     4230.572    6010.7993    83.715727 
    2400    1354.4473   -112.10133    1.2255324    -110.8758    48391.768    4.3758538    4.3758538    4.3758538    48391.768    40765.146    3950.2822    100459.88    4970.8423   -3394.5692    8477.5605    83.789269 
    2500    1583.8698    -112.3389    1.4331187   -110.90578   -37067.626    4.4033754    4.4033754    4.4033754   -37067.626   -53391.661   -44644.841   -13166.376     -8469.87   -1598.4353   -24791.456    85.380194 
    2600    2024.9358   -112.69917    1.8322045   -110.86697   -27899.248    4.4029399    4.4029399    4.4029399   -27899.248   -54495.966   -2698.5724   -26503.205   -10322.727    26701.506   -21049.513    85.354866 
    2700    2363.5196    -112.9827    2.1385622   -110.84413    35036.882    4.3882725    4.3882725    4.3882725    35036.882    31015.077    48384.005    25711.563    -5440.736    12637.572    16797.777    84.504681 
    2800    2284.2089   -112.93222    2.0668002   -110.86542   -1857.9993    4.4031998    4.4031998    4.4031998   -1857.9993    16542.417    6942.1197   -29058.535    10810.718    -17977.34   -2941.8002    85.369981 
    2900    1805.6643   -112.49089     1.633803   -110.85709   -5748.1832    4.3982305    4.3982305    4.3982305   -5748.1832   -48369.222    78187.163   -47062.491    21521.526    23288.324   -5686.1999    85.081268 
    3000    1906.1704   -112.57809    1.7247431   -110.85335     17416.54    4.3856619    4.3856619    4.3856619     17416.54    41201.018    24978.992   -13930.391   -7224.9522   -4820.0755    9231.0393    84.353951 
    3100    1279.7069   -112.04157    1.1579057   -110.88367    742.52555    4.3912681    4.3912681    4.3912681    742.52555   -1271.9276    54916.674    -51417.17   -5670.9058    15259.348   -9257.9187    84.677854 
    3200    1120.9285   -111.91306    1.0142397   -110.89882   -6349.4239    4.4059402    4.4059402    4.4059402   -6349.4239   -59966.767    117886.93   -76968.438   -7934.4013     19871.58   -15398.582    85.529475 
    3300    1715.5473   -112.42792    1.5522633   -110.87566    2813.9485    4.4023534    4.4023534    4.4023534    2813.9485   -38305.831    94353.016   -47605.339   -23091.164   -6412.7307   -1765.2883    85.320759 
    3400    1595.7782   -112.32514    1.4438936   -110.88124    17756.299    4.3836447    4.3836447    4.3836447    17756.299    6836.3525    59709.336   -13276.791    6707.5319    32095.648   -18933.239    84.237613 
    3500    1981.4755   -112.69078    1.7928807    -110.8979    1007.9862    4.3853287    4.3853287    4.3853287    1007.9862    60903.417   -28322.111   -29557.347    14175.881    8670.8529   -40564.816    84.334727 
    3600    2681.6572   -113.31428    2.4264198   -110.88786    7011.1181    4.3883444    4.3883444    4.3883444    7011.1181    28571.598   -1973.0329   -5565.2105   -10713.027   -6349.8051    4607.9484    84.508835 
    3700    1793.8627   -112.51766    1.6231247   -110.89454   -6647.9386    4.4047616    4.4047616    4.4047616   -6647.9386   -36271.519    53099.909   -36772.207   -4734.2891    21529.789   -5563.0245    85.460851 
    3800    2029.4759   -112.70981    1.8363125    -110.8735   -30650.228    4.4083725    4.4083725    4.4083725   -30650.228   -29468.172   -36082.943   -26399.569    1166.0931    1971.8296   -26598.788    85.671201 
    3900    1589.0331   -112.28708    1.4377906   -110.84929    31675.274    4.3906211    4.3906211    4.3906211    31675.274   -27210.216    82084.772    40151.266   -1921.2282    26218.085    -63.11018    84.640436 
    4000    1120.7815   -111.87091    1.0141067    -110.8568    18042.732    4.3957922    4.3957922    4.3957922    18042.732   -10127.904    60793.943     3462.157    10133.889    17098.751    399.76647    84.939847 
    4100    1804.6719   -112.49078    1.6329051   -110.85788   -15708.351      4.40547      4.40547      4.40547   -15708.351   -19059.561   -2358.4734   -25707.019   -12726.851   -21347.731   -9538.0759    85.502091 
    4200    1668.1538   -112.37152    1.5093806   -110.86214    11344.213    4.4006291    4.4006291    4.4006291    11344.213    -33524.95    78464.049   -10906.461     4014.689     26504.44   -6434.3831    85.220546 
    4300    2068.5399   -112.73661    1.8716583   -110.86495   -7296.5457    4.3984378    4.3984378    4.3984378   -7296.5457    50699.006   -22056.926   -50531.717    8249.8432   -3399.8161    955.13824    85.093303 
    4400    1904.2143   -112.58533    1.7229731   -110.86235   -18418.075     4.393015     4.393015     4.393015   -18418.075   -19258.473    11123.994   -47119.747   -14891.383    7740.7611    6733.3591    84.778956 
    4500      1501.26   -112.21695    1.3583716   -110.85858    28241.911    4.3818626    4.3818626    4.3818626    28241.911    641.29969    100902.77   -16818.334   -6126.2832    23229.186   -191.83043    84.134916 
    4600    2224.7962    -112.8917    2.0130423   -110.87865    -23337.54    4.3972014    4.3972014    4.3972014    -23337.54     -47756.4    11521.616   -33777.838   -23652.018   -19195.485   -17277.125    85.021562 
    4700    1719.2005   -112.42553    1.5555688   -110.86996    4177.5995    4.4025859    4.4025859    4.4025859    4177.5995    18503.904    26003.399   -31974.504    6662.5878    24474.498     -21391.3     85.33428 
    4800    1827.6909   -112.50683    1.6537331   -110.85309    16113.257    4.3883351    4.3883351    4.3883351    16113.257    65244.467    34542.603   -51447.299   -5297.6412   -10164.674    6678.9814    84.508297 
    4900    1675.1363   -112.38744    1.5156986   -110.87174   -19338.037    4.3931364    4.3931364    4.3931364   -19338.037    6184.1258    8449.8232   -72648.061    -30588.81   -28131.468   -1143.6858    84.785983 
    5000     1912.636     -112.606    1.7305932    -110.8754   -42979.359      4.40392      4.40392      4.40392   -42979.359   -40923.746    9452.5862   -97466.917    12727.552    28223.585   -2023.9182    85.411875 
    5100    1341.3591   -112.09397    1.2136899   -110.88028    2264.8215     4.394566     4.394566     4.394566    2264.8215    16545.096    57756.025   -67506.656   -7742.2541   -28599.249    11306.075    84.868785 
    5200    2120.8588   -112.78776    1.9189976   -110.86877    9138.8957    4.3805598    4.3805598    4.3805598    9138.8957   -10679.749    37300.704    795.73235   -2693.9741   -5849.1731    10167.363    84.059892 
    5300    2114.4749   -112.79908    1.9132213   -110.88586   -10056.327    4.3840979    4.3840979    4.3840979   -10056.327    6171.8742   -11835.016   -24505.839   -4642.8336    16519.393   -2364.3541    84.263738 
    5400    1686.5459   -112.41487    1.5260222   -110.88885    6955.9039    4.3920702    4.3920702    4.3920702    6955.9039    20705.595    25877.405   -25715.288    6873.9113   -34189.783   -18321.087    84.724264 
    5500    2199.2116    -112.8669    1.9898929   -110.87701   -30506.993    4.4147128    4.4147128    4.4147128   -30506.993   -11691.072   -37822.314   -42007.593   -6728.9198     5968.746    -2354.866    86.041383 
    5600    1565.9733   -112.26443    1.4169255   -110.84751   -52643.932    4.4137745    4.4137745    4.4137745   -52643.932   -60331.266   -3968.3799   -93632.151   -20503.075   -12701.738   -3665.6162    85.986531 
    5700    1437.6215   -112.13015    1.3007902   -110.82936    25296.569    4.3666218    4.3666218    4.3666218    25296.569    58833.774    85484.428   -68428.493    12812.261    -41887.46    3896.8816    83.260065 
    5800    1599.2826   -112.31304    1.4470645   -110.86598    22357.501    4.3627541    4.3627541    4.3627541    22357.501    33366.988    44969.281   -11263.768   -9805.5855    15293.866    4234.6811    83.039018 
    5900    1529.6494   -112.29352    1.3840589   -110.90947   -34415.515    4.3976966    4.3976966    4.3976966   -34415.515   -24938.382   -11214.649   -67093.513     7394.119   -24037.633   -2573.5481    85.050288 
    6000    2267.9364   -112.92535    2.0520765   -110.87328   -34056.519    4.4189264    4.4189264    4.4189264   -34056.519    -6944.275    -4895.803    -90329.48   -73.917884   -6459.9302    26238.351    86.287982 
    6100    2105.1019   -112.75033    1.9047404   -110.84559   -5009.8086    4.4112214    4.4112214    4.4112214   -5009.8086    37848.541   -24606.352   -28271.615    2466.4367   -469.73087    8899.9031    85.837402 
    6200    2315.4504   -112.92118    2.0950682   -110.82611    19315.188    4.3809646    4.3809646    4.3809646    19315.188    72144.203    7209.8524   -21408.491    15630.575    -34622.19     3433.034    84.083202 
    6300    2420.4095   -113.04652    2.1900374   -110.85648     26367.71     4.378614     4.378614     4.378614     26367.71    27173.951    57082.362   -5153.1826   -13803.499    6375.1556   -2936.6549    83.947931 
    6400    1438.2961   -112.18863    1.3014006   -110.88723   -26602.044     4.402196     4.402196     4.402196   -26602.044    14991.285   -63708.878   -31088.539    37354.384     3014.611   -4461.9394    85.311606 
    6500    1085.3398   -111.84708   0.98203827   -110.86505   -3828.8721    4.4049701    4.4049701    4.4049701   -3828.8721    67145.433   -11948.074   -66683.975    6542.8906    -5977.649    12004.661    85.472989 
    6600    1988.4638   -112.64913    1.7992039   -110.84992   -45432.266    4.3994124    4.3994124    4.3994124   -45432.266    -48133.93   -44401.616   -43761.252   -3534.7042    4952.0225    -8906.891    85.149875 
    6700    1023.4206   -111.79008    0.9260125   -110.86407    16395.507    4.3904937    4.3904937    4.3904937    16395.507    39253.646    16503.028   -6570.1543    40722.889   -3253.3829   -6314.4338    84.633067 
    6800    2252.3161   -112.90224    2.0379429    -110.8643     8423.105    4.3832452    4.3832452    4.3832452     8423.105    50604.965     12181.96    -37517.61    3044.2922   -9863.7828    4785.0076    84.214582 
    6900     2077.052   -112.76586    1.8793603    -110.8865    4794.3521    4.3890847    4.3890847    4.3890847    4794.3521   -20663.131    42528.936   -7482.7486    28759.826   -493.08928    -8956.011    84.551612 
    7000    1811.2426   -112.52232    1.6388504   -110.88347   -1071.0958    4.3923402    4.3923402    4.3923402   -1071.0958     32075.57   -34991.316   -297.54133    33224.581    11002.467    -885.1163    84.739891 
    7100    2169.6589   -112.82648     1.963153   -110.86332    16976.514    4.3954433    4.3954433    4.3954433    16976.514    31254.893    45618.163   -25943.514   -30199.209    1547.9267    16250.925    84.919619 
    7200    1654.1202   -112.37265    1.4966827   -110.87597   -16014.394    4.4149862    4.4149862    4.4149862   -16014.394   -43545.223    11794.736   -16292.696    37635.895    7862.8194     1087.513    86.057365 
    7300    1725.5634    -112.4159     1.561326   -110.85457   -25575.532    4.4036651    4.4036651    4.4036651   -25575.532   -11288.164   -27134.527   -38303.905    30167.104    3697.3348    -3572.203    85.397049 
    7400    1232.8779   -111.95411    1.1155338   -110.83857    52451.176    4.3783891    4.3783891    4.3783891    52451.176    77965.728    47130.543    32257.258   -15992.206   -636.49768     11326.43    83.934995 
    7500    1891.3729   -112.57961     1.711354   -110.86826   -183.48782    4.3881217    4.3881217    4.3881217   -183.48782   -40150.303   -18083.954    57683.794    15463.969    15102.841    -8188.581    84.495968 
    7600     1728.798   -112.43371    1.5642528   -110.86946   -2456.3704    4.4046636    4.4046636    4.4046636   -2456.3704   -21987.679    52230.957   -37612.389    -2484.909   -6703.0731   -2199.5319    85.455151 
    7700    1823.6324   -112.51332    1.6500609   -110.86326   -2616.5103    4.4030257    4.4030257    4.4030257   -2616.5103   -34830.043   -20813.731    47794.243     1821.122   -5163.6693    4533.8159    85.359853 
    7800    2161.2877   -112.80374    1.9555785   -110.84816    6546.9702    4.4001996    4.4001996    4.4001996    6546.9702   -57216.341    27333.762     49523.49    19117.563    7441.2932   -2492.4368    85.195592 
    7900    2029.7279   -112.68345    1.8365405   -110.84691   -7841.9434    4.3858117    4.3858117    4.3858117   -7841.9434    7771.4204   -245.16213   -31052.089   -1873.6275     428.2754   -4488.7332    84.362599 
    8000    1505.3156    -112.2173    1.3620412   -110.85525    12443.826    4.3695767    4.3695767    4.3695767    12443.826     41276.78    -16911.39    12966.089    11055.341    3939.0751   -1536.1461    83.429201 
    8100    2052.2189   -112.75095    1.8568908   -110.89406    1581.2734    4.3958707    4.3958707    4.3958707    1581.2734   -37569.853   -37496.655    79810.329    19261.338    18949.912    -6243.442    84.944398 
    8200     1676.284   -112.39295     1.516737   -110.87622   -13751.793    4.4084931    4.4084931    4.4084931   -13751.793   -9300.0428    294.28551    -32249.62   -8699.2649   -5566.7107   -19077.751     85.67823 
    8300    1206.1503   -111.96251    1.0913502   -110.87116    28830.499    4.3869336    4.3869336    4.3869336    28830.499     40577.14   -46081.547    91995.903   -6475.2307   -18344.087   -12513.837    84.427357 
    8400    1962.2286   -112.64945    1.7754656   -110.87399    21230.029    4.3868663    4.3868663    4.3868663    21230.029   -8559.6788    50208.299    22041.467    2789.1097    12776.878      4911.69    84.423472 
    8500    2110.7882   -112.79289    1.9098855     -110.883   -7608.0181    4.3921414    4.3921414    4.3921414   -7608.0181   -9886.4248   -1106.4805   -11831.149    5662.3361     12394.88    -3551.903    84.728389 
    8600    1608.9137   -112.34102    1.4557789   -110.88524   -3039.0322    4.3974679    4.3974679    4.3974679   -3039.0322   -43714.722    1284.4888    33313.136    -557.5498   -3395.9443    4124.0993    85.037018 
    8700    2054.1752   -112.72878    1.8586609   -110.87012   -6759.5296    4.4029533    4.4029533    4.4029533   -6759.5296   -42110.808   -6970.6279    28802.847    6849.5491   -4131.7831   -5553.8179    85.355646 
    8800    1546.6611   -112.26284    1.3994515   -110.86339   -2699.1275    4.3966171    4.3966171    4.3966171   -2699.1275    40555.362   -12600.548   -36052.197   -284.56959      2812.68   -27474.017    84.987675 
    8900    1644.3096   -112.35744    1.4878059   -110.86963    477.61887    4.3814875    4.3814875    4.3814875    477.61887    9641.3053    -11946.71    3738.2613   -3725.6303     7196.847     20274.84     84.11331 
    9000    2092.3468   -112.77811    1.8931994   -110.88491   -5356.0199    4.3946498    4.3946498    4.3946498   -5356.0199    35.591086    -28313.39    12209.739   -1539.9049   -1677.3135    11378.635    84.873636 
    9100    1901.0381   -112.58567    1.7200992   -110.86557   -45873.546    4.4141393    4.4141393    4.4141393   -45873.546    4102.7666   -94278.586   -47444.817    1986.6585   -9935.6752   -30824.825    86.007851 
    9200    1595.6809   -112.29219    1.4438056   -110.84838    27496.659    4.3915915    4.3915915    4.3915915    27496.659    49017.043    31772.581    1700.3542    10213.973   -17985.232    26170.435    84.696566 
    9300     1862.709   -112.52829    1.6854183   -110.84287    40124.007    4.3838724    4.3838724    4.3838724    40124.007    11275.535     2156.877    106939.61     856.5826    -12433.14    21805.015    84.250737 
    9400    1571.6501   -112.29477    1.4220621   -110.87271    21343.848    4.3994628    4.3994628    4.3994628    21343.848     42192.28     -3720.42    25559.683     12659.66   -9633.0482   -4304.3117    85.152805 
    9500    1215.0763    -111.9726    1.0994265   -110.87317    10710.059    4.4178657    4.4178657    4.4178657    10710.059    54166.577   -58612.284    36575.884    7003.4082    -12672.45    21016.349     86.22586 
    9600     2373.382   -112.97889    2.1474859   -110.83141   -28476.935    4.4165095    4.4165095    4.4165095   -28476.935   -54650.181   -20882.621   -9898.0029   -4403.5226    11393.851   -6147.5782    86.146473 
    9700    2211.9507    -112.8084    2.0014195   -110.80698   -4566.6104    4.3984479    4.3984479    4.3984479   -4566.6104    20015.069   -48850.371    15135.471   -1262.6551   -2824.9565    -6722.162    85.093886 
    9800    1794.4385   -112.45537    1.6236457   -110.83172   -28520.529    4.4081946    4.4081946    4.4081946   -28520.529    28729.357   -80724.378   -33566.567    74.529196    5616.3486    12493.397    85.660829 
    9900     1852.311   -112.50481      1.67601    -110.8288   -24831.639    4.4250021    4.4250021    4.4250021   -24831.639    9850.9341   -53804.548   -30541.302    19932.662    2507.0818    -2119.124    86.644391 
   10000    1347.7404   -112.03491    1.2194638   -110.81545    19861.828    4.4154001    4.4154001    4.4154001    19861.828    29297.254    24411.865    5876.3655    3957.9642    7978.7035    29308.959     86.08157 
   10100    2256.6722   -112.84426    2.0418844   -110.80237    4656.2061    4.4037423    4.4037423    4.4037423    4656.2061    45959.317   -14160.425   -17830.274   -7174.4446    -7422.052   -16444.402    85.401538 
   10200    1736.9109   -112.41944    1.5715935   -110.84785    1238.2986    4.4031106    4.4031106    4.4031106    1238.2986   -39359.894    66911.846   -23837.056    45458.017    3544.0679   -12333.294    85.364793 
   10300    1636.9844    -112.3508    1.4811779   -110.86962   -7208.6947    4.3947888    4.3947888    4.3947888   -7208.6947    -40974.02    21491.848   -2143.9119    34164.734    16862.915     32083.41    84.881693 
   10400    2399.0044   -113.02841    2.1706696   -110.85774    20723.017    4.3779589    4.3779589    4.3779589    20723.017    31037.311    42869.504   -11737.763    -21313.31    922.22542    11150.734    83.910254 
   10500    1782.6749   -112.50656    1.6130017   -110.89356   -15176.964    4.4000428    4.4000428    4.4000428   -15176.964   -26335.808    12033.432   -31228.516    20604.858    4370.6159    22957.287    85.186488 
   10600    1351.8559   -112.09848    1.2231876   -110.87529   -52859.124    4.4070685    4.4070685    4.4070685   -52859.124   -29824.177   -82049.865   -46703.329    21641.163    18020.564    38629.302    85.595201 
   10700     1317.071   -112.03365    1.1917136   -110.84194    52104.217    4.3592132    4.3592132    4.3592132    52104.217    42920.251   -6880.3085    120272.71   -5378.3229       -11644   -14564.202    82.836992 
   10800    1410.5715   -112.17133    1.2763147   -110.89502    1991.5557    4.3704717    4.3704717    4.3704717    1991.5557    15235.387   -4982.9536   -4277.7662    6685.6507     11607.09    7293.6629    83.480477 
   10900    1336.8844    -112.0868    1.2096411   -110.87715   -49647.298    4.4124344    4.4124344    4.4124344   -49647.298   -65194.047   -42956.808   -40791.039   -12462.681    34632.351    37508.317    85.908232 
   11000    1917.7496    -112.5775    1.7352201   -110.84228    18705.567    4.3927114    4.3927114    4.3927114    18705.567   -12892.256    4002.2173    65006.741   -736.63568   -17774.165   -10113.646     84.76138 
   11100    2488.9784   -113.08957    2.2520799   -110.83749   -14638.618    4.3785254    4.3785254    4.3785254   -14638.618   -31676.394    10570.274   -22809.733    21454.407    3739.1348   -1258.0519    83.942833 
   11200    1946.6988   -112.63833     1.761414   -110.87692   -12015.581    4.3900304    4.3900304    4.3900304   -12015.581   -35116.727    14010.286   -14940.303    5752.1082    42805.261    20541.825    84.606276 
   11300    2716.5612   -113.33293    2.4580016   -110.87493   -13104.813    4.3997135    4.3997135    4.3997135   -13104.813   -35336.699    -4677.655    699.91657   -2063.7465   -27623.744     5777.652    85.167363 
   11400    1855.0265   -112.54196    1.6784669   -110.86349    -24670.32    4.4062767    4.4062767    4.4062767    -24670.32   -23633.673   -20168.114   -30209.173   -19566.518     18485.69    24710.156     85.54907 
   11500    1450.3703     -112.161    1.3123255   -110.84867   -12940.766    4.3965172    4.3965172    4.3965172   -12940.766   -22345.741   -34458.229    17981.673    479.04779    23321.338    483.22611     84.98188 
   11600    2198.2464   -112.81901    1.9890196   -110.82999    23582.828    4.3750661    4.3750661    4.3750661    23582.828    17323.634    19083.872    34340.978    18562.091   -20714.129   -16420.232    83.744028 
   11700    1678.2372    -112.3844    1.5185043   -110.86589    989.06198    4.3755289    4.3755289    4.3755289    989.06198    49026.877   -23296.422   -22763.269    1902.0707    33194.485    10119.428    83.770608 
   11800    1341.1758   -112.10635     1.213524   -110.89283    -34533.97     4.398943     4.398943     4.398943    -34533.97    -42616.39   -52253.002   -8732.5177   -11356.006    18346.251    14705.818    85.122626 
   11900    2096.2935   -112.76135    1.8967704   -110.86458    9118.6108    4.3875456    4.3875456    4.3875456    9118.6108    14657.987   -25358.223    38056.068   -17375.729    -6797.251    3019.5716    84.462694 
   12000    1161.7453   -111.92941    1.0511716   -110.87824    17468.289    4.3734799    4.3734799    4.3734799    17468.289    61045.715    28541.052   -37181.899     11162.59    36665.535     6655.228    83.652979 
   12100    1694.8897   -112.42445    1.5335718   -110.89088   -31370.562     4.383909     4.383909     4.383909   -31370.562    -27447.36   -22480.441   -44183.885   -5267.5109     8829.188    20609.982    84.252851 
   12200    1684.0001   -112.40356    1.5237186   -110.87985    10697.802    4.3928904    4.3928904    4.3928904    10697.802    26688.196    14390.158   -8984.9486    8358.9474    1010.7257   -7889.2578     84.77174 
   12300    1757.9904    -112.4661    1.5906667   -110.87543   -19478.394    4.3904697    4.3904697    4.3904697   -19478.394    7295.7253   -26552.403   -39178.504    3017.8936     25117.57   -1072.4146    84.631677 
   12400     2127.489   -112.78192    1.9249967   -110.85693     6505.362    4.3831127    4.3831127    4.3831127     6505.362   -7235.9572   -15059.202    41811.245   -15773.507    3163.9511    24915.258    84.206943 
   12500    2642.6204   -113.24787    2.3910985   -110.85677   -13603.097    4.3879863    4.3879863    4.3879863   -13603.097   -20371.013   -25482.202    5043.9255    3193.4284    -6717.625   -18850.151    84.488149 
   12600    1618.4002   -112.33551    1.4643626   -110.87115    9520.6582    4.3900145    4.3900145    4.3900145    9520.6582    16465.328   -21592.553      33689.2    5581.2206    15581.322   -13388.147    84.605355 
   12700     1966.296   -112.63109     1.779146   -110.85194    22458.029     4.394177     4.394177     4.394177    22458.029    17433.938    15374.893    34565.256   -2184.0627     14218.99      4869.67     84.84625 
   12800    1591.8753   -112.30196    1.4403622    -110.8616     -11317.6    4.4003934    4.4003934    4.4003934     -11317.6   -30937.222    34251.545   -37267.124    12001.461   -3719.3235   -7997.9203     85.20685 
   12900    1117.3946   -111.86853    1.0110421   -110.85748    266.56135     4.387586     4.387586     4.387586    266.56135   -1117.5744   -12586.297    14503.555   -8072.6769    13749.098    1096.9645    84.465026 
   13000     1664.969   -112.36525     1.506499   -110.85875    19957.606    4.3826497    4.3826497    4.3826497    19957.606    15271.929    10772.231    33828.659    4062.5871    3626.1899    11449.424    84.180265 
   13100     1970.067   -112.65965     1.782558   -110.87709    -19580.82    4.3835652    4.3835652    4.3835652    -19580.82   -24176.954    14252.864   -48818.371    9999.7337   -4662.9195   -10655.491     84.23303 
   13200    1859.6923   -112.56837    1.6826887   -110.88568    12814.043    4.3681892    4.3681892    4.3681892    12814.043    11969.936    16433.983    10038.209     12163.15    6431.9363   -7928.5202    83.349753 
   13300    2105.6715   -112.81695    1.9052558    -110.9117    17663.993    4.3755523    4.3755523    4.3755523    17663.993    8759.9394    4126.8041    40105.235   -13202.549   -3681.5639     9478.375    83.771951 
   13400    2838.8875   -113.46191     2.568685   -110.89322   -33429.626    4.3956512    4.3956512    4.3956512   -33429.626   -42978.835   -32337.942     -24972.1    4061.3461    45.673083    11712.946    84.931669 
   13500    1677.6949    -112.3942    1.5180136   -110.87619   -5837.4741    4.3934292    4.3934292    4.3934292   -5837.4741   -16746.173    11343.405   -12109.655    3685.0683    7650.1475    19624.725    84.802936 
   13600     1750.529   -112.45214    1.5839154   -110.86822    2810.1018    4.3872673    4.3872673    4.3872673    2810.1018   -5079.5356   -15791.917    29301.758   -30499.713    4685.3707    4675.7764    84.446623 
   13700    1670.5574   -112.37498    1.5115555   -110.86342    15757.319     4.388528     4.388528     4.388528    15757.319    -23300.12    79265.459   -8693.3812    11056.926    20311.656   -3251.2819    84.519441 
   13800    1521.0731   -112.24576    1.3762989   -110.86946   -15606.415    4.3784432    4.3784432    4.3784432   -15606.415   -761.55524   -38281.304   -7776.3867   -12073.114     15876.03    1790.0312    83.938105 
   13900    1152.8265   -111.92806    1.0431016   -110.88496    -4330.592    4.3797334    4.3797334    4.3797334    -4330.592    32685.571   -30517.601   -15159.746   -18066.337    -16375.38    5617.5772     84.01233 
   14000    2289.3688   -112.94623     2.071469   -110.87476   -32014.227    4.3976449    4.3976449    4.3976449   -32014.227   -7120.3339    -38761.21   -50161.137    12818.738    15754.252    10704.036    85.047292 
   14100    1307.3895   -112.05602    1.1829535   -110.87307    22974.516    4.3865702    4.3865702    4.3865702    22974.516   -5248.4451    39406.047    34765.946   -28420.047    21438.108   -1297.5616    84.406373 
   14200    1759.0874   -112.45914    1.5916593   -110.86748   -3045.0991    4.3758978    4.3758978    4.3758978   -3045.0991     15509.95   -48546.332    23901.085   -14837.758    2231.9854   -5220.6235    83.791796 
   14300    1979.2117   -112.66308    1.7908323   -110.87225   -15522.944    4.3873719    4.3873719    4.3873719   -15522.944   -36916.925    5446.7462   -15098.655    13877.344   -15351.598    9655.7158    84.452661 
   14400    1824.6289   -112.53736    1.6509625    -110.8864   -17266.494    4.3846272    4.3846272    4.3846272   -17266.494   -59408.247   -20184.585     27793.35   -24783.685    867.02356    -1255.086    84.294265 
   14500    2048.3362   -112.75227    1.8533777    -110.8989    6437.2544    4.3838064    4.3838064    4.3838064    6437.2544    9798.8303   -16924.734    26437.667    4558.0873   -12446.869    6295.2656    84.246932 
   14600    2270.4351   -112.94923    2.0543374    -110.8949   -6354.2691    4.4070825    4.4070825    4.4070825   -6354.2691   -8203.6646    46959.863   -57819.006    5494.6968   -9047.5424    4099.7523    85.596017 
   14700    1925.8265   -112.61772    1.7425283   -110.87519   -31797.059    4.4111319    4.4111319    4.4111319   -31797.059   -25755.539   -43953.523   -25682.116   -8021.9564    645.74352    5214.8545    85.832177 
   14800    1343.6044   -112.07898    1.2157215   -110.86326    345.01423    4.3989471    4.3989471    4.3989471    345.01423    7375.7651   -3526.8523   -2813.8702    -8886.521   -7780.1787   -8788.2977    85.122863 
   14900      1612.48   -112.32445    1.4590058   -110.86544    14484.223    4.3879517    4.3879517    4.3879517    14484.223     26515.99    30124.205   -13187.527    22500.849   -2593.1778   -79.797769    84.486148 
   15000    1424.9657   -112.15655    1.2893389   -110.86721    24143.856    4.3766743    4.3766743    4.3766743    24143.856    23354.678    41380.621      7696.27   -3812.3777    6187.1944     -5166.71    83.836415 
   15100    1030.0667    -111.8323   0.93202596   -110.90028   -14667.299    4.4004498    4.4004498    4.4004498   -14667.299   -11152.354    11414.711   -44264.253    10039.562   -6834.7133   -3610.2852    85.210129 
   15200    2057.7434   -112.72767    1.8618894   -110.86578   -58723.825    4.4210073    4.4210073    4.4210073   -58723.825   -57650.372   -50075.466   -68445.637    6108.0419      -2777.5   -17504.861    86.409939 
   15300    2455.0416   -113.06715    2.2213733   -110.84578    6376.1973    4.3877331    4.3877331    4.3877331    6376.1973   -13028.284    24092.178    8064.6977   -23128.731    -2754.036   -66.445908    84.473526 
   15400    2447.8216   -113.06284    2.2148405     -110.848     1180.912    4.3704219    4.3704219    4.3704219     1180.912   -9803.7764    26246.912     -12900.4    5321.0257   -23098.095    -9962.765    83.477625 
   15500    2169.2081   -112.87545     1.962745   -110.91271   -24167.619    4.4002899    4.4002899    4.4002899   -24167.619   -41626.003    17082.736   -47959.589    9058.5369    2814.6013    6490.7492     85.20084 
   15600    2527.7943   -113.16546    2.2872014   -110.87825   -28826.148    4.4167646    4.4167646    4.4167646   -28826.148   -17354.638   -57191.543   -11932.263    14257.704    6140.9424    5953.9516    86.161403 
   15700    2188.8457   -112.83743    1.9805136   -110.85692   -15078.269     4.399675     4.399675     4.399675   -15078.269   -19300.154   -30203.644    4268.9926    200.85283   -15468.769     13351.18    85.165123 
   15800    1133.8474   -111.88044     1.025929   -110.85451     14690.95    4.3783043    4.3783043    4.3783043     14690.95    9350.4135    31122.747    3599.6889   -6797.4045    6866.7501   -10693.298    83.930119 
   15900    1649.5533   -112.37081    1.4925505   -110.87826    19030.689    4.3823361    4.3823361    4.3823361    19030.689    13518.283    29141.298    14432.485    18295.918    19111.452    14578.367    84.162196 
   16000    1277.6429   -112.04462    1.1560382   -110.88858   -16377.405    4.4152614    4.4152614    4.4152614   -16377.405   -9224.7037     547.0075    -40454.52    6142.3366    7677.9709    22313.325    86.073461 
   16100    1416.6595   -112.11998    1.2818233   -110.83815     -41439.2    4.4293063    4.4293063    4.4293063     -41439.2    -32246.99   -46218.176   -45852.434    1219.1621    12376.529   -24989.406    86.897473 
   16200    1897.9783   -112.51475    1.7173306   -110.79742   -33655.726     4.408147     4.408147     4.408147   -33655.726   -16496.078   -59677.761   -24793.339   -5722.8176    -466.8811    1653.7688    85.658052 
   16300    2091.5773   -112.69645    1.8925031   -110.80395    -1828.303     4.372361     4.372361     4.372361    -1828.303   -16165.285   -3223.4216    13903.798   -588.18175     1478.107    11008.984    83.588787 
   16400    2301.5562   -112.92244    2.0824964   -110.83994    22831.471    4.3578438    4.3578438    4.3578438    22831.471     17386.85     52224.32   -1116.7576     15750.68   -1569.5503   -22911.963    82.758952 
   16500    1672.2139   -112.44291    1.5130543   -110.92986   -1445.7986    4.3979483    4.3979483    4.3979483   -1445.7986     8646.199   -4503.3962   -8480.1987   -6694.6485   -3369.5312     9849.631    85.064891 
   16600    1878.1809   -112.56852    1.6994175    -110.8691   -26030.764    4.4324501    4.4324501    4.4324501   -26030.764       -53276   -67.562863   -24748.729    4321.9791   -2298.8321   -2373.8838    87.082638 
   16700    2426.9107   -113.04016    2.1959198   -110.84425   -27367.651    4.3960993    4.3960993    4.3960993   -27367.651   -17932.852   -17357.399   -46812.702    17162.486   -7390.2304   -21113.852    84.957647 
   16800    1438.6977   -112.11567    1.3017639   -110.81391    55490.143    4.3478744    4.3478744    4.3478744    55490.143    61563.746    106878.18   -1971.5001    4776.3788    6840.7783    15384.242    82.192269 
   16900    1683.3534   -112.43566    1.5231336   -110.91253   -7265.8134    4.3774266    4.3774266    4.3774266   -7265.8134    -35899.58    7632.6532    6469.4866   -18018.375   -2778.8718   -12831.747    83.879653 
   17000     1752.781   -112.46477    1.5859531   -110.87882   -16595.924    4.4207999    4.4207999    4.4207999   -16595.924    -59778.27    10106.739   -116.23929    6664.4561    508.59924   -12707.664    86.397778 
   17100    1423.0133   -112.11936    1.2875723   -110.83179   -12503.905    4.4220189    4.4220189    4.4220189   -12503.905   -47499.559   -18531.282    28519.125    416.60992     3538.785    6709.8431    86.469265 
   17200    1218.6376   -111.91292    1.1026489   -110.81027    2188.1263    4.4065403    4.4065403    4.4065403    2188.1263    9281.4118    -44562.59    41845.557   -18795.503    -7373.182   -9968.8951    85.564427 
   17300    2361.9148   -112.94437    2.1371101   -110.80726    11347.261    4.3813947    4.3813947    4.3813947    11347.261    -10888.02    10713.843    34215.958    21240.972    6140.1413     6731.559    84.107969 
   17400    2108.8874   -112.77023    1.9081656   -110.86207    8138.8672    4.3782826    4.3782826    4.3782826    8138.8672   -14541.191   -840.82978    39798.622   -47950.795   -7429.1863   -9528.8321    83.928871 
   17500    1661.7523   -112.40766    1.5035884   -110.90407   -17550.904    4.4080128    4.4080128    4.4080128   -17550.904    -36730.65   -45916.172    29994.109   -7291.0956    275.16962    9466.6764    85.650229 
   17600    2028.1922   -112.69401    1.8351509   -110.85886    -28911.42    4.4189802    4.4189802    4.4189802    -28911.42   -70184.672   -25589.429    9039.8396    35703.129    -8606.049   -6363.2308    86.291134 
   17700    1679.7906   -112.35266    1.5199098   -110.83275   -12349.457    4.3951145    4.3951145    4.3951145   -12349.457   -59438.573    14901.685    7488.5153    -27432.46    4096.4264   -22120.341    84.900568 
   17800    950.98792   -111.69343   0.86047386   -110.83296    11483.045    4.3761575    4.3761575    4.3761575    11483.045    5045.0084   -19522.076    48926.203    15729.585   -11588.266    7379.8035    83.806718 
   17900    1834.7446   -112.53014    1.6601155   -110.87002   -19381.048    4.3876785    4.3876785    4.3876785   -19381.048   -46952.831   -24300.813    13110.499      31195.7   -6759.4928   -7657.7136    84.470371 
   18000    1605.3511    -112.3255    1.4525554   -110.87294   -13023.492    4.4078674    4.4078674    4.4078674   -13023.492     -61797.1     9078.858    13647.766   -30809.428    -6055.127   -20941.123    85.641756 
   18100    1459.3294   -112.17981    1.3204319   -110.85938   -3720.3276    4.3925394    4.3925394    4.3925394   -3720.3276    11981.793    -26620.39    3477.6146    18333.171    3658.7775    -6291.505    84.751425 
   18200    2342.5632   -112.96749    2.1196004   -110.84789    7121.4083    4.3776541    4.3776541    4.3776541    7121.4083    25762.348    12471.525   -16869.648     13895.51    15155.766    2453.3479    83.892728 
   18300    2510.3153   -113.14498     2.271386    -110.8736    1418.3905    4.3934022    4.3934022    4.3934022    1418.3905    1196.4131    18805.883   -15747.125    9964.5318   -10318.895    6058.6192    84.801377 
   18400    2118.1743   -112.79487    1.9165686    -110.8783   -21043.945    4.4044107    4.4044107    4.4044107   -21043.945    21009.971   -40458.745    -43683.06    24986.848   -12554.114   -11265.069    85.440433 
   18500    1916.6567    -112.5976    1.7342313   -110.86337    13119.267    4.3927407    4.3927407    4.3927407    13119.267     11737.04    12741.065    14879.695   -2998.9364    7653.6698   -12306.688    84.763075 
   18600    2049.4553   -112.71538    1.8543903   -110.86099    6040.4913    4.3824229    4.3824229    4.3824229    6040.4913   -18977.898    45185.157   -8085.7841     -11085.4   -8739.4051    7436.6081    84.167197 
   18700    1898.4375   -112.59774    1.7177462   -110.87999   -8220.6348    4.3918278    4.3918278    4.3918278   -8220.6348    -35499.44   -13907.899    24745.435    19033.024   -12639.342   -3465.9122    84.710237 
   18800    1494.5164   -112.23347    1.3522698    -110.8812    5305.0342     4.402472     4.402472     4.402472    5305.0342   -13165.487    2860.4469    26220.143     9831.316    3175.5423    3119.8869    85.327655 
   18900    1751.4803   -112.45145    1.5847761   -110.86667   -13007.674    4.4082752    4.4082752    4.4082752   -13007.674   -1060.7134    26283.114   -64245.424   -5845.1462   -12113.231    14823.203    85.665526 
   19000    1961.8294   -112.62644    1.7751045   -110.85133   -13959.237     4.405521     4.405521     4.405521   -13959.237   -26419.817   -193.87457   -15264.019    9949.5805    1093.3206     3531.682    85.505065 
   19100    1999.6602   -112.66338    1.8093345   -110.85404   -14494.247    4.3934595    4.3934595    4.3934595   -14494.247    -8087.876    12795.648   -48190.514    7506.0775    4099.9852    11414.697    84.804695 
   19200     2542.053    -113.1699     2.300103    -110.8698    4767.5179    4.3960797    4.3960797    4.3960797    4767.5179    22766.243    21265.767   -29729.456   -867.74002    9224.6982   -179.58653    84.956512 
   19300     1955.781   -112.64341    1.7696318   -110.87377    7036.8169    4.4138236    4.4138236    4.4138236    7036.8169    14758.134    725.40373    5626.9131    12744.372    -411.2266   -10813.376    85.989401 
   19400    1978.7413   -112.64575    1.7904067   -110.85535   -14261.997    4.4093261    4.4093261    4.4093261   -14261.997    46190.176   -19589.583   -69386.584   -15246.604     2646.673   -3270.0709    85.726808 
   19500     1689.309   -112.38296    1.5285223   -110.85444    24798.362    4.3846179    4.3846179    4.3846179    24798.362   -7392.0743    43005.474    38781.687   -4385.5707    6110.5537   -11940.716    84.293725 
   19600    2023.1441   -112.69964    1.8305833   -110.86906    9047.2196    4.3645404    4.3645404    4.3645404    9047.2196   -10524.405    45240.966    -7574.902    1415.6212   -4813.3082   -491.92909    83.141058 
   19700    805.22028   -111.66033   0.72858023   -110.93175    41649.487    4.3846187    4.3846187    4.3846187    41649.487    20944.865    112374.36   -8370.7596   -1514.9474     4345.813   -16392.658    84.293771 
   19800    1893.8767    -112.6129    1.7136194   -110.89928   -36951.417    4.4298079    4.4298079    4.4298079   -36951.417   -8067.0796    -17694.82   -85092.352   -480.77857   -1401.9392   -7421.1428    86.926997 
   19900    2658.5317   -113.25203    2.4054953   -110.84654    -9989.055    4.4093013    4.4093013    4.4093013    -9989.055    5498.2557    7168.6489    -42634.07   -4350.6959   -6668.2223    14316.251    85.725361 
   20000    1547.2252    -112.2155    1.3999618   -110.81554    35827.557    4.3602591    4.3602591    4.3602591    35827.557    49274.002    55523.209     2685.461    1467.9506    770.48248    -15115.55    82.896632 
   20100    1450.6744   -112.17824    1.3126007   -110.86564    9406.2792    4.3632147    4.3632147    4.3632147    9406.2792    51171.905    13962.282    -36915.35   -7617.4835   -9967.7397    2610.8247    83.065321 
   20200    1841.8254   -112.55933    1.6665223   -110.89281   -2410.0941    4.3926856    4.3926856    4.3926856   -2410.0941   -860.04854   -6283.8172   -86.416641   -6918.5822    -453.9123    9056.0216    84.759887 
   20300     1890.951   -112.59825    1.7109722   -110.88728   -43092.752    4.4129569    4.4129569    4.4129569   -43092.752   -24201.101   -76236.919   -28840.238    15644.929    1817.2825   -12082.924    85.938758 
   20400    1333.5484   -112.07965    1.2066226   -110.87303   -53349.696    4.4026209    4.4026209    4.4026209   -53349.696   -16028.002    -41644.21   -102376.88    3885.3103   -13899.233    11627.293    85.336314 
   20500    1675.1878   -112.36942    1.5157451   -110.85367    22326.949    4.3692029    4.3692029    4.3692029    22326.949     3964.907    79892.032   -16876.093     5437.696   -1833.5384    7145.1887    83.407792 
   20600    2967.6978    -113.5507    2.6852353   -110.86547    -851.1041    4.3686525    4.3686525    4.3686525    -851.1041    201.07808    32190.251   -34944.642   -11282.937    15088.771   -14820.985    83.376275 
   20700    1972.4865   -112.69184    1.7847473   -110.90709   -3735.6998    4.3954472    4.3954472    4.3954472   -3735.6998   -67.112788    18641.467   -29781.454   -17415.564   -12724.005    12011.969    84.919846 
   20800    1277.6686   -112.05176    1.1560614    -110.8957   -3520.1727    4.4075976    4.4075976    4.4075976   -3520.1727   -47389.129    77559.753   -40731.142    9764.2123    5274.3386    63.983724     85.62603 
   20900    2062.2758   -112.72668    1.8659905   -110.86069    -28116.56    4.3997298    4.3997298    4.3997298    -28116.56   -33023.859   -15905.879   -35419.944   -2826.7601    15419.672   -1317.2218    85.168306 
   21000    1966.0656   -112.63383    1.7789375   -110.85489   -16176.318    4.3790468    4.3790468    4.3790468   -16176.318     36908.35   -64031.416   -21405.887   -3764.1769   -18308.552    25245.525    83.972822 
   21100    964.87273   -111.76258   0.87303712   -110.88954   -2993.8145    4.3699619    4.3699619    4.3699619   -2993.8145    3960.1827     8126.659   -21068.285    3180.5172    27076.521    1756.9798    83.451271 
   21200    1637.1401   -112.40021    1.4813187   -110.91889    -2346.183    4.3768529    4.3768529    4.3768529    -2346.183      21166.9    31534.494   -59739.943   -19506.928    19450.313   -13785.417    83.846678 
   21300    2503.7076   -113.17629    2.2654073   -110.91088    14488.811    4.3866162    4.3866162    4.3866162    14488.811    23059.926   -6798.1649    27204.673    13803.712   -6628.0892   -7627.2396    84.409031 
   21400    1999.7025   -112.72596    1.8093728   -110.91658   -49321.189    4.3988805    4.3988805    4.3988805   -49321.189   -78909.032    -924.3819   -68130.152    8706.3957    11569.386    721.04637    85.118997 
   21500    767.03922   -111.60283   0.69403321    -110.9088   -5092.3537     4.378473     4.378473     4.378473   -5092.3537   -72025.996     69147.71   -12398.775   -10937.034     5244.713   -16185.845    83.939821 
   21600     1714.784   -112.44114    1.5515726   -110.88957    21082.919    4.3618634    4.3618634    4.3618634    21082.919    27879.187    47731.118   -12361.547    2912.5387    738.41072   -2806.2794    82.988169 
   21700    1799.5036    -112.5379    1.6282287   -110.90968    5370.5898    4.3854751    4.3854751    4.3854751    5370.5898   -10914.841     -242.643    27269.254   -4725.3255    3117.8183    8949.5094    84.343173 
   21800    1750.4075   -112.47763    1.5838055   -110.89382   -38651.203    4.4077725    4.4077725    4.4077725   -38651.203   -68756.274    32840.752   -80038.086   -1852.2256    8171.5492   -14728.786    85.636222 
   21900    1633.5264   -112.35125     1.478049   -110.87321    19203.324    4.3907973    4.3907973    4.3907973    19203.324    50347.858    15545.281   -8283.1672   -868.58679    17690.389    3371.1897    84.650622 
   22000    2661.0424   -113.26379    2.4077671   -110.85602    2357.5241    4.3750863    4.3750863    4.3750863    2357.5241    73268.035   -20388.781   -45806.681   -9486.7778    11595.861    7919.8175    83.745189 
   22100    2417.5344   -113.07553    2.1874359   -110.88809   -8127.6213    4.3911576    4.3911576    4.3911576   -8127.6213   -17347.236    15263.752   -22299.379     4168.894    15256.211   -5509.7831    84.671464 
   22200    1796.3129   -112.51043    1.6253417   -110.88509   -35112.035    4.4079752    4.4079752    4.4079752   -35112.035   -17540.765   -27367.066   -60428.274      14076.8    1763.4126   -13760.158    85.648042 
   22300    1465.0868   -112.18847    1.3256414   -110.86283    6208.0757    4.3992359    4.3992359    4.3992359    6208.0757    26634.273    27155.996   -35166.042   -2018.0534   -7304.9157    140.97439    85.139627 
   22400    1973.1946   -112.64042     1.785388   -110.85504    26397.386    4.3895917    4.3895917    4.3895917    26397.386    11062.797     59812.07    8317.2904    9143.0019    -7421.165   -9927.1219    84.580916 
   22500    1494.0616    -112.2159    1.3518583   -110.86404   -9028.7374    4.3819181    4.3819181    4.3819181   -9028.7374   -27622.084    44327.463   -43791.591    8361.6034   -4172.8793    2532.7879    84.138115 
   22600    1291.4879   -112.06105    1.1685654   -110.89249   -3391.2128    4.3883381    4.3883381    4.3883381   -3391.2128   -7954.0467    53387.369   -55606.961   -5232.7779    1727.5555   -17086.001     84.50847 
   22700    1853.7229   -112.56034    1.6772874   -110.88306    22744.711    4.4006184    4.4006184    4.4006184    22744.711     92283.74      7311.99   -31361.595    332.08138    7870.0932    1715.5313    85.219922 
   22800    1698.7419   -112.42109    1.5370574   -110.88403   -11147.892    4.3922477    4.3922477    4.3922477   -11147.892    10614.636    36865.385   -80923.697    -21520.18     1096.195    7386.5501    84.734537 
   22900    1545.7272   -112.29154    1.3986065   -110.89293   -1855.3335    4.3924463    4.3924463    4.3924463   -1855.3335    72499.976   -8584.9187   -69481.058    2794.8575   -2096.4967   -13260.149    84.746034 
   23000    2907.2248   -113.49386    2.6305181   -110.86334   -7263.9837    4.3935344    4.3935344    4.3935344   -7263.9837   -25466.421    25310.778   -21636.308   -25566.907   -4543.8474    4830.4164    84.809032 
   23100    1982.5773   -112.67423    1.7938776   -110.88036   -20826.686    4.3935494    4.3935494    4.3935494   -20826.686    43681.634   -56313.724   -49847.968    12508.174    -4027.069    15905.472    84.809896 
   23200    1822.3568   -112.54125    1.6489067   -110.89234   -22078.111    4.3907007    4.3907007    4.3907007   -22078.111    28460.908   -53202.204   -41493.038   -5295.9494    8761.7495   -17590.063    84.645038 
   23300    1979.3156   -112.67605    1.7909264   -110.88512    23921.423    4.3907732    4.3907732    4.3907732    23921.423    10164.175    53140.956    8459.1393   -578.83239    12589.519    -188.1963    84.649232 
   23400    1710.2913   -112.43078    1.5475075   -110.88328   -1216.4365    4.3928327    4.3928327    4.3928327   -1216.4365    34436.512   -24241.492    -13844.33    12134.331   -5166.0375   -10371.057    84.768401 
   23500    1082.9011   -111.86192   0.97983169   -110.88209     14144.87    4.4015926    4.4015926    4.4015926     14144.87    26629.141    58805.959   -43000.489    -2459.616   -11860.352   -24449.017    85.276529 
   23600    1723.8722    -112.4204    1.5597958   -110.86061   -8554.9633    4.4202777    4.4202777    4.4202777   -8554.9633    -35793.74    56700.269   -46571.419    4643.9479      10825.7    992.73062    86.367162 
   23700    1086.0671   -111.82544   0.98269631   -110.84274    12210.678    4.4038322    4.4038322    4.4038322    12210.678     48847.81    39382.172   -51597.947   -15368.852    2973.9517   -34146.357    85.406769 
   23800    1456.5832   -112.14987    1.3179471   -110.83193    13676.871    4.3811455    4.3811455    4.3811455    13676.871      15117.8    53189.816   -27277.003   -17352.391    13704.245    17335.758    84.093614 
   23900    2123.4044   -112.78151    1.9213009    -110.8602     11617.73    4.3890398    4.3890398    4.3890398     11617.73    8439.3798    18284.475    8129.3359    13568.226     7651.189    24955.196    84.549018 
   24000    2262.2536   -112.91628    2.0469346   -110.86934   -18336.547    4.4111134    4.4111134    4.4111134   -18336.547   -2535.5262   -8377.1642    -44096.95   -17020.025   -4139.1635   -12864.941    85.831096 
   24100    1643.4602   -112.33908    1.4870373   -110.85204   -22645.457    4.4170529    4.4170529    4.4170529   -22645.457    4904.9269   -45629.541   -27211.756   -2241.2054   -5611.4937    15665.678    86.178275 
   24200    2002.5761   -112.63284    1.8119729   -110.82087   -6541.9443    4.4027324    4.4027324    4.4027324   -6541.9443   -16972.321   -4827.2583    2173.7468   -12587.266   -3647.8182    2257.7701    85.342799 
   24300    2079.9643    -112.7139    1.8819954    -110.8319    -26626.15    4.3970261    4.3970261    4.3970261    -26626.15    -30694.85   -18555.393   -30628.208   -9489.9626    13328.255    11702.448    85.011395 
   24400    1119.9147   -111.87807    1.0133223   -110.86474   -6855.8587    4.3980145    4.3980145    4.3980145   -6855.8587    38238.028   -31822.875   -26982.729      3528.92   -12553.319    19503.138    85.068733 
   24500    1786.5082   -112.49316    1.6164702   -110.87669   -18253.391    4.3867366    4.3867366    4.3867366   -18253.391   -88115.715    -18802.48    52158.021   -28987.464    1388.0472    5935.2294    84.415982 
   24600    2234.8063   -112.91216    2.0220997   -110.89006   -9117.6084    4.3903294    4.3903294    4.3903294   -9117.6084    3877.4092   -9418.9256   -21811.309   -4153.7696    -3297.946    4276.0862    84.623564 
   24700    1918.0051   -112.61854    1.7354513   -110.88309   -36510.035    4.4110935    4.4110935    4.4110935   -36510.035    -32869.93   -48102.272   -28557.905   -581.04719   -8148.3595    24073.612    85.829938 
   24800    1464.0138   -112.19439    1.3246704   -110.86972    851.84885    4.3964407    4.3964407    4.3964407    851.84885   -13763.838   -15298.761    31618.146   -13226.247    7834.6802   -626.61494    84.977443 
   24900    2626.5024   -113.23136    2.3765146   -110.85484   -1913.8412    4.3829226    4.3829226    4.3829226   -1913.8412   -29592.721    33881.789   -10030.592    14804.732   -5390.1612    354.29532    84.195991 
   25000    2217.5199   -112.88066    2.0064586    -110.8742    7750.7128    4.3833266    4.3833266    4.3833266    7750.7128    15928.939   -7475.1752    14798.374    -2585.453    9376.9899    17192.081    84.219275 
   25100    1172.3809   -111.96043    1.0607948   -110.89964    7046.7531    4.3817714    4.3817714    4.3817714    7046.7531   -43108.529    24263.669     39985.12   -20264.924     9133.739   -19012.726    84.129664 
   25200    1239.7474   -112.03894    1.1217495   -110.91719   -14568.955     4.398396     4.398396     4.398396   -14568.955   -45523.439    22884.326   -21067.752    19993.634    5230.5709   -3705.2665    85.090876 
   25300    2078.8418   -112.77306    1.8809798   -110.89208   -25656.095    4.4059124    4.4059124    4.4059124   -25656.095   -66517.914    14908.255   -25358.627   -16345.916   -2707.3667   -2528.7893    85.527852 
   25400    1730.6182    -112.4407    1.5658997    -110.8748    10385.088    4.3925269    4.3925269    4.3925269    10385.088   -23851.809    45278.155    9728.9187    -2037.876    7109.5238    136.49361    84.750697 
   25500    1665.8311   -112.37687    1.5072789   -110.86959    24728.264    4.3824713    4.3824713    4.3824713    24728.264    70288.263    31833.397   -27936.867    13325.465   -5190.5277   -25762.784    84.169983 
   25600      2034.03    -112.7153    1.8404331   -110.87487    2148.4426     4.389384     4.389384     4.389384    2148.4426    8865.4901    54492.912   -56913.074   -27459.002   -32156.812   -10927.847     84.56891 
   25700    1717.9907   -112.43169    1.5544741   -110.87721    2910.6096    4.4023568    4.4023568    4.4023568    2910.6096    10690.985   -146.97652   -1812.1798   -12143.061   -3638.0935     863.9407    85.320955 
   25800    1818.9158   -112.49406    1.6457933   -110.84827   -40502.052    4.4064666    4.4064666    4.4064666   -40502.052   -28730.479   -52020.309   -40755.366    5737.5346   -2696.0068   -25337.724    85.560134 
   25900    1658.7511   -112.34971    1.5008729   -110.84884   -15528.293    4.3900413    4.3900413    4.3900413   -15528.293   -4310.5338   -32438.979   -9835.3651    -1676.673    -3046.743    -1988.492    84.606906 
   26000     1910.907   -112.58656    1.7290288   -110.85753    4287.4606    4.3891406    4.3891406    4.3891406    4287.4606    23626.809    -15141.27    4376.8428    11622.265    17135.869   -60.535414     84.55484 
   26100    1830.7097   -112.51524    1.6564646   -110.85877   -35336.229     4.412279     4.412279     4.412279   -35336.229   -1345.3196    -57378.79   -47284.579   -8831.7874   -21.505318   -18844.547    85.899159 
   26200    1505.7425   -112.19802    1.3624274   -110.83559   -3281.7597    4.4091887    4.4091887    4.4091887   -3281.7597    13119.565   -6789.8159   -16175.028    -1173.758    2935.8162    6304.3963    85.718796 
   26300    2420.3075   -113.01382    2.1899451   -110.82387   -6408.4008    4.3950236    4.3950236    4.3950236   -6408.4008   -3404.2599    8290.4081   -24111.351   -4464.5415    22982.858   -2564.0075    84.895296 
   26400     1828.369    -112.5154    1.6543467   -110.86106   -19065.349    4.4050262    4.4050262    4.4050262   -19065.349    19688.071   -60711.462   -16172.656   -4740.7529   -1678.8595   -11176.467    85.476258 
   26500     1947.609    -112.6246    1.7622375   -110.86236   -30771.018    4.4121641    4.4121641    4.4121641   -30771.018    9173.8355   -72003.074   -29483.815   -3927.0901      3160.49    18422.166    85.892444 
   26600    2058.7241   -112.71136    1.8627769   -110.84858   -23227.926    4.4002329    4.4002329    4.4002329   -23227.926   -59594.282    28080.865    -38170.36    6205.1027    35336.414   -2579.0493     85.19753 
   26700    1478.5813   -112.19782    1.3378514   -110.85997   -3739.0899    4.3954207    4.3954207    4.3954207   -3739.0899   -30400.999    19916.579   -732.84908    -3745.163    3917.7608   -8745.9801    84.918311 
   26800    1940.6415   -112.61772    1.7559332   -110.86179   -31148.235    4.4030267    4.4030267    4.4030267   -31148.235   -29124.796   -15159.084   -49160.823    2841.3368    20508.888    29518.344    85.359913 
   26900    1962.9969   -112.62714    1.7761609   -110.85098   -18051.368    4.4036833    4.4036833    4.4036833   -18051.368   -86031.711    61236.126   -29358.519    454.31905    31151.221    2379.7423    85.398106 
   27000    1734.3175   -112.43301     1.569247   -110.86377    16347.044    4.4132583    4.4132583    4.4132583    16347.044   -34195.086    73421.069    9815.1476    20094.884   -11860.651   -3000.6876    85.956365 
   27100    1537.0836   -112.25067    1.3907855   -110.85989    -16542.35     4.418364     4.418364     4.418364    -16542.35   -58972.563     89786.91   -80441.396    12457.422        24810    13225.542    86.255041 
   27200    1417.4245   -112.12097    1.2825155   -110.83845    7239.2624    4.3959005    4.3959005    4.3959005    7239.2624   -22959.088    80267.761   -35590.886   -12680.124    12326.452    4883.1125    84.946124 
   27300    1590.4431   -112.26639    1.4390663   -110.82732    28597.182    4.3753145    4.3753145    4.3753145    28597.182   -679.72179    32105.645    54365.623   -1382.1519    -5386.134   -5680.4192    83.758294 
   27400    943.00395   -111.73526   0.85324979   -110.88201    17026.806    4.3976287    4.3976287    4.3976287    17026.806    7466.5719    23277.758    20336.087    1730.3326    34860.131    28340.262    85.046346 
   27500    1993.0477    -112.6496    1.8033515   -110.84625   -20438.475    4.4206913    4.4206913    4.4206913   -20438.475   -55993.371    36088.045     -41410.1   -5595.1721    4001.4354    929.45533    86.391413 
   27600    2435.1333   -113.02554    2.2033597   -110.82218   -28823.816    4.4134632    4.4134632    4.4134632   -28823.816   -48365.986   -5276.4036   -32829.058   -2477.5821    5267.3369   -22418.092     85.96834 
   27700    1581.7695   -112.27015    1.4312183   -110.83893   -15479.015    4.3993676    4.3993676    4.3993676   -15479.015   -43730.422    -16410.63    13704.007   -4163.9269    29182.058    18506.197    85.147273 
   27800    2244.9286   -112.87335    2.0312586    -110.8421   -6197.4201    4.3758801    4.3758801    4.3758801   -6197.4201   -25856.876   -5485.2513    12749.867   -23682.917   -899.86462    17471.363    83.790781 
   27900     2124.928    -112.7932    1.9226795   -110.87052   -25138.325    4.3754824    4.3754824    4.3754824   -25138.325   -13992.652   -43755.132   -17667.191   -3417.3937    17111.183   -31155.694    83.767935 
   28000    1272.6525   -112.04472    1.1515228    -110.8932   -44431.518    4.4050919    4.4050919    4.4050919   -44431.518    -54262.84   -74062.419   -4969.2959   -10578.221    37927.313    16402.445    85.480078 
   28100     1911.856   -112.57297    1.7298875   -110.84308   -21286.078    4.4119254    4.4119254    4.4119254   -21286.078   -5259.3973   -71312.349    12713.512   -9768.8435   -5086.8476    3585.8353    85.878505 
   28200    1869.3869   -112.51907    1.6914605   -110.82761    9868.8813    4.3965068    4.3965068    4.3965068    9868.8813    23073.736    25793.028   -19260.121     18512.39    15118.967   -13052.966    84.981279 
   28300    1666.4638   -112.34399    1.5078515   -110.83614   -14154.761    4.3839046    4.3839046    4.3839046   -14154.761   -6776.1113    11302.185   -46990.356    -12965.81    39751.865     10875.35    84.252594 
   28400    1833.8626   -112.50794    1.6593174   -110.84863    24767.304     4.375395     4.375395     4.375395    24767.304    35437.887    4104.4108    34759.615   -22688.328   -14320.977    835.62493    83.762916 
   28500    1741.4468   -112.45212    1.5756977   -110.87642    25829.811     4.391548     4.391548     4.391548    25829.811    31266.644    52387.298   -6164.5075    24701.605    15267.251     3871.527    84.694053 
   28600    931.82676   -111.72448   0.84313643   -110.88135    8183.2643    4.4196681    4.4196681    4.4196681    8183.2643    92290.207   -15340.976   -52399.438    8635.4979    17932.504    20451.042     86.33144 
   28700    2065.9591   -112.69464    1.8693232   -110.82531   -16638.626    4.4204875    4.4204875    4.4204875   -16638.626    26515.522   -32471.985   -43959.415   -2085.5995   -10418.335   -10918.142    86.379463 
   28800    2012.5069   -112.63708    1.8209585   -110.81613    18983.688    4.3751839    4.3751839    4.3751839    18983.688    59615.368   -20405.848    17741.543    22418.865    5230.6383    12390.927    83.750792 
   28900     1895.259   -112.55934    1.7148701   -110.84447    31774.628    4.3590375    4.3590375    4.3590375    31774.628    9192.0561    6094.6032    80037.224    -6705.564     10808.07    1027.1656    82.826977 
   29000    2371.0884   -113.03491    2.1454106    -110.8895   -15058.561    4.3893917    4.3893917    4.3893917   -15058.561    -2157.889   -22202.596   -20815.198   -5060.0059   -9608.8614    8319.3484    84.569357 
   29100    1627.1096   -112.35965    1.4722429   -110.88741   -31208.363    4.4199266    4.4199266    4.4199266   -31208.363   -23973.599   -45572.848    -24078.64    13497.791    4248.9981    9152.5907    86.346585 
   29200    1378.3019   -112.09201    1.2471165    -110.8449   -36563.332    4.4220529    4.4220529    4.4220529   -36563.332   -40832.787   -51659.592   -17197.617    -8578.751    25028.389   -18507.646    86.471265 
   29300     2133.735   -112.75484    1.9306482   -110.82419    5333.1349    4.3763747    4.3763747    4.3763747    5333.1349    20838.185   -2661.3907   -2177.3892   -6166.2455   -17527.722    2790.7129    83.819196 
   29400    1835.3927   -112.47623    1.6607019   -110.81553     51819.21    4.3370684    4.3370684    4.3370684     51819.21    70489.468    49682.336    35285.826    20169.446   -2786.1558    15173.901    81.580963 
   29500    1685.5596   -112.43683    1.5251298    -110.9117    24779.611     4.369039     4.369039     4.369039    24779.611    45234.659   -17064.232    46168.406    3213.3666    36595.359   -6516.7987    83.398407 
   29600    2489.5762   -113.12599    2.2526209   -110.87337   -26268.032    4.4114116    4.4114116    4.4114116   -26268.032    -23902.04   -20183.009   -34719.046   -5577.9799   -677.53387    11872.241    85.848505 
   29700     1531.988   -112.22545    1.3861749   -110.83928   -16042.269    4.4110387    4.4110387    4.4110387   -16042.269   -9712.9536    4856.7984   -43270.652    20429.506    9109.5137   -4887.4098    85.826736 
   29800    2165.8534   -112.77422    1.9597097   -110.81451    -6094.869    4.3863891    4.3863891    4.3863891    -6094.869    22016.994   -19868.008   -20433.592   -18704.017    10309.556   -13139.717    84.395924 
   29900    1550.3559    -112.2263    1.4027946   -110.82351    18856.081    4.3660966    4.3660966    4.3660966    18856.081    40821.555    38562.771   -22816.083    3706.2113   -9948.4991   -3014.2228    83.230023 
   30000    1093.1444   -111.86929   0.98909999   -110.88019    3214.8474    4.3826065    4.3826065    4.3826065    3214.8474   -21487.109   -2113.6495    33245.301    30624.711    13191.619    7082.2813    84.177774 
   30100    1961.2952   -112.64244    1.7746211   -110.86782   -31454.877    4.3962953    4.3962953    4.3962953   -31454.877    19143.457    -54616.22    -58891.87    -9730.523    17743.594   -150.67611    84.969011 
   30200    1018.6123   -111.78925   0.92166177   -110.86759    5669.3989    4.3801998    4.3801998    4.3801998    5669.3989   -1512.8931    35828.156   -17307.066    8159.1284   -22923.219   -13173.963    84.039172 
   30300    1755.9974   -112.45861    1.5888633   -110.86975    6617.3059    4.3835132    4.3835132    4.3835132    6617.3059   -21606.744   -7000.1697    48458.831    22535.364   -6856.3239     9444.301    84.230028 
   30400    2104.7566   -112.77002     1.904428   -110.86559    5667.3292    4.3920112    4.3920112    4.3920112    5667.3292   -18197.702   -14886.066    50085.756   -11046.759    24473.298   -18188.428     84.72085 
   30500    1446.8574   -112.18526     1.309147   -110.87612    -9903.208    4.4007334    4.4007334    4.4007334    -9903.208    -63046.71   -27546.969    60884.056     23906.68    -26158.22   -2284.8066    85.226604 
   30600    2225.6871   -112.86419    2.0138485   -110.85034   -6273.7389    4.3930476    4.3930476    4.3930476   -6273.7389     -22302.5   -11253.351    14734.634    8214.9543   -4627.6247    4395.3646    84.780844 
   30700    1811.9004   -112.48162    1.6394456   -110.84218    20361.269    4.3598575    4.3598575    4.3598575    20361.269     27035.92    13085.906     20961.98   -3276.0974    7435.5833   -2373.4788    82.873729 
   30800    1800.6522   -112.50511     1.629268   -110.87584    4932.1168    4.3707084    4.3707084    4.3707084    4932.1168   -25503.626   -24179.488    64479.465    23559.761   -20727.662   -9036.1188    83.494043 
   30900    2303.3111   -112.94752    2.0840843   -110.86344   -14811.026    4.3914179    4.3914179    4.3914179   -14811.026   -28184.974   -4275.3187   -11972.786   -1303.6705    25662.825   -3564.2118    84.686525 
   31000    1378.1114   -112.10722    1.2469441   -110.86028    4921.3791    4.3853963    4.3853963    4.3853963    4921.3791    37032.856   -54546.443    32277.724   -12457.554   -2301.5716   -8871.7167    84.338628 
   31100    2167.2352   -112.80709    1.9609599   -110.84613   -10845.521     4.382752     4.382752     4.382752   -10845.521    11473.657   -34608.983   -9401.2354    4825.6153     -16122.1   -16779.943     84.18616 
   31200    1364.3133   -112.09624    1.2344593   -110.86178    14780.896    4.3645085    4.3645085    4.3645085    14780.896    9623.1039     29171.29     5548.294   -3933.1799    48475.382    16879.944    83.139236 
   31300     1580.562   -112.30856    1.4301257   -110.87844    19543.817    4.3630093    4.3630093    4.3630093    19543.817    54248.506   -34975.803    39358.747   -11951.834    8766.4989   -7553.4872    83.053589 
   31400    1960.9436    -112.6439    1.7743029   -110.86959    -21648.34    4.3977229    4.3977229    4.3977229    -21648.34    5927.6522   -44838.046   -26034.626     12904.37    6006.7544   -23592.603    85.051815 
   31500    1310.8609   -112.03289    1.1860945   -110.84679   -2978.5665    4.3925165    4.3925165    4.3925165   -2978.5665   -21712.433    2175.5485    10601.185   -2278.4934    48673.271    2688.4846    84.750099 
   31600    2305.1822   -112.90538    2.0857773    -110.8196    12554.856    4.3740924    4.3740924    4.3740924    12554.856   -9015.6597   -9392.9528     56073.18   -303.01354   -16004.609    5702.6167     83.68813 
   31700    1875.8261   -112.55064    1.6972868   -110.85335   -26589.508    4.3783468    4.3783468    4.3783468   -26589.508   -49013.832    503.35378   -31258.044    11002.894     27050.53   -14280.972    83.932562 
   31800    2079.6948   -112.74641    1.8817515   -110.86466    -2453.006    4.3751674    4.3751674    4.3751674    -2453.006   -31648.042     13130.01    11159.014   -13017.913    24816.815    23016.017    83.749846 
   31900    2151.4621   -112.81665    1.9466881   -110.86996   -13649.782    4.3883972    4.3883972    4.3883972   -13649.782    17432.404   -61853.194    3471.4444    20059.825    -21936.55    7945.6844    84.511885 
   32000    1331.2672   -112.07455    1.2045585   -110.86999   -29635.939    4.3873277    4.3873277    4.3873277   -29635.939   -22240.158   -41313.007   -25354.651    20631.696    21270.409   -22476.595    84.450112 
   32100    1819.9264   -112.50023    1.6467077   -110.85352    14238.137    4.3529655    4.3529655    4.3529655    14238.137    29505.368   -148.93767    13357.981    -8842.778    28501.933    9108.2045    82.481332 
   32200    1441.2644   -112.18563    1.3040863   -110.88154    25514.485    4.3529266    4.3529266    4.3529266    25514.485    74420.768   -23074.696    25197.382   -9710.1661   -15076.614    15580.513    82.479125 
   32300    1581.7646   -112.32859    1.4312139   -110.89738   -12432.711    4.3829385    4.3829385    4.3829385   -12432.711   -23577.578   -31495.069    17774.514    8843.2961    22222.613   -16404.752    84.196907 
   32400    1677.0959   -112.40006    1.5174716   -110.88259    -19202.82    4.3906265    4.3906265    4.3906265    -19202.82   -6199.1951   -52339.666    930.40179   -7406.4261    22582.925     11876.21    84.640744 
   32500      1687.61   -112.39052     1.526985   -110.86353    15702.749    4.3782068    4.3782068    4.3782068    15702.749    30491.662   -21984.452    38601.036     -8396.03    1433.8537    7569.8071     83.92451 
   32600    2093.5992   -112.75644    1.8943325   -110.86211   -1883.5357    4.3786543    4.3786543    4.3786543   -1883.5357   -17896.962    10888.644    1357.7112    -1948.092    28653.884   -30688.798    83.950249 
   32700    2062.5678   -112.72485    1.8662547    -110.8586   -889.02276    4.3864219    4.3864219    4.3864219   -889.02276   -27365.513   -24669.331    49367.776   -19633.264    41.315991     9327.505    84.397815 
   32800    2241.0316   -112.88535    2.0277325   -110.85762   -15293.924    4.3836417    4.3836417    4.3836417   -15293.924   -12765.953    -2502.843   -30612.974   -7193.5633   -2948.7517     -4707.67     84.23744 
   32900     1746.225    -112.4383    1.5800211   -110.85828    21867.512    4.3781152    4.3781152    4.3781152    21867.512    13279.705   -527.64896     52850.48   -5116.8275     23305.06   -15460.629    83.919241 
   33000    1752.8937   -112.44849    1.5860551   -110.86243   -7491.6523    4.3711984    4.3711984    4.3711984   -7491.6523    13000.133   -55308.951    19833.861   -16707.121    4634.9589    34319.004    83.522128 
   33100    1467.0537   -112.20254     1.327421   -110.87512   -1485.5124    4.3669958    4.3669958    4.3669958   -1485.5124    6191.6734   -3348.5738   -7299.6369   -721.09773    25.819949    10704.768    83.281456 
   33200    1980.1972   -112.66138     1.791724   -110.86965   -17096.427    4.3789273    4.3789273    4.3789273   -17096.427   -26971.102   -5423.3377   -18894.841   -2158.6021    9776.9359   -6872.9502     83.96595 
   33300    1300.7093   -112.04629    1.1769091   -110.86938   -229.64949    4.3862637    4.3862637    4.3862637   -229.64949   -28223.597   -6801.8766    34336.525   -24416.559   -3438.4279    20616.609    84.388686 
   33400    1482.5062   -112.20049    1.3414028   -110.85909   -4460.6423    4.3948323    4.3948323    4.3948323   -4460.6423   -35665.588   -4114.8969    26398.558    5321.6955   -11339.083    21554.659    84.884215 
   33500    2030.3476   -112.68562    1.8371012   -110.84852   -39756.553     4.390394     4.390394     4.390394   -39756.553   -59802.402   -18168.547   -41298.711    -10214.99   -10490.903   -9250.3195    84.627299 
   33600    1843.2749   -112.52062    1.6678338   -110.85279    1216.5871    4.3570118    4.3570118    4.3570118    1216.5871    14427.177   -19848.796    9071.3798   -22565.251    467.11206     12185.39    82.711557 
   33700    2222.6074   -112.88365    2.0110619   -110.87258    24915.109    4.3626767    4.3626767    4.3626767    24915.109    -19502.74    70221.133    24026.933    16767.914     -10097.2    24024.162    83.034597 
   33800    1876.0288   -112.57543    1.6974703   -110.87796   -44070.002    4.3984058    4.3984058    4.3984058   -44070.002   -67396.364   -33062.182   -31751.459   -27460.961   -10628.846   -31006.285    85.091441 
   33900    2103.2521   -112.75144    1.9030667   -110.84837   -7829.2647    4.3826033    4.3826033    4.3826033   -7829.2647   -25.627643   -38161.696    14699.529   -31627.787    6377.8708    10308.828    84.177592 
   34000      2006.55   -112.66011    1.8155686   -110.84454   -12811.277      4.37776      4.37776      4.37776   -12811.277   -48753.412    27901.637   -17582.055   -4938.2638   -46404.959    3024.4361    83.898816 
   34100    1660.9796    -112.3667    1.5028892   -110.86381   -39608.061     4.386282     4.386282     4.386282   -39608.061   -33988.684   -17978.066   -66857.433     14017.82   -4029.5424   -22351.798    84.389742 
   34200    1458.4892   -112.17788    1.3196717   -110.85821    23963.231    4.3697741    4.3697741    4.3697741    23963.231     46419.74    53411.594   -27941.641     5878.514   -3794.2893     386.6797    83.440511 
   34300    1460.1486   -112.22221    1.3211732   -110.90104   -4537.7107    4.3990895    4.3990895    4.3990895   -4537.7107   -39283.729    88415.913   -62745.316    4902.3954   -20835.691   -1478.9861    85.131132 
   34400    1763.4345   -112.44248    1.5955926   -110.84689   -37975.051    4.4164717    4.4164717    4.4164717   -37975.051   -52795.159   -7827.2467   -53302.747    5599.3737    15840.213   -1794.5057    86.144264 
   34500    1411.8014   -112.11389    1.2774276   -110.83646    35552.642     4.370732     4.370732     4.370732    35552.642    54466.341    81904.432   -29712.848   -18667.749   -38939.849   -12526.488    83.495395 
   34600    2311.2734   -112.94195    2.0912888   -110.85066    38116.539     4.364683     4.364683     4.364683    38116.539    34674.569    40355.542    39319.505    5692.4039    2420.6037    4863.9594    83.149209 
   34700    1728.9377   -112.45128    1.5643792    -110.8869   -1101.8085    4.3964893    4.3964893    4.3964893   -1101.8085   -13668.362    7513.5405    2849.3961    5699.9159   -26959.355     10357.47    84.980262 
   34800    1525.5545     -112.243    1.3803538   -110.86264   -6933.3301    4.4222125    4.4222125    4.4222125   -6933.3301   -40811.967     42425.34   -22413.363   -2156.4865   -31517.485    1662.1419    86.480623 
   34900    2213.3435   -112.81852    2.0026797   -110.81584   -19298.034    4.4133884    4.4133884    4.4133884   -19298.034   -1012.2351   -14535.393   -42346.475   -8147.9517    21945.768    16954.544    85.963967 
   35000    1300.0721    -111.9845    1.1763326   -110.80816     2314.764    4.3728783    4.3728783    4.3728783     2314.764     44825.72   -10297.026   -27584.402   -13229.388   -38310.485     19627.37    83.618463 
   35100    2073.0525   -112.69711    1.8757414   -110.82137    23313.153     4.365238     4.365238     4.365238    23313.153   -18099.038     99062.61   -11024.113   -12083.277    20459.964   -3734.5536    83.180933 
   35200    1582.4317   -112.29916    1.4318174   -110.86734    11603.513    4.3925917    4.3925917    4.3925917    11603.513    19681.714    32351.256   -17222.431     1723.462     6606.359    7521.2908     84.75445 
   35300    1196.3863   -111.94915    1.0825155   -110.86664    10087.442    4.4168748    4.4168748    4.4168748    10087.442    24839.983   -8006.5535    13428.895   -23741.472   -28189.859    13753.883    86.167855 
   35400    1617.2042   -112.28523    1.4632803   -110.82195    329.36403    4.4188703    4.4188703    4.4188703    329.36403   -40034.183    63521.848   -22499.573    4649.4617    24862.263    7577.2793    86.284695 
   35500    1392.7032   -112.06582    1.2601471   -110.80568    34280.851    4.3851098    4.3851098    4.3851098    34280.851   -11076.235    151931.02    -38012.23    21148.363   -19798.158     23497.61    84.322098 
   35600     1811.484   -112.45451    1.6390688   -110.81544    24288.673    4.3735523    4.3735523    4.3735523    24288.673    23661.207    40972.618     8232.194     8816.062    3551.7845    38023.717    83.657131 
   35700    1382.1179   -112.12363    1.2505693   -110.87306   -15106.262    4.4004436    4.4004436    4.4004436   -15106.262   -38066.605    26444.231   -33696.412    11147.683   -14344.375    7437.5709    85.209764 
   35800    2150.1162   -112.79025    1.9454703   -110.84478   -25386.759    4.4135784    4.4135784    4.4135784   -25386.759   -47746.605    25148.868    -53562.54    10269.878   -18344.668    1391.4713    85.975071 
   35900    2537.3265   -113.12155    2.2958263   -110.82572    6560.1603     4.391433     4.391433     4.391433    6560.1603    11035.997    39338.736   -30694.252   -7138.3271    10364.586   -5837.7603    84.687395 
   36000    1457.8431    -112.1779    1.3190871   -110.85881   -30534.686    4.3809725    4.3809725    4.3809725   -30534.686   -57505.207    63256.287   -97355.138   -1669.6363   -27551.972   -12856.037    84.083655 
   36100    2296.7995   -112.95524    2.0781924   -110.87705    3468.7609    4.3808181    4.3808181    4.3808181    3468.7609    23654.772    30836.034   -44084.523    15648.598    8497.1105   -30.409925    84.074765 
   36200     2396.355    -113.0582    2.1682723   -110.88993    3732.7476    4.3959171    4.3959171    4.3959171    3732.7476    53086.155   -8343.4058   -33544.506    32545.957   -1108.4904   -13450.063    84.947087 
   36300    1326.4145   -112.08903    1.2001677   -110.88886   -9745.4027    4.4044292    4.4044292    4.4044292   -9745.4027    40559.667    3353.6433   -73149.518   -11285.868   -22819.737    -11419.68    85.441509 
   36400     1684.898   -112.37958    1.5245311   -110.85505    2126.2212    4.3919141    4.3919141    4.3919141    2126.2212     35906.53   -7726.2368   -21801.629   -12781.348    16792.395     14601.58    84.715232 
   36500    1773.0213    -112.4545    1.6042669   -110.85023    4385.9105    4.3824127    4.3824127    4.3824127    4385.9105    65726.964    -50352.27   -2216.9623    17292.177    -735.8916    15831.009    84.166607 
   36600    2078.6434   -112.74277    1.8808002   -110.86197    1419.9503    4.3817834    4.3817834    4.3817834    1419.9503    52305.685   -23133.926   -24911.908     -11257.7   -10064.121   -11781.119    84.130353 
   36700    1476.8184   -112.22054    1.3362563   -110.88428   -15330.938    4.3857016    4.3857016    4.3857016   -15330.938    17510.492   -49439.727    -14063.58     31691.38    3884.6465   -2329.0602    84.356244 
   36800    1223.2629   -111.99965     1.106834   -110.89282   -772.49128    4.3764572    4.3764572    4.3764572   -772.49128   -7442.3923   -41758.612    46883.531    28230.937    5366.0453    28485.165    83.823938 
   36900     2138.419   -112.82486    1.9348864   -110.88997     -5458.24    4.3861121    4.3861121    4.3861121     -5458.24    29789.068   -13877.675   -32286.113   -5092.0277   -15935.027   -15436.431    84.379935 
   37000    1770.0104   -112.47887    1.6015427   -110.87733   -21792.414    4.4014154    4.4014154    4.4014154   -21792.414   -24556.932   -7367.7136   -33452.596    12116.544    11459.375   -21362.425    85.266235 
   37100    2119.7268   -112.76067    1.9179733   -110.84269    12822.437    4.3921852    4.3921852    4.3921852    12822.437   -7645.0184    22962.559     23149.77    10856.523    13803.979     21939.52    84.730923 
   37200    2040.3154   -112.69027    1.8461203   -110.84415    14987.836    4.4016695    4.4016695    4.4016695    14987.836    76976.996    1724.0406   -33737.529    580.99053    21271.315   -23554.377    85.281001 
   37300    1692.4989   -112.36882    1.5314086   -110.83741   -17284.134    4.4242541    4.4242541    4.4242541   -17284.134    1363.3195   -35273.381   -17942.342    15352.391    18186.073    -15241.56     86.60046 
   37400    2298.1437   -112.87836    2.0794087   -110.79895   -14554.838    4.4110006    4.4110006    4.4110006   -14554.838   -8395.8488   -65235.033    29966.368   -472.66241   -18157.054    16492.274    85.824514 
   37500    1629.5897   -112.27805     1.474487   -110.80357    17193.779     4.388631     4.388631     4.388631    17193.779    12396.159   -12201.574    51386.753    1427.4026    8243.2193   -12114.586    84.525391 
   37600     1747.627   -112.40827    1.5812896   -110.82699   -2006.6242    4.3858637    4.3858637    4.3858637   -2006.6242    141.68322   -44951.195     38789.64    27518.457    3618.3448    -6814.316    84.365597 
   37700    1690.0429   -112.38557    1.5291863   -110.85638    52342.114    4.3975923    4.3975923    4.3975923    52342.114    48586.443    31432.362    77007.537    17233.298    2250.5218    5331.2366    85.044236 
   37800    1807.3329   -112.48966    1.6353128   -110.85435   -9065.3525     4.427694     4.427694     4.427694   -9065.3525   -48852.784    36119.063   -14462.336    16101.269     25278.63   -26971.541    86.802612 
   37900    1750.5526   -112.39219    1.5839368   -110.80825   -28997.236    4.4310904    4.4310904    4.4310904   -28997.236   -85568.523   -12108.004    10684.819    13057.962     -1812.71    13299.034    87.002519 
   38000    2204.3934   -112.78902    1.9945814   -110.79444   -13450.823    4.3941149    4.3941149    4.3941149   -13450.823   -35654.381   -2201.3732   -2496.7144    -16369.81    14649.703    12871.377    84.842652 
   38100    1844.5966   -112.49396    1.6690298   -110.82493    27190.473     4.360801     4.360801     4.360801    27190.473   -5382.9662    90151.482   -3197.0953    23963.368    16208.649   -4977.0958    82.927546 
   38200    1342.1794   -112.11259    1.2144322   -110.89816    26090.978    4.3743206    4.3743206    4.3743206    26090.978    -505.1974    20875.484    57902.646    33764.809   -17588.017     35523.34    83.701226 
   38300    1420.9107   -112.19161    1.2856699   -110.90594    149.11081     4.405442     4.405442     4.405442    149.11081   -35896.275   -4943.6527     41287.26     567.9181    6372.3591   -3345.0219    85.500463 
   38400    1674.5811   -112.37807    1.5151962   -110.86288   -485.95574    4.4198388    4.4198388    4.4198388   -485.95574   -51546.248    38818.691     11269.69    3688.9556    6664.1121     4220.036    86.341442 
   38500    2136.2785   -112.76887    1.9329497   -110.83592   -25343.116    4.4050978    4.4050978    4.4050978   -25343.116   -59322.454    15231.682   -31938.575   -81.545541    6204.1158    5750.9609    85.480423 
   38600    2089.5426   -112.70804    1.8906621   -110.81738     15973.54    4.3785303    4.3785303    4.3785303     15973.54   -17499.301    25426.762    39993.159   -35516.567    17990.569   -7132.1054    83.943114 
   38700    1901.7269   -112.58047    1.7207224   -110.85975    27107.791    4.3912939    4.3912939    4.3912939    27107.791   -32058.875    35788.701    77593.549    6682.9419    8266.5081    5228.7552    84.679348 
   38800    1767.7848   -112.46522    1.5995289   -110.86569   -20947.953    4.4298751    4.4298751    4.4298751   -20947.953   -79851.734    8742.2732    8265.6022   -26790.928   -7481.6482   -19999.802    86.930952 
   38900    1889.3799   -112.51007    1.7095506   -110.80052   -41254.823    4.4348501    4.4348501    4.4348501   -41254.823   -101900.13    -34143.92    12279.578   -1863.4875     -6140.07   -26147.905    87.224169 
   39000    1551.8224   -112.18342    1.4041216    -110.7793   -6718.7199    4.4038966    4.4038966    4.4038966   -6718.7199   -63568.187    35544.952    7867.0763   -4396.9284   -25185.834   -11869.493    85.410513 
   39100    2440.5963   -112.98989    2.2083028   -110.78158    16156.276    4.3784632    4.3784632    4.3784632    16156.276   -26053.428    8155.6404    66366.614   -14864.104   -12290.745    971.75066    83.939254 
   39200    1391.9591   -112.11846    1.2594739   -110.85899    25961.372     4.395622     4.395622     4.395622    25961.372   -30829.508   -1903.1504    110616.77    41647.164   -26602.336   -10639.096    84.929977 
   39300    1626.1009   -112.33345    1.4713303   -110.86212   -13685.056    4.4246633    4.4246633    4.4246633   -13685.056   -6737.7113   -30714.199    -3603.259   -9625.2836    1659.3618    5067.4033    86.624491 
   39400    2495.1842   -113.08548    2.2576951   -110.82778   -26519.612    4.4046345    4.4046345    4.4046345   -26519.612   -36910.076   -6930.5609   -35718.201    -12988.95    -6528.557   -4649.7139    85.453453 
   39500    1416.8101   -112.10309    1.2819595   -110.82113    2987.5649     4.364096     4.364096     4.364096    2987.5649   -35956.477    28325.034    16594.138    24076.178   -51386.295    10301.495    83.115664 
   39600    2046.8191   -112.70576    1.8520049   -110.85376    23838.003    4.3714539    4.3714539    4.3714539    23838.003    66937.833   -22766.722      27342.9    4856.6369    19683.362    7814.2467    83.536778 
   39700    1835.7061   -112.53939    1.6609854   -110.87841   -22471.578    4.4046113    4.4046113    4.4046113   -22471.578   -12286.441   -19896.063   -35232.229    15887.782   -47386.888   -3208.8501    85.452107 
   39800    1256.3108   -111.99648    1.1367364   -110.85974   -44409.377    4.4162498    4.4162498    4.4162498   -44409.377   -50981.778   -36698.774   -45547.578    26327.694   -35943.568    2116.1236    86.131278 
   39900    2576.0488   -113.14046    2.3308631    -110.8096   -20598.982    4.3927421    4.3927421    4.3927421   -20598.982   -16759.273   -43849.771   -1187.9038   -8230.1641    25325.186   -300.78168    84.763154 
   40000    1347.8827    -112.0312    1.2195926   -110.81161    12473.516    4.3630166    4.3630166    4.3630166    12473.516    29063.553    52549.696     -44192.7   -2745.1165   -66648.187   -67.847812    83.054008 
   40100    1971.8468   -112.64108    1.7841684   -110.85691    20301.807    4.3697554    4.3697554    4.3697554    20301.807    21608.276   -3247.3202    42544.466    26881.797   -6319.5474   -11915.048    83.439439 
   40200    2039.9953   -112.71133    1.8458306    -110.8655   -8073.5315    4.3988717    4.3988717    4.3988717   -8073.5315    42523.836    17815.798   -84560.228   -2079.4358    -10304.87     11920.42    85.118482 
   40300    1233.7714   -111.96965    1.1163423   -110.85331   -29967.473    4.4037418    4.4037418    4.4037418   -29967.473   -52741.664    43088.642   -80249.397    13705.592    -46619.93    7867.6559    85.401507 
   40400    2103.5189   -112.72172    1.9033081   -110.81842    1686.9078    4.3785523    4.3785523    4.3785523    1686.9078    5809.9572   -16479.515    15730.281    21019.556    12779.885    2617.3665    83.944381 
   40500    1816.4168   -112.47413     1.643532    -110.8306   -2861.6436    4.3779911    4.3779911    4.3779911   -2861.6436   -40918.273    60894.786   -28561.443   -13735.914   -49887.343    7309.1292    83.912108 
   40600    1958.6127    -112.6114     1.772194    -110.8392   -19468.576    4.3917635    4.3917635    4.3917635   -19468.576   -57604.761   -7788.9068      6987.94    36950.549     13630.77    23362.007    84.706518 
   40700    1687.0919    -112.3633    1.5265162   -110.83678    9279.9171    4.3841849    4.3841849    4.3841849    9279.9171   -52953.906    45977.523    34816.134    8359.8915   -24278.663    12756.061    84.268754 
   40800    2085.7083    -112.7325    1.8871927    -110.8453    11211.933     4.384502     4.384502     4.384502    11211.933   -24729.628    45773.817     12591.61   -13835.339   -40069.033   -7134.7107    84.287044 
   40900    1807.7254   -112.49691     1.635668   -110.86125    22687.642     4.388965     4.388965     4.388965    22687.642   -33615.053    29853.161    71824.817    19197.197    8514.0052   -6177.2053    84.544691 
   41000    1486.9212   -112.20174    1.3453976   -110.85634    14499.636    4.3946905    4.3946905    4.3946905    14499.636   -26095.453    69071.292    523.06794   -14991.701   -47374.042    14345.037    84.875999 
   41100    2122.4501   -112.74717    1.9204375   -110.82673   -22977.581    4.3987167    4.3987167    4.3987167   -22977.581   -6178.4266   -25676.878   -37077.439    8929.5884    7020.5209   -5913.3306    85.109489 
   41200    1344.2549    -112.0456    1.2163101   -110.82929   -18229.092    4.3827296    4.3827296    4.3827296   -18229.092   -26023.748    10857.741   -39521.268    37703.076   -19759.976    7180.5807    84.184867 
   41300    1450.1205    -112.1469    1.3120995    -110.8348    42497.663    4.3730919    4.3730919    4.3730919    42497.663    5247.3975    133351.39   -11105.797   -5260.9673   -40232.478   -8295.7694    83.630716 
   41400    2266.2087    -112.8972    2.0505132   -110.84669   -9570.8558    4.3898443    4.3898443    4.3898443   -9570.8558   -31580.578   -18818.091    21686.101     30643.54    26254.837    6524.6973     84.59552 
   41500    1067.5732   -111.82884   0.96596267   -110.86288   -13000.063     4.388199     4.388199     4.388199   -13000.063    -84613.16    59878.723   -14265.751    12854.705   -66265.106    15862.593    84.500437 
   41600    2431.8807    -113.0497    2.2004167   -110.84928    18767.831    4.3824147    4.3824147    4.3824147    18767.831     23657.72    36763.931   -4118.1566    5893.6865   -2805.3116    4460.2209    84.166721 
   41700    2040.5986   -112.70883    1.8463765   -110.86246    9893.3474    4.3808621    4.3808621    4.3808621    9893.3474   -28807.128    37513.615    20973.555     6914.494   -5029.4155   -17479.702      84.0773 
   41800    1602.3051   -112.32653    1.4497994   -110.87673    8238.6099    4.3757448    4.3757448    4.3757448    8238.6099   -19781.358    35318.119     9179.069    21959.792   -43527.367   -6267.6734    83.783008 
   41900    2509.9308    -113.1345    2.2710381   -110.86347   -22072.364    4.3866145    4.3866145    4.3866145   -22072.364   -19611.433   -10552.949   -36052.709   -7642.3518    23503.648   -16790.998    84.408931 
   42000    981.37762   -111.75672   0.88797109   -110.86874   -14746.176    4.3879478    4.3879478    4.3879478   -14746.176   -80693.122    98934.147   -62479.554    4867.0299   -59887.355   -6765.3441    84.485924 
   42100    1767.2229   -112.43942    1.5990204    -110.8404    9885.8993    4.3859168    4.3859168    4.3859168    9885.8993   -29435.265    1565.3086    57527.655    25149.941    1664.5384    11736.315    84.368664 
   42200     1978.268   -112.62457    1.7899785   -110.83459   -27031.081    4.3975506    4.3975506    4.3975506   -27031.081   -62582.003   -13346.228   -5165.0116   -8404.7939   -38369.563   -11623.666    85.041818 
   42300    2020.2531   -112.66117    1.8279675   -110.83321   -30432.397    4.3800456    4.3800456    4.3800456   -30432.397   -88966.303    12033.709   -14364.597    5540.6666   -49313.996    -2713.034    84.030295 
   42400     1812.617   -112.47016     1.640094   -110.83006    46144.932    4.3560403    4.3560403    4.3560403    46144.932     29186.09   -7577.3541    116826.06    2612.7007    20941.002   -6770.3245    82.656245 
   42500    1778.8542   -112.47685    1.6095447   -110.86731   -10625.542    4.3803459    4.3803459    4.3803459   -10625.542   -24415.948    7744.1916    -15204.87   -18996.696   -32316.791   -12526.175    84.047581 
   42600    1972.9645   -112.64746    1.7851797   -110.86228   -19968.989    4.3872563    4.3872563    4.3872563   -19968.989   -43141.705    2854.3169   -19619.579    8979.9196   -4630.5471    18877.609    84.445989 
   42700    1161.2545   -111.92169    1.0507274   -110.87096   -336.96821    4.3792852    4.3792852    4.3792852   -336.96821   -6880.4261   -41931.285    47800.807    16551.222    23629.642   -12043.886    83.986538 
   42800    1807.6941   -112.49901    1.6356397   -110.86337   -8626.1411    4.3836447    4.3836447    4.3836447   -8626.1411    17225.954   -23937.435   -19166.943   -16242.214   -17465.981   -23006.215    84.237613 
   42900    1957.5208   -112.63155    1.7712059   -110.86034   -13966.954    4.3818771    4.3818771    4.3818771   -13966.954    -8185.721   -9903.7574   -23811.384    2346.5003    27838.209    32428.809    84.135753 
   43000    1223.3134   -111.98164    1.1068797   -110.87476   -17054.514    4.3787861    4.3787861    4.3787861   -17054.514    8246.1775   -47306.958    -12102.76    8154.1542    19972.315   -4450.2381    83.957825 
   43100    2397.5339   -113.03866     2.169339   -110.86932    614.31233    4.3897694    4.3897694    4.3897694    614.31233    22293.038   -40237.973    19787.872   -21335.387    1418.4947   -14592.304    84.591189 
   43200    1694.0277    -112.3921    1.5327918   -110.85931    2283.4142     4.397613     4.397613     4.397613    2283.4142   -42250.184    35673.155    13427.272    13366.814    38791.191    10187.136    85.045438 
   43300    1438.0501   -112.14761     1.301178   -110.84643   -12929.064    4.3886613    4.3886613    4.3886613   -12929.064    -25233.92    17013.862   -30567.133   -2391.2857    16590.349   -8698.8331    84.527145 
   43400     2119.886   -112.75539    1.9181174   -110.83728   -18836.092    4.3874273    4.3874273    4.3874273   -18836.092   -31323.481    4521.7275   -29706.521   -14117.819   -27217.582    5486.4063    84.455859 
   43500     1547.229   -112.24875    1.3999653   -110.84878   -21958.233    4.3841738    4.3841738    4.3841738   -21958.233   -38153.608    2392.2823   -30113.374    17670.714    30254.795    21080.953    84.268115 
   43600     1510.262   -112.22986    1.3665168   -110.86334    6892.0482    4.3778766    4.3778766    4.3778766    6892.0482    18990.933    27680.908   -25995.696     17838.36    16060.147    5824.7965    83.905521 
   43700    2139.6666   -112.79567    1.9360153   -110.85965   -9835.8917    4.3816399    4.3816399    4.3816399   -9835.8917   -19246.496    18158.897   -28420.076   -71.536391   -54278.162    2896.7627    84.122087 
   43800    2210.9827   -112.86499    2.0005436   -110.86445   -1862.4847    4.3711619    4.3711619    4.3711619   -1862.4847    -4880.367   -24134.484    23427.397    2891.8885    18453.484   -10442.955    83.520035 
   43900    1453.4268   -112.20683    1.3150911   -110.89174    21863.749    4.3749249    4.3749249    4.3749249    21863.749    57416.883    3413.4036    4760.9604    13546.812    36740.624    151.01807    83.735924 
   44000    1570.7379   -112.31034    1.4212367   -110.88911    27484.132    4.3812017    4.3812017    4.3812017    27484.132    17226.066    16424.605    48801.725    7396.5337   -28482.581    5545.8538     84.09685 
   44100    1487.8572   -112.23398    1.3462444   -110.88774    15480.457    4.3833553    4.3833553    4.3833553    15480.457    42976.542   -35614.519    39079.348    7428.7647    12638.582   -8209.3494    84.220926 
   44200    1015.1992    -111.8025   0.91857358   -110.88393    8032.6809    4.3864616    4.3864616    4.3864616    8032.6809    54591.627   -51448.966    20955.382   -3869.1079    65830.467   -10866.977    84.400104 
   44300    1529.8342    -112.2499    1.3842261   -110.86567    21155.062    4.3856605    4.3856605    4.3856605    21155.062    60064.479   -25370.075    28770.782   -18126.465   -9770.2424    16218.754     84.35387 
   44400    1320.2104   -112.06512    1.1945541   -110.87057   -284.53741    4.3973791    4.3973791    4.3973791   -284.53741    9136.8299    -32121.47    22131.028    17538.844    14078.059    4474.2343    85.031872 
   44500    1478.6063   -112.19258     1.337874   -110.85471   -13567.447    4.3984423    4.3984423    4.3984423   -13567.447   -7544.0178   -29201.019   -3957.3029     5544.448    42472.316   -9107.2652    85.093562 
   44600    2600.5975   -113.18147    2.3530753    -110.8284    48.297991    4.3962074    4.3962074    4.3962074    48.297991     49712.98   -18772.315   -30795.771    15691.134   -18090.638   -6841.0527    84.963915 
   44700    2296.8124   -112.90495    2.0782041   -110.82675   -29017.552    4.4115639    4.4115639    4.4115639   -29017.552   -58643.641   -7421.0804   -20987.935     1226.467    24645.799   -3176.9256    85.857396 
   44800    1641.1883   -112.28922    1.4849817   -110.80424    7889.3051    4.4174696    4.4174696    4.4174696    7889.3051    25035.933   -34256.777    32888.759   -7508.3425    10914.583    5920.9516     86.20267 
   44900    1071.2931   -111.75577   0.96932853   -110.78644    3392.8758    4.4169929    4.4169929    4.4169929    3392.8758    41853.201    -48944.98    17270.406   -16790.077     12612.59    16923.834    86.174763 
   45000    2267.2622   -112.81178    2.0514665   -110.76031   -26249.757    4.4010522    4.4010522    4.4010522   -26249.757   -21507.163   -24258.899   -32983.208    15022.485   -1848.0597   -13911.417    85.245128 
   45100    1849.7044   -112.45054    1.6736515   -110.77689   -20467.376    4.3909782    4.3909782    4.3909782   -20467.376    31578.485   -51596.855   -41383.758   -12654.949   -15113.999    6016.1593    84.661089 
   45200    1789.8775   -112.43607    1.6195188   -110.81655   -26503.913    4.4012322    4.4012322    4.4012322   -26503.913    8672.4175   -67968.404   -20215.751    2759.1343    -1908.259   -15680.399    85.255585 
   45300    2023.7202   -112.65547    1.8311045   -110.82437      5258.08    4.4049059    4.4049059    4.4049059      5258.08    33451.404   -28753.512    11076.348    11686.924    12301.156    15124.459    85.469253 
   45400    1692.7415   -112.36889     1.531628   -110.83726    4623.4297    4.3956763    4.3956763    4.3956763    4623.4297     41348.36   -17781.648   -9696.4227   -35844.482     2495.363    13116.396    84.933125 
   45500    1674.1762   -112.34813    1.5148298    -110.8333    15016.038    4.3704435    4.3704435    4.3704435    15016.038    54842.491   -2475.5396    -7318.838    127.76768    16899.434    -24271.47    83.478864 
   45600    1671.0264   -112.38052    1.5119798   -110.86854   -3404.3533    4.3732091    4.3732091    4.3732091   -3404.3533    -12085.64    3431.4582   -1558.8785    29382.757     18573.18    7807.9621    83.637441 
   45700    2163.3007   -112.83699    1.9573999   -110.87959   -36191.492    4.4005809    4.4005809    4.4005809   -36191.492   -4735.1405   -57612.096    -46227.24   -18224.667   -6115.3686    3091.4509    85.217744 
   45800    2053.2352   -112.71262    1.8578103   -110.85481   -28305.983    4.4029378    4.4029378    4.4029378   -28305.983   -24061.342    -32641.31   -28215.298    7158.9148    20299.293   -11081.941     85.35474 
   45900    1478.8817   -112.17879    1.3381233   -110.84066    20282.455    4.3800121    4.3800121    4.3800121    20282.455    6123.4794    76359.011   -21635.124     13552.18    20065.575    25345.056    84.028368 
   46000    2356.5185   -112.97252    2.1322275   -110.84029    19004.167     4.378478     4.378478     4.378478    19004.167    60680.211    15270.706   -18938.417   -17468.792   -18938.148   -10081.199    83.940105 
   46100    1737.2947   -112.43082    1.5719408   -110.85888   -13716.259    4.3880327    4.3880327    4.3880327   -13716.259   -53595.188    24461.531   -12015.121    39742.128    5939.1918    -5163.765     84.49083 
   46200    1147.5204   -111.91152    1.0383006   -110.87322    18506.283    4.3841481    4.3841481    4.3841481    18506.283    49336.262    48839.512   -42656.926     4656.075    349.08273    24562.893    84.266634 
   46300    2308.6965   -112.95657    2.0889572   -110.86761    13110.175    4.3838574    4.3838574    4.3838574    13110.175   -31725.111    62616.531    8439.1054   -13948.154   -28405.227   -6479.6807    84.249874 
   46400    1363.9401   -112.11952    1.2341217    -110.8854    12392.981    4.3831602    4.3831602    4.3831602    12392.981    10280.097   -4268.2302    31167.077    2765.7298     15921.12   -12479.156    84.209684 
   46500     1410.972   -112.15463    1.2766771   -110.87796    1417.1877    4.3874522    4.3874522    4.3874522    1417.1877   -2430.5689    3351.2708    3330.8613   -2836.5704    8771.6691    16643.236    84.457302 
   46600    2415.8069    -113.0245    2.1858728   -110.83862    36261.511    4.3821325    4.3821325    4.3821325    36261.511    46212.576    85066.196   -22494.241   -22036.209   -9526.9676   -5088.7554    84.150466 
   46700    1594.8262   -112.31343    1.4430323    -110.8704   -30508.279    4.3829063    4.3829063    4.3829063   -30508.279   -28018.245   -17852.833   -45653.759    9416.9066    22621.078     1890.468     84.19505 
   46800    1480.8598   -112.21461    1.3399131   -110.87469   -13801.444    4.3783014    4.3783014    4.3783014   -13801.444   -10726.611   -10408.864   -20268.858    48995.763    18065.554    -820.7088    83.929953 
   46900     2071.283   -112.72827    1.8741404   -110.85413    36939.435    4.3623328    4.3623328    4.3623328    36939.435    16745.182     57517.75    36555.372   -20164.927    2087.3633   -10693.504    83.014963 
   47000    1098.7805   -111.89147    0.9941997   -110.89727   -25610.365    4.3969806    4.3969806    4.3969806   -25610.365   -85396.695   -27355.268    35920.868    18137.737    23870.161    2780.8947    85.008753 
   47100    2113.8896   -112.73586    1.9126917   -110.82317   -40355.896     4.416422     4.416422     4.416422   -40355.896   -80246.959   -19387.915   -21432.814    22961.811    2839.3744    15963.468    86.141357 
   47200    2044.9118   -112.65371    1.8502791   -110.80343   -19450.156    4.3856727    4.3856727    4.3856727   -19450.156   -26794.573     785.7293   -32341.625    -23366.99    -11301.01    8047.9161    84.354578 
   47300     1981.295   -112.61231    1.7927174   -110.81959   -4763.5331    4.3649752    4.3649752    4.3649752   -4763.5331    4681.3441   -27285.123      8313.18    40032.696    25704.203    3363.9687     83.16591 
   47400    2117.4639   -112.77922    1.9159259   -110.86329    1849.7285    4.3791895    4.3791895    4.3791895    1849.7285   -4590.1453   -11923.973    22063.304    22637.374   -38630.297    10466.562    83.981036 
   47500    2088.3349   -112.75457    1.8895693     -110.865   -21517.437    4.4086267    4.4086267    4.4086267   -21517.437   -22158.127   -49143.862    6749.6797   -7074.3883   -32886.044    3102.5816    85.686019 
   47600    1583.0853   -112.27572    1.4324088   -110.84331   -5961.4053    4.3986969    4.3986969    4.3986969   -5961.4053   -49935.974   -47892.586    79944.345    41025.021    -2040.603    -20890.23    85.108336 
   47700    1503.2085   -112.17862    1.3601347   -110.81848    29418.082    4.3706901    4.3706901    4.3706901    29418.082   -6943.8514    46389.019    48809.078   -344.82199   -43867.501    -699.2442    83.492993 
   47800    2086.7878   -112.71122    1.8881695   -110.82305    4089.0671    4.3797146    4.3797146    4.3797146    4089.0671    14819.988     8154.194    -10706.98    -9266.225    10229.102   -2977.8761    84.011248 
   47900     1572.722   -112.26726    1.4230319   -110.84423   -23120.989    4.3987066    4.3987066    4.3987066   -23120.989   -44633.343   -27524.178    2794.5533    34822.935   -11609.316    3599.6543    85.108903 
   48000      2009.03   -112.64658    1.8178126   -110.82876   -8214.5786    4.3991151    4.3991151    4.3991151   -8214.5786   -10348.561    2662.6635   -16957.839    1513.6267   -15757.177    15598.401    85.132617 
   48100    2132.6625   -112.75928    1.9296779   -110.82961    -30734.88    4.3952939    4.3952939    4.3952939    -30734.88   -38751.692   -51116.335    -2336.612     18697.22    20921.791     12350.91     84.91096 
   48200    1518.9933   -112.22136     1.374417   -110.84695   -5737.6823    4.3826725    4.3826725    4.3826725   -5737.6823   -46329.936    2805.4073    26311.481    23649.647   -16842.258    14583.474    84.181575 
   48300    2426.4718   -113.03133    2.1955227   -110.83581    15584.309    4.3780617    4.3780617    4.3780617    15584.309    3970.0604    40343.964    2438.9039   -23466.888   -12280.978   -61.564004    83.916166 
   48400    986.86132   -111.74965   0.89293286   -110.85671    9780.5723    4.4037755    4.4037755    4.4037755    9780.5723   -44638.612    23790.823    50189.506    20869.044    11735.235     -14984.8     85.40347 
   48500    1810.3655   -112.44635    1.6380567    -110.8083   -23525.047    4.4192978    4.4192978    4.4192978   -23525.047   -60000.078    8745.0788   -19320.143   -9827.9346   -27638.233    13494.923    86.309742 
   48600    1543.0216    -112.1921    1.3961583   -110.79594   -12604.755    4.3989524    4.3989524    4.3989524   -12604.755    -26370.91    40596.248   -52039.604   -5075.4443     22054.83   -17408.165    85.123171 
   48700    1802.3143   -112.43013    1.6307719   -110.79936    19661.853    4.3711096    4.3711096    4.3711096    19661.853    3162.2193    56087.057   -263.71841    32717.027   -7814.2831    13416.825    83.517037 
   48800    2209.5341    -112.8319    1.9992329   -110.83267    14997.153    4.3740103    4.3740103    4.3740103    14997.153   -6590.3574    65201.639   -13619.824    760.24079   -5387.3366    18115.951    83.683417 
   48900    1642.2502    -112.3457    1.4859425   -110.85976   -4603.7513    4.3844237    4.3844237    4.3844237   -4603.7513    1995.8167    31806.145   -47613.216   -10867.026    16467.044   -31267.631    84.282527 
   49000    1483.9113   -112.20352    1.3426741   -110.86085   -5152.1494    4.3886861    4.3886861    4.3886861   -5152.1494   -4518.3705    -17238.06    6299.9826    37685.465   -3985.1393   -7726.0096    84.528578 
   49100    1945.0371   -112.60681    1.7599105    -110.8469   -4154.4416    4.3819943    4.3819943    4.3819943   -4154.4416   -37798.125     38309.41    -12974.61   -8277.4264    26089.307    16818.398    84.142503 
   49200    1282.5786   -112.01142    1.1605041   -110.85092   -35167.764    4.3764055    4.3764055    4.3764055   -35167.764   -26990.165   -44208.581   -34304.547     13093.06    28078.497   -44579.736    83.820966 
   49300    1952.8446   -112.60476    1.7669748   -110.83778    15641.687    4.3630682    4.3630682    4.3630682    15641.687   -3407.3002    26092.978    24239.384    5019.9008   -11010.781    6439.4461    83.056956 
   49400    1849.0359   -112.53598    1.6730466   -110.86294   -18958.551    4.3800441    4.3800441    4.3800441   -18958.551   -71783.616    46201.377   -31293.416   -19739.164    33705.565   -282.79338    84.030211 
   49500    2137.4238   -112.78197     1.933986   -110.84798   -33770.984    4.4017023    4.4017023    4.4017023   -33770.984   -47382.936     -39756.3   -14173.716    11878.972    391.48915   -13997.455    85.282907 
   49600    2417.2771   -113.01463    2.1872031   -110.82743    237.07432    4.3820816    4.3820816    4.3820816    237.07432   -46315.287    5014.7495     42011.76     15974.01    20535.892    15951.482    84.147529 
   49700    1556.0651   -112.25501    1.4079604   -110.84705    10023.078    4.3680827    4.3680827    4.3680827    10023.078   -28802.767    79424.308   -20552.306   -15038.539    20022.855   -16590.748    83.343657 
   49800    2017.6636   -112.69283    1.8256244    -110.8672    -6983.385    4.3742758    4.3742758    4.3742758    -6983.385     -16773.1   -4047.1861   -129.86928    4204.4292   -15496.264   -25126.639    83.698656 
   49900    2370.9158   -113.02386    2.1452544   -110.87861   -13385.687    4.3668856    4.3668856    4.3668856   -13385.687   -34871.731    2125.7758   -7411.1064    12542.959    31034.627     23177.14    83.275152 
   50000    920.10285   -111.73828    0.8325284   -110.90575    9564.3075    4.3662542    4.3662542    4.3662542    9564.3075   -23461.479    57099.874   -4945.4729   -7935.1474    12656.831   -18422.138    83.239037 
   50100      1811.62   -112.54211    1.6391919   -110.90292   -14713.719    4.3907697    4.3907697    4.3907697   -14713.719   -47461.203   -42580.981    45901.026   -6952.4866   -25623.996   -18390.358    84.649028 
   50200    2213.5553   -112.87407    2.0028714    -110.8712   -15948.743    4.4026502    4.4026502    4.4026502   -15948.743   -53381.672   -18591.137     24126.58    9274.4129    8389.3418    29536.778    85.338018 
   50300    1434.7068   -112.16494    1.2981528   -110.86678    35563.411    4.3712605    4.3712605    4.3712605    35563.411   -17957.075    1669.2423    122978.07   -7736.6704   -7375.3125   -4683.9684    83.525689 
   50400    1460.3771   -112.19753    1.3213799   -110.87616    24349.095    4.3568247    4.3568247    4.3568247    24349.095    3410.8771    8355.5175     61280.89   -3830.2586   -25753.915   -27676.659    82.700903 
   50500    2497.7821   -113.14567    2.2600457   -110.88563   -2690.6732    4.3775721    4.3775721    4.3775721   -2690.6732    -4456.817    11487.832   -15103.034     11526.64    5882.8947    17358.673    83.888014 
   50600    2015.5971   -112.71245    1.8237547   -110.88869   -34758.735     4.395309     4.395309     4.395309   -34758.735   -59787.417   -10600.604   -33888.186   -21918.168   -26265.614    2398.1394    84.911838 
   50700    954.19403   -111.75906   0.86337482   -110.89569   -48442.162     4.387099     4.387099     4.387099   -48442.162   -54841.661   -25854.996   -64629.828     7693.693   -30566.913   -29119.026    84.436905 
   50800    2375.5271   -113.02668    2.1494268   -110.87725    24975.629     4.350911     4.350911     4.350911    24975.629    23927.521    21538.792    29460.573    11178.642    7904.3347   -2369.7901    82.364601 
   50900    2038.1249   -112.74093    1.8441382   -110.89679     40984.23    4.3560359    4.3560359    4.3560359     40984.23   -21305.224     64663.91    79594.003   -12045.365    -7244.634    1592.4301    82.655995 
   51000    1188.9594   -111.98585    1.0757954   -110.91005   -12842.683    4.3876494    4.3876494    4.3876494   -12842.683   -65250.277     15256.16    11466.069    16178.235   -33584.303   -19829.587    84.468689 
   51100    1750.6804   -112.44297    1.5840524   -110.85892   -9243.0638    4.4021673    4.4021673    4.4021673   -9243.0638   -66377.886    -31560.78    70209.474    19956.706    24985.562    3594.6524    85.309939 
   51200    1807.8366   -112.47757    1.6357686   -110.84181   -8915.9168    4.3909531    4.3909531    4.3909531   -8915.9168   -54931.331    18714.746    9468.8347   -4683.0097    7090.5179   -10119.062    84.659636 
   51300    1848.2894   -112.51753    1.6723711   -110.84516    8404.8249    4.3609177    4.3609177    4.3609177    8404.8249    23460.924    14661.924   -12908.373    19650.028   -31331.068   -33883.006    82.934204 
   51400    1816.5882   -112.50883    1.6436872   -110.86514    25890.943    4.3509528    4.3509528    4.3509528    25890.943    32973.314    14886.922    29812.592    22724.824    22334.597    23808.977    82.366974 
   51500    1916.6112   -112.63656    1.7341901   -110.90237    5145.8509    4.3815002    4.3815002    4.3815002    5145.8509    34434.916    4677.4599   -23674.823   -8667.6275    8765.7055    -4039.329    84.114041 
   51600    2367.9835   -113.01124    2.1426012   -110.86864   -9479.1135    4.4082915    4.4082915    4.4082915   -9479.1135    14311.186   -39634.701   -3113.8252    7220.8568   -25317.284   -18570.585    85.666481 
   51700    1483.3894   -112.17984    1.3422019   -110.83764   -24831.287    4.4056635    4.4056635    4.4056635   -24831.287   -74331.967   -20730.588    20568.693    13517.347    34218.014    34386.189    85.513357 
   51800    1702.0458   -112.35341    1.5400468   -110.81336    15701.741    4.3807439    4.3807439    4.3807439    15701.741     1830.165    24273.818     21001.24    8263.0879    12576.401   -11709.906    84.070493 
   51900    2312.4492   -112.91008    2.0923526   -110.81773   -3886.0592    4.3689361    4.3689361    4.3689361   -3886.0592   -33483.688    13863.544    7961.9666   -5766.7274   -12066.659    2307.9387    83.392514 
   52000    743.85588   -111.54661   0.67305643   -110.87355   -4962.7537    4.3712681    4.3712681    4.3712681   -4962.7537     8459.453   -14027.879   -9319.8354    -190.5544    45221.566     20827.98    83.526124 
   52100     1907.235   -112.60455    1.7257063   -110.87884    -23053.89    4.3839361    4.3839361    4.3839361    -23053.89   -22048.301   -2131.6864   -44981.682    1848.4741   -7577.5506   -3236.1328    84.254408 
   52200    2240.8139   -112.89797    2.0275355   -110.87043    -15075.73    4.3718709    4.3718709    4.3718709    -15075.73   -10056.256   -5804.1953    -29366.74    5872.6228   -40932.191   -4639.6181    83.560685 
   52300    1501.8043   -112.23171    1.3588641   -110.87284    24648.484    4.3582538    4.3582538    4.3582538    24648.484    88219.087    2154.9671   -16428.601    9652.8875     50400.49    14984.367     82.78231 
   52400    2124.4302   -112.80356    1.9222291   -110.88134   -8733.5693    4.3668489    4.3668489    4.3668489   -8733.5693   -21362.029    21733.359   -26572.039    5751.0801   -22756.908    2549.2945    83.273054 
   52500    2299.5049   -112.95972    2.0806404   -110.87908     7084.285    4.3781632    4.3781632    4.3781632     7084.285     34481.17    13572.922   -26801.237   -14422.053   -34043.079   -3746.3252    83.922003 
   52600    2101.9207    -112.7705     1.901862   -110.86863   -30320.119    4.3966144    4.3966144    4.3966144   -30320.119   -12521.116   -24377.502   -54061.739    1812.0086    66886.014    12697.926    84.987516 
   52700    1989.3298   -112.65688    1.7999874   -110.85689   -12052.085    4.3803169    4.3803169    4.3803169   -12052.085   -28442.455     10757.04    -18470.84   -5753.4285   -39240.117   -2426.8971     84.04591 
   52800    2095.1079   -112.73297    1.8956977   -110.83727    16969.584    4.3513283    4.3513283    4.3513283    16969.584   -16185.584    83111.791   -16017.454    -9929.268    4361.0396    1178.8853    82.388302 
   52900    1258.3295   -112.01379     1.138563   -110.87523   -11912.155    4.3666743    4.3666743    4.3666743   -11912.155   -22604.026    43732.819   -56865.259    13463.505    54128.105    3442.0999    83.263068 
   53000    1754.3891   -112.44515    1.5874081   -110.85774    -20174.41    4.3881655    4.3881655    4.3881655    -20174.41   -28414.959    6198.8623   -38307.133   -2834.2369   -34620.508    12322.792    84.498502 
   53100    1738.4767   -112.42253    1.5730102   -110.84952    -15057.25    4.3837544    4.3837544    4.3837544    -15057.25   -42358.437    54894.795   -57708.107     9844.031    59502.891    -2332.059    84.243937 
   53200    1547.5756   -112.25462    1.4002789   -110.85435   -9788.9922    4.3772751    4.3772751    4.3772751   -9788.9922    7433.4905    18825.602   -55626.069    12823.475    18422.655    8917.7798    83.870944 
   53300    2032.0433   -112.69513    1.8386355    -110.8565   -5060.4859    4.3553917    4.3553917    4.3553917   -5060.4859    5983.6724   -24712.821    3547.6911    14238.383   -7599.7132    17994.776    82.619329 
   53400    1521.2423   -112.26406     1.376452    -110.8876    24686.913      4.34852      4.34852      4.34852    24686.913    26381.558    74235.758   -26556.577   -7564.6484    75023.492   -7595.9349    82.228886 
   53500    2731.0204   -113.35923    2.4710847   -110.88815   -5541.5758     4.381198     4.381198     4.381198   -5541.5758    21695.306    4841.9709   -43162.004   -7747.5883   -13038.231    9038.1136    84.096639 
   53600    1674.3162   -112.38842    1.5149565   -110.87346    1551.9636    4.3896369    4.3896369    4.3896369    1551.9636   -32479.479    62770.854   -25635.484    24265.572    16791.486    15914.936     84.58353 
   53700    1728.2351    -112.4149    1.5637435   -110.85116    8916.4979    4.3817861    4.3817861    4.3817861    8916.4979   -11156.342    56811.903   -18906.067   -12172.375    48052.519   -2479.1914     84.13051 
   53800    2448.1757   -113.05113    2.2151609   -110.83597   -25821.568    4.3827894    4.3827894    4.3827894   -25821.568   -38729.428    -26579.18   -12156.096   -10370.306   -15275.402   -6294.7515    84.188312 
   53900     727.4565   -111.52965   0.65821793   -110.87144    2638.7387    4.3576171    4.3576171    4.3576171    2638.7387   -77714.628    90200.389   -4569.5449    35231.409    58126.323    8866.5541    82.746037 
   54000    1611.6222   -112.34144    1.4582296   -110.88321    29170.758    4.3552901    4.3552901    4.3552901    29170.758    20905.199    53273.056     13334.02    2683.8524    17723.668    12678.925    82.613549 
   54100    2151.9955   -112.82429    1.9471708   -110.87712   -12125.662    4.3841538    4.3841538    4.3841538   -12125.662    3543.3286   -20529.726   -19390.589   -8607.7523    8006.1168   -28172.727    84.266966 
   54200    1378.5583    -112.1187    1.2473485   -110.87135    11368.198    4.3794474    4.3794474    4.3794474    11368.198   -11831.532    44319.844    1616.2816    16376.902    67753.128    2183.0533    83.995875 
   54300    2128.7201   -112.78652    1.9261106   -110.86041    16886.086     4.368081     4.368081     4.368081    16886.086     28533.63    31868.794   -9744.1668    10992.929   -7819.9937    16549.526    83.343563 
   54400    2123.5982    -112.7913    1.9214763   -110.86982   -3978.7698    4.3708213    4.3708213    4.3708213   -3978.7698    16979.923   -13933.999   -14982.233    18747.667    4904.9063   -32864.739    83.500512 
   54500    2190.7813   -112.85207    1.9822649    -110.8698    11308.755    4.3732904    4.3732904    4.3732904    11308.755    28555.723    24447.641   -19077.099    2061.1553    25900.067   -3301.7282    83.642104 
   54600    2052.7479   -112.73336    1.8573694   -110.87599   -29866.032    4.3831836    4.3831836    4.3831836   -29866.032    1535.8405   -51428.222   -39705.715     17793.76   -15155.351    31761.764    84.211032 
   54700    2051.7281   -112.72436    1.8564467   -110.86791   -6628.8033    4.3736692    4.3736692    4.3736692   -6628.8033    8399.8351   -19862.176   -8424.0691    14864.861   -4050.6238   -24145.735    83.663838 
   54800     2202.216   -112.85594    1.9926114   -110.86333   -703.86605    4.3617611    4.3617611    4.3617611   -703.86605   -17836.799   -21210.842    36936.043   -18777.183   -4132.8003    11612.912    82.982327 
   54900    1451.4429   -112.20441    1.3132961   -110.89111   -34661.725    4.3757246    4.3757246    4.3757246   -34661.725   -35906.819   -55430.703   -12647.652    24944.255    3410.7591    48772.562    83.781847 
   55000    2414.1422   -113.06052    2.1843666   -110.87615    4554.5832     4.382566     4.382566     4.382566    4554.5832    44455.252   -20208.864   -10582.638    14587.982   -4587.1239   -22067.673    84.175442 
   55100    1887.2918   -112.59515    1.7076613   -110.88748   -16992.369    4.3842369    4.3842369    4.3842369   -16992.369    47916.095    -72720.92   -26172.282   -27183.707   -8424.9504    31361.896    84.271755 
   55200    1483.9879   -112.21716    1.3427434   -110.87441    14909.752    4.3673564    4.3673564    4.3673564    14909.752    90726.336   -51653.392    5656.3128    11426.666   -8229.7664    14669.708    83.302091 
   55300    1944.4068   -112.63823    1.7593402   -110.87889   -810.82391    4.3721796    4.3721796    4.3721796   -810.82391    75342.875   -35345.761   -42429.586    17841.354   -3789.2887    10532.754    83.578385 
   55400    1352.5781   -112.11182    1.2238411   -110.88798   -45289.219    4.3838974    4.3838974    4.3838974   -45289.219    66278.607   -93653.711   -108492.55   -3421.4587   -1142.3437    63963.396    84.252177 
   55500    2317.9762   -112.96082    2.0973536   -110.86347   -11407.241    4.3810689    4.3810689    4.3810689   -11407.241    -5183.607   -14783.383   -14254.734   -9698.4285    5245.3544   -20537.565    84.089208 
   55600    1798.3379   -112.49645    1.6271739   -110.86927   -45002.689    4.4029544    4.4029544    4.4029544   -45002.689     2990.582   -83517.968    -54480.68    23108.197   -12669.594    42434.426    85.355706 
   55700    2435.3178   -113.05384    2.2035268   -110.85031   -35278.139    4.3981482    4.3981482    4.3981482   -35278.139    17477.895   -65806.823    -57505.49    -2813.872    795.24505   -1616.2341    85.076492 
   55800    2116.2571   -112.76989    1.9148339   -110.85505    44696.771    4.3478098    4.3478098    4.3478098    44696.771    59408.561   -14702.105    89383.857   -34578.563    4462.6093    7201.7725    82.188605 
   55900    1229.0463   -112.00205    1.1120669   -110.88998    10061.396    4.3398853    4.3398853    4.3398853    10061.396    28285.968   -67006.479      68904.7    34308.139    8952.4323    51576.378    81.740021 
   56000    1802.7468   -112.54319    1.6311632   -110.91202   -25209.159    4.3813184    4.3813184    4.3813184   -25209.159   -2614.9769   -65522.726   -7489.7749     29941.55   -6095.9046   -5569.7636    84.103574 
   56100    1884.1338    -112.5875    1.7048038   -110.88269    7074.5238    4.3927644    4.3927644    4.3927644    7074.5238    45458.011    -14738.65   -9495.7901   -8177.5252   -16838.786    3585.7249    84.764449 
   56200     1286.301    -112.0384    1.1638722   -110.87453    11434.137    4.3901663    4.3901663    4.3901663    11434.137    16919.978   -13122.091    30504.523     39149.53    6571.8809    34920.042    84.614133 
   56300    1964.0439   -112.63762    1.7771082   -110.86051   -15979.322    4.3852676    4.3852676    4.3852676   -15979.322    36855.095   -59468.063   -25324.998    5188.3214   -4700.7101   -34272.549    84.331203 
   56400    1584.6146   -112.30268    1.4337926   -110.86889    38835.733    4.3666619    4.3666619    4.3666619    38835.733    143392.44   -4753.6955   -22131.542   -19274.341   -1354.2502    5144.2837    83.262356 
   56500    1319.4476   -112.09424    1.1938639   -110.90038    38764.951    4.3731577    4.3731577    4.3731577    38764.951    84772.089   -11553.448    43076.213    30200.809   -1326.0278    16050.555    83.634493 
   56600    1812.4023   -112.53567    1.6398996   -110.89577   -11537.128    4.4021928    4.4021928    4.4021928   -11537.128    29624.741   -63377.479   -858.64516    7578.7631   -10126.286   -5604.0626    85.311422 
   56700    1796.3431    -112.4789     1.625369   -110.85353   -3976.0202    4.4028754    4.4028754    4.4028754   -3976.0202    25748.177   -1212.4358   -36463.801   -31325.601   -20979.967    30425.969    85.351112 
   56800    1841.2537   -112.49654    1.6660051   -110.83054   -14575.564    4.3884796    4.3884796    4.3884796   -14575.564   -24432.291   -3804.2114    -15490.19    51919.104    9703.0345    -12177.99    84.516647 
   56900    1482.2574   -112.18186    1.3411777   -110.84069   -6658.4595    4.3720032    4.3720032    4.3720032   -6658.4595   -9208.3794   -39873.008    29106.009   -14414.422   -1180.9073   -9607.6389    83.568268 
   57000    2172.6019   -112.81126    1.9658158   -110.84544    23545.921    4.3578827    4.3578827    4.3578827    23545.921    40286.359    19914.023     10437.38   -33694.112   -2012.9427    12711.121     82.76117 
   57100    1458.1944   -112.20929     1.319405   -110.88988   -21082.926    4.3722251    4.3722251    4.3722251   -21082.926   -62854.178   -44543.251    44148.652    76018.282    3474.5573    772.78425    83.580997 
   57200    1756.8659   -112.47475    1.5896492    -110.8851   -12256.508    4.3753298    4.3753298    4.3753298   -12256.508    -37600.28   -31028.416    31859.173    1867.9753    12791.341   -13339.776    83.759172 
   57300    2372.8284   -113.01347     2.146985   -110.86648   -81.085221    4.3821267    4.3821267    4.3821267   -81.085221   -729.70176    2672.6302   -2186.1841    3218.8557    6538.5826   -245.01703    84.150133 
   57400    990.83831   -111.76968   0.89653133   -110.87315    -44576.03    4.3960314    4.3960314    4.3960314    -44576.03   -108488.54   -25679.236    439.69065    71505.046    14972.765    11901.159    84.953713 
   57500    2597.7468   -113.18483    2.3504959   -110.83433   -4347.8082    4.3814492    4.3814492    4.3814492   -4347.8082   -434.19998    2337.4013   -14946.626   -14371.148    4363.7561    5318.2866    84.111105 
   57600    2185.0706   -112.81993    1.9770978   -110.84284     12051.21    4.3736202    4.3736202    4.3736202     12051.21    19438.243    -2578.137    19293.525    36229.749    628.42934    14226.423    83.661031 
   57700    1596.0778   -112.31629    1.4441647   -110.87212   -24944.118    4.3750709    4.3750709    4.3750709   -24944.118   -58155.989   -1390.2858   -15286.078    74576.319    17840.791   -2227.4427    83.744304 
   57800     2308.592   -112.95416    2.0888625    -110.8653    25699.542    4.3714682    4.3714682    4.3714682    25699.542    62488.235    16154.849   -1544.4581   -4404.2149    7879.4691   -20864.705    83.537596 
   57900    1577.3895   -112.31381    1.4272552   -110.88656    11226.653    4.3810144    4.3810144    4.3810144    11226.653    6682.0558   -41637.655    68635.558   -3404.1339    1746.9819    1435.5624    84.086065 
   58000    1748.2548   -112.44732    1.5818577   -110.86546   -7333.4088     4.391649     4.391649     4.391649   -7333.4088   -26028.504   -6590.2326     10618.51    30346.487    29684.992    3232.7045    84.699897 
   58100    2401.4048   -113.00704    2.1728415    -110.8342   -7611.3311    4.3951471    4.3951471    4.3951471   -7611.3311    33277.478   -33651.771     -22459.7   -25556.454   -6123.8245    2282.5256    84.902454 
   58200    1193.1291   -111.92415    1.0795683   -110.84458   -1481.6942    4.3808249    4.3808249    4.3808249   -1481.6942     13506.64   -57349.416    39397.693    20505.322    3209.1464     8355.211    84.075159 
   58300    1515.4756   -112.21354    1.3712342    -110.8423    35338.933    4.3639878    4.3639878    4.3639878    35338.933    54368.211    14676.665    36971.924    29456.569    27919.501     2196.482    83.109482 
   58400    2185.7906   -112.84023    1.9777493   -110.86248    7832.9086    4.3684493    4.3684493    4.3684493    7832.9086    57255.755   -3798.6442   -29958.385   -14344.442   -9286.7813   -19370.611    83.364643 
   58500    1423.1678   -112.16977    1.2877122   -110.88205    22576.856    4.3718905    4.3718905    4.3718905    22576.856    75401.243   -51354.376    43683.701     27644.35    320.33964    1239.5916    83.561809 
   58600    1745.3497   -112.45922    1.5792291   -110.87999    10907.373    4.3754427    4.3754427    4.3754427    10907.373    42411.966   -12131.122    2441.2757    19489.646    23180.216    -5062.158    83.765658 
   58700    1849.1965   -112.55042    1.6731919   -110.87723   -519.87322    4.3762962    4.3762962    4.3762962   -519.87322    76788.557   -6240.2287   -72107.948   -8742.1832   -25701.645   -19576.231    83.814686 
   58800    1753.6739   -112.47181     1.586761   -110.88504   -5191.5746    4.3692766    4.3692766    4.3692766   -5191.5746    24510.085   -13962.294   -26122.515    17198.939   -21906.615    5172.7377    83.412015 
   58900    1924.0907   -112.62985    1.7409577   -110.88889    14886.109    4.3636705    4.3636705    4.3636705    14886.109    45604.738   -12007.736    11061.325     20153.57    22902.318    10436.665    83.091356 
   59000    1805.4686   -112.53415     1.633626   -110.90052   -4824.1309    4.3751992    4.3751992    4.3751992   -4824.1309    15254.398    26230.563   -55957.354   -13495.907   -28542.395    -26990.41    83.751674 
   59100    1976.6463   -112.67867    1.7885111   -110.89016   -7157.2671    4.3825496    4.3825496    4.3825496   -7157.2671   -17379.414    19163.113   -23255.501    26906.871    -20051.17    10220.019    84.174494 
   59200    1984.8299   -112.66894    1.7959158   -110.87303    2840.2005    4.3778401    4.3778401    4.3778401    2840.2005     18157.84   -7632.9768   -2004.2616    17985.178   -152.63338   -2512.5936    83.903423 
   59300    1329.4954   -112.08814    1.2029554   -110.88518   -14981.369    4.3815167    4.3815167    4.3815167   -14981.369    10617.277    -24556.71   -31004.673   -30833.607   -32067.363   -44096.214    84.114991 
   59400    2709.6809   -113.31914    2.4517762   -110.86736    8157.1916    4.3733517    4.3733517    4.3733517    8157.1916   -1323.8204    18569.767    7225.6286    14744.821    23308.117    17294.693    83.645621 
   59500    2095.6268   -112.78435    1.8961672   -110.88819   -4247.1944     4.365501     4.365501     4.365501   -4247.1944      3684.38    2762.9852   -19188.948     2871.393    -9658.792   -15015.168    83.195965 
   59600    960.48809   -111.78935   0.86906981   -110.92028   -30290.204    4.3700579    4.3700579    4.3700579   -30290.204     5561.415   -50501.916   -45930.111   -16423.639   -26485.086   -39043.615    83.456771 
   59700    2421.8888   -113.08333    2.1913759   -110.89196   -3980.9427    4.3781162    4.3781162    4.3781162   -3980.9427   -20093.008    12486.739   -4336.5588   -14972.662    12241.546    9385.9805    83.919303 
   59800    1593.8087   -112.32277    1.4421116   -110.88066   -25682.491    4.3968528    4.3968528    4.3968528   -25682.491   -37286.187    33850.751   -73612.036   -4304.0919   -47363.614    -18165.47    85.001342 
   59900    1486.8546   -112.18444    1.3453373    -110.8391   -10141.308     4.390245     4.390245     4.390245   -10141.308    17739.351   -17003.122   -31160.151   -4589.3618   -24798.991   -26420.214    84.618685 
   60000    2276.1591    -112.8759    2.0595166   -110.81639    13861.275    4.3631268    4.3631268    4.3631268    13861.275   -18959.622    38558.553    21984.892    10726.342    3668.2588    10147.783      83.0603 
   60100    1012.8391   -111.78039   0.91643813   -110.86395   -10687.776    4.3619202    4.3619202    4.3619202   -10687.776   -1956.7232    35278.905   -65385.509    7425.9844   -53477.946   -26975.413    82.991412 
   60200     1653.792   -112.37478    1.4963857   -110.87839   -3615.2392    4.3647169    4.3647169    4.3647169   -3615.2392    47203.136   -24783.908   -33264.946   -16612.533    5221.9798   -32808.007    83.151146 
   60300    2207.7407   -112.87942    1.9976102   -110.88181    22065.033    4.3641046    4.3641046    4.3641046    22065.033    3080.4566    24101.093    39013.549    13909.142     -68.6317    30646.356    83.116158 
   60400    1188.6436     -111.973    1.0755097   -110.89749   -22277.903    4.3874558    4.3874558    4.3874558   -22277.903    38717.639   -40667.304   -64884.044    18244.687   -39807.129   -43373.443    84.457511 
   60500    1954.3676   -112.63114    1.7683529   -110.86278    -13674.32     4.379684     4.379684     4.379684    -13674.32    73154.157   -72262.598   -41914.519   -7168.2318   -680.32337   -37894.233    84.009485 
   60600    2271.1944   -112.89743    2.0550244    -110.8424    5828.9429    4.3532033    4.3532033    4.3532033    5828.9429    19195.292   -4031.8369    2323.3741    1640.4311   -7808.5045    46682.952    82.494854 
   60700     997.9655   -111.78907   0.90298015   -110.88609   -28501.181    4.3641999    4.3641999    4.3641999   -28501.181    25198.152    -47287.35   -63414.344    4283.1175   -43795.117   -59891.061    83.121602 
   60800    2004.6349   -112.69852    1.8138358   -110.88469   -17031.885    4.3757366    4.3757366    4.3757366   -17031.885    10350.975    -34942.34    -26504.29    9118.2037    21345.292   -19651.428    83.782537 
   60900    2294.1074    -112.9422    2.0757566   -110.86644   -6139.1221    4.3794765    4.3794765    4.3794765   -6139.1221    26596.452   -6216.0388    -38797.78    12466.637   -12020.073    33922.713    83.997548 
   61000    1275.2066   -112.03485    1.1538338   -110.88101    -28140.24    4.3796497    4.3796497    4.3796497    -28140.24   -26176.721   -21446.005   -36797.994     614.5042   -43208.108   -57404.163    84.007515 
   61100    2292.8113   -112.93772    2.0745838   -110.86313    -10642.97    4.3732095    4.3732095    4.3732095    -10642.97   -23755.391   -9936.3412    1762.8225    12200.999    31340.332    2102.2055    83.637463 
   61200    2392.1069   -113.02165    2.1644286   -110.85722     6398.731    4.3638441    4.3638441    4.3638441     6398.731    6278.2597    28627.263   -15709.329   -13284.795    1606.8356   -4794.8356    83.101271 
   61300    979.71114   -111.77859   0.88646323   -110.89213    1079.2005    4.3704467    4.3704467    4.3704467    1079.2005   -5519.5814    -15908.26    24665.443    17594.591   -45590.872   -46286.979    83.479046 
   61400    2236.4573   -112.88834    2.0235935   -110.86475   -14963.541    4.3848498    4.3848498    4.3848498   -14963.541   -28566.408   -15899.053   -425.16054    23421.224    18431.754    21659.313    84.307105 
   61500    1454.6197    -112.1718    1.3161705   -110.85563   -29455.753    4.3830016    4.3830016    4.3830016   -29455.753   -10410.641   -38232.891   -39723.728   -6874.6034   -9246.7451   -42726.592    84.200541 
   61600    1109.3435   -111.86065    1.0037573   -110.85689   -23111.079    4.3774558    4.3774558    4.3774558   -23111.079   -3837.3206   -23618.023   -41877.892    5010.0801   -37310.695   -27587.599     83.88133 
   61700    2249.0216   -112.88396     2.034962     -110.849   -16338.064    4.3709245    4.3709245    4.3709245   -16338.064   -33925.832   -16970.399    1882.0395   -805.38119   -4503.7744    27143.193    83.506429 
   61800    1342.3354   -112.09263    1.2145733   -110.87806    23087.718    4.3529333    4.3529333    4.3529333    23087.718     34243.89    25643.466    9375.7975    4249.3889    141.86403   -53970.862    82.479501 
   61900    1627.6184    -112.3681    1.4727034    -110.8954   -7445.9546    4.3591404    4.3591404    4.3591404   -7445.9546   -13027.119    3973.6288   -13284.373    2039.0306   -37211.776   -20275.594    82.832845 
   62000     1783.141   -112.50607    1.6134235   -110.89264   -26849.519    4.3802863    4.3802863    4.3802863   -26849.519   -62772.946   -29365.224    11589.613     677.4925    873.40346    36520.435    84.044151 
   62100    1533.1439   -112.26298    1.3872208   -110.87576   -37116.095    4.3837001    4.3837001    4.3837001   -37116.095   -52247.884   -41639.433   -17460.968   -2819.7497    -6885.829   -37292.468    84.240805 
   62200    1641.4034    -112.3525    1.4851763   -110.86732   -14269.014    4.3685967    4.3685967    4.3685967   -14269.014   -35291.216     32774.24   -40290.065   -431.25765   -37677.934   -17789.863    83.373086 
   62300    2352.8368   -112.99758    2.1288962   -110.86868   -2048.5661    4.3580936    4.3580936    4.3580936   -2048.5661   -11624.383    1415.7993    4062.8853    9514.2775    16692.513    52232.313    82.773185 
   62400    1665.7758   -112.39647    1.5072289   -110.88924    12828.975    4.3553113    4.3553113    4.3553113    12828.975   -9898.0538    53969.961   -5584.9813    77.657483   -27830.544   -20293.622    82.614755 
   62500    1717.2952   -112.45925    1.5538448    -110.9054   -14868.522      4.37338      4.37338      4.37338   -14868.522    -29035.63    40807.096   -56377.031    7507.3472   -28738.972   -15194.204    83.647243 
   62600    2468.6092   -113.10321    2.2336495   -110.86956   -28111.124    4.3883552    4.3883552    4.3883552   -28111.124   -25580.531   -42985.429   -15767.413   -2377.8419    25959.203        23100    84.509456 
   62700    1667.6746   -112.39089     1.508947   -110.88194   -2017.5583     4.362541     4.362541     4.362541   -2017.5583   -29346.174    16996.231    6297.2683   -26587.051   -45590.135   -13978.713    83.026849 
   62800    1379.4639   -112.12276    1.2481679   -110.87459    32307.521    4.3428268    4.3428268    4.3428268    32307.521     1074.538    69727.669    26120.354    5066.1333    9111.9628   -14103.925    81.906344 
   62900    2170.9848   -112.84351    1.9643527   -110.87915    6155.7434    4.3718818    4.3718818    4.3718818    6155.7434   -35061.351     43341.86    10186.721   -1763.5054    32995.793    14421.579    83.561308 
   63000    1207.3531   -111.96721    1.0924384   -110.87477   -6030.5592    4.3899067    4.3899067    4.3899067   -6030.5592   -65060.238    17720.302    29248.259   -9994.2188   -41281.426   -5154.7266    84.599127 
   63100     1432.816   -112.15311    1.2964421   -110.85667    -17439.59    4.3839642    4.3839642    4.3839642    -17439.59   -80348.564    27209.877    819.91828    2835.2106    12035.573   -14859.514    84.256033 
   63200    2272.4095   -112.90266    2.0561239   -110.84654    11152.255    4.3571906    4.3571906    4.3571906    11152.255   -27453.217    17857.599    43052.383     15199.55    14652.326    8903.4834     82.72174 
   63300    974.74722   -111.75613   0.88197177   -110.87416    42716.673    4.3396076    4.3396076    4.3396076    42716.673    4543.5113    97002.546     26603.96   -5496.0543   -44794.276   -3204.9156     81.72433 
   63400    1730.5309   -112.47068    1.5658207   -110.90486   -5412.5491    4.3689244    4.3689244    4.3689244   -5412.5491   -5691.4879   -12736.975    2190.8157   -4113.1809   -16077.769   -30576.718    83.391845 
   63500    2215.4722   -112.87479    2.0046058   -110.87018   -6730.2387    4.3846254    4.3846254    4.3846254   -6730.2387   -17504.792    -15998.87    13312.946    25196.751    6522.6226    20865.673    84.294158 
   63600    999.88756   -111.76845   0.90471928   -110.86373    21179.191    4.3808065    4.3808065    4.3808065    21179.191    3456.6058    59376.305     704.6612   -14740.341   -39759.668   -2492.2463    84.074095 
   63700    1833.5056   -112.51372    1.6589944   -110.85473   -14469.477    4.3768477    4.3768477    4.3768477   -14469.477   -10985.748   -4918.8099   -27503.873    1560.3933    18775.456   -6049.3762    83.846377 
   63800     1745.674   -112.44431    1.5795226   -110.86479    4802.0581    4.3487021    4.3487021    4.3487021    4802.0581   -20224.464    46803.001   -12172.362    20018.832    40309.537   -4423.8564    82.239218 
   63900    2412.3189   -113.06409    2.1827168   -110.88138    3618.7592    4.3557653    4.3557653    4.3557653    3618.7592    36049.003   -3205.9926   -21986.733    4279.4481   -32803.745   -14738.183    82.640592 
   64000    1492.6909   -112.23374    1.3506181   -110.88312   -35315.694    4.3896088    4.3896088    4.3896088   -35315.694   -29395.986    27021.191   -103572.29   -3577.0285    55660.748   -17152.797    84.581901 
   64100    1846.5065   -112.53138    1.6707579   -110.86062   -4674.5389    4.3843398    4.3843398    4.3843398   -4674.5389    16593.762    30244.389   -60861.768    1874.9577    32212.683    4005.4996    84.277687 
   64200    2372.8504   -112.99143    2.1470049   -110.84442    2630.2844    4.3685756    4.3685756    4.3685756    2630.2844    49987.025   -12893.257   -29202.915    1342.1273   -24654.743    -1482.506    83.371876 
   64300    2025.3658   -112.69663    1.8325935   -110.86404    3259.3465    4.3526418    4.3526418    4.3526418    3259.3465    46169.992     5328.559   -41720.511   -9172.5727    53099.785    -9701.279    82.462935 
   64400    2047.5626   -112.73627    1.8526776   -110.88359    14241.113    4.3466597    4.3466597    4.3466597    14241.113   -21165.778    40854.516    23034.602   -3809.5761   -1066.3096    5035.4243    82.123398 
   64500    1142.9227   -111.95662    1.0341405   -110.92248   -2055.1316    4.3701596    4.3701596    4.3701596   -2055.1316   -19000.987    -2430.575    15266.168   -4833.5886   -35139.166   -8458.1555    83.462596 
   64600    2791.1589   -113.39415    2.5254992   -110.86865   -31700.581    4.3996445    4.3996445    4.3996445   -31700.581    2450.2102   -61427.396   -36124.559   -79.218376    22974.096   -11706.237    85.163355 
   64700    942.10839   -111.70372   0.85243947   -110.85128   -40127.112    4.4044034    4.4044034    4.4044034   -40127.112   -61143.623   -66888.819    7651.1063   -3343.6944   -33842.412     11327.41    85.440004 
   64800      1357.63   -112.05669    1.2284121   -110.82828    7990.6166    4.3654948    4.3654948    4.3654948    7990.6166    1127.5173    -46963.68    69808.012    -5130.513    -8381.278    1642.6549    83.195616 
   64900    2258.0064   -112.85794    2.0430917   -110.81485     29751.15    4.3348008    4.3348008    4.3348008     29751.15    36195.799    29252.096    23805.554    5342.7406    41472.059    -5311.057    81.453067 
   65000    1342.2954   -112.09725    1.2145371   -110.88271    8437.4901     4.349592     4.349592     4.349592    8437.4901   -6143.4767   -4839.9756    36295.923    1556.0364   -39248.495    16388.366    82.289715 
   65100    2003.9405   -112.70617    1.8132075   -110.89296   -3690.9717     4.383497     4.383497     4.383497   -3690.9717    9223.8541   -33379.476    13082.707    940.34858   -25759.481   -309.39872    84.229094 
   65200    1871.4849   -112.57068    1.6933589   -110.87732   -3913.0466    4.3872963    4.3872963    4.3872963   -3913.0466       -24517     32397.42    -19619.56   -10399.974    55183.612   -16531.064    84.448296 
   65300    1561.4587   -112.27225    1.4128406   -110.85941    36445.615    4.3631344    4.3631344    4.3631344    36445.615    24692.281    62690.486    21954.078   -2419.2072    -39902.79    7083.5329    83.060735 
   65400    1897.7413   -112.56594    1.7171162   -110.84883    23532.545    4.3613701    4.3613701    4.3613701    23532.545    48443.401   -5041.1736    27195.409   -6904.5205   -15446.491   -28914.526    82.960014 
   65500    1892.8641   -112.57152    1.7127032   -110.85882    -20831.02    4.3692097    4.3692097    4.3692097    -20831.02   -20941.366    -12068.79   -29482.905   -2786.0784    53577.096   -14055.755    83.408183 
   65600    1892.0287   -112.57878    1.7119473   -110.86683   -5313.6032    4.3657755    4.3657755    4.3657755   -5313.6032   -3601.5468    4790.1216   -17129.384    756.40204   -35947.855    14408.319    83.211664 
   65700    1584.6412   -112.31648    1.4338166   -110.88267   -25649.235    4.3685515    4.3685515    4.3685515   -25649.235    28969.227   -62457.957   -43458.975    4786.3601   -7384.1369   -55906.854    83.370495 
   65800    1397.2681   -112.15225    1.2642775   -110.88797   -23531.608    4.3613717    4.3613717    4.3613717   -23531.608   -5910.3406   -45802.515   -18881.968   -3690.0744    48223.393   -25757.032    82.960108 
   65900    2046.9156   -112.72978    1.8520923   -110.87769    3169.1322    4.3527185    4.3527185    4.3527185    3169.1322    306.10201    5891.8266    3309.4681   -17957.117   -22543.068    20025.352    82.467295 
   66000    1054.4255   -111.84745   0.95406631   -110.89338   -32492.927    4.3766997    4.3766997    4.3766997   -32492.927     27697.28   -73537.252    -51638.81    26182.899   -13545.982   -69827.431    83.837874 
   66100     1836.246   -112.53659     1.661474   -110.87512    -23003.37    4.3736226    4.3736226    4.3736226    -23003.37   -4526.4751   -48089.154    -16394.48    515.13617    23381.138   -14281.349    83.661165 
   66200    1890.1533   -112.58024    1.7102504   -110.86999    6789.4548    4.3513506    4.3513506    4.3513506    6789.4548    11682.152   -11805.167    20491.379   -28484.346    6212.0232   -11690.698    82.389568 
   66300    1563.1485   -112.30286    1.4143696   -110.88849   -7498.0171    4.3594926    4.3594926    4.3594926   -7498.0171    25404.095   -48273.743      375.597    9189.7555   -17440.404   -48991.297    82.852921 
   66400    2453.6474   -113.08781    2.2201117    -110.8677   -7136.7095    4.3724017    4.3724017    4.3724017   -7136.7095    2478.6613   -17068.192   -6820.5971    5282.9708    1935.3649    19992.566    83.591124 
   66500    1311.9832   -112.06381      1.18711    -110.8767     1059.396    4.3769705    4.3769705    4.3769705     1059.396    19575.398   -57125.197    40727.987    -33177.58    6725.8728   -43752.964    83.853437 
   66600     1956.016   -112.63241    1.7698444   -110.86257    -19842.23    4.3744113    4.3744113    4.3744113    -19842.23    25724.058   -48702.513   -36548.235    9288.1342   -12826.099   -2407.6009    83.706433 
   66700    1740.0392   -112.44136    1.5744241   -110.86694    10975.617    4.3497315    4.3497315    4.3497315    10975.617     51431.79   -17472.849   -1032.0898   -14589.864   -5593.2721    36743.643    82.297634 
   66800    1666.0613   -112.38978    1.5074873    -110.8823    9934.5427    4.3417738    4.3417738    4.3417738    9934.5427    18662.918   -32089.891      43230.6   -46708.458   -7473.3046   -48252.356    81.846774 
   66900    1496.5679   -112.25052    1.3541261    -110.8964   -15456.828    4.3670755    4.3670755    4.3670755   -15456.828    42745.669   -60598.667   -28517.487    6480.3828    3803.4096    12444.619     83.28602 
   67000    1353.1107   -112.10984     1.224323   -110.88552   -17145.087    4.3774538    4.3774538    4.3774538   -17145.087    -16850.36   -27488.269   -7096.6304   -15958.849   -18317.558    33089.311    83.881213 
   67100    1312.5617   -112.06792    1.1876335   -110.88029   -2521.1653    4.3709412    4.3709412    4.3709412   -2521.1653   -47771.668    18121.021    22087.152   -26925.761   -27579.633    -26041.12    83.507386 
   67200    2029.0229   -112.71411    1.8359026    -110.8782   -2546.2442    4.3545096    4.3545096    4.3545096   -2546.2442    14958.293   -19954.155   -2642.8704    24510.894    11472.796   -6423.2771    82.569137 
   67300    1872.9512   -112.58111    1.6946856   -110.88642    13557.785    4.3389469    4.3389469    4.3389469    13557.785    1369.0277   -8553.9602    47858.288   -31609.434    -4848.105    22936.986    81.687009 
   67400    1603.6396   -112.36976    1.4510068   -110.91875   -12063.262    4.3550123    4.3550123    4.3550123   -12063.262   -46445.417   -16216.795    26472.427   -53767.112   -34301.423   -9434.9915     82.59774 
   67500    2591.5825   -113.24558    2.3449183   -110.90066    -22307.71    4.3680244    4.3680244    4.3680244    -22307.71   -11520.588   -25681.717   -29720.824    28957.003     4754.152   -17987.627    83.340319 
   67600    1788.7667   -112.52545    1.6185137   -110.90694    -8373.659    4.3612933    4.3612933    4.3612933    -8373.659   -17178.215    -37241.78    29299.018   -28094.508     12567.87    13326.635    82.955635 
   67700    1310.9714   -112.09734    1.1861945   -110.91115   -19469.098    4.3584316    4.3584316    4.3584316   -19469.098    -39061.25    -40677.92    21331.876   -56198.068   -26385.987    21034.627    82.792442 
   67800    2855.1136   -113.47002    2.5833668   -110.88665      11766.6    4.3559449    4.3559449    4.3559449      11766.6    17164.076    25711.715   -7575.9905     17278.24    -13482.63    3429.1134    82.650811 
   67900    1706.3786   -112.44437    1.5439672    -110.9004    18918.013     4.371381     4.371381     4.371381    18918.013    9418.4269   -35493.446    82829.056   -62645.113   -8019.2387   -15355.894    83.532598 
   68000     1398.055   -112.12473    1.2649895   -110.85974    3725.1484    4.3905788    4.3905788    4.3905788    3725.1484    5236.9752   -39781.172    45719.642   -4691.5129   -33358.549    12560.574    84.637987 
   68100    1809.0629   -112.45686    1.6368781   -110.81998    8967.2739    4.3771204    4.3771204    4.3771204    8967.2739    8625.2352    15586.505    2690.0816   -3035.0206    2290.3384    3914.4605    83.862052 
   68200    1318.3723   -112.01267     1.192891   -110.81977    24763.902    4.3603933    4.3603933    4.3603933    24763.902    19442.956    12844.395    42004.355   -56244.013    6741.6547   -13802.252    82.904289 
   68300    1814.6847   -112.47979    1.6419648   -110.83782   -3361.1198    4.3688093    4.3688093    4.3688093   -3361.1198   -12071.174    8639.9501   -6652.1356    26162.267   -28228.199    11365.008    83.385258 
   68400    1836.3668   -112.51347    1.6615833   -110.85189   -1987.6005    4.3647108    4.3647108    4.3647108   -1987.6005   -37694.219   -6624.8167    38356.234   -32846.097    6388.4957    14313.415    83.150799 
   68500    1659.4671   -112.36483    1.5015207   -110.86331    31732.762    4.3562373    4.3562373    4.3562373    31732.762    -7412.176    62457.584    40152.879   -30087.823   -11227.586   -5490.4088    82.667457 
   68600    1882.2809   -112.57794    1.7031273   -110.87481   -4817.9782    4.3742185    4.3742185    4.3742185   -4817.9782   -35482.872    56859.532   -35830.595    10186.471   -53931.565   -22389.004    83.695365 
   68700    2264.7866   -112.90389    2.0492265   -110.85467   -13465.263     4.374004     4.374004     4.374004   -13465.263   -39275.204   -5980.7817    4860.1959   -35890.411    13050.866    11834.245    83.683055 
   68800    1816.1267    -112.4941    1.6432696   -110.85084   -10427.761    4.3635655    4.3635655    4.3635655   -10427.761   -4831.7381    8580.4702   -35032.016   -13035.753   -22543.322   -3247.0413    83.085361 
   68900    1713.2552   -112.40668    1.5501893   -110.85649   -27781.542    4.3727674    4.3727674    4.3727674   -27781.542   -28274.731   -1245.5974   -53824.298    15913.201   -35634.979   -28426.026    83.612101 
   69000     2006.678   -112.65607    1.8156844   -110.84038    1683.8403    4.3815854    4.3815854    4.3815854    1683.8403    7419.5477   -28907.601    26539.575   -20916.055    11647.974    16563.248    84.118947 
   69100     1327.547   -112.03371    1.2011924   -110.83252    7306.3038    4.3870822    4.3870822    4.3870822    7306.3038    39285.579   -8787.6935   -8578.9743   -5001.7573   -44237.268   -14029.892    84.435936 
   69200    2250.5956   -112.84774    2.0363862   -110.81135   -5347.1207    4.3747038    4.3747038    4.3747038   -5347.1207    11109.287   -15942.471   -11208.178   -17204.359   -2379.9346   -1188.7826    83.723224 
   69300    1265.5914     -111.986    1.1451337   -110.84086    10921.861    4.3502555    4.3502555    4.3502555    10921.861    22735.216   -18325.269    28355.634   -50304.212    11968.257    4874.8153    82.327381 
   69400    2777.2407    -113.3593    2.5129057   -110.84639    19893.609    4.3599414    4.3599414    4.3599414    19893.609    58381.092    15041.593   -13741.857   -1590.9915   -12832.609   -5214.0047    82.878516 
   69500    1590.3841   -112.30941    1.4390129    -110.8704   -36228.407    4.3813759    4.3813759    4.3813759   -36228.407    -36794.45   -49366.356   -22524.415   -22972.409    9600.6119    -3742.851    84.106882 
   69600     1034.809   -111.81414   0.93631695   -110.87782   -18203.287    4.3634619    4.3634619    4.3634619   -18203.287   -11551.183   -46595.544    3536.8666   -24442.647    22334.666    15426.394    83.079441 
   69700    2182.8394   -112.83595     1.975079   -110.86087    8508.8009     4.351886     4.351886     4.351886    8508.8009    29720.143    32708.983   -36902.723    7402.3115   -48242.347    6579.8744    82.419984 
   69800    1522.5744   -112.25773    1.3776573   -110.88008   -13260.456    4.3535946    4.3535946    4.3535946   -13260.456   -4222.6757   -15852.645   -19706.048   -32075.128   -30288.414   -2628.8165    82.517099 
   69900    1823.3338   -112.52897    1.6497908   -110.87918    9294.8911    4.3524886    4.3524886    4.3524886    9294.8911    23009.361   -28589.922    33465.235   -34376.295     29021.59    3494.0487    82.454228 
   70000    1398.2204    -112.1589    1.2651392   -110.89376   -32459.255    4.3753268    4.3753268    4.3753268   -32459.255   -41826.071    18564.614   -74116.307    11458.571   -82179.707   -10619.467    83.759003 
   70100    2608.3671   -113.21734    2.3601053   -110.85724   -23859.766    4.3783066    4.3783066    4.3783066   -23859.766    3723.9503   -44027.984   -31275.264   -7516.4421   -3128.4582    1576.9313    83.930248 
   70200    2009.2223    -112.6772    1.8179865   -110.85921   -11780.754    4.3602361    4.3602361    4.3602361   -11780.754   -7947.8014   -13640.502    -13753.96   -25629.415   -33431.313    21002.324    82.895322 
   70300    1529.7764   -112.25625    1.3841738   -110.87207    -14085.94    4.3524816    4.3524816    4.3524816    -14085.94   -49788.177    51448.537   -43918.179    9761.5595   -64073.308    11345.284    82.453828 
   70400    2757.8276   -113.35384    2.4953404    -110.8585   -6059.6838    4.3644896    4.3644896    4.3644896   -6059.6838    8595.9995   -26275.275   -499.77601    4010.6955    47531.163    4528.5592    83.138156 
   70500    1136.9583   -111.89519    1.0287437   -110.86644   -26161.443    4.3804491    4.3804491    4.3804491   -26161.443   -55385.163    36252.732   -59351.899   -9249.0581   -81837.756    16990.022    84.053523 
   70600    1842.4418    -112.5093    1.6670801   -110.84222   -5686.8423    4.3752435    4.3752435    4.3752435   -5686.8423   -25681.603    17580.803   -8959.7271   -12342.518   -5821.9305    662.37607    83.754216 
   70700    2049.7119   -112.69037    1.8546224   -110.83575   -10857.178    4.3637217    4.3637217    4.3637217   -10857.178   -28783.881    3545.9053   -7333.5594    1773.8022   -15980.028   -6160.6459    83.094284 
   70800     1111.738   -111.86847    1.0059239   -110.86255   -4644.6037    4.3594373    4.3594373    4.3594373   -4644.6037   -56747.003    22395.472     20417.72   -2.5255804    -74541.22    21617.747    82.849772 
   70900    2667.3319   -113.26783     2.413458   -110.85437   -2031.2904    4.3587914    4.3587914    4.3587914   -2031.2904   -16360.362   -32973.371    43239.862   -30240.115    23351.624     -8925.56     82.81295 
   71000     1348.909   -112.09411    1.2205212   -110.87359    12208.136      4.36139      4.36139      4.36139    12208.136   -52899.223    32927.844    56595.787    13880.905   -63056.764   -15520.434    82.961149 
   71100    2000.9542   -112.67799    1.8105054   -110.86749   -11841.489    4.3691152    4.3691152    4.3691152   -11841.489   -50533.038   -9102.0264    24110.597   -2948.8997   -30469.823   -7665.9899    83.402771 
   71200    2060.2343   -112.72681    1.8641433   -110.86267    5727.1367      4.36308      4.36308      4.36308    5727.1367   -37250.819    6040.6728    48391.556   -30504.408    7753.9519    4971.5144    83.057631 
   71300    1004.0799   -111.78412   0.90851261   -110.87561    11884.163    4.3526652    4.3526652    4.3526652    11884.163   -41550.721    53062.322    24140.889     1124.618   -87722.763   -9171.5057    82.464265 
   71400    2375.2466   -113.01918     2.149173   -110.87001    5602.5636    4.3625901    4.3625901    4.3625901    5602.5636    34056.011   -24805.881    7557.5605    6953.9356     22827.36   -18007.772    83.029654 
   71500    1528.9903   -112.26814    1.3834626   -110.88467   -7044.5533    4.3629604    4.3629604    4.3629604   -7044.5533   -10720.343    13965.637   -24378.954   -12081.501   -46584.639   -408.42002    83.050797 
   71600    1388.1164   -112.13736    1.2559969   -110.88136    18242.357    4.3587427    4.3587427    4.3587427    18242.357    26617.083    22571.782    5538.2052   -11409.321   -54328.753   -4433.8879    82.810172 
   71700    2583.2126   -113.19684     2.337345    -110.8595   -10621.676    4.3681914    4.3681914    4.3681914   -10621.676    9028.7261   -26076.371   -14817.382    28411.053    27068.647    4276.0611     83.34988 
   71800    1053.4587   -111.82503   0.95319159   -110.87184   -8237.0557    4.3609127    4.3609127    4.3609127   -8237.0557   -6385.5001    36637.969   -54963.636   -5351.9272   -98179.323   -2295.2851    82.933918 
   71900    2328.8702   -112.95719    2.1072107   -110.84998    2261.6036    4.3607122    4.3607122    4.3607122    2261.6036    2337.8494    -5353.758    9800.7194    -19827.79     6677.202    4348.2484    82.922477 
   72000    1088.5773   -111.84539   0.98496766   -110.86042   -20846.936     4.374469     4.374469     4.374469   -20846.936   -21536.722    3183.3449   -44187.431    15425.073   -26161.739    -8728.307    83.709749 
   72100    1381.3773   -112.09811    1.2498992   -110.84821    5993.8676    4.3705609    4.3705609    4.3705609    5993.8676    -22336.88    25628.111    14690.372    9130.5493   -46254.731   -4461.5007    83.485589 
   72200    2383.8078    -112.9819    2.1569194   -110.82499   -19257.751    4.3729885    4.3729885    4.3729885   -19257.751   -11952.373   -25286.424   -20534.454   -11309.103    1419.6619    10454.184    83.624782 
   72300    702.56641   -111.49592   0.63569685   -110.86022   -21642.133    4.3658101    4.3658101    4.3658101   -21642.133   -36481.192    30531.375   -58976.582    6748.9077   -80650.159    7968.6043     83.21364 
   72400    2504.1667   -113.10036    2.2658227   -110.83454    18258.462    4.3600634    4.3600634    4.3600634    18258.462    28144.106    236.16501    26395.115   -11990.756    23478.393   -890.82957    82.885472 
   72500    1360.5855   -112.08843    1.2310864   -110.85734   -20213.666    4.3789475    4.3789475    4.3789475   -20213.666   -18644.319    6339.6292   -48336.309   -14793.684   -53756.832    6071.4273    83.967114 
   72600    1929.9631   -112.58922    1.7462712   -110.84295   -16438.982    4.3754381    4.3754381    4.3754381   -16438.982    19668.365   -13408.627   -55576.684    22687.088   -39404.879    14292.056    83.765396 
   72700    2621.0274   -113.20759    2.3715607   -110.83603   -558.71458    4.3619175    4.3619175    4.3619175   -558.71458    8733.6601   -49601.665    39191.861   -28553.777    27442.873   -6974.1151    82.991256 
   72800    1067.9218   -111.84599   0.96627805   -110.87971   -14308.113    4.3501207    4.3501207    4.3501207   -14308.113   -27295.797    18610.056   -34238.599   -13557.476   -65499.076    9272.4042     82.31973 
   72900    1977.9993   -112.67647    1.7897353   -110.88673     30401.44    4.3525931    4.3525931    4.3525931     30401.44    48461.806    4294.2042     38448.31     12893.29   -5317.6125     9206.457    82.460167 
   73000    2344.1741   -113.00191     2.121058   -110.88085   -27448.593    4.3814508    4.3814508    4.3814508   -27448.593   -41059.388   -28841.635   -12444.756   -22930.278    -8020.417   -10747.426      84.1112 
   73100    927.42114   -111.72137   0.83915013   -110.88222   -24494.513    4.3751461    4.3751461    4.3751461   -24494.513   -56624.878    27989.773   -44848.433   -14868.713   -82260.472    -815.7397    83.748625 
   73200    2462.0444   -113.07036    2.2277095   -110.84265    24430.164    4.3501655    4.3501655    4.3501655    24430.164    19289.248   -1903.3624    55904.608    14618.207    22838.083    16648.571    82.322273 
   73300     1817.687   -112.51136    1.6446814   -110.86668   -15852.833    4.3536211    4.3536211    4.3536211   -15852.833   -46919.571     14757.25   -15396.179    8141.4467   -66275.883    3097.3019    82.518606 
   73400    1634.0203   -112.35655    1.4784959   -110.87805   -7495.0483    4.3620015    4.3620015    4.3620015   -7495.0483   -20653.326    8760.1031   -10591.922   -12761.686   -64481.091   -157.90951    82.996053 
   73500      2258.89   -112.91222    2.0438912   -110.86833   -627.98443    4.3728298    4.3728298    4.3728298   -627.98443    23407.046   -37422.185    12131.185    8912.2093    30583.946     6298.251    83.615677 
   73600    944.73408     -111.733   0.85481525   -110.87818   -25570.015    4.3787715    4.3787715    4.3787715   -25570.015   -46086.671    10851.333   -41474.706    9995.2174   -86765.892   -2247.9816     83.95699 
   73700     2448.098   -113.06544    2.2150905   -110.85035    11754.396    4.3579886    4.3579886    4.3579886    11754.396    38205.113   -21287.862    18345.936   -7508.9848     -15026.9    5353.7834    82.767201 
   73800    1869.1303   -112.56064    1.6912284   -110.86941    12349.696    4.3461192    4.3461192    4.3461192    12349.696    51276.067   -19405.793    5178.8143    4405.2586   -9712.6949    2733.6466    82.092768 
   73900    885.51796   -111.70256   0.80123526   -110.90132   -3332.3253    4.3542578    4.3542578    4.3542578   -3332.3253   -18237.544    33252.868     -25012.3    12152.575   -80483.927   -7667.9531    82.554815 
   74000    2782.7277   -113.39211    2.5178705   -110.87424    6518.4324    4.3752784    4.3752784    4.3752784    6518.4324    19267.642   -20102.861    20390.516   -8351.4379     35579.95     -6245.36    83.756219 
   74100    1177.2305   -111.93999    1.0651829   -110.87481   -29027.185    4.3872953    4.3872953    4.3872953   -29027.185   -71952.724    47211.531   -62340.364    13989.124   -73706.657    5791.0648    84.448238 
   74200     2182.195    -112.7978    1.9744959    -110.8233   -7878.6199    4.3739971    4.3739971    4.3739971   -7878.6199   -26316.542    28833.614   -26152.932    27865.436   -6115.6406    1920.8758    83.682659 
   74300    1612.9712   -112.27295    1.4594503    -110.8135   -40590.753    4.3778741    4.3778741    4.3778741   -40590.753   -54075.647    17205.764   -84902.378   -8912.1208   -52531.433   -5377.1942    83.905379 
   74400    1052.0371   -111.78057    0.9519053   -110.82866   -35799.199    4.3740437    4.3740437    4.3740437   -35799.199   -34360.211    38813.952   -111851.34   -2024.0991   -71085.303    14568.609    83.685332 
   74500    2647.8944   -113.20563    2.3958705   -110.80976    30792.293    4.3522737    4.3522737    4.3522737    30792.293    89986.975    7332.9374   -4943.0342    13540.378    19384.691    12134.423    82.442017 
   74600    1021.1747   -111.79697    0.9239803   -110.87299   -3754.4111    4.3622578    4.3622578    4.3622578   -3754.4111    20816.187    31354.226   -63433.646   -6775.5423   -94931.833   -3258.2159    83.010681 
   74700    2371.3055    -113.0097     2.145607    -110.8641   -15063.459    4.3795284    4.3795284    4.3795284   -15063.459    20713.901    -51519.07   -14385.209   -20393.825    35962.388     10781.75    84.000532 
   74800    1895.6222    -112.5668    1.7151988    -110.8516   -5868.9768    4.3787713    4.3787713    4.3787713   -5868.9768   -37336.523    37577.808   -17848.216    6756.6902   -52994.958    4964.3865    83.956974 
   74900    1988.2918   -112.63165    1.7990482   -110.83261   -13816.755    4.3707234    4.3707234    4.3707234   -13816.755   -63339.726    51962.084   -30072.622    -15313.42   -51389.934    -18742.96    83.494902 
   75000    1797.9797   -112.45945    1.6268499    -110.8326    7185.9341    4.3623161    4.3623161    4.3623161    7185.9341   -28421.931   -5155.5903    55135.324   -32475.721    28652.064    1248.2659    83.014009 
   75100    1047.4972   -111.80959   0.94779748   -110.86179    -15749.35    4.3651595    4.3651595    4.3651595    -15749.35   -71794.161    61348.575   -36802.463    2730.4777   -78154.283    8271.4618    83.176445 
   75200    2318.0279   -112.94128    2.0974004   -110.84388   -6954.2288    4.3720761    4.3720761    4.3720761   -6954.2288   -14467.118   -3328.9928   -3066.5755   -6797.3152     13592.15    -7464.007     83.57245 
   75300     971.5131   -111.73742   0.87904547   -110.85838   -35491.474    4.3874516    4.3874516    4.3874516   -35491.474   -87589.223    7617.9181   -26503.117   -27515.227   -35680.507    2577.7614    84.457265 
   75400    1951.7013   -112.59173    1.7659404   -110.82579   -7451.2125    4.3864033    4.3864033    4.3864033   -7451.2125   -31569.572    35945.066   -26729.132    -10672.49   -25701.781   -10361.111    84.396741 
   75500    2275.8468    -112.8734     2.059234   -110.81417    -465.9428    4.3752307    4.3752307    4.3752307    -465.9428   -10611.503    -16625.66    25839.335    19079.274    18178.335    9391.1599    83.753483 
   75600    1317.8359   -112.03686    1.1924057   -110.84446   -25643.951    4.3672029    4.3672029    4.3672029   -25643.951   -50892.677    27787.718   -53826.893   -11332.277   -60055.116    8279.3519    83.293308 
   75700    2858.7845    -113.4188    2.5866883   -110.83211    11689.546    4.3610205    4.3610205    4.3610205    11689.546    21627.899   -18332.576    31773.315    11685.004    19987.665    11959.675    82.940067 
   75800    1300.3173   -112.04175    1.1765544    -110.8652   -41147.948     4.388503     4.388503     4.388503   -41147.948   -47464.143   -29182.394   -46797.308    17630.737   -36935.573   -6605.2647    84.517999 
   75900    1955.7262   -112.59781    1.7695822   -110.82822   -23946.125    4.3916817    4.3916817    4.3916817   -23946.125   -59814.324     30595.69   -42619.739   -16596.028   -31020.048   -9546.4314    84.701786 
   76000    1929.6628   -112.56158    1.7459995   -110.81558    18759.533    4.3659312    4.3659312    4.3659312    18759.533    14345.375     7193.286    34739.937     33829.72    15827.609    16487.876    83.220567 
   76100    931.61665   -111.68819   0.84294632   -110.84525   -2465.2188    4.3627987    4.3627987    4.3627987   -2465.2188   -51639.492    19608.047    24635.788    26478.213   -65430.245    -14677.64    83.041564 
   76200    2349.6036   -112.96574    2.1259707   -110.83977    17039.399    4.3710205    4.3710205    4.3710205    17039.399    9375.9977    24629.304    17112.896   -12265.666    8016.5003    5679.9881     83.51193 
   76300    1161.9668   -111.92613     1.051372   -110.87476    -5575.955    4.3891563    4.3891563    4.3891563    -5575.955   -35267.742    34631.118   -16091.241     19953.33   -19922.106    3647.1249    84.555748 
   76400    1591.0453   -112.28562    1.4396112     -110.846   -10979.575    4.3935441    4.3935441    4.3935441   -10979.575   -62191.803    3223.5902    26029.488    18207.817   -51734.386   -13143.473    84.809591 
   76500    2535.5219   -113.11908    2.2941935   -110.82488    27703.676    4.3581976    4.3581976    4.3581976    27703.676    12559.773    14594.635    55956.621   -18687.456    11551.865   -563.47537     82.77911 
   76600    1071.8833   -111.83396   0.96986253    -110.8641    13754.395    4.3536538    4.3536538    4.3536538    13754.395     -21763.4     58659.85    4366.7348    9858.4173   -66084.233    5517.5933    82.520467 
   76700    2281.1302   -112.91318    2.0640145   -110.84916   -7644.9006    4.3809823    4.3809823    4.3809823   -7644.9006    -10925.75   -9034.4473   -2974.5047     2316.871   -22971.479   -12512.657    84.084219 
   76800    1624.3328   -112.30849    1.4697305   -110.83876   -37194.928    4.3948656    4.3948656    4.3948656   -37194.928   -30421.398   -21718.956   -59444.431   -4712.8028    11032.155   -4094.5998    84.886141 
   76900    1830.8446   -112.47492    1.6565867   -110.81833   -37949.943    4.3907236    4.3907236    4.3907236   -37949.943   -52542.235    10614.044   -71921.638    23907.201   -27564.053    19293.652    84.646363 
   77000     1836.542   -112.47911    1.6617418   -110.81737    -25805.51    4.3722409    4.3722409    4.3722409    -25805.51    4230.6002   -42149.713   -39497.418    3389.4628    14095.239   -52136.863    83.581902 
   77100     1456.414   -112.15446     1.317794   -110.83666    6377.1157    4.3498271    4.3498271    4.3498271    6377.1157    2272.7314    30162.064   -13303.448    -12307.13    1613.4109    18499.381    82.303062 
   77200    2370.5502   -112.99892    2.1449237     -110.854    1873.9459    4.3668876    4.3668876    4.3668876    1873.9459    10657.761    9574.1828   -14610.106    -6460.753   -17151.236   -1189.0961    83.275268 
   77300    1594.3507   -112.30795     1.442602   -110.86535   -24092.064    4.3800799    4.3800799    4.3800799   -24092.064    223.59933   -43449.871   -29049.919    17975.791    6978.9766   -66328.347    84.032269 
   77400    2098.4302   -112.75111    1.8987038   -110.85241    2453.3338    4.3695577    4.3695577    4.3695577    2453.3338   -19761.625    29408.862   -2287.2363   -22426.426    15419.695    40043.679    83.428114 
   77500    2307.7813   -112.93359     2.088129   -110.84546   -12261.006    4.3733166    4.3733166    4.3733166   -12261.006    16321.667   -39269.003   -13835.683   -529.62192   -691.37739   -43894.016     83.64361 
   77600    1402.6033   -112.12588    1.2691049   -110.85678    -3085.794    4.3703794    4.3703794    4.3703794    -3085.794    2534.9026   -19069.934    7277.6495    8535.6862    9367.5764   -41255.601    83.475189 
   77700    2583.4862   -113.17749    2.3375926    -110.8399   -18087.218    4.3736482    4.3736482    4.3736482   -18087.218   -41514.618    5468.8886   -18215.924   -26403.783   -2761.6014    33406.394    83.662638 
   77800    998.27816   -111.75843   0.90326306   -110.85517   -4144.4431    4.3767535    4.3767535    4.3767535   -4144.4431    12086.135   -23433.288   -1086.1766    17315.151   -1649.4705   -83657.998    83.840965 
   77900      1721.15   -112.40203    1.5573327   -110.84469    9080.5858     4.368785     4.368785     4.368785    9080.5858    13417.582    14638.525   -814.35013    11809.957    3366.2038   -2577.4883    83.383863 
   78000    1865.3567   -112.53639    1.6878139   -110.84858   -17098.678    4.3763028    4.3763028    4.3763028   -17098.678   -27310.817     18531.25   -42516.466   -14076.473   -5278.5406   -9215.9721    83.815068 
   78100    708.36532   -111.51377   0.64094382   -110.87283   -28566.933    4.3748662    4.3748662    4.3748662   -28566.933   -14111.839    -34007.09   -37581.871    14619.765    871.44163   -82582.543    83.732554 
   78200     1788.027   -112.47861    1.6178444   -110.86077     29965.02    4.3563489    4.3563489    4.3563489     29965.02   -28578.394    48195.069    70278.387    8735.3503    10456.148    19335.251    82.673815 
   78300    2033.6048   -112.70778    1.8400483   -110.86774      15412.3    4.3571196    4.3571196    4.3571196      15412.3    116.57339    21870.684    24249.642   -8985.8171    3046.0672   -39385.443      82.7177 
   78400    1107.5929   -111.88942    1.0021733   -110.88725   -11703.882    4.3750237    4.3750237    4.3750237   -11703.882   -12674.422   -36840.786    14403.563     31758.81    254.29422   -48824.124    83.741595 
   78500    2228.6911   -112.87203    2.0165666   -110.85546    2645.9572    4.3716842    4.3716842    4.3716842    2645.9572   -33763.511    10650.823    31050.559    14547.478    6276.8082    21778.713    83.549979 
   78600    1763.1968   -112.44997    1.5953775   -110.85459    1056.6712    4.3655756    4.3655756    4.3655756    1056.6712    48190.357   -34289.479   -10730.865   -19332.944   -8635.2824   -57816.881    83.200231 
   78700    2245.4242   -112.88492     2.031707   -110.85321   -15995.824    4.3686467    4.3686467    4.3686467   -15995.824   -23071.165    -22624.86   -2291.4479    16321.927   -4051.0409   -7081.2897    83.375943 
   78800    2411.0467   -113.03301    2.1815658   -110.85144    5325.6737    4.3599736    4.3599736    4.3599736    5325.6737   -7897.7691    16786.435    7088.3557    22804.911    8487.8953   -6403.3849    82.880348 
   78900    1550.7136   -112.27636    1.4031182   -110.87324    4326.5724    4.3603681    4.3603681    4.3603681    4326.5724    84390.358    -26297.53   -45113.111   -4017.6956    5051.2437   -61080.937     82.90285 
   79000    2299.5294   -112.93833    2.0806625   -110.85767    9.5747064    4.3782939    4.3782939    4.3782939    9.5747064    164.61245    11508.491    -11644.38   -15165.213   -1835.3931    21393.074    83.929516 
   79100     1731.443    -112.4223    1.5666461   -110.85566   -11925.369    4.3808175    4.3808175    4.3808175   -11925.369    3555.0554    1929.7843   -41260.946    1910.8887    6689.3044   -52607.766    84.074732 
   79200    1409.0957   -112.12201    1.2749794   -110.84703    14224.202    4.3704423    4.3704423    4.3704423    14224.202    34341.188    17019.011   -8687.5914    -6563.791    7606.0475   -44496.259    83.478793 
   79300    2075.2808   -112.72364    1.8777577   -110.84588    10860.923     4.359984     4.359984     4.359984    10860.923    -24953.87    21691.613    35845.025   -30655.699   -45.069968    9132.1922    82.880943 
   79400     1032.691   -111.80349   0.93440049   -110.86909     16384.95    4.3550346    4.3550346    4.3550346     16384.95    18443.935    29562.461    1148.4553    11999.709    9153.3042   -70667.933    82.599008 
   79500    1873.7111   -112.56325    1.6953732   -110.86788    2620.8541    4.3674895    4.3674895    4.3674895    2620.8541   -15909.507    1538.6353    22233.434     -20988.8    2066.8605   -4896.5892    83.309706 
   79600    1714.8452   -112.41499    1.5516279   -110.86336    5245.2101    4.3774736    4.3774736    4.3774736    5245.2101   -2188.4311     8719.873    9204.1886   -19554.204   -5179.6103   -17274.166    83.882352 
   79700    1599.3511   -112.30401    1.4471265   -110.85688    6198.3328    4.3771205    4.3771205    4.3771205    6198.3328    36577.927    5611.6038   -23594.532    9554.6379     9349.905   -55855.979    83.862059 
   79800    2218.4479   -112.84697    2.0072983   -110.83968    1233.1984    4.3675268    4.3675268    4.3675268    1233.1984    18889.686   -26520.118    11330.027   -19194.081    13658.823    17682.457    83.311841 
   79900    1798.4458   -112.48397    1.6272716    -110.8567    5402.1968    4.3621093    4.3621093    4.3621093    5402.1968    51317.867   -25672.821   -9438.4561   -12680.048   -1839.6599   -15401.847    83.002204 
   80000    2520.8123   -113.13454    2.2808839   -110.85366    24041.701    4.3640713    4.3640713    4.3640713    24041.701    67706.612   -4024.0557     8442.548   -400.76227   -3245.3015   -18272.548    83.114252 
   80100     1572.067   -112.29664    1.4224393    -110.8742     20802.69    4.3640919    4.3640919    4.3640919     20802.69    33517.821   -29814.564    58704.814   -12756.085    348.85468    25198.545    83.115434 
   80200     2068.671   -112.73839     1.871777   -110.86661    6793.6104     4.373872     4.373872     4.373872    6793.6104    26424.094   -28951.212    22907.949   -9100.3532    3384.0092    15516.521    83.675476 
   80300    2126.9727   -112.77659    1.9245296   -110.85206    31222.113    4.3707416    4.3707416    4.3707416    31222.113    51246.287    -214.8435    42634.896    3833.3859   -16051.111    -10161.16    83.495947 
   80400    1133.2992   -111.89147    1.0254329   -110.86604    31040.923    4.3661459    4.3661459    4.3661459    31040.923    27723.852   -8792.7619    74191.678   -15166.885    14982.274    27176.941    83.232846 
   80500    2028.3156   -112.67866    1.8352626    -110.8434   -8256.2365    4.3756134    4.3756134    4.3756134   -8256.2365   -19301.117    12179.187    -17646.78   -8814.5365   -12748.197    9345.2983    83.775462 
   80600    1058.7574   -111.81199   0.95798595     -110.854   -4494.9659    4.3703541    4.3703541    4.3703541   -4494.9659   -13107.222   -8196.9592    7819.2838   -12999.101   -19997.078   -31121.087     83.47374 
   80700    2085.5752   -112.73097    1.8870723    -110.8439    3902.5871    4.3694896    4.3694896    4.3694896    3902.5871   -37542.503   -19742.334    68992.598    3102.6633    12267.435    10428.102    83.424217 
   80800    1878.4866   -112.55266    1.6996941   -110.85297   -16897.411    4.3712035    4.3712035    4.3712035   -16897.411   -43364.196    18512.142   -25840.179    11960.037   -52267.172    4762.8456    83.522422 
   80900    1719.4002   -112.42019    1.5557495   -110.86444   -2236.7991    4.3598944    4.3598944    4.3598944   -2236.7991    7261.1888   -1297.6544   -12673.932   -6477.2563    10255.439   -26332.964    82.875832 
   81000    2268.3244   -112.91429    2.0524276   -110.86186    -31570.58    4.3765385    4.3765385    4.3765385    -31570.58   -35809.017   -45162.042    -13740.68   -15237.698   -7835.1021    10248.192     83.82861 
   81100    1411.1056   -112.13774     1.276798   -110.86094   -39285.645     4.378993     4.378993     4.378993   -39285.645   -71778.401    12264.562   -58343.096    2757.6622   -97494.126    17523.461    83.969731 
   81200    2237.2625   -112.86349    2.0243221   -110.83917    9362.7029    4.3642312    4.3642312    4.3642312    9362.7029    6648.0436    7246.0225    14194.043   -11473.085     26339.52   -22132.203    83.123393 
   81300    1235.2498   -111.97946    1.1176799   -110.86178   -38097.245    4.3718129    4.3718129    4.3718129   -38097.245   -95236.079    10275.143   -29330.797   -26091.052   -47275.431    5283.5427    83.557356 
   81400    1217.8377   -111.97268    1.1019252   -110.87075   -19076.179    4.3605991    4.3605991    4.3605991   -19076.179   -54640.149    43755.186   -46343.574   -2621.4901   -54449.447    16882.868    82.916029 
   81500    2400.5274    -113.0295    2.1720477   -110.85746    1165.7826    4.3678767    4.3678767    4.3678767    1165.7826    26111.638   -20812.405   -1801.8859    6154.7401    10407.313   -12119.312    83.331869 
   81600    1422.4819   -112.16109    1.2870915     -110.874     -42290.3    4.3791872    4.3791872    4.3791872     -42290.3   -86842.672   -2019.6997   -38008.528   -32356.699   -69255.592   -10524.188    83.980899 
   81700    2152.8285    -112.8076    1.9479244   -110.85967    12526.469    4.3616207    4.3616207    4.3616207    12526.469    14970.888   -4645.3398     27253.86   -11280.767    3197.4838    16677.347    82.974319 
   81800    2386.6746   -113.01883    2.1595133   -110.85932   -23715.385    4.3723954    4.3723954    4.3723954   -23715.385   -27058.247   -4025.3051   -40062.603    17754.036   -49046.864    13464.959    83.590764 
   81900    1617.2228    -112.3288    1.4632972    -110.8655   -20213.309    4.3690598    4.3690598    4.3690598   -20213.309   -66819.548    19282.853   -13103.231   -29418.396   -67871.532   -18399.295    83.399603 
   82000    2010.6617   -112.66793     1.819289   -110.84864    18451.764    4.3571442    4.3571442    4.3571442    18451.764    1119.0216   -1221.6017    55457.872   -19423.924    29188.032    14956.925    82.719102 
   82100    1539.7372   -112.26239    1.3931866    -110.8692   -35056.064    4.3837446    4.3837446    4.3837446   -35056.064   -53266.734    10987.875   -62889.334    10983.913   -52130.281    15421.595    84.243372 
   82200    1770.3095   -112.44241    1.6018132    -110.8406   -7620.8947    4.3846662    4.3846662    4.3846662   -7620.8947   -51367.198    20745.172    7759.3417   -13153.042   -19429.752   -3227.9098    84.296511 
   82300    1559.1914   -112.24172    1.4107891   -110.83093    30629.867    4.3681654    4.3681654    4.3681654    30629.867    17499.263    47422.374    26967.966   -15561.052    11613.186    33773.516    83.348392 
   82400    2374.0191   -112.97845    2.1480624   -110.83038    981.52771    4.3834607    4.3834607    4.3834607    981.52771   -26113.266    44347.221   -15289.372    13727.364   -38275.435    7606.5273    84.227003 
   82500    1342.0264   -112.06114    1.2142937   -110.84684   -10184.945    4.3872934    4.3872934    4.3872934   -10184.945   -49157.116   -3968.5164    22570.798   -10317.525     17891.92    6976.4014     84.44813 
   82600    1405.7334   -112.12734    1.2719371   -110.85541    6695.0669    4.3752731    4.3752731    4.3752731    6695.0669   -9477.1047    22425.514    7136.7918   -18654.001    17333.702    8953.3633     83.75592 
   82700    2587.6793   -113.17841    2.3413866   -110.83702    15666.375    4.3679621    4.3679621    4.3679621    15666.375    2486.8233    40926.325    3585.9757    19335.732   -18553.355   -12772.835    83.336753 
   82800    990.79329   -111.77028   0.89649059   -110.87379   -10188.991    4.3702269    4.3702269    4.3702269   -10188.991    -34483.81   -30339.382    34256.218   -5751.2781    17348.948    14927.634    83.466453 
   82900     2210.875   -112.85355    2.0004462    -110.8531   -16157.833    4.3781937    4.3781937    4.3781937   -16157.833   -27640.987    10219.243   -31051.754   -12435.259      6958.22    4992.6009    83.923755 
   83000    1241.6164   -111.98037    1.1234406   -110.85693   -22780.015    4.3874322    4.3874322    4.3874322   -22780.015   -25325.859   -2071.0924   -40943.092    16240.118   -30892.254   -25160.569    84.456147 
   83100    1722.8754    -112.3989    1.5588939   -110.84001    336.64036    4.3720609    4.3720609    4.3720609    336.64036   -2390.2971   -45457.314    48857.533    10236.301    21241.354    20955.829     83.57158 
   83200    2129.5248   -112.75958    1.9268388   -110.83274    17243.751    4.3572052    4.3572052    4.3572052    17243.751    10227.719    23875.714    17627.821   -4338.3371   -33036.775     -13600.4    82.722576 
   83300    1199.3063   -111.95668    1.0851576   -110.87152   -7591.6284    4.3668483    4.3668483    4.3668483   -7591.6284    3277.9926   -15142.016   -10910.862    8918.0263   -40063.356   -29930.434    83.273019 
   83400    2462.8223   -113.08698    2.2284133   -110.85856   -14413.845    4.3824244    4.3824244    4.3824244   -14413.845   -8333.6837   -61928.557    27020.704    499.96796    29165.004    6411.7581    84.167284 
   83500    1641.0604   -112.33642     1.484866   -110.85156    -18417.08    4.3847248    4.3847248    4.3847248    -18417.08    6874.5667   -14430.912   -47694.895   -9622.9515   -27977.954   -34416.243    84.299891 
   83600     1373.809   -112.08038    1.2430513   -110.83733   -1145.1653    4.3782146    4.3782146    4.3782146   -1145.1653    72392.936   -32833.868   -42994.563    5355.5412   -12056.861   -44041.751    83.924961 
   83700    2289.7623   -112.88912     2.071825    -110.8173    -4441.179    4.3828496    4.3828496    4.3828496    -4441.179    1304.1395    6381.9494   -21009.626    4948.5928   -20312.196    17274.861     84.19178 
   83800    927.88004   -111.67901   0.83956536   -110.83944   -16242.393    4.3790866    4.3790866    4.3790866   -16242.393   -2101.7715    41201.398   -87826.807   -7411.3203   -66800.445    -36494.18    83.975113 
   83900    2212.7132    -112.8334    2.0021094   -110.83129    5397.3887    4.3663054    4.3663054    4.3663054    5397.3887      37239.3   -5930.4821   -15116.652    10847.082    16039.387   -30322.382    83.241968 
   84000    2511.3007   -113.10881    2.2722777   -110.83654   -24387.669    4.3826515    4.3826515    4.3826515   -24387.669   -28895.355    -797.9999   -43469.653    16017.506    -22550.78    14853.507    84.180366 
   84100    1733.9974   -112.39856    1.5689573   -110.82961   -39150.214    4.3907319    4.3907319    4.3907319   -39150.214   -42200.545   -36220.471   -39029.625   -14453.826   -38939.459   -60716.552    84.646841 
   84200    2105.5243   -112.71855    1.9051226   -110.81343    25660.331     4.378828     4.378828     4.378828    25660.331    28174.381     6250.347    42556.266    8911.4101     2741.962     -11640.2    83.960238 
   84300    1427.6337   -112.12467    1.2917529   -110.83292   -3520.9012    4.3920798    4.3920798    4.3920798   -3520.9012   -3234.4296   -4587.0653   -2741.2086    8357.7175    -37274.95     6821.538    84.724823 
   84400    1574.8842   -112.24861    1.4249883   -110.82362   -30796.733    4.3881052    4.3881052    4.3881052   -30796.733     19483.15   -61891.319   -49982.029     2371.915   -9489.2528   -49113.772    84.495017 
   84500    2018.7265   -112.64696    1.8265862   -110.82038    16144.461    4.3508243    4.3508243    4.3508243    16144.461    26009.054    13092.288    9332.0406    31306.088    8033.8742    18678.792    82.359679 
   84600    1479.5099   -112.20215    1.3386916   -110.86346    7443.9356    4.3535396    4.3535396    4.3535396    7443.9356      14046.5    13342.796    -5057.489    7472.9391   -38466.213    5660.3927    82.513972 
   84700    2494.1117    -113.1194    2.2567246   -110.86267    -19712.46    4.3818744    4.3818744    4.3818744    -19712.46    706.79699   -18170.022   -41674.155   -2194.1946    5.3894813   -27946.169    84.135595 
   84800    1834.0306   -112.51918    1.6594694   -110.85971    9941.4346    4.3844065    4.3844065    4.3844065    9941.4346    7401.1468    53066.921   -30643.764    15722.521     21201.59    1274.2771    84.281533 
   84900    1759.9171   -112.43339      1.59241   -110.84098    9219.3144    4.3915886    4.3915886    4.3915886    9219.3144     18480.88    12800.186   -3623.1228    4205.4601   -21937.301    3308.7908    84.696401 
   85000    2121.2259   -112.73405    1.9193298   -110.81472    16849.617    4.3882034    4.3882034    4.3882034    16849.617    -12283.84    48291.815    14540.876    4550.5237    7284.8741   -14713.301    84.500687 
   85100    802.52484   -111.55547   0.72614134   -110.82932    3313.7025    4.3727669    4.3727669    4.3727669    3313.7025   -42785.713    47264.177     5462.644    292.79729    1339.7722    5396.3232    83.612069 
   85200    2257.7618   -112.85414    2.0428703   -110.81127    38957.224    4.3711804    4.3711804    4.3711804    38957.224    63895.989    37167.127    15808.554   -4113.4337   -17041.103   -15118.934    83.521096 
   85300    632.62876   -111.43175   0.57241579   -110.85933    14473.575    4.3836752    4.3836752    4.3836752    14473.575   -5172.3348    59855.016   -11261.957    4889.4235   -18628.481   -6612.5407    84.239369 
   85400    1850.6887   -112.50806     1.674542   -110.83352   -8316.8708      4.39748      4.39748      4.39748   -8316.8708    17957.899   -13802.145   -29106.366    8226.1272    11618.886    3084.4353    85.037721 
   85500    2007.5392   -112.63355    1.8164637   -110.81709   -21376.061    4.3954738    4.3954738    4.3954738   -21376.061   -23302.129   -28475.067   -12350.988   -12973.582   -840.02709   -20137.178    84.921386 
   85600    1090.8121   -111.82616   0.98698972   -110.83917   -28067.423    4.3752214    4.3752214    4.3752214   -28067.423   -76466.797   -13913.601    6178.1302    25533.772   -11569.291    6569.0037    83.752948 
   85700    2890.3839   -113.42612    2.6152801   -110.81084    34846.092    4.3482995    4.3482995    4.3482995    34846.092    22089.396    50968.104    31480.777   -8594.3092    7277.4252    13321.448     82.21638 
   85800    1485.8611   -112.21334    1.3444384   -110.86891   -25551.477    4.3647287    4.3647287    4.3647287   -25551.477   -50660.187   -15596.478   -10397.765   -8051.3489   -21103.602    10932.533     83.15182 
   85900    1640.0808   -112.35492    1.4839795   -110.87094   -10467.918    4.3772652    4.3772652    4.3772652   -10467.918   -62834.245    20333.391    11097.099    25649.781   -14619.199   -2660.8944    83.870373 
   86000    2255.1425    -112.8946    2.0405003    -110.8541    14690.295    4.3666839    4.3666839    4.3666839    14690.295    51108.918    1618.4529   -8656.4847   -8219.1142    13092.396   -12505.308    83.263613 
   86100    1086.9012   -111.85669   0.98345103   -110.87324    4745.6899    4.3695879    4.3695879    4.3695879    4745.6899   -5490.5671     2504.417     17223.22   -399.74673   -10990.648    21923.246    83.429848 
   86200    1806.1618    -112.4919    1.6342532   -110.85764    4400.7215    4.3731004    4.3731004    4.3731004    4400.7215   -3330.4082    21749.366   -5216.7932   -9450.3374    3171.7713   -13168.777    83.631205 
   86300    1609.7534   -112.31826    1.4565387   -110.86172    3986.9271     4.368292     4.368292     4.368292    3986.9271    66737.484    13642.623   -68419.326    8800.2249    13658.289    -38741.64    83.355639 
   86400    1913.2032   -112.59178    1.7311065   -110.86067   -3292.5479    4.3670253    4.3670253    4.3670253   -3292.5479   -26487.512    40730.346   -24120.477   -4470.8762   -3434.9118    21644.407    83.283146 
   86500    1857.8935   -112.54494    1.6810611   -110.86388    9504.3001    4.3674761    4.3674761    4.3674761    9504.3001    23824.853    11519.481   -6831.4336    9058.3653   -4628.0133   -25643.428     83.30894 
   86600    2233.6693   -112.87713    2.0210709   -110.85605    -11204.66    4.3746576    4.3746576    4.3746576    -11204.66    14934.085    12720.157   -61268.222   -6634.4898    27264.844   -26176.504    83.720576 
   86700    1550.7241   -112.26884    1.4031278   -110.86571   -8828.1083    4.3738738    4.3738738    4.3738738   -8828.1083    -27461.37    21598.665    -20621.62   -7107.2992   -6827.1102    22450.594    83.675581 
   86800    2247.3274   -112.87997     2.033429   -110.84654    15011.653    4.3663463    4.3663463    4.3663463    15011.653    19795.262    36586.114   -11346.416    8786.2258    5135.3532    -1589.804    83.244306 
   86900    1756.9188   -112.44944    1.5896971   -110.85974    -30955.11    4.3730607    4.3730607    4.3730607    -30955.11   -48467.752     28175.98   -72573.557    -6591.088    46774.425   -8799.2446    83.628926 
   87000    1540.3324   -112.24875    1.3937251   -110.85502   -8491.2205     4.374562     4.374562     4.374562   -8491.2205    12321.421    -32883.51   -4911.5721   -6788.6419   -35703.048    27560.888    83.715088 
   87100    2106.8756    -112.7483    1.9063453   -110.84195   -10086.184    4.3715936    4.3715936    4.3715936   -10086.184   -6866.9521   -734.48163   -22657.117   -3215.0798    42963.339    2460.7414    83.544786 
   87200     1659.966   -112.35791    1.5019721   -110.85594   -20227.504    4.3746511    4.3746511    4.3746511   -20227.504   -13423.419    14605.887   -61864.979   -6763.3424    19678.509    -16997.71    83.720202 
   87300    1700.4052   -112.39665    1.5385624   -110.85809   -1743.7903    4.3735522    4.3735522    4.3735522   -1743.7903    10056.391   -14293.943   -993.81818    5129.7368   -51136.303    15897.506    83.657125 
   87400    1990.0482   -112.65909    1.8006374   -110.85845    5478.9037    4.3696324    4.3696324    4.3696324    5478.9037   -13274.587    51141.646   -21430.347   -12270.991     51470.61   -9756.4158    83.432395 
   87500    1637.2785   -112.34679     1.481444   -110.86534   -5754.4268    4.3753588    4.3753588    4.3753588   -5754.4268   -37524.417     42940.89   -22679.754    2229.2497   -28501.382   -7538.4728     83.76084 
   87600    2081.8375   -112.74397    1.8836904   -110.86028   -7926.1477    4.3755938    4.3755938    4.3755938   -7926.1477    33984.413   -14383.532   -43379.324    4333.7937   -43166.811    12716.273    83.774335 
   87700    2235.7274   -112.88833    2.0229331    -110.8654    11121.324    4.3595335    4.3595335    4.3595335    11121.324    37792.771   -14721.582    10292.783   -201.28878    45059.591   -15688.909    82.855254 
   87800    1092.1574   -111.87819   0.98820701   -110.88999     22893.62    4.3564467    4.3564467    4.3564467     22893.62     58824.37    62035.587   -52179.096    2958.0745   -40975.118   -5606.6628    82.679383 
   87900    2230.4018   -112.89798    2.0181144   -110.87986    2993.4972    4.3753075    4.3753075    4.3753075    2993.4972    33319.945    13951.549   -38291.003   -3685.6588   -28336.423    141.41101    83.757891 
   88000    1749.2106    -112.4574    1.5827225   -110.87468   -10332.064    4.3869489    4.3869489    4.3869489   -10332.064    32292.416   -36983.885   -26304.722    2821.5998    14357.283   -11853.443     84.42824 
   88100    1548.7521   -112.26959    1.4013435   -110.86825   -14916.415    4.3714238    4.3714238    4.3714238   -14916.415   -2586.6017    27489.577   -69652.219    1059.5227   -42355.731   -4933.5145    83.535052 
   88200     2244.565   -112.87208    2.0309296   -110.84115    41051.287    4.3522831    4.3522831    4.3522831    41051.287    71819.813    -2815.505    54149.554    -13367.45    4065.3389    27428.792    82.442549 
   88300    2063.4787   -112.73203    1.8670789   -110.86495   -19737.314    4.3716264    4.3716264    4.3716264   -19737.314     3712.941   -43832.122   -19092.761   -12283.046   -7510.5422     234.2748    83.546665 
   88400    1577.3998    -112.2889    1.4272644   -110.86163   -5592.6359    4.3814343    4.3814343    4.3814343   -5592.6359   -1190.8191    16475.062   -32062.151   -3509.9484   -22271.837   -7560.8838    84.110247 
   88500    1935.9616   -112.60077    1.7516987   -110.84907    1955.0268    4.3775545    4.3775545    4.3775545    1955.0268    69051.654   -34557.187   -28629.387     5022.042    12608.914    48749.273    83.887003 
   88600    2260.6312   -112.88537    2.0454666    -110.8399   -22387.753    4.3750872    4.3750872    4.3750872   -22387.753    -12984.38    3600.5314    -57779.41   -5159.9242   -35237.404   -9728.4414    83.745241 
   88700    1251.1639   -111.98395    1.1320794   -110.85187   -3633.3902    4.3624034    4.3624034    4.3624034   -3633.3902    37934.083    32505.908   -81340.161   -1608.3539    -37159.91    11853.733    83.018994 
   88800    1323.5607    -112.0757    1.1975855   -110.87812    5700.8134    4.3660012    4.3660012    4.3660012    5700.8134    70493.899   -2288.9325   -51102.527   -3332.0395    37129.942    56564.007    83.224571 
   88900    2330.1194   -112.97381     2.108341   -110.86547    1431.2953    4.3794315    4.3794315    4.3794315    1431.2953    21609.072     12828.27   -30143.456   -1579.4829   -13424.202   -25857.015    83.994957 
   89000    1830.3946   -112.53809    1.6561795   -110.88191   -26893.301    4.3746119    4.3746119    4.3746119   -26893.301    19196.751   -31810.819   -68065.836    4620.4875   -19898.398    55655.803    83.717952 
   89100    1228.1449    -111.9978    1.1112513   -110.88655    -18290.67    4.3697713    4.3697713    4.3697713    -18290.67   -3710.0892    6479.8925   -57641.812    -10758.02    40744.546    24336.986    83.440351 
   89200    2282.0975   -112.93352    2.0648898   -110.86863   -4066.0279    4.3657229    4.3657229    4.3657229   -4066.0279    8582.4899   -2164.6684   -18615.905   -397.10527    8235.1039   -39678.617    83.208654 
   89300    2062.0484   -112.73852    1.8657848   -110.87274    581.93967    4.3645256    4.3645256    4.3645256    581.93967    58751.177   -32957.066   -24048.292   -6095.3169   -7434.9301    75438.605    83.140215 
   89400    1755.1176   -112.46323    1.5880673   -110.87516   -26949.588    4.3765718    4.3765718    4.3765718   -26949.588   -14545.088   -4400.3072   -61903.369   -4409.4138    33334.649    -4130.165    83.830523 
   89500      1422.27   -112.15968    1.2868998   -110.87278   -30082.383    4.3781876    4.3781876    4.3781876   -30082.383   -7990.2226   -7225.2541   -75031.671    8082.0929    80.378561   -46836.163    83.923404 
   89600    2146.8131   -112.79784    1.9424816   -110.85536    12981.063    4.3644589    4.3644589    4.3644589    12981.063    20001.505   -7034.8749    25976.557   -9719.4819   -18358.399    28080.738    83.136401 
   89700    1580.3057   -112.30525    1.4298938   -110.87536   -7231.3688     4.362287     4.362287     4.362287   -7231.3688   -15777.209    38485.647   -44402.544    1013.2324    61156.356   -15055.001    83.012347 
   89800    1235.9668   -112.00432    1.1183287   -110.88599    1195.2471    4.3713991    4.3713991    4.3713991    1195.2471    -6332.307    28271.407   -18353.358    106.90159   -20900.905   -36854.612    83.533634 
   89900    2285.7594    -112.9289    2.0682031   -110.86069    -7348.526    4.3870143    4.3870143    4.3870143    -7348.526   -21061.959    6390.7964    -7374.415   -18217.362   -9035.4141    8322.3911    84.432013 
   90000    1948.5812   -112.61884    1.7631172   -110.85573   -26596.948    4.3844655    4.3844655    4.3844655   -26596.948   -37560.819    12917.958   -55147.983    5697.1849    52670.849   -22371.558    84.284935 
   90100    1408.4931   -112.13917    1.2744342   -110.86474    1628.0562    4.3536975    4.3536975    4.3536975    1628.0562   -15344.727    32149.864   -11920.969   -131.91382   -54092.489   -42198.814    82.522952 
   90200    2473.7376   -113.10151    2.2382898   -110.86322    22716.794    4.3445125    4.3445125    4.3445125    22716.794    3308.4016     50923.11    13918.871   -13225.955   -8776.2334    27998.464    82.001758 
   90300    2223.3693   -112.89268    2.0117512   -110.88093    6978.5487    4.3694008    4.3694008    4.3694008    6978.5487      16139.9   -2534.9371    7330.6829    2482.7756    17437.524   -6061.5804    83.419129 
   90400    1323.8339   -112.07723    1.1978328    -110.8794   -1291.0196    4.3841688    4.3841688    4.3841688   -1291.0196    15467.282    24509.664   -43850.005   -11820.441   -46832.355   -37025.992    84.267825 
   90500    1958.9332   -112.61977    1.7724839   -110.84729    1299.5695    4.3854819    4.3854819    4.3854819    1299.5695    5626.7668    36643.453   -38371.511    16060.962    10310.541    41927.553    84.343567 
   90600    1599.6407   -112.28692    1.4473885   -110.83953     12775.82    4.3793935    4.3793935    4.3793935     12775.82   -22659.021     51888.95    9097.5302    18160.587    -15179.92   -16340.153    83.992773 
   90700     1514.094   -112.20856    1.3699841   -110.83858    9410.2996    4.3771248    4.3771248    4.3771248    9410.2996   -12161.241     38273.58    2118.5594   -966.73434    -25918.25    -29724.76    83.862302 
   90800    2112.9687   -112.74899    1.9118585   -110.83713    4480.8147    4.3744381    4.3744381    4.3744381    4480.8147   -12671.004   -2048.3557    28161.804    14565.269    25597.452    42293.053    83.707973 
   90900    1448.6033   -112.17477    1.3107267   -110.86404   -974.37846    4.3680365    4.3680365    4.3680365   -974.37846   -52800.775    56394.124   -6516.4843   -255.79029   -55011.798   -9188.5168    83.341011 
   91000    1383.4769   -112.12998     1.251799   -110.87818   -1499.5259    4.3645111    4.3645111    4.3645111   -1499.5259    -35925.76    42499.816   -11072.634   -17515.302   -23043.102    -38836.95    83.139384 
   91100    2367.2322    -113.0128    2.1419215   -110.87088    11465.631    4.3676201    4.3676201    4.3676201    11465.631   -972.10768    32958.007    2410.9939    1727.3925    30211.354    6465.5642    83.317182 
   91200    1783.3508   -112.49108    1.6136132   -110.87746   -20812.779    4.3856078    4.3856078    4.3856078   -20812.779    -39077.16    38534.748   -61895.925    2108.3554   -63522.815   -4132.3459     84.35083 
   91300    1507.6795   -112.21288    1.3641801    -110.8487   -22642.245    4.3883282    4.3883282    4.3883282   -22642.245   -26105.782    18689.608   -60510.561    4974.1788    35024.488    -25741.43      84.5079 
   91400    2213.0328   -112.81254    2.0023986   -110.81014   -988.16398    4.3770726    4.3770726    4.3770726   -988.16398    9736.1237    8029.4297   -20730.045    5901.4463   -4322.4778    2032.9196    83.859302 
   91500    1575.3447   -112.24259     1.425405   -110.81719    -1271.838    4.3801411    4.3801411    4.3801411    -1271.838   -16486.289    20798.183   -8127.4083   -13636.749   -28977.035   -548.32948    84.035795 
   91600    1375.6343   -112.06913    1.2447029   -110.82442    11972.044    4.3874285    4.3874285    4.3874285    11972.044    18431.939    32086.638   -14602.445   -15195.055    50586.765   -7785.1158     84.45593 
   91700    2015.3245   -112.63521     1.823508    -110.8117    2090.9458    4.3934548    4.3934548    4.3934548    2090.9458   -17917.018    14690.526    9499.3287   -4349.9497   -25177.084    1125.6179    84.804419 
   91800    1978.0057   -112.61248    1.7897411   -110.82274   -5649.1667    4.3786641    4.3786641    4.3786641   -5649.1667   -17214.161   -13034.259     13300.92   -7072.8286     11638.09    9684.1768    83.950808 
   91900    1224.1044   -111.95655    1.1075954   -110.84896     12712.65    4.3548632    4.3548632    4.3548632     12712.65    57418.187   -2141.7399   -17138.498    5660.7463    18462.208   -27145.551    82.589257 
   92000    2453.3544     -113.085    2.2198466   -110.86516    11477.479    4.3580685    4.3580685    4.3580685    11477.479    44388.725    -14632.53    4676.2429    4365.9417   -9010.6726   -47.533781    82.771753 
   92100    2319.7781   -112.98131     2.098984   -110.88233   -6161.2427    4.3690083    4.3690083    4.3690083   -6161.2427   -1396.2208    -20745.15    3657.6428   -14782.574    14966.601   -1491.0465    83.396652 
   92200    1352.7327   -112.11641     1.223981   -110.89243   -13162.968    4.3707673    4.3707673    4.3707673   -13162.968    59035.418   -65759.432   -32764.889   -14111.235    19761.194   -37457.633    83.497417 
   92300    2265.0173   -112.91721    2.0494353   -110.86778   -9121.7526    4.3746503    4.3746503    4.3746503   -9121.7526    6777.1729   -21736.712   -12405.719    4670.8639   -27395.656    15221.198    83.720157 
   92400    1647.6999   -112.36285    1.4908735   -110.87197   -25085.286    4.3672633    4.3672633    4.3672633   -25085.286    1319.0998   -14225.418   -62349.538    4295.3428   -18403.457   -27188.462    83.296761 
   92500    1221.6973   -111.98625    1.1054174   -110.88084    12196.764    4.3488547    4.3488547    4.3488547    12196.764    113936.18   -11945.534   -65400.355    1820.1951    31729.121   -81036.234    82.247879 
   92600    2874.8795   -113.47312    2.6012514   -110.87186    18396.845    4.3600185    4.3600185    4.3600185    18396.845    33536.797    23023.468   -1369.7312    7188.0883   -15868.741    24772.875    82.882909 
   92700    1408.1991   -112.16482    1.2741682   -110.89065   -32263.331    4.3963565    4.3963565    4.3963565   -32263.331    28592.345   -43558.732   -81823.608    6211.4436   -15187.189   -64777.004    84.972563 
   92800    1999.6697   -112.63505    1.8093432   -110.82571   -13131.575    4.3986381    4.3986381    4.3986381   -13131.575    21811.318    -1178.372   -60027.671   -18174.044    16364.329   -7852.4777    85.104926 
   92900    1460.2404   -112.12991    1.3212562   -110.80866    14264.234     4.371581     4.371581     4.371581    14264.234    50672.986    -45671.83    37791.546   -6265.2662    2063.3346    5412.3756    83.544061 
   93000    1682.5221   -112.34027    1.5223813   -110.81789    845.88062    4.3596178    4.3596178    4.3596178    845.88062    75440.412   -47393.218   -25509.551    7890.6864   -8795.7823   -50312.501    82.860062 
   93100    1940.4397   -112.59103    1.7557506   -110.83527    19290.976    4.3601646    4.3601646    4.3601646    19290.976    57784.514   -33891.782    33980.195   -4388.5064    1997.3736    38053.362    82.891242 
   93200    1278.7068    -112.0345    1.1570008    -110.8775   -5200.2672    4.3822247    4.3822247    4.3822247   -5200.2672    97114.768   -110479.45   -2236.1171   -13569.331    12228.142   -15265.849    84.155775 
   93300    2179.0605   -112.81082    1.9716598   -110.83916   -30910.138    4.3927007    4.3927007    4.3927007   -30910.138   -26505.275   -22372.876   -43852.262    3192.1298   -17307.325   -18054.867    84.760759 
   93400    1804.4741   -112.45931    1.6327261   -110.82658   -11645.768    4.3731686    4.3731686    4.3731686   -11645.768   -25966.849    2870.0129   -11840.467   -3290.0677   -18692.827    23054.957    83.635113 
   93500    1818.0326   -112.48003    1.6449941   -110.83503    19676.008    4.3596994    4.3596994    4.3596994    19676.008     32727.18   -33169.122    59469.965    -6096.709    8760.2368   -25250.745    82.864717 
   93600    2211.0996   -112.85353    2.0006494   -110.85288    21928.925    4.3557583    4.3557583    4.3557583    21928.925   -18785.723    76861.719    7710.7808    10750.688   -12471.827   -14394.127    82.640194 
   93700    1604.2513   -112.33604    1.4515603   -110.88448    27712.674    4.3582205    4.3582205    4.3582205    27712.674    5261.5416   -3657.8603    81534.342    8646.1047   -7038.9189    35592.888    82.780414 
   93800    1998.2091   -112.69043    1.8080216   -110.88241   -1943.7013    4.3776234    4.3776234    4.3776234   -1943.7013    22067.319   -22000.313   -5898.1103   -14818.813    15559.782    17932.815    83.890966 
   93900    1907.1122   -112.58983    1.7255952   -110.86424   -18540.611    4.3820261    4.3820261    4.3820261   -18540.611   -63592.798    25638.444   -17667.477    8359.7281    25953.606   -15019.729    84.144337 
   94000    1548.4086   -112.25863    1.4010327    -110.8576   -20813.813    4.3694966    4.3694966    4.3694966   -20813.813   -4599.9154   -75224.247    17382.724    21197.169   -15030.105    45616.655    83.424615 
   94100    1887.3857   -112.56299    1.7077463   -110.85524     15004.75    4.3559116    4.3559116    4.3559116     15004.75    24752.404    19760.499    501.34806   -18597.744    31973.162    27409.688     82.64892 
   94200    1697.1492   -112.40691    1.5356162   -110.87129   -2874.9887     4.368275     4.368275     4.368275   -2874.9887   -2554.6489    11830.859   -17901.176    19567.925    31452.549   -9231.4309    83.354667 
   94300    1459.0098   -112.18327    1.3201427   -110.86313   -13626.419     4.378831     4.378831     4.378831   -13626.419    40924.557   -88101.093    6297.2794    19616.933   -10805.992    52814.573    83.960409 
   94400    2092.7267   -112.73728    1.8935431   -110.84373   -630.88106    4.3797168    4.3797168    4.3797168   -630.88106    21654.899    7765.6421   -31313.184   -12690.034    48313.665   -6535.4665    84.011372 
   94500    2088.9482   -112.72547    1.8901242   -110.83534    -19293.15     4.382955     4.382955     4.382955    -19293.15   -38828.875     1039.933   -20090.507    35329.933   -5308.9682    2549.0316    84.197858 
   94600    1479.7709     -112.186    1.3389278   -110.84707   -18489.341     4.369238     4.369238     4.369238   -18489.341    28311.919   -46519.595   -37260.347    10178.462   -878.28314    64817.206    83.409804 
   94700    2350.9828   -112.96655    2.1272187   -110.83933    33033.168    4.3495967    4.3495967    4.3495967    33033.168    24029.958    70043.779    5025.7682   -4442.6961    31608.005   -8447.6127    82.289985 
   94800    1735.6969   -112.44311     1.570495   -110.87262    7116.3819    4.3689273    4.3689273    4.3689273    7116.3819    17017.358    12321.384   -7989.5962    11795.757    -8281.054     30249.31    83.392013 
   94900     1660.503   -112.35955     1.502458   -110.85709    -21007.58    4.3848244    4.3848244    4.3848244    -21007.58     18045.65   -38669.575   -42398.814    7910.0773   -4058.1741    46943.828    84.305635 
   95000     2607.367   -113.19224    2.3592004   -110.83304    12548.303    4.3694745    4.3694745    4.3694745    12548.303    1005.0503    35355.888    1283.9716   -5468.6225    27877.852   -8619.9034     83.42335 
   95100     959.0718   -111.73766   0.86778832   -110.86987   -27183.736    4.3678307    4.3678307    4.3678307   -27183.736    1987.0541   -52178.915   -31359.348    23480.249    -9161.421    59622.239    83.329236 
   95200     1854.128    -112.5519     1.677654   -110.87424   -12883.898    4.3599992    4.3599992    4.3599992   -12883.898    99.886713    -28041.44    -10710.14    15518.169   -23750.815    3758.9737    82.881811 
   95300    2481.4273   -113.11797    2.2452476   -110.87272    16966.699    4.3617768    4.3617768    4.3617768    16966.699    10047.231    28743.513    12109.354   -31470.044    5060.5744    24777.113    82.983228 
   95400    942.48868   -111.74322   0.85278357   -110.89043   -12407.555    4.3868027    4.3868027    4.3868027   -12407.555   -15735.596   -22052.221    565.15241    24120.585   -10255.278      69867.4    84.419796 
   95500    2259.9212   -112.87851    2.0448242   -110.83369   -10423.151    4.3980336    4.3980336    4.3980336   -10423.151   -54894.116    39850.456   -16225.793      9876.34   -6954.3613   -18098.514    85.069843 
   95600    1436.1762   -112.11537    1.2994824   -110.81589   -39243.401      4.39459      4.39459      4.39459   -39243.401    18118.181   -60038.076   -75810.308   -22772.959    5112.2056    64451.163    84.870176 
   95700    1490.1214   -112.16491    1.3482931   -110.81661    -15027.65    4.3662607    4.3662607    4.3662607    -15027.65   -16482.116   -23936.472   -4664.3606    24815.325   -10388.094    26110.865    83.239408 
   95800    2373.9931   -112.96278    2.1480388   -110.81474    24037.397    4.3384613    4.3384613    4.3384613    24037.397    25748.317     45633.08    730.79281    3913.2213    3510.6329   -3496.6339    81.659591 
   95900    1144.0246    -111.9199    1.0351375   -110.88476   -12823.584    4.3526485    4.3526485    4.3526485   -12823.584    62412.674   -26234.535   -74648.891   -4671.7823     4007.925    86644.369    82.463313 
   96000    2192.0234   -112.86721    1.9833889   -110.88382   -13878.888    4.3710504    4.3710504    4.3710504   -13878.888    -1823.938   -13396.219   -26416.507    7649.4586    1696.1498   -5681.4083    83.513643 
   96100    1875.9243   -112.57626    1.6973757   -110.87888    4171.5056    4.3738942    4.3738942    4.3738942    4171.5056     43433.17    49995.732   -80914.385    6705.4663   -5141.2842    34284.664    83.676751 
   96200    940.33958   -111.73316   0.85083902   -110.88232   -43272.302    4.3769081    4.3769081    4.3769081   -43272.302    49715.871   -60951.625   -118581.15   -18395.172    13145.944    48107.385    83.849851 
   96300    2363.9612    -112.9805    2.1389618   -110.84154    21794.453    4.3558685    4.3558685    4.3558685    21794.453    32568.148    42108.928   -9293.7183   -1450.8458   -7246.5515   -33577.881    82.646462 
   96400    1561.7219    -112.2761    1.4130788   -110.86302   -721.04647    4.3567681    4.3567681    4.3567681   -721.04647    38979.184    27789.103   -68931.427    665.36056   -9938.1217    78858.231    82.697682 
   96500    1623.4223   -112.33271    1.4689067    -110.8638   -19713.218    4.3746222    4.3746222    4.3746222   -19713.218    26935.901   -35891.578   -50183.978   -14335.086    15158.055   -11123.307    83.718544 
   96600    2415.6507   -113.03096    2.1857315   -110.84523    10159.244    4.3648817    4.3648817    4.3648817    10159.244   -4334.2931    31895.853    2916.1736    6263.9057   -1953.2449   -4109.7146    83.160565 
   96700    1617.8511   -112.32752    1.4638657   -110.86365   -11118.616    4.3721919    4.3721919    4.3721919   -11118.616    24268.627    1786.3678   -59410.843   -6804.8558   -6244.4532    80639.421    83.579093 
   96800    1905.5461   -112.58322    1.7241782   -110.85904   -23066.416    4.3684253    4.3684253    4.3684253   -23066.416    8681.2263    -39440.13   -38440.345   -7090.7341    2604.4138   -56719.784    83.363267 
   96900    1961.7121   -112.62937    1.7749984   -110.85437    7180.4442    4.3453239    4.3453239    4.3453239    7180.4442    9664.6462    29582.926    -17706.24    15618.214   -17226.641   -3144.8146    82.047712 
   97000    941.29758   -111.73717   0.85170583   -110.88546   -14100.451    4.3561102    4.3561102    4.3561102   -14100.451    11451.668    9598.9617   -63351.981    2999.4342   -15768.944    62743.101    82.660225 
   97100    2294.9953   -112.93834      2.07656   -110.86178   -16734.089    4.3697901    4.3697901    4.3697901   -16734.089   -8081.3978   -8473.3592   -33647.512    3622.4872    25848.706   -38417.585    83.441427 
   97200    1395.9235   -112.13188    1.2630609   -110.86882    2826.1574    4.3739597    4.3739597    4.3739597    2826.1574    27450.624    35669.256   -54641.407    6210.1518   -41817.913    25167.856    83.680512 
   97300    1574.4005   -112.26753    1.4245506   -110.84298   -16898.982    4.3849116    4.3849116    4.3849116   -16898.982   -5992.3176    3499.8304   -48204.459   -5633.4197   -8985.1888    21080.427    84.310668 
   97400    2566.5805    -113.1252    2.3222959    -110.8029    9761.7962    4.3835012    4.3835012    4.3835012    9761.7962    22387.963    12293.547   -5396.1214    -189.1221    6324.6052   -7901.8368    84.229337 
   97500    1076.5112   -111.78715   0.97404996    -110.8131    4904.0882    4.3851175    4.3851175    4.3851175    4904.0882   -3247.1721    63885.509   -45926.072     8779.571   -50967.459    54947.918    84.322543 
   97600    2784.3037    -113.3169    2.5192965    -110.7976    6210.6931    4.3688923    4.3688923    4.3688923    6210.6931    9606.1784    25433.294   -16407.393   -8833.2908    22349.813   -20998.007    83.390009 
   97700     1315.622   -112.03364    1.1904024   -110.84324    26401.557    4.3422108    4.3422108    4.3422108    26401.557    42006.068    23569.958    13628.644     23084.52   -33140.656        19625     81.87149 
   97800    1007.3242   -111.80235   0.91144808    -110.8909   -14601.792     4.353676     4.353676     4.353676   -14601.792    476.17417     13245.73    -57527.28   -10032.016   -39617.561    42932.263    82.521729 
   97900    2549.9176   -113.17169     2.307219   -110.86447   -6833.0599    4.3766407    4.3766407    4.3766407   -6833.0599   -6822.2564   -21405.039    7728.1157   -7758.8135     16646.71    -16160.35    83.834482 
   98000    590.84893   -111.39516   0.53461253   -110.86055   -6969.2019    4.4009283    4.4009283    4.4009283   -6969.2019   -21642.092     5780.843    -5046.357    39133.065   -39437.735    36236.696    85.237929 
   98100     2946.612   -113.44575    2.6661565   -110.77959   -26809.982    4.4016424    4.4016424    4.4016424   -26809.982   -13914.316   -50452.127   -16063.503    -21424.72    25314.596   -13006.413    85.279424 
   98200    1429.7887   -112.07647    1.2937028   -110.78277   -5789.2453    4.3773824    4.3773824    4.3773824   -5789.2453   -46106.341     16459.01    12279.595    48190.485   -39650.294   -71.337708     83.87711 
   98300    2051.8411   -112.64364    1.8565489   -110.78709    21827.391    4.3587553    4.3587553    4.3587553    21827.391    18297.089    30313.623    16871.463      5498.63     6746.229    13579.687    82.810891 
   98400    1973.5504   -112.59762    1.7857099   -110.81191    15459.462    4.3677428    4.3677428    4.3677428    15459.462    50744.177    14207.494   -18573.284    13668.743   -3584.3216   -8192.2095    83.324206 
   98500    731.77351   -111.51887   0.66212405   -110.85674   -28318.597    4.3824634    4.3824634    4.3824634   -28318.597   -20763.336    8189.5297   -72381.984    44415.701   -61204.632    13756.528    84.169529 
   98600    2503.8451   -113.10614    2.2655317   -110.84061   -12864.912    4.3712488    4.3712488    4.3712488   -12864.912    18217.596   -22406.748   -34405.584   -23104.843    14265.022    15244.138    83.525017 
   98700    1620.7919    -112.3173    1.4665266   -110.85078   -4062.1236    4.3595011    4.3595011    4.3595011   -4062.1236   -14472.821   -19754.964    22041.414    53405.414   -8567.1271   -6173.8342    82.853405 
   98800    1260.3253   -112.00874    1.1403688   -110.86838   -7605.9903    4.3685984    4.3685984    4.3685984   -7605.9903   -13643.644    33547.293   -42721.621    10788.915   -51979.585    125.84677    83.373178 
   98900    2467.8966   -113.07108    2.2330047   -110.83808    6055.0922    4.3732146    4.3732146    4.3732146    6055.0922   -169.10025   -10137.222    28471.599   -364.45438    12202.568   -4356.4059    83.637757 
   99000    1197.9039   -111.93719    1.0838886    -110.8533    9622.8443    4.3732378    4.3732378    4.3732378    9622.8443   -39456.704   -16642.119    84967.356    84249.079   -21883.077    6013.0982    83.639088 
   99100    2383.3357   -112.98448    2.1564922   -110.82799   -10091.116    4.3856538    4.3856538    4.3856538   -10091.116   -940.51551    3016.7064   -32349.539   -12403.323   -36319.271    1864.1299    84.353488 
   99200    1972.4367    -112.6028    1.7847022    -110.8181   -17780.611    4.3829535    4.3829535    4.3829535   -17780.611   -13884.581   -42079.635    2622.3845      43795.4    9029.0002    4721.1768     84.19777 
   99300    1228.7601     -111.947    1.1118079   -110.83519   -6469.9428    4.3619575    4.3619575    4.3619575   -6469.9428   -40780.336   -20866.916    42237.424    44860.508   -31186.708    5612.1101    82.993542 
   99400     2109.061   -112.73486    1.9083227   -110.82653     41250.91     4.345624     4.345624     4.345624     41250.91    53352.949    12873.286    57526.495   -20136.725    -4768.685     790.1039     82.06471 
   99500    1464.4506   -112.19335    1.3250657   -110.86828    5828.6626     4.364072     4.364072     4.364072    5828.6626   -2236.3108    679.48953    19042.809    42512.826    4639.6331   -10744.573    83.114294 
   99600     1849.599   -112.53016    1.6735561    -110.8566   -38203.617    4.3859432    4.3859432    4.3859432   -38203.617   -45965.039   -16666.215   -51979.596   -2267.4888   -36502.241    4181.7886    84.370188 
   99700    2076.1027   -112.71059    1.8785013   -110.83209   -5218.6217    4.3781004    4.3781004    4.3781004   -5218.6217    10526.904   -22290.992   -3891.7774    13650.009    8031.2155    25213.225    83.918394 
   99800    1442.9661   -112.14561    1.3056261   -110.83999   -5921.0418    4.3794604    4.3794604    4.3794604   -5921.0418   -25016.263    -7391.359    14644.496    34167.547   -21973.307   -5331.4353    83.996622 
   99900    2687.2142   -113.25528    2.4314479   -110.82383   -13347.908    4.3690983    4.3690983    4.3690983   -13347.908   -13263.725     10449.87   -37229.868    -16866.54   -45588.903    2010.5149    83.401805 
  100000    1400.5751   -112.10815    1.2672698   -110.84088    37013.891    4.3396053    4.3396053    4.3396053    37013.891    30288.941    17080.751    63671.983    70873.625    16409.585    1528.1178    81.724202 
Loop time of 21.7751 on 1 procs for 100000 steps with 8 atoms

Pair  time (%) = 6.58254 (30.2297)
Kspce time (%) = 5.2945 (24.3145)
Neigh time (%) = 0.212289 (0.974919)
Comm  time (%) = 0.972334 (4.46535)
Outpt time (%) = 0.026371 (0.121106)
Other time (%) = 8.68705 (39.8944)

Nlocal:    8 ave 8 max 8 min
Histogram: 1 0 0 0 0 0 0 0 0 0
Nghost:    1984 ave 1984 max 1984 min
Histogram: 1 0 0 0 0 0 0 0 0 0
Neighs:    2159 ave 2159 max 2159 min
Histogram: 1 0 0 0 0 0 0 0 0 0

Total # of neighbors = 2159
Ave neighs/atom = 269.875
Neighbor list builds = 2646
Dangerous builds = 0
unfix 20
unfix 21
print "seeds:4748505"
seeds:4748505
