LAMMPS (10 Feb 2015)
# ---- initialize simulations
clear
units metal
dimension 3
boundary p p p
atom_style charge
atom_modify map array
# ---- create atoms
read_data /Users/eugeneragasa/pyflamestk_git/pypospack/tests/tests_integration/workflow/WorkflowLammpsThermalExpansion/param_3867/MgO_NaCl_unit.npt.T1200/lammps.structure
  triclinic box = (0 0 0) to (4.2565 4.2565 4.2565) with tilt (0 0 0)
  1 by 1 by 1 MPI processor grid
  reading atoms ...
  8 atoms
# ---- define interatomic potential
include potential.mod
mass 1 24.305
mass 2 15.999

group Mg type 1
4 atoms in group Mg
group O type 2
4 atoms in group O

set group Mg charge 1.73479148785
  4 settings made for charge
set group O charge -1.73479148785
  4 settings made for charge

variable R_cut equal 10.0

pair_style buck/coul/long ${R_cut}
pair_style buck/coul/long 10
pair_coeff 1 1 0.0 0.5 0.0 ${R_cut}
pair_coeff 1 1 0.0 0.5 0.0 10
pair_coeff 1 2 1225.32983502 0.291530354982 0.0 ${R_cut}
pair_coeff 1 2 1225.32983502 0.291530354982 0.0 10
pair_coeff 2 2 16858.6500597 0.120403294253 7.45918898041 ${R_cut}
pair_coeff 2 2 16858.6500597 0.120403294253 7.45918898041 10

kspace_style pppm 1.0e-5

neighbor 1.0 bin
neigh_modify every 1 delay 0 check yes
# ---- define settings
compute eng all pe/atom
compute eatoms all reduce sum c_eng
# ---- run minimization
reset_timestep 0
fix 1 all box/relax iso 0.0 vmax 0.001
thermo 10
thermo_style custom step pe lx ly lz xy xz yz press pxx pyy pzz pxy pxz pyz c_eatoms
min_style cg
minimize 1e-25 1e-25 5000 10000
PPPM initialization ...
  G vector (1/distance) = 0.3534
  grid = 8 8 8
  stencil order = 5
  estimated absolute RMS force accuracy = 4.23269e-05
  estimated relative force accuracy = 2.93944e-06
  using double precision FFTs
  3d grid and FFT values/proc = 3375 512
Neighbor list info ...
  1 neighbor list requests
  update every 1 steps, delay 0 steps, check yes
  master list distance cutoff = 11
Memory usage per processor = 4.06549 Mbytes
Step PotEng Lx Ly Lz Xy Xz Yz Press Pxx Pyy Pzz Pxy Pxz Pyz eatoms 
       0   -122.62677       4.2565       4.2565       4.2565            0            0            0    18600.794    18600.794    18600.794    18600.794 4.9707872e-11 4.7042733e-11 1.8950886e-10   -122.62677 
       5   -122.63132    4.2712858    4.2712858    4.2712858            0            0            0   -6.7076035   -6.7076035   -6.7076035   -6.7076035 9.5134085e-11 4.9732958e-12 8.6603347e-11   -122.63132 
Loop time of 0.00765514 on 1 procs for 5 steps with 8 atoms

Minimization stats:
  Stopping criterion = linesearch alpha is zero
  Energy initial, next-to-last, final = 
        -122.626768711     -122.631316441     -122.631316441
  Force two-norm initial, final = 2.68597 0.0019334
  Force max component initial, final = 2.68596 0.000975322
  Final line search alpha, max atom move = 0.00390625 3.80985e-06
  Iterations, force evaluations = 5 22

Pair  time (%) = 0.00206184 (26.9341)
Kspce time (%) = 0.00124788 (16.3012)
Neigh time (%) = 0 (0)
Comm  time (%) = 0.000236511 (3.08957)
Outpt time (%) = 0 (0)
Other time (%) = 0.00410891 (53.6751)

Nlocal:    8 ave 8 max 8 min
Histogram: 1 0 0 0 0 0 0 0 0 0
Nghost:    2189 ave 2189 max 2189 min
Histogram: 1 0 0 0 0 0 0 0 0 0
Neighs:    2344 ave 2344 max 2344 min
Histogram: 1 0 0 0 0 0 0 0 0 0

Total # of neighbors = 2344
Ave neighs/atom = 293
Neighbor list builds = 0
Dangerous builds = 0
unfix 1
# ---- define output variables ----
variable natoms equal "count(all)"
variable tot_energy equal "c_eatoms"
variable length_x equal "lx"
variable length_y equal "ly"
variable length_z equal "lz"
variable tilt_xy equal "xy"
variable tilt_xz equal "xz"
variable tilt_yz equal "yz"
variable tot_press equal "press"
variable press_xx equal "pxx"
variable press_yy equal "pyy"
variable press_zz equal "pzz"
variable press_xy equal "pxy"
variable press_xz equal "pxz"
variable press_yz equal "pyz"

# ---- output ----
print "pypospack:output_section:begin"
pypospack:output_section:begin
print "tot_energy = ${tot_energy}"
tot_energy = -122.631316441343
print "num_atoms = ${natoms}"
num_atoms = 8
print "xx = ${length_x}"
xx = 4.27128583299446
print "yy = ${length_y}"
yy = 4.27128583299446
print "zz = ${length_z}"
zz = 4.27128583299446
print "xy = ${tilt_xy}"
xy = 0
print "xz = ${tilt_xz}"
xz = 0
print "yz = ${tilt_yz}"
yz = 0
print "tot_press = ${tot_press}"
tot_press = -6.70760353710228
print "pxx = ${press_xx}"
pxx = -6.70760353705429
print "pyy = ${press_yy}"
pyy = -6.70760353725253
print "pzz = ${press_zz}"
pzz = -6.70760353700002
print "pxy = ${press_xy}"
pxy = 9.51340852761742e-11
print "pxz = ${press_xz}"
pxz = 4.97329584958765e-12
print "pyz = ${press_yz}"
pyz = 8.66033470907354e-11
print "pypospack:output_section:done"
pypospack:output_section:done
print "pypospack:lammps_sim:done"
pypospack:lammps_sim:done
#------------------------------------------------------------------------------
# RUN THERMOSTAT
# running using an NPT Nose-Hoover style thermostat
#------------------------------------------------------------------------------
variable tempdamp equal 0.1
variable pressdamp equal 1.0
# set initial velocities
velocity all create 1200 4705067 mom yes dist gaussian loop all
# fix for Nose-Hoover style thermostat
fix 20 all npt temp 1200 1200 0.1 aniso 0.0 0.0 1.0 drag 1.0 couple xyz
variable boxx equal lx
variable boxy equal ly
variable boxz equal lz
variable boxp equal press
variable boxt equal temp
# calculate averages every 10000 steps
reset_timestep 0
fix 21 all ave/time 10 10 100 v_boxx v_boxy v_boxz v_boxp v_boxt file lattice.out
thermo_style custom step temp pe ke etotal press lx ly lz press pxx pyy pzz pxy pxz pyz vol
thermo_modify flush yes
thermo 100
run 100000
PPPM initialization ...
  G vector (1/distance) = 0.353246
  grid = 8 8 8
  stencil order = 5
  estimated absolute RMS force accuracy = 4.26311e-05
  estimated relative force accuracy = 2.96057e-06
  using double precision FFTs
  3d grid and FFT values/proc = 3375 512
Memory usage per processor = 3.06549 Mbytes
Step Temp PotEng KinEng TotEng Press Lx Ly Lz Press Pxx Pyy Pzz Pxy Pxz Pyz Volume 
       0         1200   -122.63132    1.0857852   -121.54553    14875.584    4.2712858    4.2712858    4.2712858    14875.584    10954.214    12593.443    21079.095    9221.7196   -5116.4356   -531.58365    77.924838 
     100    438.15708   -121.80691   0.39645373   -121.41045    22232.631    4.2985564    4.2985564    4.2985564    22232.631    5845.0172     30063.65    30789.225   -9158.7541    2740.7887   -3840.1542    79.426948 
     200    757.30117    -121.7943   0.68522201   -121.10908   -36681.477    4.3289815    4.3289815    4.3289815   -36681.477   -55069.978   -18248.572   -36725.881    1752.4894   -9236.2443    8697.8196    81.125465 
     300    626.40668   -121.41281   0.56678593   -120.84603    14432.882    4.3142646    4.3142646    4.3142646    14432.882    3222.9556    42122.681   -2046.9899   -2874.7953   -3824.1598   -2402.3521    80.300885 
     400    1596.3171   -122.07939    1.4443813   -120.63501    7146.1383    4.3019375    4.3019375    4.3019375    7146.1383   -794.71624   -7493.4872    29726.618    -1740.038    11889.445   -4363.7093    79.614522 
     500    1045.2808   -121.46967   0.94579204   -120.52388    4768.4889    4.3281896    4.3281896    4.3281896    4768.4889   -28400.532    44306.417   -1600.4177     304.4812   -9177.9466   -5004.2259    81.080952 
     600    1013.3173   -121.35833   0.91687074   -120.44146   -24266.455    4.3483228    4.3483228    4.3483228   -24266.455   -71377.103    1219.9087   -2642.1695   -3337.3675   -7625.8998   -2178.2495    82.217703 
     700    1246.8362   -121.53524    1.1281636   -120.40707   -5215.2743    4.3249049    4.3249049    4.3249049   -5215.2743    424.05337   -15265.904    -803.9721    8205.9103    5986.1249     5841.151    80.896489 
     800    1098.1506   -121.39506    0.9936297   -120.40143     43193.24    4.3002014    4.3002014    4.3002014     43193.24   -1717.0298    32845.751    98450.999   -11539.457   -2473.5874   -11030.544    79.518174 
     900    1249.5607   -121.57709    1.1306288   -120.44646   -33273.693    4.3340098    4.3340098    4.3340098   -33273.693   -50150.078    -13311.91   -36359.089    2577.4093     -1878.72   -8035.1432    81.408486 
    1000    705.47103   -121.08243   0.63832501   -120.44411   -6420.4919    4.3396175    4.3396175    4.3396175   -6420.4919   -83669.168    62510.424    1897.2686     12640.09    12886.294   -7642.4931     81.72489 
    1100    1250.7039   -121.55801    1.1316632   -120.42635    14971.382    4.3175194    4.3175194    4.3175194    14971.382   -32790.469    21022.471    56682.146   -3028.6082    4623.8974   -10403.836    80.482764 
    1200    1396.2085   -121.70577    1.2633188   -120.44245   -22863.404    4.3273343    4.3273343    4.3273343   -22863.404   -42945.406   -1289.1969   -24355.608   -3946.6868   -4827.1757   -964.33522    81.032893 
    1300    1021.6383   -121.36586   0.92439978   -120.44146   -726.53629    4.3245978    4.3245978    4.3245978   -726.53629   -48321.573    20457.617    25684.347   -3097.9209    4942.6353   -18634.633    80.879261 
    1400    1111.0632   -121.45428    1.0053133   -120.44896    15751.935    4.3244587    4.3244587    4.3244587    15751.935   -65333.547    84597.417    27991.933    3593.9744    6982.5051    8799.6152    80.871454 
    1500    1459.6115   -121.77251    1.3206871   -120.45182   -37928.123    4.3475643    4.3475643    4.3475643   -37928.123   -63927.496   -12045.878   -37810.994    6832.3739    14095.357   -979.58739    82.174686 
    1600    940.22645   -121.28583   0.85073665   -120.43509    9611.1488    4.3238775    4.3238775    4.3238775    9611.1488   -52968.853    42123.679    39678.621   -16602.063    9155.3619   -7511.9527    80.838853 
    1700    1263.8005   -121.56724    1.1435133   -120.42373    20575.046     4.310928     4.310928     4.310928    20575.046   -33760.257    9557.0354     85928.36   -10061.031    839.27596   -16044.556    80.114721 
    1800     1084.149   -121.42363   0.98096077   -120.44267   -26762.732    4.3499554    4.3499554    4.3499554   -26762.732   -69776.133   -38082.514    27570.451      17221.1    21584.848    8695.1425    82.310342 
    1900    907.41136   -121.24958   0.82104487   -120.42853   -8208.1919     4.332746     4.332746     4.332746   -8208.1919   -41441.847   -51135.051    67952.322   -5597.8989    9604.4082     4943.577    81.337287 
    2000    1254.5941   -121.54387    1.1351831   -120.40869    10013.172    4.3022801    4.3022801    4.3022801    10013.172   -19935.272   -8289.2852    58264.073   -33254.034   -3560.2094   -9795.8421    79.633543 
    2100     1492.964   -121.79542    1.3508652   -120.44456   -19348.474    4.3312478    4.3312478    4.3312478   -19348.474   -4366.8257   -25308.226   -28370.371    10291.576   -8622.7025    -4874.345    81.252942 
    2200    1270.3544   -121.57372    1.1494433   -120.42428   -45045.697    4.3586108    4.3586108    4.3586108   -45045.697   -82657.341   -68642.451    16162.702    2323.0942   -13403.775    4162.7194    82.802659 
    2300    1359.3614   -121.65765    1.2299787   -120.42767   -17681.976    4.3161945    4.3161945    4.3161945   -17681.976   -23810.553    -52994.25    23758.875   -15345.608   -2493.8764    13232.154    80.408696 
    2400     1046.165   -121.36057   0.94659208   -120.41398    62077.026    4.2860868    4.2860868    4.2860868    62077.026    36413.311     37511.08    112306.69     1487.198   -10114.211   -27704.177    78.737731 
    2500    1337.7495   -121.67274    1.2104239   -120.46231   -31564.475     4.345339     4.345339     4.345339   -31564.475   -51350.788    -31781.53   -11561.106    -6871.299    13008.353   -28137.345    82.048567 
    2600    1305.4166   -121.61208    1.1811684   -120.43091    -37614.13    4.3458812    4.3458812    4.3458812    -37614.13   -50783.163   -41599.863   -20459.365   -13612.673   -237.99871    2426.8982    82.079283 
    2700    1210.4079   -121.48651    1.0952025   -120.39131    45430.359    4.2825719    4.2825719    4.2825719    45430.359    39235.182    52069.859    44986.036    3016.5541    2379.8448   -780.89836    78.544175 
    2800    895.67766   -121.26381   0.81042797   -120.45338    -4239.583    4.3117364    4.3117364    4.3117364    -4239.583   -1352.5783   -30869.881    19503.711    217.86267   -8830.2525    -36646.78    80.159798 
    2900    1252.8562   -121.56807    1.1336106   -120.43446   -25883.859    4.3394756    4.3394756    4.3394756   -25883.859    4246.5242   -35607.467   -46290.633    10820.822   -4043.0096   -9097.3888    81.716877 
    3000    1636.7739   -121.89624    1.4809874   -120.41525    5479.0042    4.3171149    4.3171149    4.3171149    5479.0042    -29414.18    27105.006    18746.186   -15416.722   -2833.0681    9998.4622    80.460145 
    3100    763.96696    -121.1248   0.69125336   -120.43355    7282.7948    4.3235356    4.3235356    4.3235356    7282.7948    3489.3688    26976.807   -8617.7914   -2557.2338   -8904.6885   -12884.474    80.819677 
    3200    863.13616   -121.21818   0.78098374   -120.43719    10576.166    4.3222449    4.3222449    4.3222449    10576.166    29913.529    28785.085   -26970.117    4000.8264    2685.3751   -19089.972    80.747317 
    3300    1320.0401    -121.6301       1.1944    -120.4357   -2397.6277    4.3218341    4.3218341    4.3218341   -2397.6277   -21492.308    36259.554   -21960.129    13202.298    1779.0322    8184.7049    80.724296 
    3400    1318.9017    -121.6275      1.19337   -120.43413    6889.1693    4.3254661    4.3254661    4.3254661    6889.1693    47785.242   -4719.9031   -22397.831    8112.6617   -11812.885    13412.822    80.927985 
    3500     1542.881   -121.83468    1.3960311   -120.43865   -10548.104     4.327178     4.327178     4.327178   -10548.104    -40419.41    9127.5101   -352.41154   -4234.0992    -2524.662   -13468.735    81.024111 
    3600    921.73324   -121.28438   0.83400361   -120.45037      7133.32    4.3276551    4.3276551    4.3276551      7133.32    12836.674    40789.602   -32226.317   -16613.259    7490.8544   -15537.609    81.050918 
    3700    751.94885   -121.12381   0.68037912   -120.44343    38641.021    4.3172079    4.3172079    4.3172079    38641.021   -1831.0305    138776.97   -21022.881   -6308.5272   -5033.5988     1289.809    80.465345 
    3800    1199.8282   -121.53597    1.0856298   -120.45034    2629.4864       4.3301       4.3301       4.3301    2629.4864   -52331.034    48181.703     12037.79    5613.7304    2447.1067    10203.236    81.188363 
    3900    1439.8405   -121.74259     1.302798    -120.4398   -25100.502    4.3475649    4.3475649    4.3475649   -25100.502   -23715.129   -2986.3498   -48600.026    7475.1517    3629.2492   -9801.1043    82.174719 
    4000    1603.4328   -121.89291    1.4508197   -120.44209    1770.7321    4.3124432    4.3124432    4.3124432    1770.7321   -1333.1396    9417.2028    -2771.867   -661.96162     -7314.97   -30342.113    80.199225 
    4100    1192.0564   -121.51479    1.0785977   -120.43619    45422.081    4.2844826    4.2844826    4.2844826    45422.081    13170.616    105659.86    17435.772    1796.5754    4309.7223    6486.8173    78.649354 
    4200     777.7898    -121.1798   0.70376056   -120.47604   -33008.429    4.3305318    4.3305318    4.3305318   -33008.429    -23397.51   -22143.064   -53484.715    17381.479   -3069.5876    33742.613    81.212651 
    4300    1118.6692    -121.4562    1.0121954   -120.44401   -24989.788    4.3343697    4.3343697    4.3343697   -24989.788   -36957.811    3949.2212   -41960.774    6439.8255   -11492.307    3111.6101    81.428764 
    4400    1701.7843    -121.9608    1.5398102   -120.42099    10040.426    4.3101272    4.3101272    4.3101272    10040.426   -29346.795     79748.86   -20280.789   -15791.409   -335.45886    5597.4262     80.07008 
    4500     1582.979    -121.8729    1.4323127   -120.44059   -13447.862    4.3214768    4.3214768    4.3214768   -13447.862   -22907.279    19786.735   -37223.043    7853.5509     7888.022    21835.387    80.704279 
    4600    700.58151   -121.08762   0.63390087   -120.45372    17107.544    4.3347812    4.3347812    4.3347812    17107.544    -18388.07    80922.775   -11212.073    11279.724   -2547.2302    1264.8798     81.45196 
    4700     1305.081   -121.62627    1.1808647    -120.4454    -36162.37    4.3281713    4.3281713    4.3281713    -36162.37    -73055.76   -32306.566   -3124.7833     1956.235   -5844.9634   -5182.3988    81.079924 
    4800    937.29743   -121.28417   0.84808641   -120.43608    41353.039    4.2892275    4.2892275    4.2892275    41353.039     8288.984    95586.186    20183.946   -8877.4936   -1717.6047   -16681.415    78.910947 
    4900    1640.1845   -121.94428    1.4840734   -120.46021   -11867.511    4.3085604    4.3085604    4.3085604   -11867.511   -5060.4412    5295.2774   -35837.368    7596.6659    8673.4205    8262.6747     79.98279 
    5000    1142.0123   -121.47836    1.0333167   -120.44504   -36719.562    4.3451108    4.3451108    4.3451108   -36719.562   -44852.106   -20005.687   -45300.892    3726.3452   -260.56372     10969.96    82.035639 
    5100    1069.7189   -121.41035   0.96790418   -120.44245     13181.17    4.3023153    4.3023153    4.3023153     13181.17    -15385.85    13072.519     41856.84   -8261.6001   -12523.505    7031.6132    79.635498 
    5200    744.69345   -121.12016   0.67381429   -120.44634     30446.03    4.2933789    4.2933789    4.2933789     30446.03    27258.852    28193.589    35885.648   -11436.715    10445.146   -26314.464    79.140291 
    5300    1228.5309   -121.56015    1.1116006   -120.44855   -27198.017    4.3263125    4.3263125    4.3263125   -27198.017   -46946.291   -30981.269   -3666.4913   -17494.841     285.2352   -5785.1292    80.975503 
    5400    1646.0166   -121.92319    1.4893504   -120.43384    9433.7414    4.3159965    4.3159965    4.3159965    9433.7414   -9126.7595    14871.743    22556.241    3376.3534   -186.43029     16744.85    80.397628 
    5500    1390.4017   -121.70098    1.2580647   -120.44291   -11092.939    4.3148603    4.3148603    4.3148603   -11092.939   -21705.066   -116.95478   -11456.796    -726.1958    3392.2763   -8515.4091    80.334156 
    5600    822.92269   -121.20006   0.74459775   -120.45546    16444.928    4.3055542    4.3055542    4.3055542    16444.928    3410.5669   -18481.308    64405.525   -16215.449   -1875.8075   -12219.991    79.815487 
    5700    1049.4765   -121.41054   0.94958837   -120.46095    18503.751    4.3073934    4.3073934    4.3073934    18503.751    8512.8273    59022.547    -12024.12   -2470.3544    3483.3848   -21538.057    79.917818 
    5800    1040.4261   -121.39542    0.9413994   -120.45402    515.51239    4.3253648    4.3253648    4.3253648    515.51239    7515.7047   -4548.1077   -1421.0598    6104.3407    1388.9844    14797.018      80.9223 
    5900    1608.7032   -121.88942    1.4555884   -120.43384    7180.0595    4.3102597    4.3102597    4.3102597    7180.0595   -627.25143    7389.2863    14778.143   -7048.2328   -2963.4919    14110.729    80.077465 
    6000    1394.4084    -121.6984    1.2616901   -120.43671    16497.874    4.3105212    4.3105212    4.3105212    16497.874    8853.6565    21636.264    19003.701   -9211.5156   -6976.7054     -19071.9    80.092041 
    6100    1116.5109   -121.45446    1.0102425   -120.44422   -24475.473    4.3227587    4.3227587    4.3227587   -24475.473    -17888.45   -46601.861   -8936.1081     7354.377   -6242.5292    -13564.01    80.776121 
    6200    1041.1455   -121.38512   0.94205032   -120.44307   -19460.955    4.3095851    4.3095851    4.3095851   -19460.955    74.484682   -43969.827   -14487.524    3065.8578    11376.342    22490.673     80.03987 
    6300    992.28798   -121.35175   0.89784302   -120.45391     14245.77    4.3089371    4.3089371    4.3089371     14245.77   -4297.6238    33251.734      13783.2    796.36062    8391.6278    25825.441    80.003772 
    6400    1558.0511    -121.8532    1.4097574   -120.44345   -7879.9903    4.3262313    4.3262313    4.3262313   -7879.9903   -20998.255    13928.533   -16570.249   -4246.2377   -4469.1357    8189.5522    80.970945 
    6500    1473.9205   -121.76547    1.3336343   -120.43184     3778.592    4.3222005    4.3222005    4.3222005     3778.592   -4802.4453    9113.2666    7024.9546   -8265.9639   -79.361041    4157.0954     80.74483 
    6600     926.2705   -121.26853   0.83810901   -120.43042    5182.0775    4.3197266    4.3197266    4.3197266    5182.0775   -14807.586    21497.948    8855.8703    5953.5771    3844.4386    23512.149     80.60626 
    6700    871.85858   -121.22321   0.78887596   -120.43433   -19517.337    4.3268597    4.3268597    4.3268597   -19517.337    -31153.34   -7725.6697   -19673.001    758.62726    3232.6172    10583.446    81.006236 
    6800    1124.1727   -121.45002     1.017175   -120.43285    9596.3373    4.3114334    4.3114334    4.3114334    9596.3373   -1131.2521    25764.525    4155.7394   -2379.8344   -1109.2995   -29041.557      80.1429 
    6900    1875.2986   -122.12825    1.6968095   -120.43144   -2313.3437    4.3076883    4.3076883    4.3076883   -2313.3437    29057.814   -8381.4514   -27616.394    5811.8806   -3809.3618    11478.943    79.934233 
    7000    1207.9879   -121.53687    1.0930128   -120.44386   -10868.568     4.335554     4.335554     4.335554   -10868.568    6054.4826   -40462.464    1802.2762   -7666.6836   -20325.704    16837.842    81.495532 
    7100    935.40128   -121.27799   0.84637074   -120.43162   -9793.8695    4.3318502    4.3318502    4.3318502   -9793.8695    1570.6665   -22642.016   -8310.2588   -4230.7448    8670.4047    -12011.55    81.286849 
    7200    1121.4621   -121.43421    1.0147225   -120.41948    30420.801    4.3085421    4.3085421    4.3085421    30420.801    57240.473    17507.825    16514.105    7394.1303   -4265.8209   -14211.292    79.981775 
    7300     1658.659   -121.93524    1.5007895   -120.43445   -6323.3694    4.3197713    4.3197713    4.3197713   -6323.3694   -583.50433   -20621.441    2234.8366    1538.5215   -6883.2569   -9458.8536    80.608765 
    7400    1444.9052    -121.7449    1.3073806   -120.43751   -16457.607    4.3236578    4.3236578    4.3236578   -16457.607   -37970.523   -19530.922    8128.6254   -15125.848    5950.3629    27597.942    80.826533 
    7500    676.85681   -121.05311   0.61243427   -120.44067     28057.43    4.3109203    4.3109203    4.3109203     28057.43    25958.366    5710.7366    52503.188   -5377.8475   -10898.095   -5160.4829     80.11429 
    7600     1325.069   -121.64414    1.1989503   -120.44519   -15998.869    4.3188378    4.3188378    4.3188378   -15998.869    13819.435   -28329.504   -33486.537    7080.5878    8183.5377   -18450.069    80.556517 
    7700    1384.8356   -121.69052    1.2530283   -120.43749   -21852.401    4.3297725    4.3297725    4.3297725   -21852.401   -40200.356   -24286.639   -1070.2069   -4427.2653    1227.2971     -6099.83    81.169942 
    7800    1399.1707   -121.68865     1.265999   -120.42265   -7901.4158     4.324871     4.324871     4.324871   -7901.4158   -38158.498   -23032.783    37487.034   -21581.609     6629.973    8932.0454    80.894589 
    7900    1355.3361   -121.64741    1.2263366   -120.42108   -42217.104    4.3295054    4.3295054    4.3295054   -42217.104    -30515.88   -60175.896   -35959.535   -3887.0545    1045.5015   -17955.891     81.15492 
    8000    1125.2617   -121.44358    1.0181604   -120.42542   -20420.137    4.3206588    4.3206588    4.3206588   -20420.137   -8946.2312   -27713.163   -24601.015    4952.3441    8846.0738   -27501.018     80.65846 
    8100    1298.2613   -121.59955    1.1746941   -120.42486   -6190.0712    4.3084335    4.3084335    4.3084335   -6190.0712   -32458.173   -19255.877    33143.837   -23616.991    7199.4688   -4104.3561    79.975722 
    8200    1229.4401   -121.55986    1.1124233   -120.44743   -13270.529    4.3283256    4.3283256    4.3283256   -13270.529   -26559.394   -53186.226    39934.033   -22539.635     4921.136    1838.5449    81.088594 
    8300     1047.745   -121.38616   0.94802172   -120.43814   -28240.002    4.3399009    4.3399009    4.3399009   -28240.002   -3376.9735   -69850.319   -11492.714    1232.7434    7082.1487   -14763.815    81.740902 
    8400     1101.555   -121.42263   0.99671013   -120.42592    17241.008    4.2959393    4.2959393    4.2959393    17241.008    25069.328   -4634.0131    31287.708    9638.3171   -5968.1873   -4459.1696    79.281968 
    8500    1117.4727   -121.45779    1.0111128   -120.44668    12165.905    4.3002107    4.3002107    4.3002107    12165.905   -14092.664    23146.215    27444.163   -16094.812   -1434.6247    862.69084    79.518687 
    8600    1293.9174   -121.60994    1.1707637   -120.43918   -46215.787    4.3506175    4.3506175    4.3506175   -46215.787   -63254.574   -25425.095   -49967.691   -9494.4262   -13472.299   -2773.0157    82.347932 
    8700    1198.0147   -121.49771    1.0839888   -120.41373   -23979.607    4.3380569    4.3380569    4.3380569   -23979.607   -1272.4792   -20499.133   -50167.209    7286.0588    3170.4116    -8641.222    81.636757 
    8800    1009.5566   -121.31435   0.91346798   -120.40088    22689.728    4.2996006    4.2996006    4.2996006    22689.728    21711.876   -7365.0269    53722.335   -18928.714   -5052.6874   -22070.787    79.484849 
    8900    1057.0495   -121.38519    0.9564406   -120.42874    22945.553      4.30563      4.30563      4.30563    22945.553    443.04594   -3879.0821    72272.696   -12036.938   -5748.2289   -13675.191    79.819704 
    9000    1155.3844   -121.48637    1.0454161   -120.44095   -9354.4749    4.3389539    4.3389539    4.3389539   -9354.4749   -28712.413   -11086.083    11735.071    3420.0804   -5015.4957   -7024.4042    81.687407 
    9100    928.09923   -121.26008   0.83976369   -120.42032   -22962.704    4.3457289    4.3457289    4.3457289   -22962.704   -13635.652   -18418.546   -36833.913   -7594.5877   -8144.1776   -18399.479    82.070654 
    9200    932.40797   -121.25149   0.84366232   -120.40783    8432.8337    4.3169353    4.3169353    4.3169353    8432.8337    31919.519   -8720.9679      2099.95   -16271.397   -12076.862   -9438.1879    80.450104 
    9300    1684.8516   -121.92773    1.5244892   -120.40324    31483.331    4.2925794    4.2925794    4.2925794    31483.331    32232.684    34300.824    27916.485   -17763.232   -5588.3372    1453.0233    79.096089 
    9400    1262.4347   -121.58951    1.1422775   -120.44723    3110.5141    4.3221851    4.3221851    4.3221851    3110.5141    35562.534    17612.503   -43843.495   -4424.3673    17192.896    -1423.822    80.743967 
    9500     586.9023   -120.96832   0.53104154   -120.43728   -36682.798    4.3548486    4.3548486    4.3548486   -36682.798    14585.045   -57708.179    -66925.26    206.83783    7344.9819   -6477.0817    82.588426 
    9600    1240.7336   -121.54478    1.1226419   -120.42214   -1469.1159    4.3148275    4.3148275    4.3148275   -1469.1159   -2630.6286   -18263.571    16486.852   -16930.315   -7156.8723    5959.8931     80.33232 
    9700    1301.0836   -121.57928    1.1772478   -120.40203    64251.681    4.2863308    4.2863308    4.2863308    64251.681    62311.286    38075.225    92368.531    -3140.116    12873.688    5908.8309    78.751175 
    9800    855.35669    -121.2341   0.77394471   -120.46015      3316.85    4.3364906    4.3364906    4.3364906      3316.85    48241.694   -43531.951    5240.8068   -1733.5869    19742.991   -2805.0533    81.548359 
    9900     725.7293   -121.07979   0.65665513   -120.42313   -19379.199     4.353344     4.353344     4.353344   -19379.199    58998.785   -76242.343   -40894.038   -6877.0225    28182.448   -4339.4247    82.502849 
   10000      1050.99   -121.35815   0.95095788   -120.40719    21607.424     4.302357     4.302357     4.302357    21607.424    30360.424    4986.5794    29475.268   -12078.455     4038.703     5682.623    79.637816 
   10100    1173.1274   -121.46987    1.0614703    -120.4084    18113.165    4.2858538    4.2858538    4.2858538    18113.165     43287.52    28005.518   -16953.544   -15318.044   -22570.563    3381.1478    78.724887 
   10200    1189.2954   -121.51929    1.0760995   -120.44319   -27026.468    4.3258768    4.3258768    4.3258768   -27026.468   -3275.0499   -28888.582   -48915.771   -528.97991    -6068.924   -13924.257     80.95104 
   10300    1193.5319   -121.49828    1.0799327   -120.41835   -54461.739    4.3501111    4.3501111    4.3501111   -54461.739   -60310.965   -52103.987   -50970.267   -19388.102    452.55579    4309.6694    82.319181 
   10400     1293.767   -121.59487    1.1706276   -120.42425   -10958.994    4.3023641    4.3023641    4.3023641   -10958.994   -47146.942    18419.452   -4149.4935   -19447.893   -21946.745    10141.255    79.638208 
   10500     1445.033   -121.71191    1.3074962   -120.40441    41860.855    4.2710289    4.2710289    4.2710289    41860.855    26067.318    47338.605    52176.642     823.5188   -28272.079   -17517.955    77.910777 
   10600     1072.248   -121.43013   0.97019251   -120.45993   -41.895757    4.3226915    4.3226915    4.3226915   -41.895757   -10829.705   -15790.986    26495.004    1131.3619   -1477.7156   -9860.8781    80.772353 
   10700    1115.7442   -121.44353    1.0095488   -120.43398   -35686.417    4.3413263    4.3413263    4.3413263   -35686.417   -54324.739   -48167.085   -4567.4283   -17691.087    1985.5752     3891.142     81.82147 
   10800    1204.5967   -121.51186    1.0899444   -120.42191      9029.41    4.2913605    4.2913605    4.2913605      9029.41   -13730.926    22343.507    18475.648    1041.4145   -24342.497    2073.3727    79.028731 
   10900    1276.7731   -121.58588    1.1552512   -120.43063    25722.157    4.2830414    4.2830414    4.2830414    25722.157    6935.6731    38614.795    31616.003    16395.752   -37007.128   -6721.9802    78.570009 
   11000     1791.398   -122.06191    1.6208946   -120.44102   -15035.377    4.3190402    4.3190402    4.3190402   -15035.377   -27796.163    737.53578   -18047.503   -8647.1239    638.73814   -10771.261    80.567844 
   11100    1084.2972   -121.41492   0.98109491   -120.43382   -2304.3291    4.3286709    4.3286709    4.3286709   -2304.3291   -3809.8609   -16001.918    12898.791    204.15531     8166.936    13973.377    81.108004 
   11200    747.64549   -121.10922   0.67648536   -120.43273    713.93137    4.3092119    4.3092119    4.3092119    713.93137   -25780.797    5949.0649    21973.526    11354.292   -31111.919   -1567.5958    80.019079 
   11300     1320.383   -121.62368    1.1947103   -120.42897     17562.44    4.2871892    4.2871892    4.2871892     17562.44   -20169.209    44214.234    28642.295    4978.0643   -28030.742    2290.4251      78.7985 
   11400    1611.5166   -121.90466    1.4581341   -120.44653    23041.029    4.2990887    4.2990887    4.2990887    23041.029    31131.008    7176.6314    30815.447   -1420.8092    5681.7563    -2990.776    79.456462 
   11500    1313.0272   -121.63443    1.1880546   -120.44637   -41429.693    4.3349611    4.3349611    4.3349611   -41429.693   -42145.384   -27215.497   -54928.199   -4050.4675    9875.4173    13893.433    81.462105 
   11600    789.91061   -121.15658   0.71472772   -120.44186   -13493.981    4.3108388    4.3108388    4.3108388   -13493.981   -35945.108    18518.802   -23055.636    -2700.796   -37194.173    27557.547    80.109744 
   11700    1350.5415    -121.6328    1.2219983    -120.4108    31302.606    4.2782491    4.2782491    4.2782491    31302.606    39922.194    39938.728    14046.895    3226.2645   -16034.924   -9049.4348    78.306571 
   11800    1400.0195   -121.70416    1.2667671    -120.4374   -7852.6889    4.3185894    4.3185894    4.3185894   -7852.6889   -21324.777    2162.8735   -4396.1632   -6796.8966    28356.505   -8590.7053    80.542617 
   11900    1102.6251   -121.42019   0.99767839   -120.42251   -24228.834    4.3329862    4.3329862    4.3329862   -24228.834   -72784.549    16878.633   -16780.586   -6898.3505   -4473.4871    17169.394    81.350814 
   12000    1096.9006   -121.40526   0.99249874   -120.41276    8382.6794    4.2913301    4.2913301    4.2913301    8382.6794   -19432.383    22415.972     22164.45    2494.8741   -35364.417    15906.459    79.027051 
   12100    1095.5674   -121.42152   0.99129238   -120.43023    11932.306    4.2958141    4.2958141    4.2958141    11932.306    13899.872    29469.516   -7572.4718   -4616.4162    63.361791   -27189.654    79.275035 
   12200    1338.1686    -121.6424    1.2108031    -120.4316    -16866.17    4.3283649    4.3283649    4.3283649    -16866.17   -30667.167   -15906.259   -4025.0844   -3561.0172     13996.35   -32190.673    81.090801 
   12300    1510.3887   -121.79854    1.3666315   -120.43191    1715.4591    4.3079476    4.3079476    4.3079476    1715.4591   -27273.643    10661.125    21758.896    2162.4043   -12324.387    16303.284    79.948668 
   12400      1088.64    -121.4052   0.98502433   -120.42017    40706.015    4.2730248    4.2730248    4.2730248    40706.015    30731.051    55750.733    35636.261    60.968249   -21713.854    9636.5876    78.020052 
   12500    902.06262   -121.27185   0.81620521   -120.45565     1564.056    4.3042953    4.3042953    4.3042953     1564.056    17656.687   -25338.854    12374.335   -872.51252    879.35288   -27131.735    79.745498 
   12600    1429.6785   -121.71562    1.2936031   -120.42202   -33934.479    4.3302116    4.3302116    4.3302116   -33934.479    -25026.42   -40997.125   -35779.892    4092.1885    9725.6005   -26996.648    81.194641 
   12700    1500.2723   -121.77514    1.3574779   -120.41766    26917.719    4.2893262    4.2893262    4.2893262    26917.719    16381.098     40505.46      23866.6   -4525.4837   -17914.637    18911.162    78.916392 
   12800     852.3747    -121.1998   0.77124654   -120.42855    16169.086    4.2844516    4.2844516    4.2844516    16169.086     26529.02    12900.072    9078.1653   -2251.4143   -19663.088   -17411.418    78.647647 
   12900    716.59512   -121.08995   0.64839033   -120.44156   -28414.625     4.323371     4.323371     4.323371   -28414.625    4413.0069   -44064.851    -45592.03    8283.2409     1597.699   -59235.476    80.810445 
   13000    1539.4252   -121.81059    1.3929043   -120.41769   -1141.9362    4.3163279    4.3163279    4.3163279   -1141.9362   -5358.5219   -830.40998    2763.1233   -11644.633    1132.8283   -9990.2497    80.416152 
   13100     1226.096   -121.52145    1.1093974   -120.41205    26120.757    4.3008324    4.3008324    4.3008324    26120.757    7654.4094    38798.786    31909.075   -630.52428   -1118.2147   -5642.9817    79.553183 
   13200    614.35823   -120.98781   0.55588424   -120.43192   -15035.106    4.3160418    4.3160418    4.3160418   -15035.106    13331.699   -23728.999   -34708.018    10659.072   -10053.023   -63997.948    80.400164 
   13300    977.83402   -121.30759   0.88476477   -120.42283   -6826.6512    4.3204433    4.3204433    4.3204433   -6826.6512    7010.6572   -23331.896   -4158.7151   -1938.0074    3663.3808   -26930.899    80.646392 
   13400    1809.5708   -122.04446    1.6373377   -120.40713    18200.814    4.2988375    4.2988375    4.2988375    18200.814   -11655.954    64185.189    2073.2059    703.71169     12081.72    18288.904    79.442535 
   13500      923.258   -121.26607   0.83538324   -120.43069    15305.621    4.2996343    4.2996343    4.2996343    15305.621    13720.561    38532.658   -6336.3554    269.60181   -13356.022   -36454.008    79.486718 
   13600    647.62046   -121.02463    0.5859806   -120.43865   -13877.633    4.3207996    4.3207996    4.3207996   -13877.633    17194.711   -18544.372   -40283.238   -1436.8167   -6178.1485   -58746.106    80.666343 
   13700    1789.0077   -122.03465    1.6187317   -120.41592   -1417.8353    4.3131083    4.3131083    4.3131083   -1417.8353   -8394.8784    16732.711   -12591.338   -1689.9391    5859.6704    6362.8381    80.236337 
   13800     1724.145   -121.97592    1.5600426   -120.41587    3352.2432     4.303796     4.303796     4.303796    3352.2432    3273.0143    336.77521      6446.94   -10612.851   -10728.437    1602.0371    79.717748 
   13900    710.23775   -121.07632   0.64263804   -120.43368   -14294.279    4.3073527    4.3073527    4.3073527   -14294.279    52863.038   -23072.542   -72673.333    -5702.381   -8822.6924    -58489.11    79.915551 
   14000    1177.9502   -121.49993    1.0658341    -120.4341   -11757.842    4.3089427    4.3089427    4.3089427   -11757.842   -8437.1804   -9523.5674   -17312.778    6665.7476   -9143.2057   -28873.635    80.004085 
   14100    1946.0578   -122.18377     1.760834   -120.42293   -4486.2528    4.3075801    4.3075801    4.3075801   -4486.2528   -20350.081   -6166.4323    13057.755     12254.98    5288.7017    20170.475    79.928212 
   14200    1173.9945   -121.49016    1.0622549    -120.4279    5823.9002      4.30279      4.30279      4.30279    5823.9002    26298.422    2458.7741   -11285.495    5153.6222    3069.7611   -34026.475    79.661862 
   14300    647.23495   -121.02507   0.58563179   -120.43944   -5506.3832    4.3093034    4.3093034    4.3093034   -5506.3832     11132.51   -9011.9805    -18639.68   -6775.5521   -21422.724   -56368.334    80.024176 
   14400    1289.1556   -121.59112    1.1664551   -120.42466   -16428.425    4.3167861    4.3167861    4.3167861   -16428.425   -41894.537    108.67251   -7499.4116    3481.2803   -7749.0311   -1137.3905    80.441764 
   14500    1584.6706   -121.84654    1.4338432    -120.4127    7088.7765    4.2982224    4.2982224    4.2982224    7088.7765   -6751.8553    26656.959    1361.2257    4244.8868    3394.2939   -3251.9381    79.408438 
   14600    823.00825   -121.17428   0.74467516   -120.42961    8027.0557    4.2980466    4.2980466    4.2980466    8027.0557    35836.682   -16224.938    4469.4227    2466.2372    633.47988   -43575.803    79.398694 
   14700    835.97316   -121.19018   0.75640608   -120.43377   -34725.055    4.3199526    4.3199526    4.3199526   -34725.055   -15204.843   -27682.128   -61288.194   -5027.6304   -22220.311    -29755.05    80.618913 
   14800    1337.6796   -121.62878    1.2103606   -120.41842   -9073.7822    4.3057093    4.3057093    4.3057093   -9073.7822   -37892.753    29839.789   -19168.383   -7200.2639   -15662.533    8888.9567    79.824118 
   14900    1288.3007   -121.57896    1.1656815   -120.41328    15447.642    4.2946695    4.2946695    4.2946695    15447.642    38359.825    21732.349   -13749.249    7703.6597    15559.756   -7176.8848    79.211682 
   15000     817.8031    -121.1675   0.73996543   -120.42753   -29129.411    4.3147509    4.3147509    4.3147509   -29129.411    10787.376   -25745.722   -72429.887    3373.5366   -16331.613   -39513.064     80.32804 
   15100    1050.3445   -121.37476   0.95037378   -120.42439   -11631.877    4.3027107    4.3027107    4.3027107   -11631.877   -16187.195     33811.59   -52520.026    -1589.128     -39285.8   -936.56338    79.657459 
   15200    1667.5915   -121.92525    1.5088718   -120.41638    6698.3685    4.2921863    4.2921863    4.2921863    6698.3685   -787.19881     15841.78    5040.5242    2540.2746   -2390.2739   -2159.5074    79.074364 
   15300    1023.1661   -121.35542   0.92578215   -120.42963   -18830.462      4.31262      4.31262      4.31262   -18830.462    28808.369   -35075.528   -50224.225   -7543.9151    4647.9999   -31501.325    80.209087 
   15400    1057.8518   -121.38526   0.95716658   -120.42809   -18403.389    4.3031095    4.3031095    4.3031095   -18403.389   -1715.6346    7921.1007   -61415.633    3866.3613   -11533.036   -18807.598    79.679611 
   15500    1469.6986   -121.75265    1.3298142   -120.42284    23749.519    4.2928741    4.2928741    4.2928741    23749.519    5896.5324    61147.697     4204.327    3591.9333   -15959.542    4629.2765    79.112378 
   15600    1481.0068   -121.76867    1.3400461   -120.42862   -3052.9472    4.3020339    4.3020339    4.3020339   -3052.9472    825.73304   -7874.7446   -2109.8299   -7655.5559    1964.5925    1717.6718    79.619874 
   15700    850.71973   -121.20576   0.76974909   -120.43601    16229.687    4.2970513    4.2970513    4.2970513    16229.687    34388.271    37350.097   -23049.308    431.95998    18668.038   -22613.247     79.34355 
   15800    1261.4067   -121.57661    1.1413473   -120.43526    6605.0367    4.3086519    4.3086519    4.3086519    6605.0367     5699.885    25450.857   -11335.632   -5091.7432   -3989.4002   -7104.9651    79.987887 
   15900    1512.8949     -121.791    1.3688991    -120.4221    3285.5237    4.3076474    4.3076474    4.3076474    3285.5237    10415.532   -8854.4707    8295.5096    18398.686   -6174.9858    7761.9294    79.931954 
   16000     940.4642   -121.27413   0.85095177   -120.42317    23298.246    4.2891753    4.2891753    4.2891753    23298.246    29384.047    18691.532    21819.158    22118.512     11765.01   -5926.6021    78.908063 
   16100    1074.0275     -121.405   0.97180265    -120.4332   -21197.791    4.3073398    4.3073398    4.3073398   -21197.791    9593.0074   -38607.439    -34578.94   -13066.055     4711.257   -18539.701    79.914833 
   16200    1141.6326   -121.45818    1.0329732   -120.42521    7928.9783    4.3036005    4.3036005    4.3036005    7928.9783    33890.547   -15082.705    4979.0933    6743.9681    6914.7617   -11314.304    79.706887 
   16300    1200.2463   -121.51087    1.0860081   -120.42486    15083.329    4.2897224    4.2897224    4.2897224    15083.329    11726.974    3346.3967    30176.617    44392.971   -4620.2764    6248.2832    78.938261 
   16400    950.85938   -121.29854   0.86035755   -120.43818    -10489.28    4.3098778    4.3098778    4.3098778    -10489.28   -23611.096   -9916.9555     2060.211    14630.073    1945.5246   -7607.7534    80.056183 
   16500    1460.2826   -121.74281    1.3212944   -120.42151    13816.282    4.3043278    4.3043278    4.3043278    13816.282    27240.488    42721.533   -28513.176   -8234.3906    16759.714    -20839.28    79.747307 
   16600    1112.1433   -121.43291    1.0062907   -120.42662     7845.053    4.3023375    4.3023375    4.3023375     7845.053    -11479.37    10868.367    24146.162    33492.083   -6866.0351   -2933.4679     79.63673 
   16700    914.88162   -121.25691   0.82780411    -120.4291     -35147.2    4.3124876    4.3124876    4.3124876     -35147.2   -42781.768   -64100.007    1440.1763    54242.876   -10402.749    7856.5873    80.201703 
   16800    1502.4933   -121.78172    1.3594875   -120.42224    22611.239    4.2845852    4.2845852    4.2845852    22611.239    21343.156    33240.037    13250.524   -7519.1518    7162.8269   -13017.044    78.655005 
   16900    1505.4291   -121.80224    1.3621439   -120.44009    3761.5496    4.2971049    4.2971049    4.2971049    3761.5496    36084.788   -5765.2661   -19034.873   -6041.4523   -4930.3176   -8273.3584    79.346517 
   17000    762.27224   -121.12895   0.68971994   -120.43923   -44646.622    4.3226928    4.3226928    4.3226928   -44646.622   -62969.989   -64751.994   -6217.8821    69597.613     2544.364   -9696.7236    80.772424 
   17100    1224.9485   -121.53401    1.1083591   -120.42565    10183.768    4.2923579    4.2923579    4.2923579    10183.768   -4591.4434     14647.07    20495.678    36986.041   -2593.9383    2538.3981    79.083845 
   17200    1769.2395   -122.02455     1.600845    -120.4237    16289.064    4.2998071    4.2998071    4.2998071    16289.064    48994.327     29939.42   -30066.553   -16261.708   -9927.1811   -898.94221    79.496298 
   17300     1190.295   -121.50723    1.0770039   -120.43023   -26128.309    4.3173914    4.3173914    4.3173914   -26128.309   -11442.215   -41512.246   -25430.467    39228.535    8222.1944   -15974.858    80.475611 
   17400    712.17314   -121.07631   0.64438923   -120.43192     12486.47    4.2946938    4.2946938    4.2946938     12486.47    1476.8046    21028.503    14954.101    74242.677    3986.1218   -515.98602    79.213029 
   17500     1521.065   -121.81068    1.3762915   -120.43438   -1278.8838    4.3008135    4.3008135    4.3008135   -1278.8838   -2712.7806    24509.234   -25633.104      970.731   -22589.744   -1043.1625    79.552135 
   17600    1451.7189    -121.7412    1.3135457   -120.42765    923.39856    4.3075303    4.3075303    4.3075303    923.39856   -17314.253    43076.617   -22992.167    1557.3288   -12036.612    1507.4656    79.925436 
   17700    716.80774   -121.08014    0.6485827   -120.43156    -6042.748    4.3110151    4.3110151    4.3110151    -6042.748   -11727.585   -27830.161    21429.502     61555.06     7549.123   -7497.8481    80.119572 
   17800     1168.105   -121.48052    1.0569259    -120.4236   -18785.875    4.3153928    4.3153928    4.3153928   -18785.875   -5917.3403   -33451.282   -16989.003    15586.143   -5778.6152   -11937.139    80.363897 
   17900    1829.0301   -122.06892    1.6549449   -120.41398    12834.796    4.2870418    4.2870418    4.2870418    12834.796    21325.986    16186.093    992.30725   -23729.128   -10097.692    5016.3788    78.790375 
   18000    819.02628   -121.17823   0.74107219   -120.43716    18976.444    4.2878564    4.2878564    4.2878564    18976.444    8077.0227    13989.641    34862.668      60163.6   -5668.9857    466.91964    78.835297 
   18100    597.75159   -120.98251    0.5408582   -120.44165   -28695.388    4.3226682    4.3226682    4.3226682   -28695.388   -71500.303   -11575.803   -3010.0567    57732.578    13071.853   -10487.172    80.771047 
   18200    1748.4564   -121.99742    1.5820401   -120.41538   -4615.5239    4.3047993    4.3047993    4.3047993   -4615.5239   -10183.709    7068.3433   -10731.206   -17406.954    11699.004   -4068.4331    79.773512 
   18300    1146.4341   -121.45309    1.0373177   -120.41577    17002.638    4.2861504    4.2861504    4.2861504    17002.638    23744.035    1374.8282    25889.052    24533.398    -12944.17    5120.1858    78.741235 
   18400    652.69134   -121.02805   0.59056884   -120.43748   -12983.517    4.3034383    4.3034383    4.3034383   -12983.517   -29534.005   -44532.658    35116.113    70383.528   -6410.2556    4828.0594    79.697876 
   18500    1245.8102   -121.55085    1.1272352   -120.42362     176.3262    4.3163274    4.3163274    4.3163274     176.3262    27659.348     5469.964   -32600.334     6673.428    3820.7585    8369.1235    80.416122 
   18600    1532.2824   -121.79919    1.3864414   -120.41275   -7294.6926    4.3178884    4.3178884    4.3178884   -7294.6926    20378.635   -15863.944   -26398.769   -6271.1502    9358.3447    1071.7442    80.503404 
   18700    909.75014   -121.23702   0.82316104   -120.41386   -14026.281    4.3124089    4.3124089    4.3124089   -14026.281   -34637.346   -48302.878    40861.382    46848.101   -1274.3602   -3242.1559    80.197312 
   18800    1122.1864   -121.42793    1.0153779   -120.41255   -1409.7745    4.3074478    4.3074478    4.3074478   -1409.7745   -30319.123    527.55268    25562.247    14811.079   -10103.457    6203.7689    79.920848 
   18900    1790.1213   -122.02719    1.6197394   -120.40745    7217.0576    4.3064585    4.3064585    4.3064585    7217.0576    19372.932    20238.266   -17960.026     -22096.3    5021.0672   -12339.817    79.865789 
   19000    1091.1138   -121.40751   0.98726272   -120.42025   -17746.783    4.3122655    4.3122655    4.3122655   -17746.783   -19589.988   -41901.684     8251.322     53319.15    5222.7611   -8629.0967    80.189308 
   19100    896.18345   -121.23534   0.81088562   -120.42446    3605.0325    4.3040426    4.3040426    4.3040426    3605.0325    -15285.15    -3103.362     29203.61    46764.894    3173.7235    4304.7792    79.731454 
   19200    1736.2873   -121.98122    1.5710292   -120.41019    26851.692    4.2997118    4.2997118    4.2997118    26851.692    33170.561    36188.068    11196.448    -31801.93   -4472.0177   -6599.9075    79.491017 
   19300    1265.0659   -121.56855    1.1446582   -120.42389    -16732.13    4.3024514    4.3024514    4.3024514    -16732.13    -38747.68   -17741.146    6292.4352    37744.677   -11217.502    547.61706    79.643057 
   19400    726.33464   -121.08949   0.65720285   -120.43229    3521.0547    4.2950427    4.2950427    4.2950427    3521.0547   -50551.894    23439.949    37675.109    65728.635    4973.1403   -1248.9926    79.232333 
   19500      1695.32   -121.95804    1.5339612   -120.42408    13533.126    4.3094923    4.3094923    4.3094923    13533.126    11263.456    10227.886    19108.035   -8840.9861    1727.1757   -2687.5305    80.034703 
   19600    1407.1194   -121.69781    1.2731912   -120.42462   -18331.973    4.3170144    4.3170144    4.3170144   -18331.973   -28482.613   -18910.165   -7603.1409    20625.423    1355.7271   -1213.9814    80.454529 
   19700    727.65049   -121.08673   0.65839345   -120.42834    23178.762    4.2805385    4.2805385    4.2805385    23178.762    9191.3336   -8716.4215    69061.372     78291.91   -8375.7898     6067.604    78.432349 
   19800     1253.282   -121.57098    1.1339959   -120.43698    30954.377    4.2935837    4.2935837    4.2935837    30954.377     38994.01    21956.974    31912.147    7030.2348   -6382.2355   -323.55187    79.151621 
   19900    1602.3846   -121.86318    1.4498712   -120.41331   -25885.488    4.3250662    4.3250662    4.3250662   -25885.488   -30119.038   -6756.8407   -40780.585   -11822.972     8352.448   -2465.7471    80.905544 
   20000    825.98582   -121.17039   0.74736933   -120.42302    7009.9529    4.2945822    4.2945822    4.2945822    7009.9529    26521.732   -44274.914    38783.041    51826.318    2750.6553    1124.1728    79.206851 
   20100    1167.5935    -121.4743    1.0564632   -120.41784    20821.023    4.2849678    4.2849678    4.2849678    20821.023   -6706.4198     10774.82    58394.668    37498.722   -9414.7072   -4070.8112    78.676073 
   20200    1542.1062    -121.8142    1.3953301   -120.41887   -9349.7759    4.3139266    4.3139266    4.3139266   -9349.7759    8446.2535   -14165.357   -22330.224   -25923.324   -14190.803    6599.6899    80.282014 
   20300    939.64397   -121.26554   0.85020961   -120.41533   -21368.482    4.3181849    4.3181849    4.3181849   -21368.482   -19779.815   -29976.631       -14349     27909.79   -6886.7663    -5915.623     80.51999 
   20400     1028.702   -121.34266   0.93079115   -120.41186    6004.4432     4.294613     4.294613     4.294613    6004.4432   -23838.039    4979.9731    36871.396    49472.121    3471.3603   -9880.6222    79.208555 
   20500    1664.3445   -121.91584    1.5059338   -120.40991    19444.613     4.282953     4.282953     4.282953    19444.613    32654.643    53.264725     25625.93   -5537.7294   -5332.2241    15207.384    78.565148 
   20600    929.47538   -121.27617   0.84100886   -120.43516   -10332.194    4.3123946    4.3123946    4.3123946   -10332.194   -10266.485    18918.167   -39648.263   -5541.3523   -11731.809   -5331.3826    80.196511 
   20700    793.39868   -121.14615    0.7178838   -120.42826    -29066.46    4.3191657    4.3191657    4.3191657    -29066.46   -41122.316   -28618.339   -17458.725    48018.699   -769.25978   -5748.5207    80.574866 
   20800    1632.9323   -121.88544    1.4775115   -120.40793    25496.377    4.2852768    4.2852768    4.2852768    25496.377    35995.451   -3178.5428    43672.223    21597.239    3395.1358     7523.805    78.693099 
   20900    1051.3864   -121.37631   0.95131654   -120.42499    19993.158    4.2946592    4.2946592    4.2946592    19993.158    31377.421    22228.903    6373.1503   -27150.852   -1900.4249   -9455.8537    79.211115 
   21000    835.40875   -121.17668    0.7558954   -120.42078   -21633.789    4.3206734    4.3206734    4.3206734   -21633.789    -14442.63   -28179.556    -22279.18    15908.109    239.15323   -5486.9186    80.659274 
   21100    1460.4691   -121.72631    1.3214631   -120.40484    18566.989    4.3060104    4.3060104    4.3060104    18566.989    25557.035   -20218.183    50362.114     25936.87    5645.5118    2084.5285    79.840863 
   21200    1220.6812   -121.51599     1.104498   -120.41149    23542.871    4.2924964    4.2924964    4.2924964    23542.871   -5697.7427    20673.856      55652.5   -26841.194    17888.435    -1939.461      79.0915 
   21300    641.99581   -121.01667    0.5808913   -120.43578   -1604.2279    4.2997828    4.2997828    4.2997828   -1604.2279   -34497.361   -22178.385    51863.062   -26787.159    7800.2576     662.9519    79.494955 
   21400    1418.1209   -121.71357    1.2831456   -120.43042   -16345.282    4.3115795    4.3115795    4.3115795   -16345.282   -18895.942   -25931.111   -4208.7935     15807.88   -16560.647   -225.50593    80.151043 
   21500    1387.1466   -121.67429    1.2551194   -120.41918    8537.0197    4.3091595    4.3091595    4.3091595    8537.0197   -24242.468     18337.56    31515.967   -1269.6954    10029.236    3120.3198    80.016162 
   21600    784.37331   -121.12812   0.70971745    -120.4184   -18679.344    4.3072287    4.3072287    4.3072287   -18679.344    -39433.67   -28312.416    11708.054   -43732.412    30364.528   -1125.7886    79.908649 
   21700    1178.6594   -121.48402    1.0664758   -120.41754   -5894.2677      4.30129      4.30129      4.30129   -5894.2677    20050.864   -24364.586   -13369.081   -2768.3025    710.24339    1057.6797    79.578579 
   21800    1635.0961    -121.8947    1.4794693   -120.41523    15567.168    4.2977918    4.2977918    4.2977918    15567.168    35839.157    10601.066    261.27967    14655.685   -13797.954    -7941.468    79.384572 
   21900    1187.6516   -121.50598    1.0746122   -120.43137   -3947.6947     4.300871     4.300871     4.300871   -3947.6947   -10915.127   -9474.5665    8546.6096   -37673.894    7452.6746    735.93573    79.555324 
   22000    579.81871   -120.96681   0.52463215   -120.44217   -13722.043    4.3070423    4.3070423    4.3070423   -13722.043   -9090.9522   -21370.741   -10704.435   -23761.234    22109.863    2241.1272    79.898278 
   22100    1568.3638   -121.84453    1.4190886   -120.42544   -15082.913    4.3122079    4.3122079    4.3122079   -15082.913   -5390.2633   -16699.116   -23159.361    11778.812   -1488.2314   -3970.8328    80.186096 
   22200    1753.7912   -121.99759    1.5868671   -120.41072   -8917.2756    4.3169086    4.3169086    4.3169086   -8917.2756   -25352.069   -20843.454    19443.697    -13687.68   -1931.6991    3387.0456    80.448614 
   22300    590.19491   -120.94251   0.53402076   -120.40849   -2663.6812    4.3202669    4.3202669    4.3202669   -2663.6812   -37856.435   -680.44552    30545.837   -35776.145    16057.117    10260.063    80.636513 
   22400    1250.2759   -121.52555    1.1312759   -120.39427   -2984.3172    4.3110945    4.3110945    4.3110945   -2984.3172    -1386.978    629.05844    -8195.032    4227.5415    19646.842    6743.9829    80.124003 
   22500    1671.0971   -121.90891    1.5120438   -120.39687    16805.261    4.2906744    4.2906744    4.2906744    16805.261    13008.405    14144.631    23262.749    6313.9356   -11969.045   -7094.5285     78.99083 
   22600    937.26414   -121.27279   0.84805629   -120.42473    495.85735    4.2933938    4.2933938    4.2933938    495.85735   -5956.3812   -23821.804    31265.757   -39833.077   -19701.044    747.00721    79.141116 
   22700    724.48302   -121.09156   0.65552747   -120.43603   -12543.941    4.3151868    4.3151868    4.3151868   -12543.941   -14488.874   -16024.964   -7117.9833   -25679.505    9996.6254    13744.516     80.35239 
   22800    1618.5733   -121.88599    1.4645192   -120.42147   -4684.1858    4.3047606    4.3047606    4.3047606   -4684.1858    5499.4584    5058.3616   -24610.377    23202.313    15745.611    3548.8847    79.771364 
   22900    1315.9928   -121.61361    1.1907379   -120.42287    6561.5387    4.2847541    4.2847541    4.2847541    6561.5387   -6911.2989    11384.016    15211.899   -26484.649   -17772.076   -1383.7969    78.664304 
   23000    506.40489   -120.90403   0.45820579   -120.44582    2828.8293    4.2937802    4.2937802    4.2937802    2828.8293   -52224.055     27332.95    33377.592   -44489.168   -26658.793   -1258.6483    79.162489 
   23100    1305.0112   -121.62091    1.1808016   -120.44011   -10880.554    4.3092755    4.3092755    4.3092755   -10880.554   -35753.736    11553.961   -8441.8881   -5967.0046   -627.63871    6601.2304    80.022623 
   23200    1901.0072   -122.14207    1.7200713     -120.422   -287.70983    4.3035382    4.3035382    4.3035382   -287.70983   -9626.9739    15699.623   -6935.7786    4864.9438    6296.0981    16244.353    79.703426 
   23300    923.85771   -121.26846   0.83592587   -120.43254    -11048.39    4.2975584    4.2975584    4.2975584    -11048.39   -49436.595    15941.518    349.90541   -38644.428   -20258.084   -8934.2374    79.371641 
   23400      634.103   -121.01659   0.57374972   -120.44284   -13313.168    4.2938861    4.2938861    4.2938861   -13313.168   -50538.002    1051.1755    9547.3234   -40524.558   -23679.154   -11599.407    79.168345 
   23500     1540.819   -121.83493    1.3941654   -120.44077   -81.197925    4.3031974    4.3031974    4.3031974   -81.197925   -19747.865    29312.713   -9808.4418    19208.545   -111.13181    6538.5793    79.684493 
   23600    1633.4188   -121.90606    1.4779517   -120.42811   -4764.8187    4.3146289    4.3146289    4.3146289   -4764.8187   -26217.832    26115.295   -14191.919    2639.9195    6791.6665   -5144.0298    80.321229 
   23700    634.03955   -121.01114   0.57369231   -120.43745    347.07722    4.3015803    4.3015803    4.3015803    347.07722   -16308.549    8623.8984    8725.8819   -39121.976   -9839.6425   -7085.1179    79.594694 
   23800    877.76465   -121.23256    0.7942199   -120.43834    -2017.419    4.2917475    4.2917475    4.2917475    -2017.419   -10172.341   -12672.246    16792.331   -26916.175   -21314.149   -8408.3867    79.050114 
   23900    1713.2693   -121.98308    1.5502021   -120.43288    15038.183    4.2946684    4.2946684    4.2946684    15038.183    11454.359   -955.59955    34615.789    15796.716   -1222.3939   -12873.472    79.211622 
   24000    1185.9154   -121.51616    1.0730412   -120.44312   -3638.0031    4.3118996    4.3118996    4.3118996   -3638.0031    3664.1642   -27608.471    13030.297   -12569.735    18007.922    2035.9464    80.168901 
   24100      628.884   -121.00896   0.56902746   -120.43993   -34584.515    4.3127105    4.3127105    4.3127105   -34584.515   -67080.154   -45292.394    8619.0028   -51918.838   -7747.7152    1985.8152    80.214137 
   24200    1184.1162   -121.49818    1.0714132   -120.42677     10857.83    4.2843476    4.2843476    4.2843476     10857.83    359.87462    10052.974     22160.64   -8010.0711   -23894.173    4538.2015    78.641916 
   24300    1671.6324   -121.94083    1.5125282    -120.4283    5705.6453    4.2911024    4.2911024    4.2911024    5705.6453    9716.6927    13461.881   -6061.6379    19974.746    263.13533   -7538.6016    79.014468 
   24400    907.02165   -121.25976   0.82069225   -120.43907   -17406.055    4.3101174    4.3101174    4.3101174   -17406.055   -30824.102   -20703.987   -690.07724   -26585.711    12563.369   -2174.9136    80.069532 
   24500    748.21636   -121.11968   0.67700188   -120.44268     2691.308     4.299756     4.299756     4.299756     2691.308   -21713.987    30395.867   -607.95589   -39684.067   -8195.7665     6095.071    79.493466 
   24600    1405.5357   -121.70496    1.2717582    -120.4332    18712.069    4.2962479    4.2962479    4.2962479    18712.069    14211.383    50562.439   -8637.6146    3189.0891   -21945.029     2529.383    79.299054 
   24700    1562.6756   -121.84385    1.4139417   -120.42991    5687.0027    4.3010879    4.3010879    4.3010879    5687.0027   -3766.3641    31218.856   -10391.484    29860.686   -6176.3675    594.94239    79.567364 
   24800    851.17589   -121.20742   0.77016183   -120.43726   -17838.098    4.3066833    4.3066833    4.3066833   -17838.098   -25490.934   -32786.384    4763.0236   -30178.167     7275.029   -9684.6834    79.878298 
   24900    1126.3984   -121.45332    1.0191889   -120.43413   -18974.886    4.2997093    4.2997093    4.2997093   -18974.886   -44780.464   -15820.775    3676.5816   -54276.642   -8124.7976   -7743.0765    79.490874 
   25000     1665.076   -121.93566    1.5065957   -120.42906     19569.31    4.2901213    4.2901213    4.2901213     19569.31     7351.952     50909.97    446.00766    3159.6234   -10385.271    18004.818    78.960288 
   25100    1378.1433   -121.68201     1.246973   -120.43503    3557.4833    4.3004565    4.3004565    4.3004565    3557.4833   -13628.058    24006.362    294.14577    17542.707   -628.59739    6323.9979    79.532324 
   25200    662.48775   -121.04259   0.59943284   -120.44316   -14080.361    4.3096971    4.3096971    4.3096971   -14080.361   -79556.071     9867.935    27447.053   -35454.777    1884.3823   -1549.3488    80.046112 
   25300    1247.5357   -121.56451    1.1287965   -120.43571   -699.51541      4.29791      4.29791      4.29791   -699.51541   -41388.635    7662.0425    31628.046   -30932.019    7029.3384   -3429.4521    79.391122 
   25400    1906.8115   -122.14813    1.7253231   -120.42281    18882.091    4.2883248    4.2883248    4.2883248    18882.091    25675.979     36619.92   -5649.6272    19244.372   -2609.7138    -5346.863    78.861136 
   25500    961.78526   -121.31041   0.87024352   -120.44017   -26146.119     4.304331     4.304331     4.304331   -26146.119   -51237.523   -39469.924    12269.091    -23429.14     -3633.98    11202.175    79.747484 
   25600      603.344   -120.98793   0.54591833   -120.44202   -19495.984    4.3017087    4.3017087    4.3017087   -19495.984   -54657.729   -30060.741    26230.516   -38663.038    718.46242   -5092.7524     79.60182 
   25700    1405.9675   -121.70626    1.2721489   -120.43411    7343.3929    4.3053461    4.3053461    4.3053461    7343.3929   -23105.156    46421.406   -1286.0712     7539.663   -3308.5857   -2487.2679    79.803919 
   25800    1479.8697   -121.76788    1.3390172   -120.42886   -2597.1149    4.3018906    4.3018906    4.3018906   -2597.1149   -10472.128    18527.103    -15846.32   -8297.4087    -3900.061   -6066.5396     79.61192 
   25900    693.91853   -121.05778   0.62787207   -120.42991    20777.351    4.2848074    4.2848074    4.2848074    20777.351   -8956.7968    34944.515    36344.336   -61301.112   -10565.208   -889.10596    78.667238 
   26000    1114.9224   -121.44549    1.0088052   -120.43668   -20153.448    4.3123314    4.3123314    4.3123314   -20153.448   -28739.082   -45804.081    14082.818   -13276.948    3799.5372    4040.1482    80.192985 
   26100    1638.3007   -121.90703    1.4823689   -120.42466   -16319.355    4.3081147    4.3081147    4.3081147   -16319.355    12227.401   -30525.795    -30659.67    27585.649    4157.3273   -16001.321    79.957972 
   26200    904.71907   -121.24454   0.81860883   -120.42593    21207.539    4.2753376    4.2753376    4.2753376    21207.539    33713.273    6393.0225     23516.32   -23132.767    -12557.53   -22212.239    78.146806 
   26300    482.77392   -120.89284   0.43682399   -120.45601   -6887.7745    4.2982249    4.2982249    4.2982249   -6887.7745   -47418.378     -3291.44    30046.494   -58954.791    9.8145676    8357.9466    79.408577 
   26400    1561.8737   -121.83858    1.4132161   -120.42537   -21896.336    4.3197851    4.3197851    4.3197851   -21896.336   -29952.583   -9761.8896   -25974.536   -4619.4178   -3496.8588    7802.0432    80.609539 
   26500    1484.7358   -121.75875    1.3434202   -120.41533    8411.5983    4.3042298    4.3042298    4.3042298    8411.5983    7117.0535    4817.6856    13300.056    6753.3921   -765.99872    -11928.34     79.74186 
   26600    531.70498    -120.9068   0.48109784    -120.4257   -13040.843    4.3018918    4.3018918    4.3018918   -13040.843   -28283.987   -25047.526    14208.983   -51557.562   -10005.641   -23078.682    79.611983 
   26700    1221.4587   -121.52582    1.1052015   -120.42062     -8184.55    4.2991584    4.2991584    4.2991584     -8184.55   -22620.207    -16424.29    14490.847    -30357.48   -11064.143   -715.62805    79.460326 
   26800    1977.4652   -122.20881    1.7892521   -120.41956    8333.5211    4.3033501    4.3033501    4.3033501    8333.5211   -8594.6135     44959.24   -11364.063    19460.894    7323.3518       5506.1    79.692975 
   26900    1056.5365   -121.39741   0.95597643   -120.44143   -25554.095    4.3085684    4.3085684    4.3085684   -25554.095   -32580.754   -15654.792   -28426.738   -26034.408   -1509.1652   -21341.391    79.983237 
   27000    537.14461   -120.93788   0.48601973   -120.45186   -1356.0475    4.2791496    4.2791496    4.2791496   -1356.0475   -28435.144    14318.028    10048.974   -60975.478    -16820.84   -26221.649    78.356029 
   27100    1505.7479   -121.81626    1.3624323   -120.45383    9263.6674    4.2855897    4.2855897    4.2855897    9263.6674     605.5732    26741.281    444.14815   -11004.028   -9472.6716   -2195.0075    78.710335 
   27200    1840.8497   -122.09843    1.6656395   -120.43279    -24050.25    4.3243613    4.3243613    4.3243613    -24050.25   -20096.015   -20659.899   -31394.836    9272.7883    5301.4812    10041.269    80.865993 
   27300    598.55487   -120.96742   0.54158502   -120.42584   -13682.005    4.3178937    4.3178937    4.3178937   -13682.005    18781.401   -55610.174   -4217.2418   -50291.261   -8964.5127   -20064.975    80.503698 
   27400    862.69427   -121.19111   0.78058391   -120.41052    21434.796    4.2876062    4.2876062    4.2876062    21434.796    37547.126    1538.6541    25218.608   -34883.764   -12761.899   -23171.254    78.821497 
   27500    1860.8786   -122.08812    1.6837621   -120.40436    24251.188    4.2899049    4.2899049    4.2899049    24251.188    34946.012    13856.069    23951.484     25242.79   -10939.005    12414.733    78.948339 
   27600    1293.1266   -121.59798    1.1700481   -120.42793   -110.58592    4.3045149    4.3045149    4.3045149   -110.58592   -11160.024   -4954.1018    15782.368   -20348.666    870.25195    7730.2549    79.757705 
   27700    477.87868   -120.87794   0.43239467   -120.44554   -14376.904    4.3060373    4.3060373    4.3060373   -14376.904   -44515.512   -181.25161    1566.0508   -52805.037   -4782.9317   -21930.775    79.842361 
   27800    1141.9265   -121.47371    1.0332391   -120.44047   -1387.1783    4.2896912    4.2896912    4.2896912   -1387.1783   -12376.463   -11027.376    19242.304   -14616.775   -17936.178   -18692.071    78.936541 
   27900    1677.1318   -121.95123    1.5175041   -120.43373    24443.623    4.2828048    4.2828048    4.2828048    24443.623    5336.5371    46049.663    21944.669    16837.329   -3431.2083    4979.5028    78.556991 
   28000    1048.3347   -121.39665    0.9485553    -120.4481   -15125.077    4.3091341    4.3091341    4.3091341   -15125.077   -55407.901   -15274.566    25307.238   -38759.443     2608.274   -2335.7274    80.014745 
   28100    754.42863   -121.12589   0.68262288   -120.44326   -11859.417    4.3050867    4.3050867    4.3050867   -11859.417   -42842.868    -33184.45    40449.069   -51166.607    921.86321   -12965.939    79.789491 
   28200      1477.16     -121.757    1.3365654   -120.42043    35699.211    4.2856658    4.2856658    4.2856658    35699.211    30930.528    74452.093    1715.0109    15284.434   -8840.2442   -15621.954     78.71453 
   28300    1481.4863   -121.76838    1.3404799    -120.4279   -11976.098    4.3012988    4.3012988    4.3012988   -11976.098   -40938.118    14484.449   -9474.6245   -7020.0695   -7377.5932    2395.9445    79.579064 
   28400    593.88064   -120.98536   0.53735568     -120.448   -13231.292    4.2930606    4.2930606    4.2930606   -13231.292   -63795.965   -38592.092    62694.182     -54535.1     2363.296    3849.0241    79.122691 
   28500    1091.8039   -121.43704   0.98788714   -120.44915    20608.824    4.2893025    4.2893025    4.2893025    20608.824   -27748.382    45451.968    44122.887   -12304.782   -60.058706   -10739.662    78.915087 
   28600    2039.1343   -122.27547    1.8450516   -120.43042   -9558.7776     4.309339     4.309339     4.309339   -9558.7776   -32167.089    25684.537    -22193.78    21896.289   -662.42542   -5316.3539    80.026162 
   28700    1261.8738   -121.58721    1.1417699   -120.44544    39924.136    4.2748976    4.2748976    4.2748976    39924.136   -10435.299    82802.596    47405.112   -48503.557    -1640.532     8733.716    78.122681 
   28800    612.85613   -121.01672   0.55452511    -120.4622    4978.2081    4.2830204    4.2830204    4.2830204    4978.2081   -32422.541    -33378.95    80736.115   -50637.543    2783.1463    2581.0263    78.568856 
   28900      1283.06   -121.58962    1.1609396   -120.42868   -40198.938    4.3151745    4.3151745    4.3151745   -40198.938   -56093.433   -48807.545   -15695.835    27082.759    11602.756    14067.167    80.351702 
   29000    1653.0559   -121.91351    1.4957198   -120.41779    19451.267    4.2858809    4.2858809    4.2858809    19451.267    20327.487    18605.922    19420.393    11823.341   -4424.9287   -7991.0165    78.726385 
   29100    954.25681   -121.29673   0.86343161   -120.43329    1412.0395    4.2881204    4.2881204    4.2881204    1412.0395   -21034.871   -17160.106    42431.096   -59213.326    -4963.876   -12023.592    78.849859 
   29200    1047.4428   -121.38241   0.94774824   -120.43466   -11094.443    4.2992842    4.2992842    4.2992842   -11094.443   -28443.668   -17597.606    12757.946   -29746.971   -1150.6129    12892.031    79.467302 
   29300    1528.1498    -121.8117     1.382702     -120.429    19596.979    4.2977376    4.2977376    4.2977376    19596.979    6837.7256    40833.547    11119.665     29617.41     1024.909    12665.743     79.38157 
   29400    1455.6865   -121.74625    1.3171357   -120.42912   -18674.327    4.3105455    4.3105455    4.3105455   -18674.327   -33036.313   -27919.208    4932.5393   -19131.539    3056.8689   -11086.601    80.093396 
   29500    935.16271   -121.27524   0.84615487   -120.42908   -3923.7044    4.2957047    4.2957047    4.2957047   -3923.7044   -26255.479   -10193.698    24678.064   -46457.682   -10857.118   -27745.496    79.268978 
   29600    1374.6305   -121.66927    1.2437946   -120.42547    10468.721    4.2856534    4.2856534    4.2856534    10468.721    6858.5757   -11906.669    36454.257    6953.5237    7488.6073    11675.369    78.713844 
   29700     1511.812   -121.79508    1.3679193   -120.42716    592.07676    4.3027984    4.3027984    4.3027984    592.07676   -9647.0961   -16870.028    28293.354     14786.97   -1646.0476    16889.827     79.66233 
   29800    1190.9461   -121.50784    1.0775931   -120.43025   -7771.8019    4.3044075    4.3044075    4.3044075   -7771.8019   -39940.257   -2931.6067    19556.458   -39049.949    -10065.26   -13686.688    79.751736 
   29900    761.37097   -121.12232   0.68890446   -120.43342   -1145.0004    4.2977695    4.2977695    4.2977695   -1145.0004   -27393.283   -9937.1889    33895.471   -33965.268   -5017.0452   -11296.057    79.383341 
   30000    1488.7453     -121.771     1.347048   -120.42395    3214.4105    4.2919975    4.2919975    4.2919975    3214.4105    8162.4663    4303.9377   -2823.1725    28976.868   -4734.8937    2123.3432    79.063927 
   30100     1342.761   -121.64453    1.2149584   -120.42957   -91.349118    4.2956808    4.2956808    4.2956808   -91.349118   -9890.0391   -9801.9166    19417.908   -17674.583    3484.5241    13662.321    79.267653 
   30200    914.73738   -121.26621    0.8276736   -120.43854   -30830.488    4.2999527    4.2999527    4.2999527   -30830.488   -63177.493   -60294.176    30980.203   -81071.827   -12595.002   -768.61513    79.504378 
   30300    1398.2915   -121.69533    1.2652036   -120.43013    2403.8273    4.2863111    4.2863111    4.2863111    2403.8273    426.14898   -10363.513    17148.846   -11463.972   -17103.522   -7852.6246    78.750091 
   30400    1740.0026   -122.00332    1.5743909   -120.42892   -13357.111    4.2999902    4.2999902    4.2999902   -13357.111    6266.9954   -21650.367   -24687.961    12217.763    4434.7793    7067.6814    79.506454 
   30500    739.94004    -121.1067    0.6695133   -120.43719   -25848.686    4.3071414    4.3071414    4.3071414   -25848.686   -27639.222   -71445.052    21538.216   -71058.213   -3334.3923    3061.7229     79.90379 
   30600    1151.9294   -121.47252    1.0422899   -120.43023    6708.3085    4.2824819    4.2824819    4.2824819    6708.3085    12538.175   -21817.259     29404.01   -44033.724   -1673.6477      4919.57    78.539222 
   30700    1667.5406   -121.93645    1.5088258   -120.42763    14150.241    4.2922355    4.2922355    4.2922355    14150.241    28826.989    16504.425    -2880.692    26881.781   -11849.855   -9898.6016     79.07708 
   30800    1188.5113   -121.51013      1.07539   -120.43474   -26703.415    4.3027068    4.3027068    4.3027068   -26703.415   -15650.055   -50937.032   -13523.157    -36597.52   -13020.354   -1589.0278    79.657243 
   30900    773.26705   -121.13553   0.69966828   -120.43586    1884.6455    4.2893118    4.2893118    4.2893118    1884.6455   -17137.241   -11061.435    33852.612   -70508.444    9059.1649    14428.754      78.9156 
   31000    1505.1432   -121.78787    1.3618852   -120.42598    -8017.134    4.2983612    4.2983612    4.2983612    -8017.134   -9774.8985   -12348.273   -1928.2306    11713.391   -4109.5265   -6605.4016     79.41613 
   31100    1230.7138   -121.53814    1.1135757   -120.42456     -9950.55    4.3036627    4.3036627    4.3036627     -9950.55   -8284.5911   -12206.041   -9361.0175    21261.683    -14324.09    675.61706    79.710342 
   31200     778.2162   -121.13246   0.70414637   -120.42832    6910.1462    4.2899313    4.2899313    4.2899313    6910.1462   -13815.559    21279.862    13266.135   -56429.113   -1840.6861   -208.92287    78.949796 
   31300    1343.6917   -121.64016    1.2158005   -120.42436    11089.761    4.2928997    4.2928997    4.2928997    11089.761    11952.265    6302.1962    15014.822   -32530.291     2606.512   -2701.1142    79.113794 
   31400    1439.0602   -121.72677    1.3020919   -120.42468   -1703.5133    4.2995337    4.2995337    4.2995337   -1703.5133   -3160.1184    18528.919    -20479.34    32243.863    2452.2159    5448.1576    79.481136 
   31500    733.84155    -121.0997   0.66399526   -120.43571   -7487.4938    4.2981415    4.2981415    4.2981415   -7487.4938   -48559.815    32321.252   -6223.9192    4692.6272   -19987.181   -3383.6216    79.403954 
   31600    1182.4514   -121.49936    1.0699069   -120.42945    1978.7554    4.2944117    4.2944117    4.2944117    1978.7554   -25526.777    23181.976    8281.0672   -33914.581   -17968.114    3763.0012    79.197422 
   31700     1834.185   -122.07929    1.6596092   -120.41968    3534.4935    4.2906204    4.2906204    4.2906204    3534.4935   -3193.4234     11255.86    2541.0444   -10157.991      11604.8   -148.06708    78.987847 
   31800    756.38829   -121.12038   0.68439602   -120.43599   -15215.839    4.3029071    4.3029071    4.3029071   -15215.839   -58990.265    33585.958   -20243.211    33651.905   -14359.258    1917.1969    79.668368 
   31900    803.83573   -121.16259   0.72732746   -120.43527   -14710.329    4.3054155    4.3054155    4.3054155   -14710.329   -33541.458    14649.379   -25238.907   -1809.0193   -33161.979     3358.022    79.807777 
   32000    2034.1194   -122.25632    1.8405139   -120.41581    18817.697    4.2890388    4.2890388    4.2890388    18817.697    42645.564    15633.615   -1826.0868   -18829.764   -3837.0676   -7747.0558    78.900532 
   32100    1394.9734   -121.69285    1.2622013   -120.43065     12120.56    4.2891643    4.2891643    4.2891643     12120.56    14166.477    24605.483   -2410.2792    19293.858    2364.7979   -548.67912    78.907456 
   32200    375.50036   -120.78479   0.33976062   -120.44503   -16858.082    4.3079184    4.3079184    4.3079184   -16858.082   -44606.144    33950.958   -39919.058     17368.21   -18285.082    794.09411    79.947044 
   32300    1556.4391   -121.83221    1.4082988   -120.42391   -12710.454    4.3038104    4.3038104    4.3038104   -12710.454   -6886.7871    9278.8073   -40523.383    12215.221   -5859.3981   -763.26242    79.718549 
   32400    1737.4179   -121.98643    1.5720522   -120.41438    10665.604    4.2878776    4.2878776    4.2878776    10665.604    15358.054    8997.7437    7641.0133   -18357.717    2214.1586    14317.207    78.836462 
   32500    667.42431   -121.03942   0.60389954   -120.43552   -3302.4348     4.290156     4.290156     4.290156   -3302.4348   -29140.676    7818.5959    11414.775   -5658.2038   -8212.0119   -805.40001    78.962204 
   32600    900.90091   -121.25233   0.81515408   -120.43718   -10160.682    4.3037271    4.3037271    4.3037271   -10160.682   -20983.872    22731.484   -32229.657    24064.509   -1379.9082    1605.6271     79.71392 
   32700    1508.8966   -121.78593    1.3652814   -120.42065   -7139.5371    4.3076754    4.3076754    4.3076754   -7139.5371    9643.5854   -4394.2724   -26667.924   -9271.9513      2628.87     9391.895    79.933516 
   32800    934.84948   -121.27186   0.84587145   -120.42598    8375.0152     4.289189     4.289189     4.289189    8375.0152    5492.0005   -353.18652    19986.232   -45755.076    3628.9798   -4398.5039    78.908823 
   32900    738.05195   -121.10056   0.66780492   -120.43275    2029.2516    4.2902513    4.2902513    4.2902513    2029.2516   -14294.036    2004.7793    18377.012    286.74126   -9114.1516    3276.3661    78.967464 
   33000    1493.0096    -121.7737    1.3509065   -120.42279   -10952.225    4.3068604    4.3068604    4.3068604   -10952.225    -15050.68   -5227.7897   -12578.204    28524.554   -7771.1406    310.75977    79.888152 
   33100    1255.4337   -121.56031    1.1359428   -120.42437   -6075.2436    4.3019816    4.3019816    4.3019816   -6075.2436    13081.139   -29206.311   -2100.5588   -37603.402    5377.3873   -514.37599     79.61697 
   33200    902.66782   -121.25082   0.81675282   -120.43407   -13622.875    4.2910388    4.2910388    4.2910388   -13622.875   -20142.486   -38391.315    17665.176   -55468.102    5212.5122    2919.3516    79.010956 
   33300    1597.6377   -121.87758    1.4455762   -120.43201    4377.9513    4.2898448    4.2898448    4.2898448    4377.9513   -11256.036     17250.13      7139.76    9536.3343    827.79865    649.17507    78.945023 
   33400    1668.9666   -121.94058    1.5101161   -120.43047    3450.8257    4.3050662    4.3050662    4.3050662    3450.8257    39289.241   -10379.882   -18556.882    10886.019    -6478.645    -3136.971    79.788351 
   33500    768.88867   -121.13824   0.69570662   -120.44253   -24934.337    4.3059968    4.3059968    4.3059968   -24934.337   -18292.286   -66084.011    9573.2869   -68184.468    868.74555   -746.96573    79.840108 
   33600    958.35093   -121.30336   0.86713606   -120.43623    12317.278    4.2775623    4.2775623    4.2775623    12317.278    11788.708   -5218.9136    30382.039   -47389.023    3184.2678    11488.614    78.268865 
   33700    1893.7887    -122.1425    1.7135398   -120.42896    19162.757    4.2831025    4.2831025    4.2831025    19162.757    30830.746    22551.288    4106.2361    24200.073   -741.67122    3341.3809    78.573373 
   33800     1148.654   -121.47511    1.0393263   -120.43579   -20796.565     4.311232     4.311232     4.311232   -20796.565   -54557.302      6737.76   -14570.155   -29507.477   -3339.1336    140.13423    80.131665 
   33900    749.11847   -121.11787   0.67781813   -120.44005   -9421.3869    4.2959424    4.2959424    4.2959424   -9421.3869   -23630.458   -26349.758    21716.056   -75754.358   -2358.8694    1550.9537    79.282139 
   34000    1411.6236    -121.6998    1.2772667   -120.42254    26428.403    4.2770294    4.2770294    4.2770294    26428.403    26674.593     18519.39    34091.227   -646.05262     5576.578   -4281.2533    78.239616 
   34100    1353.8902   -121.65331    1.2250283   -120.42828   -2254.3079    4.2973172    4.2973172    4.2973172   -2254.3079   -33885.631    20722.229    6400.4779     14256.18    2187.1673    3787.0371    79.358278 
   34200    882.54493   -121.22697    0.7985452   -120.42843   -17172.631    4.3050414    4.3050414    4.3050414   -17172.631   -55783.429   -25177.505    29443.041   -34369.853   -6040.0698   -2050.9899    79.786972 
   34300    1210.2265   -121.51628    1.0950384   -120.42124    2710.8674    4.2918728    4.2918728    4.2918728    2710.8674   -7313.0296    -13051.59    28497.221   -25362.607    2235.2877   -5862.5972    79.057033 
   34400    1444.9169   -121.72664    1.3073911   -120.41925    110.10896    4.2882987    4.2882987    4.2882987    110.10896   -7033.8568    16628.039   -9263.8551    9802.4252    15046.949    3082.2084    78.859696 
   34500    1046.7513   -121.37786    0.9471226   -120.43074   -799.08094    4.2902976    4.2902976    4.2902976   -799.08094   -41292.652    13675.425    25219.984    2513.2119    8689.4896   -5444.4102    78.970022 
   34600    887.62304   -121.23745   0.80313998   -120.43431   -13827.883    4.3018386    4.3018386    4.3018386   -13827.883   -41030.291   -40155.463    39702.105   -29724.119    1066.3209    3201.5147     79.60903 
   34700    1226.9048   -121.53576    1.1101292   -120.42563    -7100.231    4.3001079    4.3001079    4.3001079    -7100.231   -18529.022    3723.5978   -6495.2689   -9144.0622   -3244.6365    7032.5012    79.512987 
   34800    1586.0736   -121.85474    1.4351127   -120.41963    13422.654    4.2793092    4.2793092    4.2793092    13422.654    8133.7867    43496.258   -11362.083    4717.0742    3534.1699   -5880.3785    78.364794 
   34900    915.15537   -121.26462   0.82805181   -120.43657    17629.427    4.2887417    4.2887417    4.2887417    17629.427    6294.8708    15999.028    30594.381   -16340.818    4634.1763    3574.6421    78.884138 
   35000    1022.8624   -121.35757   0.92550738   -120.43207   -15901.999    4.3061748    4.3061748    4.3061748   -15901.999   -49105.714   -22209.985    23609.702   -12145.805   -202.32756   -2775.7524    79.850007 
   35100    1530.3376   -121.80449    1.3846816   -120.41981    20101.726    4.2906727    4.2906727    4.2906727    20101.726    31410.802    39482.316    -10587.94    2579.4705   -12744.115   -7496.0703    78.990738 
   35200    1407.2427   -121.69466    1.2733028   -120.42136    14365.525    4.2869647    4.2869647    4.2869647    14365.525     17869.42    47328.173   -22101.019   -2989.8096   -15509.162    7686.2224    78.786123 
   35300    1057.1463   -121.38983   0.95652817    -120.4333   -11417.641    4.2931212    4.2931212    4.2931212   -11417.641   -45222.201    -7155.941    18125.218   -23912.685    794.45941   -1013.7258    79.126045 
   35400    1153.6706   -121.47654    1.0438654   -120.43268    24599.047    4.2913072    4.2913072    4.2913072    24599.047    17111.243    26150.951    30534.948   -9521.2819    2935.9291   -2961.3449    79.025787 
   35500    1661.9414   -121.92834    1.5037595   -120.42458   -13362.325     4.302703     4.302703     4.302703   -13362.325   -18588.411    20961.322   -42459.887    15019.153    -22353.55    4641.7898    79.657032 
   35600    938.67041    -121.2828   0.84932871   -120.43348   -7572.4602    4.2908951    4.2908951    4.2908951   -7572.4602   -36153.329    47051.316   -33615.367   -14008.101    -21025.88   -1409.7674    79.003017 
   35700    1007.5519   -121.34177   0.91165417   -120.43011    20019.466     4.277833     4.277833     4.277833    20019.466    10428.447    8156.3337    41473.617   -22255.138    11703.339    2622.5599    78.283726 
   35800    1543.5147   -121.82237    1.3966045   -120.42577   -19634.331    4.3056443    4.3056443    4.3056443   -19634.331   -27134.549   -14132.745     -17635.7   -10235.493   -7433.8814   -1812.9377    79.820501 
   35900     935.3991   -121.27767   0.84636876    -120.4313   -14276.901    4.2986012    4.2986012    4.2986012   -14276.901   -30282.584    42643.009   -55191.127    5423.5709   -37862.166   -498.43772    79.429432 
   36000    798.51401   -121.14784   0.72251226   -120.42533    9924.4131    4.2780296    4.2780296    4.2780296    9924.4131    7912.9403    30304.204   -8443.9048   -11790.884   -6938.8933   -641.88064    78.294521 
   36100    1464.4557   -121.74931    1.3250702   -120.42424   -11678.995    4.2987647    4.2987647    4.2987647   -11678.995   -10218.678   -28833.332    4015.0241    -45993.24    19949.026   -1881.4063    79.438498 
   36200    1361.1552   -121.65849    1.2316019   -120.42688    4153.9898    4.2917523    4.2917523    4.2917523    4153.9898    -6484.741    28177.325   -9230.6146   -1406.4801   -29565.105    406.97766    79.050375 
   36300    818.89755   -121.17417   0.74095571   -120.43322    4755.6674     4.286037     4.286037     4.286037    4755.6674    15329.967    39768.244   -40831.209    6077.5207   -41621.532   -5012.1614    78.734983 
   36400    1233.2095   -121.54752    1.1158339   -120.43169   -17304.532    4.3026568    4.3026568    4.3026568   -17304.532   -17920.433   -2294.5175   -31698.644   -12108.665    22859.692    3878.8865    79.654462 
   36500    1764.4641   -122.02136    1.5965242   -120.42483    16187.604    4.2821928    4.2821928    4.2821928    16187.604    12104.761    6152.8616     30305.19   -3019.0583    9466.0705    936.98927     78.52332 
   36600    902.26997   -121.25659   0.81639283    -120.4402    5992.7943    4.2838182    4.2838182    4.2838182    5992.7943    23862.082    21516.316   -27400.015   -5253.4334   -62301.598    4631.6444    78.612768 
   36700    756.42439   -121.12131   0.68442868   -120.43688   -36938.212    4.3074141    4.3074141    4.3074141   -36938.212   -37124.119   -9229.6287   -64460.888    12022.114   -29757.103    3835.2823    79.918967 
   36800    1763.7244   -122.01778    1.5958549   -120.42193    12848.851    4.2836055    4.2836055    4.2836055    12848.851    9835.4208    90.589224    28620.544    1381.2979    32268.423   -8766.9434    78.601059 
   36900    1450.8105   -121.74043    1.3127238   -120.42771   -4605.4991    4.2859007    4.2859007    4.2859007   -4605.4991   -12135.272    3845.8677   -5527.0933    -7831.689   -30365.809    8046.8901    78.727473 
   37000    512.81505   -120.90188   0.46400583   -120.43787   -37829.773    4.3015377    4.3015377    4.3015377   -37829.773   -49260.489   -776.28059   -63452.548    2916.7518   -75966.614    8233.1695    79.592327 
   37100    1242.1019   -121.55528    1.1238799    -120.4314     12317.35    4.2826106    4.2826106    4.2826106     12317.35    24754.407   -20350.029    32547.672    993.45278   -131.88428    -9356.982    78.546307 
   37200    1651.5959   -121.92104    1.4943987   -120.42664    2198.5388    4.2935258    4.2935258    4.2935258    2198.5388   -758.67743   -7981.9736    15336.268    15049.125    5778.7273   -761.63568    79.148417 
   37300    1018.5752   -121.35428   0.92162828   -120.43265   -19608.255     4.297456     4.297456     4.297456   -19608.255   -47467.426    24282.981    -35640.32    3870.8958   -71419.231   -1410.2107    79.365969 
   37400    1014.5444   -121.34708   0.91798107    -120.4291    18810.242    4.2821097    4.2821097    4.2821097    18810.242    27616.934    27902.888    910.90349   -1313.8494   -33960.846    1747.8974    78.518746 
   37500    1688.5715   -121.95088    1.5278549   -120.42303   -12174.837    4.2960163    4.2960163    4.2960163   -12174.837    24567.546   -45295.078   -15796.979    9493.4097    22744.922    5631.6251    79.286231 
   37600    863.07774   -121.21406   0.78093088   -120.43313   -8223.1601    4.2922012    4.2922012    4.2922012   -8223.1601    4341.5138    11031.849   -40042.843   -1412.3079   -45438.694   -11258.389    79.075185 
   37700     938.8505    -121.2844   0.84949166   -120.43491   -369.75044    4.2843875    4.2843875    4.2843875   -369.75044   -33188.463    36388.831   -4309.6195    3400.2125   -74485.287    4172.0344    78.644116 
   37800    1726.4692   -121.98586    1.5621456   -120.42372    -3940.926    4.2986813    4.2986813    4.2986813    -3940.926   -9402.2936   -16636.194     14215.71   -6804.4521    12196.559    76.112884    79.433872 
   37900    1257.7942   -121.57285    1.1380787   -120.43477    6153.9256    4.2871333    4.2871333    4.2871333    6153.9256    9777.3942    -13523.97    22208.352   -11969.084   -9136.1944    -15469.94    78.795415 
   38000    323.14526    -120.7397   0.29238862   -120.44731   -1472.4388    4.2874674    4.2874674    4.2874674   -1472.4388   -7082.7086    30545.364   -27879.972    3513.6284   -87793.905   -195.22717    78.813843 
   38100    1373.1579   -121.67764    1.2424621   -120.43518   -20815.116    4.3013372    4.3013372    4.3013372   -20815.116   -10294.881   -11813.209   -40337.259   -2937.4698   -16409.082   -1735.4666    79.581197 
   38200    1780.4131   -122.03383    1.6109552   -120.42288     20486.28    4.2864092    4.2864092    4.2864092     20486.28    36913.187    17431.893    7113.7606   -793.34834    33719.702   -1771.5875    78.755497 
   38300    740.60076   -121.11025   0.67011114   -120.44014   -23582.933    4.2942979    4.2942979    4.2942979   -23582.933   -40285.735    38853.154   -69316.219   -6614.8655   -67094.209   -6390.6611    79.191125 
   38400    1086.6684   -121.41921   0.98324044   -120.43597   -23214.955    4.2935974    4.2935974    4.2935974   -23214.955   -25751.329    19603.219   -63496.755   -7358.8175   -61092.891   -7912.7608    79.152376 
   38500     2007.745   -122.23712    1.8166499   -120.42047    22621.796     4.281757     4.281757     4.281757    22621.796     50162.62    3555.4679    14147.299    16907.729    20592.338    8178.2712    78.499348 
   38600    1010.9182   -121.35054   0.91470005   -120.43584   -11087.337    4.3029596    4.3029596    4.3029596   -11087.337    -12368.53    25112.855   -46006.336   -54.156101   -36896.688    435.03087    79.671283 
   38700    706.65866   -121.07519    0.6393996   -120.43579    -15764.32    4.2961011    4.2961011    4.2961011    -15764.32   -3664.1481    33424.571   -77053.383   -6734.2354   -64097.107   -2585.1012    79.290922 
   38800    1546.3139   -121.81944    1.3991373    -120.4203    30391.555     4.274922     4.274922     4.274922    30391.555    54016.737    26274.551    10883.378    5586.7058    8002.7469   -8973.8708    78.124019 
   38900    1483.4179   -121.77054    1.3422277   -120.42831    691.97378     4.292454     4.292454     4.292454    691.97378    3767.4668   -3833.8152    2142.2698    9247.7031    1150.7113   -9146.3655    79.089158 
   39000     607.2909   -120.98709   0.54948957    -120.4376   -23639.341    4.3030282    4.3030282    4.3030282   -23639.341   -38183.883    11234.492   -43968.631    17723.899   -74345.977    5978.2962    79.675092 
   39100    1126.1966   -121.45174    1.0190063   -120.43274    7966.2036    4.2887506    4.2887506    4.2887506    7966.2036    4748.0082    20106.167   -955.56496   -2610.4378    -30983.42   -7134.2513    78.884628 
   39200    1809.5447   -122.05909    1.6373141   -120.42177     23404.37    4.2871464    4.2871464    4.2871464     23404.37    32270.908    22696.852    15245.349   -8780.2271    31831.504   -5362.8761    78.796141 
   39300    821.49886    -121.1866   0.74330943   -120.44329   -1396.4107    4.2904584    4.2904584    4.2904584   -1396.4107   -30289.961    40857.525   -14756.796    8843.8566   -51865.388    4090.9699    78.978901 
   39400    488.16159   -120.89128   0.44169887   -120.44958   -9998.7268    4.2950484    4.2950484    4.2950484   -9998.7268   -63186.955    33931.712   -740.93733    12925.956   -72998.131   -2296.9046     79.23265 
   39500    1755.9746   -122.01759    1.5888427   -120.42875    51.995794    4.2983102    4.2983102    4.2983102    51.995794   -9209.3704   -1107.2008    10472.559     11486.53    15660.233    6480.7759    79.413303 
   39600     1574.354   -121.85422    1.4245086   -120.42971    2312.7514    4.2872939    4.2872939    4.2872939    2312.7514   -12004.194    32728.473   -13786.024   -5086.8043    -16147.25   -281.04923    78.804273 
   39700    758.85111   -121.12664   0.68662443   -120.44001   -1126.3136    4.2812812    4.2812812    4.2812812   -1126.3136   -28976.203    48947.566   -23350.304    3876.7033   -81287.699    -3478.506     78.47318 
   39800    1074.3035   -121.41266   0.97205241   -120.44061    -6623.388    4.2983089    4.2983089    4.2983089    -6623.388   -13108.896   -5612.7773    -1148.491    26480.659   -16721.348   -2916.5565    79.413231 
   39900    1522.7639    -121.8016    1.3778288   -120.42378   -5375.4474    4.3011059    4.3011059    4.3011059   -5375.4474   -5842.8345   -22687.732    12404.225    15450.553    21555.319   -732.66268     79.56836 
   40000    1120.6856   -121.43774    1.0140199   -120.42372    1682.7536    4.2863593    4.2863593    4.2863593    1682.7536   -6015.7674    44036.571   -32972.543   -11925.476   -52248.547    5314.3662    78.752751 
   40100    1045.9339   -121.37545   0.94638301   -120.42907   -367.24917    4.2889839    4.2889839    4.2889839   -367.24917   -11022.154    36281.807   -26361.401    6632.2332   -51827.851   -1613.3776    78.897501 
   40200    1620.2687   -121.88887    1.4660532   -120.42282   -758.29582    4.2924643    4.2924643    4.2924643   -758.29582   -915.62308   -20737.794    19378.529     36104.67    13683.397   -3377.3264    79.089729 
   40300    1158.4246    -121.4763    1.0481669   -120.42814    9940.9861    4.2932193    4.2932193    4.2932193    9940.9861    2518.4708    29043.778   -1739.2903    18551.183   -22561.577   -4015.4782    79.131466 
   40400    919.10332   -121.26331     0.831624   -120.43168   -13813.952    4.3016849    4.3016849    4.3016849   -13813.952   -22983.464    49099.087   -67557.478   -13072.624   -60632.298    -7837.346      79.6005 
   40500    1458.0398   -121.74173    1.3192651   -120.42246     1731.968    4.2859833    4.2859833    4.2859833     1731.968    988.88042    13659.112   -9452.0885    4996.2581   -7949.1422    3946.3259    78.732025 
   40600    1316.0695   -121.61437    1.1908073   -120.42356    22603.897    4.2756027    4.2756027    4.2756027    22603.897    2465.8869    22184.803    43161.001    37834.911    10870.785    1576.7357    78.161346 
   40700    587.16841    -120.9732   0.53128232   -120.44192   -24229.894    4.3028463    4.3028463    4.3028463   -24229.894   -67367.039     20895.94   -26218.582    19348.073   -67928.637    345.69732    79.664986 
   40800    1210.6002   -121.52535    1.0953765   -120.42998   -12401.504     4.299863     4.299863     4.299863   -12401.504   -22975.978    25537.388   -39765.922   -9600.1481   -49628.798    2088.3453      79.4994 
   40900    1821.7998   -122.06207    1.6484028   -120.41367    21591.365    4.2811931    4.2811931    4.2811931    21591.365    26794.621    12419.233    25560.243    3140.4648    27869.892   -7815.5197    78.468337 
   41000     741.3082   -121.10898   0.67075123   -120.43823   -14860.655    4.2888148    4.2888148    4.2888148   -14860.655   -37957.129    7814.8748   -14439.709     39134.43   -42932.085    6103.9714    78.888167 
   41100    422.26178   -120.83162   0.38207133   -120.44955   -12048.188    4.2909283    4.2909283    4.2909283   -12048.188   -48639.988    39569.005   -27073.582     20046.77   -81353.219   -2213.2817    79.004852 
   41200    1770.9369   -122.03686    1.6023809   -120.43448    8465.6675    4.2940034    4.2940034    4.2940034    8465.6675    2224.4153    11777.154    11395.433   -4936.3839    7809.7464    2803.9782    79.174833 
   41300    1683.0869   -121.95711    1.5228924   -120.43422   -8358.1599      4.29619      4.29619      4.29619   -8358.1599   -6571.3825   -2449.0739   -16054.023   -9957.4834   -3946.3091    3417.5567    79.295844 
   41400    407.60176   -120.81816   0.36880664   -120.44935   -4589.6944    4.2812378    4.2812378    4.2812378   -4589.6944   -39941.742    48504.696   -22332.037    17283.799    -79825.03  -0.19846062    78.470796 
   41500    954.44737   -121.31276   0.86360404   -120.44916    3310.9575    4.2898156    4.2898156    4.2898156    3310.9575   -6929.8554    12819.324    4043.4041    34850.725   -26802.425    4428.5891    78.943409 
   41600    2025.8444   -122.25475    1.8330266   -120.42173   -13241.097    4.3048224    4.3048224    4.3048224   -13241.097    -4044.301   -25975.114   -9703.8752    5672.2706     18088.85   -2638.2847    79.774797 
   41700     1129.105   -121.44963     1.021638   -120.42799    4602.8222    4.2917473    4.2917473    4.2917473    4602.8222    -8850.834    50346.664   -27687.363    -5619.002     -62830.5    2552.5849    79.050101 
   41800    1014.5773    -121.3433    0.9180109   -120.42529   -9964.0549    4.2891701    4.2891701    4.2891701   -9964.0549   -36150.282    9337.0533   -3078.9363    21730.093   -46092.459   -2262.6241    78.907777 
   41900    1531.5843   -121.80444    1.3858097   -120.41863   -8074.6833    4.2914917    4.2914917    4.2914917   -8074.6833   -21236.016    -36032.72    33044.686    41204.435    21120.086   -954.95966     79.03598 
   42000    1277.1699   -121.57752    1.1556101   -120.42191    4449.0549    4.2894557    4.2894557    4.2894557    4449.0549   -19762.346    29077.085    4032.4261    3706.3809   -25775.568    194.37145    78.923541 
   42100    1125.4084   -121.44416    1.0182932   -120.42587    -7576.132    4.2991396    4.2991396    4.2991396    -7576.132   -31901.288    35595.237   -26422.345   -11065.393   -60886.321   -1430.6236    79.459283 
   42200    1310.2437   -121.60777     1.185536   -120.42223   -12909.733    4.2935479    4.2935479    4.2935479   -12909.733   -25680.328   -33779.639     20730.77    46881.047      614.794    6628.4812    79.149637 
   42300    1057.5048   -121.37987   0.95685254   -120.42302    5431.8656    4.2803816    4.2803816    4.2803816    5431.8656   -19194.271   -7452.6648    42942.533    41401.249    2231.5111   -5734.9916    78.423722 
   42400    959.92484   -121.29924   0.86856016   -120.43068   -3989.1866    4.2921849    4.2921849    4.2921849   -3989.1866   -21572.415    35917.996    -26313.14   -8965.8656    -56962.39     1403.214    79.074282 
   42500    1248.7295   -121.55446    1.1298767   -120.42459   -10094.246    4.2987012    4.2987012    4.2987012   -10094.246   -29431.581    19468.749   -20319.907   -237.45529   -27668.915   -4615.6397    79.434975 
   42600    1198.7634   -121.50574    1.0846663   -120.42107    7332.4349    4.2877388    4.2877388    4.2877388    7332.4349    -8251.601   -24916.899    55165.804    46447.387    17992.659   -1591.8995    78.828806 
   42700    988.29989   -121.32074   0.89423451    -120.4265   -9059.4042    4.2894079    4.2894079    4.2894079   -9059.4042   -26853.412   -10462.515    10137.714    31019.846   -28348.852    5505.5117    78.920901 
   42800    1026.4164   -121.35843    0.9287231   -120.42971    7365.8645    4.2906605    4.2906605    4.2906605    7365.8645   -11975.581    52166.623   -18093.448   -15022.404   -56116.564   -7605.3151     78.99006 
   42900    1555.3731   -121.82873    1.4073343   -120.42139    12320.386    4.2895994    4.2895994    4.2895994    12320.386    3002.0547    11841.971    22117.134    21221.159   -289.08783    28.075287    78.931473 
   43000    1203.4596   -121.51658    1.0889155   -120.42766   -10534.691     4.299911     4.299911     4.299911   -10534.691   -31678.346   -12963.924    13038.197    47962.161    5735.4298   -1845.8276    79.502063 
   43100    717.72135   -121.08158   0.64940936   -120.43217   -10513.942    4.2937108    4.2937108    4.2937108   -10513.942   -40319.597    38341.673   -29563.903    9034.5034   -61851.231    5694.2785    79.158646 
   43200     1479.752   -121.75934    1.3389107   -120.42043    14604.409    4.2863594    4.2863594    4.2863594    14604.409    10888.966    44702.212   -11777.951   -12598.916   -30225.043   -2474.7341    78.752756 
   43300    1743.6695   -121.99221    1.5777088    -120.4145   -11783.559    4.3016145    4.3016145    4.3016145   -11783.559   -17720.003   -27354.852    9724.1785    16304.153    21985.031   -7486.3143    79.596591 
   43400    606.54356   -120.98214   0.54881336   -120.43332   -8808.2108    4.2940082    4.2940082    4.2940082   -8808.2108   -35209.377    12452.823   -3668.0786    36441.478   -45286.691    9108.6841    79.175099 
   43500    823.67589   -121.18048   0.74527926    -120.4352    12023.761    4.2814565    4.2814565    4.2814565    12023.761   -15627.289    41403.564    10295.007    4982.2541   -65443.083    1100.5737    78.482821 
   43600    2053.0012   -122.27919    1.8575986   -120.42159    3873.0198     4.296258     4.296258     4.296258    3873.0198    10438.392    -3048.231    4228.8986   -9322.1539    12272.792   -474.87078    79.299611 
   43700    1372.5543   -121.67684    1.2419159   -120.43493    8609.4147    4.2940692    4.2940692    4.2940692    8609.4147   -13982.267    12750.717    27059.794    15133.558   -6379.7695    504.36899    79.178475 
   43800    382.04074   -120.79105   0.34567849   -120.44537    5946.6238     4.288717     4.288717     4.288717    5946.6238   -35194.933    47563.173     5471.631    24765.857   -73915.864    1433.1172    78.882773 
   43900    1414.4291   -121.71471    1.2798052    -120.4349   -8933.2296    4.2995451    4.2995451    4.2995451   -8933.2296   -26289.551     3560.557   -4070.6947     11133.41   -8112.1848    6584.9562    79.481769 
   44000    1993.8555   -122.21846    1.8040823   -120.41437    6495.9929     4.293259     4.293259     4.293259    6495.9929    7996.1508    632.97667    10858.851   -16808.086    14883.735    -8160.595    79.133665 
   44100    611.41518   -120.98359    0.5532213   -120.43037   -13841.801    4.2970583    4.2970583    4.2970583   -13841.801   -29381.835    14196.561   -26340.129    5092.7051   -72333.435   -2749.3137    79.343937 
   44200     807.6075   -121.16176   0.73074024   -120.43102   -27213.999    4.3017778    4.3017778    4.3017778   -27213.999   -61676.196   -23385.846    3420.0458    36975.304   -30462.595   -1552.2796    79.605656 
   44300    1821.1597    -122.0576    1.6478236   -120.40978    8573.2052    4.2869297    4.2869297    4.2869297    8573.2052    9648.3751   -17291.899    33363.139    9276.2348    22419.449   -6151.5438    78.784194 
   44400      1100.05   -121.41806   0.99534839   -120.42271    1565.4615    4.2892227    4.2892227    4.2892227    1565.4615   -16743.087    33169.653   -11730.181    -13937.15   -51470.388    107.08083    78.910679 
   44500    704.79042   -121.06484   0.63770918   -120.42713   -23548.245     4.303245     4.303245     4.303245   -23548.245   -57419.366    218.19983    -13443.57    14703.101   -51411.911   -4938.2359    79.687137 
   44600    1355.9189    -121.6449    1.2268639   -120.41804     1132.232     4.294742     4.294742     4.294742     1132.232   -9721.7033   -36425.327    49543.727    31142.818    11539.681   -8151.0566    79.215696 
   44700    1434.5064   -121.71474    1.2979716   -120.41677    14694.959    4.2789904    4.2789904    4.2789904    14694.959   -11335.365    23044.403    32375.838    8279.1584   -11833.039   -6057.2734    78.347284 
   44800    619.30473   -120.99398   0.56035994   -120.43362    5132.3276    4.2897066    4.2897066    4.2897066    5132.3276   -48297.934     54654.67    9040.2469   -12044.247   -72527.408    182.45445    78.937391 
   44900    1182.2959   -121.49739    1.0697662   -120.42762   -12335.298    4.3038614    4.3038614    4.3038614   -12335.298   -37156.109   -9840.3711    9990.5876    5826.8361   -5030.0333    1065.7599    79.721387 
   45000    1732.3154   -121.98229    1.5674354   -120.41485    8317.3804    4.2892137    4.2892137    4.2892137    8317.3804   -6614.8713   -7790.9404    39357.953    14813.127    14919.165   -5478.5751    78.910184 
   45100    934.28733   -121.27296   0.84536281    -120.4276    395.40624    4.2822275    4.2822275    4.2822275    395.40624   -27166.175    54353.382   -26000.989    -551.4718   -84263.616   -2776.8967     78.52523 
   45200    1105.4605   -121.43094    1.0002439   -120.43069   -11562.486    4.2939277    4.2939277    4.2939277   -11562.486   -28478.622     33717.71   -39926.546    -8164.003   -43473.417   -3270.3106    79.170643 
   45300    1939.1578   -122.16817    1.7545907   -120.41358   -4960.5933    4.2981309    4.2981309    4.2981309   -4960.5933    2430.1568   -21738.663    4426.7263    5274.4823    39548.327   -1693.9492    79.403368 
   45400    887.99522   -121.23481   0.80347673   -120.43133   -13867.272    4.2923192    4.2923192    4.2923192   -13867.272   -31829.979    33709.297   -43481.134    5432.3084   -54633.275     3485.491    79.081705 
   45500    673.78039   -121.04714   0.60965065   -120.43749   -1.3907024     4.284574     4.284574     4.284574   -1.3907024   -21275.977    61311.156   -40039.352    271.49887   -82128.037   -2539.4499    78.654387 
   45600    2095.3351   -122.31644    1.8959032   -120.42053     9210.578    4.2945219    4.2945219    4.2945219     9210.578    42914.469   -9311.5391   -5971.1954   -6682.3407     17924.15   -4185.4671    79.203517 
   45700    1198.8642   -121.51115    1.0847576   -120.42639   -6430.2246    4.3073602    4.3073602    4.3073602   -6430.2246    4228.5182    26884.487   -50403.679   -11573.475   -43332.607   -5349.7004    79.915971 
   45800    684.80548   -121.03925   0.61962639   -120.41962    65.703212    4.2962242    4.2962242    4.2962242    65.703212   -9849.5827    68046.258   -57999.566    2737.4787   -72879.878    500.59671    79.297739 
   45900    1578.2675   -121.82494    1.4280496   -120.39689    15238.733    4.2880896    4.2880896    4.2880896    15238.733    14728.147    15926.937    15061.114      3930.06     26503.42   -4140.5376    78.848156 
   46000    1140.5163   -121.44164    1.0319631   -120.40968   -10753.395    4.2945767    4.2945767    4.2945767   -10753.395   -22891.934    1679.9849   -11048.236    249.93174   -15374.433     -5712.49    79.206551 
   46100    724.18602   -121.07972   0.65525873   -120.42447   -12886.486    4.2934198    4.2934198    4.2934198   -12886.486   -48115.245     32753.32   -23297.533   -4055.5137   -80774.209   -6493.8523    79.142555 
   46200    1597.8921   -121.86027    1.4458063   -120.41446   -812.57293    4.2892587    4.2892587    4.2892587   -812.57293    -15528.61    11604.725     1486.167    540.52264   -4799.7251   -1130.3835    78.912667 
   46300    1232.2814   -121.53595    1.1149941   -120.42096   -13034.251    4.2967427    4.2967427    4.2967427   -13034.251   -45075.475   -19091.662    25064.385    13521.986    28860.967    2657.0651    79.326456 
   46400    613.30279    -120.9834   0.55492926   -120.42847   -20753.957    4.2933449    4.2933449    4.2933449   -20753.957   -52722.381    16433.591   -25973.081    1463.5892   -60519.395    -5818.921    79.138415 
   46500    1392.6074   -121.68236    1.2600605    -120.4223    3380.0568    4.2892269    4.2892269    4.2892269    3380.0568   -3880.0251    14338.933   -318.73745   -2911.5821   -41936.471   -5848.5986    78.910912 
   46600    1664.2046   -121.92332    1.5058073   -120.41751   -11064.877    4.2980096    4.2980096    4.2980096   -11064.877   -34989.955   -19864.872    21660.195    7001.0134     29316.75    1307.7585    79.396645 
   46700    499.27757    -120.8821   0.45175684   -120.43034   -9210.2493    4.2928738    4.2928738    4.2928738   -9210.2493   -37111.238    13079.867   -3599.3772    11198.795   -22511.412    4735.2544    79.112367 
   46800     953.6166   -121.29142   0.86285234   -120.42857    3726.3468     4.293004     4.293004     4.293004    3726.3468   -22918.221    24798.689    9298.5719     6346.104   -46914.553    2820.6004    79.119561 
   46900    1955.0954   -122.18211    1.7690114    -120.4131   -524.21894    4.2949999    4.2949999    4.2949999   -524.21894   -4462.5231   -16848.723     19738.59   -3834.1893    2057.1287   -10744.363    79.229969 
   47000    983.46723   -121.31639   0.88986182   -120.42653    4759.6315    4.2888125    4.2888125    4.2888125    4759.6315    7161.3087   -19475.959    26593.544    3876.7978    4995.8696    1333.2583     78.88804 
   47100    877.30059   -121.22454   0.79380001   -120.43074   -14988.149    4.2955606    4.2955606    4.2955606   -14988.149    -37970.62    10031.476   -17025.303    3675.4528   -46624.967    9523.0126    79.261003 
   47200    1781.7182    -122.0287    1.6121361   -120.41657    5910.3737    4.2917513    4.2917513    4.2917513    5910.3737     4727.297    11436.887    1566.9365   -6498.3952   -18302.781    -4946.735    79.050322 
   47300    1294.2141   -121.59323    1.1710321    -120.4222   -1728.0327    4.2907547    4.2907547    4.2907547   -1728.0327    28528.177   -45840.972    12128.697   -15119.264    15512.355    -7021.092    78.995263 
   47400    765.93086   -121.12112   0.69303034   -120.42809   -18462.398    4.2964638    4.2964638    4.2964638   -18462.398   -25241.699   -29729.866   -415.63059   -3285.1142   -15664.855    -7895.864     79.31101 
   47500    1741.8509   -121.99161    1.5760633   -120.41555    8658.3663    4.2863516    4.2863516    4.2863516    8658.3663   -2850.4436     23356.13    5469.4129    12612.534    -15478.02    5817.6314    78.752322 
   47600    1351.2762   -121.64505    1.2226631   -120.42239   -8157.4668    4.2952248    4.2952248    4.2952248   -8157.4668    28300.723   -39213.302   -13559.822   -7052.1013   -293.64037    10831.397    79.242415 
   47700    517.24276   -120.90053   0.46801212   -120.43251   -25971.592    4.2988805    4.2988805    4.2988805   -25971.592   -11216.241   -63731.777   -2966.7574   -17434.575    15637.645   -13517.902    79.444918 
   47800    1452.6393   -121.73358    1.3143786    -120.4192    9730.6774    4.2840652    4.2840652    4.2840652    9730.6774   -9783.2466    16168.865    22806.414   -8099.9732    5071.5103   -8562.9586    78.626367 
   47900    1590.1385   -121.85609    1.4387907    -120.4173   -15504.709    4.2974479    4.2974479    4.2974479   -15504.709     8652.995   -23941.986   -31225.135    6568.4262   -8999.6634     24152.33    79.365522 
   48000    481.76461   -120.86964   0.43591074   -120.43373   -27078.173    4.2961245    4.2961245    4.2961245   -27078.173   -9885.8316   -62201.655   -9147.0331    -11794.92    2101.8705     20233.07     79.29222 
   48100    939.57788   -121.28154   0.85014981   -120.43139    11119.003    4.2821555    4.2821555    4.2821555    11119.003   -9288.4673    26579.671    16065.805   -20431.781    8605.7398   -12205.263    78.521266 
   48200    1849.8173   -122.09252    1.6737536   -120.41876   -7844.2146    4.2962096    4.2962096    4.2962096   -7844.2146   -8559.4584    7135.0621   -22108.248    5677.9864    12003.089    549.82341    79.296934 
   48300    872.20241    -121.2237   0.78918707   -120.43451   -6562.6983    4.2910497    4.2910497    4.2910497   -6562.6983    6510.7179   -10092.084   -16106.729    16057.388    -5618.188    39009.772    79.011562 
   48400    676.17572   -121.05412     0.611818    -120.4423    3446.8949    4.2874919    4.2874919    4.2874919    3446.8949    9870.1703    10088.924   -9618.4093   -9726.1265   -5023.1708    15239.096    78.815194 
   48500    2009.0621   -122.24258    1.8178416   -120.42473   -1681.0502    4.2973155    4.2973155    4.2973155   -1681.0502    3001.6238   -1126.6124    -6918.162   -17881.927    8647.4272   -15045.594    79.358186 
   48600    1474.8654   -121.76331    1.3344892   -120.42882    25804.859    4.2853477    4.2853477    4.2853477    25804.859    26397.456    42979.989    8037.1318    15962.628   -4916.8501    19807.291    78.697005 
   48700    419.31308   -120.82548   0.37940329   -120.44608   -16929.429    4.2987831    4.2987831    4.2987831   -16929.429    10739.439   -39626.881   -21900.844    14968.742   -2345.4172    34437.236    79.439518 
   48800    1458.9023   -121.74722    1.3200455   -120.42717   -16443.862    4.2999458    4.2999458    4.2999458   -16443.862    5870.4154   -26778.436   -28423.566   -6918.9832   -9311.8165   -5971.2289    79.503995 
   48900    1908.6562   -122.13722    1.7269922   -120.41022    36599.823    4.2753019    4.2753019    4.2753019    36599.823    26393.252    50049.808     33356.41    -4697.296   -921.78952   -248.16643     78.14485 
   49000    467.18536   -120.86449   0.42271913   -120.44178   -29199.579    4.2974983    4.2974983    4.2974983   -29199.579   -4552.7767   -58931.119   -24114.841    18438.665    8756.0312    41926.388     79.36831 
   49100    744.12372   -121.11009   0.67329878   -120.43679   -27472.055    4.3012969    4.3012969    4.3012969   -27472.055   -10557.088   -46456.838   -25402.239    19281.411   -2796.5279    30540.292    79.578958 
   49200    2098.1752   -122.30797     1.898473    -120.4095    29651.421    4.2828681    4.2828681    4.2828681    29651.421    27910.429    38263.596    22780.238   -4279.9434    2548.6215   -15944.401    78.560474 
   49300    1116.4526   -121.44158    1.0101898   -120.43139   -10473.127    4.2948049    4.2948049    4.2948049   -10473.127    15482.482   -24230.318   -22671.545   -2406.8509    3858.2458    17979.997    79.219178 
   49400    459.46727   -120.85259   0.41573564   -120.43686   -2076.0701    4.2951297    4.2951297    4.2951297   -2076.0701    39991.491   -17335.046   -28884.655    8785.4748    4870.0388     46512.74     79.23715 
   49500    1667.8577   -121.92888    1.5091127   -120.41976    18606.741    4.2949582    4.2949582    4.2949582    18606.741    39619.407    10423.252    5777.5636    16464.405   -2616.1118   -1014.6958    79.227658 
   49600    1563.6739   -121.83681     1.414845   -120.42197   -5362.2393    4.2968359    4.2968359    4.2968359   -5362.2393    5836.8082    4854.2868   -26777.813   -9342.4683   -19798.936   -9733.6038    79.331619 
   49700    487.40387   -120.87687   0.44101326   -120.43585   -2240.7366    4.2844996    4.2844996    4.2844996   -2240.7366    27821.001    6885.5808   -41428.792   -10896.646    -14097.91     33979.25     78.65029 
   49800    1191.8018   -121.51207    1.0783673   -120.43371    5912.5148    4.2893949    4.2893949    4.2893949    5912.5148    31209.243    -7033.507   -6438.1919    10732.555   -531.98542    32565.835    78.920183 
   49900    1778.5406    -122.0263    1.6092609   -120.41703    -10179.37    4.3055397    4.3055397    4.3055397    -10179.37   -26893.184        14838   -18482.925   -2598.3657    339.07093   -10759.079    79.814682 
   50000    575.56056   -120.95486   0.52077929   -120.43408    -8261.173    4.2938203    4.2938203    4.2938203    -8261.173   -14660.594    27700.298   -37823.223   -7894.3707   -18044.937   -1926.2896    79.164704 
   50100    767.58006   -121.12542   0.69452257   -120.43089    3974.9174    4.2790604    4.2790604    4.2790604    3974.9174    21959.331    1670.4908   -11705.069   -16113.521   -12283.187    27924.724    78.351129 
   50200    1636.9203    -121.9069    1.4811199   -120.42578     3372.166    4.2921744    4.2921744    4.2921744     3372.166    837.83386    12198.139   -2919.4751    859.09098     13052.69    14681.518    79.073705 
   50300    1020.7605    -121.3569   0.92360554    -120.4333   -16300.875    4.2990078    4.2990078    4.2990078   -16300.875   -46981.859    37217.105   -39137.871    14813.183    11237.217   -11886.631    79.451977 
   50400    931.73235   -121.27369   0.84305101   -120.43064    -9105.389    4.2904459    4.2904459    4.2904459    -9105.389    -17319.14    5555.8018   -15552.828    771.67975   -12484.521    4648.7853    78.978212 
   50500     1840.533    -122.0853    1.6653529   -120.41995    2244.4853    4.2911571    4.2911571    4.2911571    2244.4853    10130.867   -20808.536    17411.124   -1101.9353   -9961.2234    13598.877    79.017491 
   50600    1386.9647   -121.68608    1.2549548   -120.43113    9583.4569    4.2850381    4.2850381    4.2850381    9583.4569   -15373.186    24364.323    19759.233    10524.439     24829.65    332.48285    78.679945 
   50700     625.9717   -121.00956   0.56639235   -120.44317    610.61315    4.2915949    4.2915949    4.2915949    610.61315   -47692.136    7706.7154     41817.26    18356.485    19474.301   -2591.9177    79.041678 
   50800    1527.0695   -121.80934    1.3817246   -120.42761   -23369.271     4.307075     4.307075     4.307075   -23369.271   -19355.336   -36913.421   -13839.057    6517.0338   -11943.526   -19005.532    79.900098 
   50900    1735.6495   -121.99394    1.5704522   -120.42349    18414.871     4.279756     4.279756     4.279756    18414.871    15639.652   -6471.3736    46076.334   -13211.662    1587.7936   -10409.069    78.389345 
   51000    661.04557   -121.03669   0.59812793   -120.43856   -2125.9931    4.2765909    4.2765909    4.2765909   -2125.9931   -38426.417    6124.6068    25923.831   -1129.1025     36452.42    9744.8976    78.215552 
   51100    931.76916   -121.28096   0.84308432   -120.43787   -29528.035    4.3066778    4.3066778    4.3066778   -29528.035   -40276.898   -24406.038   -23901.168    16387.829    17988.214    -11110.54     79.87799 
   51200    1988.7183   -122.20791    1.7994342   -120.40848   -6319.9266    4.3028242    4.3028242    4.3028242   -6319.9266    2667.4029    -17402.51   -4224.6728    -1177.686   -17518.715   -9194.6511    79.663763 
   51300    794.33352   -121.13985   0.71872966   -120.42112   -9267.6016    4.2926691    4.2926691    4.2926691   -9267.6016   -38980.099   -17486.389    28663.683   -28907.558    21484.859    2742.6948    79.101048 
   51400      424.184   -120.81676    0.3838106   -120.43295   -21990.919    4.2892305    4.2892305    4.2892305   -21990.919   -50241.464   -14238.378   -1492.9154   -1846.2566    44782.193    2848.7186    78.911109 
   51500    1660.9856   -121.93245    1.5028947   -120.42956    7959.5695    4.2821462    4.2821462    4.2821462    7959.5695    11185.971    873.81686    11818.921    18345.948    5605.9062    8636.5389    78.520755 
   51600    1586.1694    -121.8708    1.4351994    -120.4356   -10291.435    4.2969055    4.2969055    4.2969055   -10291.435   -17401.079   -25912.744    12439.517   -18339.254    -17498.06   -6693.4548     79.33547 
   51700    619.03328   -121.00581   0.56011432    -120.4457    -38972.93     4.300783     4.300783     4.300783    -38972.93   -69820.024   -23770.294   -23328.471   -30551.357    25625.784   -1445.1139    79.550439 
   51800    1022.0933   -121.36284   0.92481154   -120.43803    3946.2768    4.2803902    4.2803902    4.2803902    3946.2768   -23907.631    6376.5845    29369.877    -3848.003    45134.892    9462.0259      78.4242 
   51900    2154.7953   -122.37334    1.9497041   -120.42364    7615.6234    4.2868742    4.2868742    4.2868742    7615.6234    3198.2391   -7410.1484    27058.779    5851.3782   -5234.1172   -4724.0711    78.781132 
   52000    1153.6577   -121.48302    1.0438537   -120.43916   -5279.2467    4.2970823    4.2970823    4.2970823   -5279.2467   -35775.881   -22953.833    42891.974    -18097.35   -10311.012   -3215.6635    79.345262 
   52100    585.14445   -120.97444   0.52945099   -120.44499   -13935.577    4.2918105    4.2918105    4.2918105   -13935.577    -60818.74    3203.9024    15808.107   -26877.155    35970.014   -4109.0111    79.053592 
   52200    1550.2673   -121.83737    1.4027144   -120.43465     539.2762    4.2880912    4.2880912    4.2880912     539.2762   -15221.157    4727.6245    12111.361    2251.4594    24103.204   -710.71353    78.848248 
   52300    1714.1552    -121.9769    1.5510037   -120.42589    3037.3339    4.2872763    4.2872763    4.2872763    3037.3339    6646.2467    -29432.28    31898.035    14507.104   -14090.566    20641.589    78.803301 
   52400    778.02522   -121.14274   0.70397357   -120.43876   -17155.778    4.2932294    4.2932294    4.2932294   -17155.778   -35424.072   -26294.582    10251.319   -10716.773    14682.378   -795.37264    79.132024 
   52500     963.4534   -121.30831   0.87175288   -120.43656   -6662.3825    4.2919872    4.2919872    4.2919872   -6662.3825   -27334.255    7757.4897   -410.38219    -26191.72    42373.238   -5653.4509    79.063359 
   52600     1683.849   -121.94609    1.5235819    -120.4225   -1138.5692    4.2886437    4.2886437    4.2886437   -1138.5692    8653.0216   -5923.3695   -6145.3595    6030.4598    5768.7041    7995.7013    78.878726 
   52700    784.90723   -121.14379   0.71020056   -120.43359   -6249.9747    4.2921869    4.2921869    4.2921869   -6249.9747    1056.8722   -41026.237    21219.441    28061.387   -17400.624     321.1639    79.074395 
   52800    777.56091   -121.13987   0.70355345   -120.43632   -14041.535    4.2911171    4.2911171    4.2911171   -14041.535   -31372.194   -11743.075    990.66419   -3035.9282    13714.922    7754.0824    79.015281 
   52900    1652.1701   -121.91812    1.4949182    -120.4232   -1104.8325    4.2917169    4.2917169    4.2917169   -1104.8325   -2476.8842    8912.1875   -9749.8009    -16316.59    16526.029   -10276.949    79.048422 
   53000    993.85716   -121.33062   0.89926285   -120.43136   -12313.055    4.2967263    4.2967263    4.2967263   -12313.055    16398.784   -36091.548   -17246.402    17730.615   -1998.8269   -28383.961    79.325546 
   53100    685.61901   -121.05564   0.62036249   -120.43527   -14826.322    4.2906719    4.2906719    4.2906719   -14826.322   -14035.389   -13902.091   -16541.486    30647.643   -9594.8853    8256.4295    78.990694 
   53200     1668.941   -121.93729    1.5100929    -120.4272    3242.2601    4.2922772    4.2922772    4.2922772    3242.2601   -7647.9873    15769.634    1605.1331    5331.5454   -6275.5952    13051.389    79.079385 
   53300    1802.3671   -122.05582    1.6308197     -120.425   -6114.1429    4.2971455    4.2971455    4.2971455   -6114.1429    18126.171   -14620.889    -21847.71   -8375.8019    2325.3264   -30463.766    79.348767 
   53400    839.23339   -121.20075   0.75935601   -120.44139   -11955.339    4.2857937    4.2857937    4.2857937   -11955.339    20187.466   -35304.549   -20748.935    17727.663   -3852.9575   -25148.134    78.721577 
   53500    908.85868   -121.26822   0.82235444   -120.44587   -2150.6591    4.2876872    4.2876872    4.2876872   -2150.6591    5858.3005   -17610.276    5299.9986    29418.294   -17319.394    20242.045    78.825962 
   53600    1727.1065   -121.99021    1.5627223   -120.42749   -10977.816    4.3008679    4.3008679    4.3008679   -10977.816   -13978.334    5830.3366   -24785.451   -4283.8176   -70.709979    3594.1974    79.555152 
   53700    1151.4001   -121.47214     1.041811   -120.43033   -6708.2382    4.2917497    4.2917497    4.2917497   -6708.2382    26748.975   -15075.282   -31798.408   -23955.082    14556.529   -29190.143    79.050232 
   53800    639.93742   -121.01289   0.57902883   -120.43386   -2584.7962    4.2882122    4.2882122    4.2882122   -2584.7962    18471.893   -23652.762   -2573.5186    25028.714     1942.457   -9023.4922    78.854921 
   53900    1338.6897   -121.63747    1.2112745    -120.4262   -6434.7463    4.2953144    4.2953144    4.2953144   -6434.7463   -7309.7216   -3690.3185   -8304.1989    27198.335    -12394.05     13585.51    79.247372 
   54000     1497.162   -121.77913    1.3546637   -120.42446    3512.7919    4.2894545    4.2894545    4.2894545    3512.7919    18215.401    6933.8052    -14610.83   -26788.315    2678.5821   -8221.1608    78.923475 
   54100     490.3816   -120.88248   0.44370758   -120.43877   -12926.853    4.2948478    4.2948478    4.2948478   -12926.853    1260.3889   -29557.253   -10483.694   -17407.419    9297.9075   -24137.679    79.221548 
   54200    921.88308   -121.26946   0.83413918   -120.43532   -15222.444    4.2970227    4.2970227    4.2970227   -15222.444   -8769.2986   -28509.375   -8388.6566    25308.458    4426.6218    2329.4691    79.341962 
   54300     1937.825   -122.17164    1.7533848   -120.41826    9566.1749    4.2856856    4.2856856    4.2856856    9566.1749     2256.389    20716.125    5726.0111    11352.383    -11146.62    9791.2867    78.715622 
   54400    975.22505    -121.3155   0.88240412    -120.4331   -14210.764    4.2962634    4.2962634    4.2962634   -14210.764   -25211.674   -15739.896   -1680.7234   -32882.255   -6141.2093   -18065.061     79.29991 
   54500    693.75608    -121.0623   0.62772508   -120.43457   -18816.878    4.2983334    4.2983334    4.2983334   -18816.878   -20738.144    -33093.01   -2619.4785   -20833.563    12861.531    -26566.02    79.414592 
   54600    1817.7113   -122.06484    1.6447034   -120.42014    9111.0772    4.2884799    4.2884799    4.2884799    9111.0772    1101.5712    32743.023   -6511.3631    18241.543    12518.138      3170.64    78.869692 
   54700    1566.6191   -121.84392    1.4175099   -120.42641   -8664.5912    4.2953864    4.2953864    4.2953864   -8664.5912   -30797.329    14369.607   -9566.0519   -8382.2897   -27922.223    6699.8493    79.251358 
   54800    674.82587   -121.05149   0.61059663   -120.44089   -4585.7129    4.2894108    4.2894108    4.2894108   -4585.7129   -16903.923   -7421.1362     10567.92   -37512.299   -18030.515   -20510.892    78.921065 
   54900    1227.2329   -121.54993    1.1104261   -120.43951    10755.796    4.2873463    4.2873463    4.2873463    10755.796    18034.785    11620.232    2612.3707   -17903.975    11194.083   -20233.653    78.807162 
   55000    1951.0602   -122.19304    1.7653603   -120.42768   -2719.7603    4.2981649    4.2981649    4.2981649   -2719.7603    5235.7094    5984.9985   -19379.989    13299.076   -7264.5842    3454.2242    79.405249 
   55100    880.94428   -121.23502    0.7970969   -120.43792    5273.4774    4.2931352    4.2931352    4.2931352    5273.4774    2577.2532    9348.1276    3895.0514   -25868.942   -28815.513    -1174.763    79.126818 
   55200    692.61549   -121.06468   0.62669305   -120.43799    -7751.497    4.2937302    4.2937302    4.2937302    -7751.497    -6407.003   -24782.124    7934.6361   -43960.197   -10888.961   -23610.456    79.159724 
   55300    1762.8555   -122.01554    1.5950687   -120.42047   -6608.9426    4.2998994    4.2998994    4.2998994   -6608.9426    22004.859   -27693.877    -14137.81    7635.0861    18553.669   -11455.625    79.501417 
   55400    1570.2825   -121.84096    1.4208246   -120.42013   -8920.0858    4.2914286    4.2914286    4.2914286   -8920.0858   -18016.152    10439.804   -19183.909   -2931.4082    -15445.89    6287.3616    79.032492 
   55500    529.77304   -120.91641   0.47934978   -120.43706   -10785.507    4.2824603    4.2824603    4.2824603   -10785.507   -53562.217   -6641.5092    27847.205   -46905.262   -33634.969   -2696.1255    78.538034 
   55600    1077.8469   -121.41421   0.97525853   -120.43895   -8117.1359    4.2920899    4.2920899    4.2920899   -8117.1359   -16498.479   -33398.645    25545.717   -28241.878   -9555.6143   -18842.867    79.069031 
   55700    1704.4187   -121.96641    1.5421939   -120.42421   -3330.4972    4.2981631    4.2981631    4.2981631   -3330.4972    8645.6873   -8418.8394    -10218.34    14493.678    19053.296   -3714.5545    79.405149 
   55800    798.59457   -121.15747   0.72258515   -120.43489    474.45837    4.2882035    4.2882035    4.2882035    474.45837   -47795.364    9922.8345    39295.905   -9741.7008    163.23391    3078.5626     78.85444 
   55900    642.49212   -121.01792   0.58134038   -120.43658   -5701.2357    4.2922933    4.2922933    4.2922933   -5701.2357   -40836.345   -11778.726    35511.364   -39559.237   -29283.818    821.52804    79.080276 
   56000     1707.502   -121.96585    1.5449837   -120.42086   -78.631241    4.2949289    4.2949289    4.2949289   -78.631241   -5805.7977    -15177.98    20747.884    1021.9715   -2894.5868    840.52135    79.226037 
   56100    1333.7721   -121.63466     1.206825   -120.42783    11632.182    4.2856104    4.2856104    4.2856104    11632.182   -7225.8703    11673.062    30449.355    23374.493    24441.678   -4573.7724    78.711479 
   56200    802.80336   -121.16512   0.72639335   -120.43873   -10118.274    4.2914761    4.2914761    4.2914761   -10118.274   -44581.042    11073.626    3152.5943   -15142.469   -4222.3694    2979.0597    79.035113 
   56300    1494.8835   -121.78178     1.352602   -120.42918    -3898.802    4.2938187    4.2938187    4.2938187    -3898.802    -22945.18    3100.8618    8147.9124   -20017.413   -26549.134    596.70437    79.164614 
   56400    1561.7868   -121.83892    1.4131375   -120.42579    11583.281    4.2870495    4.2870495    4.2870495    11583.281   -4753.7065    12683.068    26820.482    31409.016    4757.8942    5486.0412    78.790798 
   56500    921.75099   -121.27009   0.83401966   -120.43607    5544.2906      4.28955      4.28955      4.28955    5544.2906   -19792.807   -439.86612    36865.545    40706.699    20719.895     5085.111    78.928747 
   56600     1305.897   -121.61378     1.181603   -120.43217    2214.7951    4.2949486    4.2949486    4.2949486    2214.7951   -19912.431    15810.302    10746.515   -14614.956   -9435.7763   -3017.0439    79.227127 
   56700    1571.0801   -121.84685    1.4215463    -120.4253    11826.554    4.2889561    4.2889561    4.2889561    11826.554    -2485.505    23757.254    14207.913   -3486.8362   -18968.141    5927.6015    78.895968 
   56800    888.86092   -121.23905   0.80426004   -120.43479    2607.1851    4.2862485    4.2862485    4.2862485    2607.1851   -854.87464    -36982.25     45658.68    59959.303    1364.6722   -1782.2809    78.746643 
   56900    967.47525   -121.31095   0.87539194   -120.43556   -7961.5885    4.2947487    4.2947487    4.2947487   -7961.5885   -7017.8592   -28672.637    11805.731    24263.055    16297.727     3719.884    79.216064 
   57000     1601.975   -121.87114    1.4495006   -120.42164    5389.1658    4.2933175    4.2933175    4.2933175    5389.1658   -1269.4244    29580.053   -12143.131    -20424.35    11814.568    6378.3554    79.136899 
   57100    1083.6785   -121.40859   0.98053506   -120.42805    377.21541    4.2875542    4.2875542    4.2875542    377.21541    921.91408   -22035.173    22244.906    52497.492   -7882.8577    -10213.42     78.81863 
   57200    855.95427   -121.20894   0.77448541   -120.43445   -10209.874     4.291322     4.291322     4.291322   -10209.874   -16995.127   -32234.744     18600.25    55814.187   -5035.4824    9.8020489    79.026603 
   57300     1503.852   -121.78372    1.3607169   -120.42301   -878.35183    4.2938434    4.2938434    4.2938434   -878.35183    -4141.275    24098.603   -22592.383   -15033.348    24978.295    5335.2061    79.165982 
   57400     1225.197   -121.53604     1.108584   -120.42746    7156.8756      4.28963      4.28963      4.28963    7156.8756   -11971.493    32064.187    1377.9322    6211.3563    21749.297    6493.3869    78.933163 
   57500    1058.9357   -121.38912    0.9581473   -120.43097    3878.0837    4.2878603    4.2878603    4.2878603    3878.0837   -31653.609    10481.245    32806.615    57076.244   -4011.4203    2232.6209     78.83551 
   57600     1524.008   -121.80638    1.3789545   -120.42742    4897.8106    4.2897733    4.2897733    4.2897733    4897.8106   -465.52565    3401.8375     11757.12    28479.612   -5772.0052   -15343.884    78.941073 
   57700    1320.1511   -121.62453    1.1945005   -120.43003    5570.9843    4.2938574    4.2938574    4.2938574    5570.9843    -2220.478    32990.212   -14056.781     -18784.3    19976.094   -2329.3748    79.166754 
   57800    928.45685    -121.2711   0.84008727   -120.43101   -6015.7653    4.2938132    4.2938132    4.2938132   -6015.7653   -24501.879    2274.7148    4179.8681      33073.8    28592.855    2410.8127    79.164312 
   57900    1284.6383   -121.59027    1.1623677    -120.4279    11156.102    4.2871506    4.2871506    4.2871506    11156.102    7447.6284   -10074.694    36095.371    49357.836   -7149.5976    4401.2112     78.79637 
   58000    1421.7136   -121.71239    1.2863964     -120.426    10787.034    4.2877948    4.2877948    4.2877948    10787.034    8971.0393    11348.291    12041.772   -6380.2902    -4556.375    -7807.557    78.831898 
   58100    871.40656   -121.22322   0.78846696   -120.43476   -8492.8487    4.2931649    4.2931649    4.2931649   -8492.8487    6712.9071    6183.8178   -38375.271   -3996.5839    18373.782   -15457.061     79.12846 
   58200    1082.2892   -121.41056   0.97927803   -120.43128   -4910.5105    4.2935966    4.2935966    4.2935966   -4910.5105   -3824.4477   -15551.929     4644.845    29383.929    15061.088    8660.8413    79.152332 
   58300    1492.9493   -121.77206    1.3508519   -120.42121      5886.47    4.2935688    4.2935688    4.2935688      5886.47   -7805.5073    4319.0038    21145.914    24150.926   -1899.9027    -750.6088    79.150795 
   58400    868.27776   -121.21703   0.78563596   -120.43139   -8309.4533    4.2912356    4.2912356    4.2912356   -8309.4533    1782.4583    7722.0628   -34432.881   -2341.3594   -20244.728   -16808.682     79.02183 
   58500    999.21356   -121.33719   0.90410943   -120.43308   -4492.8948    4.2908867    4.2908867    4.2908867   -4492.8948   -8952.7968    4044.6706   -8570.5582   -6195.6974    6613.0199   -15097.911    79.002555 
   58600     1874.161   -122.11501    1.6957803   -120.41922    -5036.346     4.299351     4.299351     4.299351    -5036.346   -27465.554    4003.4783    8353.0377    9214.4268    15307.972   -2009.9828    79.471005 
   58700    1073.8312   -121.39905   0.97162504   -120.42742   -12184.538     4.300457     4.300457     4.300457   -12184.538   -12474.041    16333.212   -40412.784    7672.6876   -24201.162    823.59762    79.532351 
   58800    640.82485    -121.0146   0.57983179   -120.43476   -18758.427    4.2897546    4.2897546    4.2897546   -18758.427   -7668.9272    2691.6785   -51298.034    1808.7063   -36850.196    -18997.43     78.94004 
   58900    1549.0702    -121.8338    1.4016312   -120.43217    7158.9171    4.2838545    4.2838545    4.2838545    7158.9171    4625.6079    11982.401    4868.7426   -22547.604   -3208.7871   -3665.0701    78.614769 
   59000    1734.5782   -122.00165    1.5694828   -120.43217    2038.8925     4.291259     4.291259     4.291259    2038.8925   -12064.339    18263.077   -82.059496   -22203.718    9385.5876    7693.7612     79.02312 
   59100    870.76146   -121.23017   0.78788327   -120.44228   -9966.2471    4.2969598    4.2969598    4.2969598   -9966.2471     12341.84    12234.208   -54474.789    133.43696   -18825.286   -10384.171    79.338478 
   59200    997.66496   -121.34269   0.90270823   -120.43998   -4004.7736     4.293864     4.293864     4.293864   -4004.7736    34929.949   -2014.5588   -44929.711    1202.3468   -32245.223   -15693.977     79.16712 
   59300    1700.4441   -121.96367    1.5385975   -120.42507    5638.4708     4.290493     4.290493     4.290493    5638.4708   -614.87574    17864.697    -334.4088   -3023.8952     16720.58   -1410.8599    78.980811 
   59400    1103.8283   -121.42906   0.99876706   -120.43029    -1589.222    4.2924629    4.2924629    4.2924629    -1589.222   -6765.3172    28388.026   -26390.375   -9162.2386    32653.618    2217.3438    79.089652 
   59500    828.09007   -121.18368    0.7492733    -120.4344   -10540.092     4.296615     4.296615     4.296615   -10540.092    11025.175   -3902.1388   -38743.312   -3303.5255   -17093.412   -16483.784     79.31938 
   59600    1425.9296   -121.71325     1.290211   -120.42304   -3089.4636    4.2972541    4.2972541    4.2972541   -3089.4636    7528.2448    -4694.901   -12101.735    6364.6119   -18483.998   -10551.638    79.354782 
   59700    1163.4554   -121.47658    1.0527189   -120.42386    6882.2982    4.2885516    4.2885516    4.2885516    6882.2982   -20402.587    31892.862    9156.6195   -102.36558    32849.584    4713.4238    78.873646 
   59800    718.37753   -121.08473   0.65000309   -120.43473      7321.74    4.2891342    4.2891342    4.2891342      7321.74   -5506.6119    36296.543   -8824.7112   -10815.219    35283.548   -7394.0408    78.905799 
   59900    1391.4955   -121.68475    1.2590544    -120.4257    4227.5836    4.2983006    4.2983006    4.2983006    4227.5836    9462.2672    21135.944   -17915.461    -13992.63   -16599.819   -15425.626    79.412773 
   60000    1242.6261   -121.55175    1.1243542   -120.42739    8991.1851    4.2945441    4.2945441    4.2945441    8991.1851    10003.717    24166.861   -7197.0231    14423.991    5812.8532    -7369.055    79.204742 
   60100    612.64284   -120.99092   0.55433212   -120.43659   -6173.3518    4.2920712    4.2920712    4.2920712   -6173.3518   -48109.972     28613.05    976.86702    29517.985     53371.68    2774.2348    79.068001 
   60200    1246.2671   -121.55655    1.1276486    -120.4289   -5528.7132    4.2941896    4.2941896    4.2941896   -5528.7132   -29374.891     15220.04   -2431.2883    2183.2504    10869.238   -5150.7382    79.185132 
   60300    1752.9921    -122.0064    1.5861441   -120.42025   -6850.6062    4.2958429    4.2958429    4.2958429   -6850.6062    5951.8881   -12912.717    -13590.99   -6608.1439    -11661.29   -22977.691     79.27663 
   60400    908.06767   -121.25876   0.82163871   -120.43712   -12598.035    4.2917835    4.2917835    4.2917835   -12598.035    -38683.18    6968.6763   -6079.6015    23363.471    34772.659   -5862.4454    79.052098 
   60500    753.55214   -121.12385   0.68182981   -120.44202    1385.9709    4.2848688    4.2848688    4.2848688    1385.9709   -32033.937    9996.6249    26195.225    39187.891    37404.969    3682.5104    78.670625 
   60600    1627.8096   -121.90683    1.4728763   -120.43395     4622.548    4.2937739    4.2937739    4.2937739     4622.548    21826.619   -9478.4425    1519.4677    4798.1818   -6044.6138    8304.3299    79.162137 
   60700     1474.959   -121.76619    1.3345739   -120.43161    1793.6939    4.2986398    4.2986398    4.2986398    1793.6939    35060.825   -7078.6521   -22601.091   -11143.619   -4640.1671   -3548.0131    79.431573 
   60800    792.29382   -121.15551    0.7168841   -120.43863    5287.7662     4.289154     4.289154     4.289154    5287.7662   -18855.177    13592.661    21125.814    21276.459    41601.582   -7281.4443    78.906887 
   60900    1266.2386   -121.57871    1.1457193   -120.43299    5114.9634    4.2908442    4.2908442    4.2908442    5114.9634   -20418.387    17332.041    18431.237    18981.824    30376.255     3740.887    79.000208 
   61000    1624.3129   -121.89304    1.4697125   -120.42333    1196.2191     4.295442     4.295442     4.295442    1196.2191    21000.315     550.3259   -17961.984    -1581.894   -13092.009   -401.72929    79.254435 
   61100    892.88507   -121.24205   0.80790117   -120.43415    3684.1381    4.2916683    4.2916683    4.2916683    3684.1381    3200.1025    1816.0246    6036.2871   -9289.7484    3346.0914    -7731.006    79.045733 
   61200    1169.1117   -121.49267    1.0578368   -120.43483   -3120.2737    4.2913856    4.2913856    4.2913856   -3120.2737   -25280.555    16192.052   -272.31874   -1350.9093    34141.616   -10004.652    79.030116 
   61300    1760.2623   -122.01626    1.5927224   -120.42354    9229.3605    4.2911169    4.2911169    4.2911169    9229.3605   -8659.7574    33277.584    3070.2549    10468.333    15127.007    8788.5515    79.015273 
   61400    851.74461   -121.20964   0.77067642   -120.43896   -13756.563    4.2954057    4.2954057    4.2954057   -13756.563   -398.37603   -15751.588   -25119.723   -4983.5739    -17387.92    15268.464    79.252427 
   61500    469.09349   -120.87338   0.42444565   -120.44894   -23191.424     4.291305     4.291305     4.291305   -23191.424   -9340.1259   -5395.1996   -54838.947    -16031.95   -8933.9607     -10727.7    79.025663 
   61600    1626.4544    -121.9076    1.4716501   -120.43595    18256.694    4.2783196    4.2783196    4.2783196    18256.694    2997.2517    46492.696    5280.1354   -3144.7911    9198.0249   -10814.886    78.310442 
   61700    1731.0546    -122.0032    1.5662945    -120.4369    764.25247    4.2932473    4.2932473    4.2932473    764.25247   -22305.854    31526.185   -6927.5737    11707.081   -4527.5886    9435.2222    79.133015 
   61800    630.72283   -121.01799   0.57069127    -120.4473   -23564.729    4.3018172    4.3018172    4.3018172   -23564.729   -23646.124    22943.407   -69991.471    8801.3883   -18943.232    12263.837    79.607842 
   61900    1070.9034   -121.40796   0.96897594   -120.43898    762.09175    4.2839087    4.2839087    4.2839087    762.09175    20849.506    25077.627   -43640.858   -6151.9018   -13174.557   -11374.065    78.617749 
   62000    1785.8649   -122.04316    1.6158881   -120.42727    4524.7006    4.2866246    4.2866246    4.2866246    4524.7006   -5508.7991    6610.0259    12472.875    4118.5428    12239.282   -14826.314    78.767369 
   62100    1029.5534   -121.36627   0.93156155    -120.4347   -23139.885    4.2996445    4.2996445    4.2996445   -23139.885   -53499.822    768.47957   -16688.313    25279.476    10182.423    8906.5917    79.487282 
   62200    689.72257    -121.0614   0.62407548   -120.43732   -11602.957    4.2915957    4.2915957    4.2915957   -11602.957   -10831.887   -9139.5282   -14837.456    9379.4982   -16141.984    9023.3187    79.041723 
   62300    1295.1875   -121.60366    1.1719129   -120.43174      1133.37    4.2848153    4.2848153    4.2848153      1133.37     12208.23   -20385.866    11577.746   -12235.661   -10104.219    3783.5392    78.667675 
   62400    1277.0981   -121.59141    1.1555452   -120.43586    1518.0269     4.286442     4.286442     4.286442    1518.0269   -29952.527   -4346.4472    38853.055   -20468.673      16084.8   -6833.2921    78.757307 
   62500    987.28129   -121.33523   0.89331286   -120.44191   -5167.6737    4.2952688    4.2952688    4.2952688   -5167.6737    -23963.82    -2568.253    11029.051     1743.028    23549.583    7040.3747     79.24485 
   62600    1356.6741   -121.66022    1.2275472   -120.43268   -7524.4116    4.3019556    4.3019556    4.3019556   -7524.4116    2526.3768   -8995.9797   -16103.632    11127.443   -2416.8812    24865.168    79.615526 
   62700    1491.2645   -121.77661    1.3493275   -120.42728    2164.4424    4.2908562    4.2908562    4.2908562    2164.4424    662.90722    -4893.028    10723.448   -24694.132   -10236.958    12158.859    79.000872 
   62800     1143.266    -121.4676    1.0344511   -120.43315    11655.266    4.2805096    4.2805096    4.2805096    11655.266   -17732.244    12152.644    40545.397   -36220.106     19764.87    -6796.468    78.430763 
   62900    1313.5006   -121.62479    1.1884829    -120.4363    9441.5735    4.2923933    4.2923933    4.2923933    9441.5735   -21908.098    27737.341    22495.478    7988.5741    35227.617    755.76816    79.085801 
   63000    1433.9634   -121.72667    1.2974803   -120.42919    -539.1529    4.3002417    4.3002417    4.3002417    -539.1529   -653.35379    5538.5092   -6502.6141    3333.7781    1576.3402    16988.607     79.52041 
   63100    1043.0625   -121.37564   0.94378487   -120.43186    7886.2208    4.2887168    4.2887168    4.2887168    7886.2208   -825.40412   -13986.284    38470.351   -40400.802   -10523.012    15887.677    78.882763 
   63200    1044.3242   -121.37834    0.9449265   -120.43342    1369.7176    4.2846084    4.2846084    4.2846084    1369.7176   -31218.475    9104.0609    26223.567   -30140.607    32903.871     -3439.35    78.656281 
   63300    1392.0226   -121.69298    1.2595313   -120.43345    2181.6626     4.288035     4.288035     4.288035    2181.6626    -9238.393    33294.746   -17511.366    7800.3768    41451.073   -8148.2991    78.845146 
   63400    1359.4583   -121.66365    1.2300664   -120.43358   -5429.0141    4.2939319    4.2939319    4.2939319   -5429.0141    6798.5392   -24939.502    1853.9201   -10205.595   -6233.1008    10773.661    79.170878 
   63500     841.7637   -121.19829   0.76164549   -120.43665   -20305.634     4.295704     4.295704     4.295704   -20305.634   -11741.113   -57217.559    8041.7697   -42850.432    137.14441    23070.262    79.268937 
   63600    890.44182   -121.24111   0.80569047   -120.43542   -2622.1802    4.2865519    4.2865519    4.2865519   -2622.1802   -2032.3062    6565.6911   -12399.926   -12693.927    39697.843    3099.4956    78.763365 
   63700    1582.4012   -121.85935    1.4317898   -120.42756     -5808.39    4.2887703    4.2887703    4.2887703     -5808.39     -12884.4    17280.883   -21821.653    17729.735    33214.146   -4068.4049    78.885712 
   63800    1227.1495   -121.54232    1.1103507   -120.43196   -13748.338    4.2952503    4.2952503    4.2952503   -13748.338   -2051.1806   -40080.903    887.06962   -33485.776   -13013.959     15752.06    79.243824 
   63900     768.4616   -121.13447   0.69532021   -120.43915     -13022.9    4.2884417    4.2884417    4.2884417     -13022.9   -5845.4944   -27421.884   -5801.3203   -51746.359    5137.1175     27452.75     78.86758 
   64000    1202.9116    -121.5263    1.0884197   -120.43788   -4167.1068    4.2874958    4.2874958    4.2874958   -4167.1068   -25847.632    33661.622   -20315.311   -513.21951    45374.751    4923.8698    78.815405 
   64100    1597.0329   -121.87614     1.445029   -120.43111   -4305.9479    4.2934647    4.2934647    4.2934647   -4305.9479   -22377.583    20771.438   -11311.698    11085.273    17169.792   -12153.369    79.145037 
   64200    1389.9286   -121.69372    1.2576366   -120.43608   -4786.9984    4.2872416    4.2872416    4.2872416   -4786.9984   -11458.966   -14997.414    12095.385   -30351.699   -9523.1423    4804.6496     78.80139 
   64300    1108.6763   -121.44317    1.0031536   -120.44001    4445.3213    4.2859738    4.2859738    4.2859738    4445.3213   -6953.4612    -4596.478    24885.903   -29443.409     8216.571    14985.072    78.731502 
   64400    1259.2082   -121.57546     1.139358    -120.4361   -1080.7954    4.2939895    4.2939895    4.2939895   -1080.7954   -23651.992    43736.201   -23326.595    8110.7511    34808.968    6370.4441    79.174063 
   64500     1249.199   -121.56511    1.1303015   -120.43481   -4119.8178    4.2904425    4.2904425    4.2904425   -4119.8178   -9734.5437    10771.161    -13396.07    12640.127    15478.237   -11671.667    78.978024 
   64600    1115.1357   -121.44501    1.0089982   -120.43601    5082.7607    4.2854024    4.2854024    4.2854024    5082.7607    1742.8838   -34185.525    47690.923   -17949.058   -12140.189    -7812.908    78.700016 
   64700    1257.2903   -121.56984    1.1376227   -120.43221     3368.581     4.288799     4.288799     4.288799     3368.581   -6836.1207    8357.8599    8584.0036   -25188.965    18971.582    7180.4547    78.887295 
   64800    1046.3489   -121.38318   0.94675849   -120.43642   -12364.989    4.2918583    4.2918583    4.2918583   -12364.989    -15380.08    15715.096   -37429.983    9615.5461    42052.843    3068.7203    79.056233 
   64900    902.53552   -121.25804    0.8166331    -120.4414   -2649.4399    4.2873223    4.2873223    4.2873223   -2649.4399   -168.47525   -22993.106    15213.261     32005.17    5666.6133    -4354.858    78.805838 
   65000    1291.7774   -121.60509    1.1688274   -120.43626    9699.0199     4.284246     4.284246     4.284246    9699.0199    4236.8741   -17935.759    42795.945    12410.467   -15759.924   -10418.736    78.636324 
   65100    1330.3329   -121.63925    1.2037131   -120.43554   -298.99077    4.2923207    4.2923207    4.2923207   -298.99077   -9059.8301    33330.231   -25167.373   -14368.475    39911.386   -4270.5722    79.081789 
   65200    981.70463   -121.32792   0.88826698   -120.43965   -3827.2512     4.294468     4.294468     4.294468   -3827.2512   -16520.343     20294.68   -15256.091    6315.6922    48658.097    3991.0976    79.200537 
   65300    1212.6633   -121.53358    1.0972432   -120.43633    8192.4113    4.2855197    4.2855197    4.2855197    8192.4113   -8667.7943   -4893.0031    38138.031    35849.247   -13858.901     1973.263    78.706479 
   65400    1451.9533   -121.74715    1.3137578   -120.43339    5286.8746    4.2852933    4.2852933    4.2852933    5286.8746   -7230.2031    19661.073    3429.7539     22073.01   -11561.762   -1710.2526    78.694005 
   65500    1165.8556   -121.49309    1.0548906    -120.4382    506.99975    4.2926023    4.2926023    4.2926023    506.99975   -14789.683    39166.123   -22855.441    -5598.147     53365.31   -919.77559    79.097353 
   65600    1346.2211   -121.65243    1.2180892   -120.43434    324.35836    4.2926801    4.2926801    4.2926801    324.35836   -11486.741    7111.6804    5348.1358    1412.7394    36873.499    1689.2087    79.101658 
   65700    1331.1488   -121.63665    1.2044514    -120.4322    9223.9501    4.2883371    4.2883371    4.2883371    9223.9501    4041.2836   -11206.415    34836.981    34655.892    -18457.97    7493.9593     78.86181 
   65800    960.10959   -121.30559   0.86872733   -120.43687    9569.6618    4.2885047    4.2885047    4.2885047    9569.6618    5336.0891     5621.189    17751.707    20596.164    891.62867   -1147.2783    78.871061 
   65900    1098.6394   -121.42796   0.99407202   -120.43389    3490.8609    4.2929836    4.2929836    4.2929836    3490.8609   -11757.807    9051.8137    13178.576   -9961.5502     35464.96   -11913.094    79.118436 
   66000    1150.4894   -121.47261     1.040987   -120.43162    10802.795    4.2912742    4.2912742    4.2912742    10802.795    6404.3068   -14938.038    40942.116    19539.784    14018.721   -4653.4027    79.023964 
   66100    1070.0358   -121.40412   0.96819092   -120.43593    11595.493     4.283832     4.283832     4.283832    11595.493    6386.3478   -30793.077    59193.207    41062.886   -10715.212     1105.052    78.613527 
   66200    1167.5461   -121.49452    1.0564202    -120.4381    8635.1437     4.287431     4.287431     4.287431    8635.1437    -13018.09   -13708.557    52632.077    314.82158    4166.7721    9825.8125    78.811836 
   66300    1366.7704   -121.66897    1.2366826   -120.43229    2714.2636    4.2954571    4.2954571    4.2954571    2714.2636   -11142.174    17481.908    1803.0563   -13070.476     21176.14    5285.8592    79.255273 
   66400    1235.8511   -121.55176    1.1182241   -120.43353   -9629.4605    4.2932605    4.2932605    4.2932605   -9629.4605   -23985.417    -22973.18    18070.216     50254.28    7670.8993   -3152.8743    79.133748 
   66500    1259.3518   -121.57331     1.139488   -120.43383   -2745.9252    4.2848181    4.2848181    4.2848181   -2745.9252   -27969.597   -32378.256    52110.078    52843.146   -5352.0218   -719.80137    78.667831 
   66600    1676.5739   -121.94614    1.5169993   -120.42914     3244.171    4.2859355    4.2859355    4.2859355     3244.171   -6352.0425    17370.789   -1286.2335   -19832.192    5781.9788    8033.2362    78.729389 
   66700    1130.4052   -121.46256    1.0228143   -120.43975   -23481.742    4.2958368    4.2958368    4.2958368   -23481.742   -47465.739   -260.18966   -22719.298    19272.989    16136.314   -1223.0346    79.276291 
   66800    539.86317   -120.93955   0.48847954   -120.45107   -15307.809    4.2910668    4.2910668    4.2910668   -15307.809     -74061.1    3491.7283    24645.944    81090.746    7065.1076   -3030.1273    79.012506 
   66900    1577.4806   -121.87117    1.4273376   -120.44384    11600.583    4.2808458    4.2808458    4.2808458    11600.583   -20115.713    22578.932     32338.53    15732.815   -2916.1688    1905.6477    78.449244 
   67000     1924.322   -122.17802     1.741167   -120.43686    12540.582    4.2865275    4.2865275    4.2865275    12540.582   -310.22422    30415.132    7516.8388   -22899.261    528.88456    5250.8864    78.762021 
   67100    758.03667   -121.13749   0.68588751    -120.4516   -16902.339    4.2979592    4.2979592    4.2979592   -16902.339   -43225.191    -34074.09    26592.262    62793.999    11407.328    6239.8998    79.393853 
   67200    670.31016   -121.05512   0.60651072   -120.44861   -7872.5602    4.2942021    4.2942021    4.2942021   -7872.5602   -26371.973   -33047.858     35802.15    62014.731    8080.9547    1032.5775    79.185823 
   67300    1704.4403   -121.97047    1.5422134   -120.42826    17762.533    4.2827234    4.2827234    4.2827234    17762.533    28612.816    9796.4706    14878.312   -24593.616   -7085.8216   -708.11902    78.552513 
   67400    1356.3169   -121.66261     1.227224   -120.43539   -781.34105    4.2871625    4.2871625    4.2871625   -781.34105    13051.556   -46626.492    31230.912    10665.278   -3716.5168     395.2255     78.79703 
   67500     583.0828    -120.9737   0.52758557   -120.44611   -17417.543    4.2940043    4.2940043    4.2940043   -17417.543   -34159.863   -69074.709    50981.943    66663.037    1496.3101    75.922068    79.174883 
   67600    1157.2712   -121.48508    1.0471233   -120.43796    3071.5754    4.2871566    4.2871566    4.2871566    3071.5754    2813.9911   -6202.4594    12603.195    9101.0153    19083.221   -260.67529    78.796704 
   67700    1635.5352   -121.91044    1.4798667   -120.43057   -4502.7505    4.2902766    4.2902766    4.2902766   -4502.7505    24046.269   -15649.795   -21904.726   -8351.7674    19075.419   -2124.0356    78.968861 
   67800    931.03424   -121.28197   0.84241934   -120.43956   -13920.732    4.2926033    4.2926033    4.2926033   -13920.732   -8827.6518   -51020.706    18086.163    65494.522   -10686.488   -8494.9793    79.097412 
   67900    1021.1962   -121.36037   0.92399982   -120.43637    2847.0183    4.2846513    4.2846513    4.2846513    2847.0183    5014.6318   -26518.352    30044.775     42251.96    2448.1928   -5511.6751    78.658642 
   68000    1521.6933   -121.80951      1.37686   -120.43265   -1863.4433    4.2900253    4.2900253    4.2900253   -1863.4433    2126.6859    6107.5932   -13824.609    -39575.58    18836.701    8666.5452    78.954988 
   68100    1220.8834   -121.53962    1.1046809   -120.43494   -8291.7362    4.2931497    4.2931497    4.2931497   -8291.7362   -16648.752    7952.6266   -16179.083     3663.159    10749.025   -6463.1488    79.127618 
   68200    1281.7435   -121.59382    1.1597484   -120.43407    4760.8435    4.2877048    4.2877048    4.2877048    4760.8435    8746.9155   -10186.502    15722.117      58477.8    50.975333   -3287.5151    78.826934 
   68300    1549.2756   -121.83296    1.4018171   -120.43115    259.13354    4.2897777    4.2897777    4.2897777    259.13354    2760.5733   -10504.583    8521.4103    1480.3072   -1903.5854    6102.5162    78.941317 
   68400    920.62913   -121.27093   0.83300458   -120.43793    4768.4444    4.2871542    4.2871542    4.2871542    4768.4444    1816.0251    21455.235   -8965.9269   -49541.347    15116.263   -6220.5297    78.796568 
   68500    898.50282   -121.25551   0.81298423   -120.44253    617.08392    4.2906332    4.2906332    4.2906332    617.08392    7220.9426    11055.507   -16425.198   -668.89474    15781.574   -3919.8588    78.988554 
   68600    1642.4739   -121.91562    1.4861449   -120.42947   -2265.5047    4.2943279    4.2943279    4.2943279   -2265.5047    6622.9803   -1839.0312   -11580.463    31752.894   -7041.5347   -2434.5339    79.192782 
   68700    1222.6713   -121.54075    1.1062987   -120.43445    301.14543    4.2871215    4.2871215    4.2871215    301.14543    4118.5168    -13627.39    10412.309   -36556.971    254.62655    1035.7145    78.794765 
   68800    505.32758   -120.90226   0.45723101   -120.44502   -21106.931    4.2917069    4.2917069    4.2917069   -21106.931   -27193.363   -20811.256   -15316.173   -52645.128    13900.376    8505.1007    79.047867 
   68900    1141.2229   -121.47196    1.0326025   -120.43936   -4263.4367    4.2906501    4.2906501    4.2906501   -4263.4367   -8090.9198    34033.303   -38732.694    13576.745    6022.0526   -2457.8427    78.989488 
   69000    1789.5955   -122.04797    1.6192637   -120.42871    345.69455    4.2883887    4.2883887    4.2883887    345.69455    5968.5989    4665.9784   -9597.4936   -252.37425   -6910.1597   -1404.1965    78.864657 
   69100    1117.1404   -121.44993    1.0108121   -120.43912   -10381.886    4.2934148    4.2934148    4.2934148   -10381.886    -17856.12   -25227.182    11937.644   -47386.469   -1468.5845    7020.9044    79.142276 
   69200    912.67172   -121.26488   0.82580455   -120.43907   -340.91379    4.2914546    4.2914546    4.2914546   -340.91379   -15621.702    27554.159   -12955.199   -29553.261    23167.654    8228.1653    79.033926 
   69300    1497.7324   -121.78349    1.3551798   -120.42831    8106.1229    4.2957168    4.2957168    4.2957168    8106.1229    -9517.954    73800.134   -39963.812    10370.937    16011.232   -3903.4386    79.269646 
   69400    1528.0756   -121.80482    1.3826349   -120.42218   -6192.4282    4.2952341    4.2952341    4.2952341   -6192.4282    -25092.93     11283.65   -4768.0049   -14740.139   -11214.966   -1312.3537    79.242926 
   69500    745.27177   -121.10828   0.67433756   -120.43395    1074.6846    4.2819215    4.2819215    4.2819215    1074.6846   -18492.836    4324.6287    17392.261   -45996.473    6236.8787     1409.863    78.508398 
   69600     794.4418   -121.16156   0.71882764   -120.44273   -6593.4133    4.2845099    4.2845099    4.2845099   -6593.4133   -32215.911    24396.355   -11960.684   -7158.2882    46343.058    737.26866    78.650855 
   69700    1654.8919    -121.9293    1.4973809   -120.43192   -9600.1628    4.2970856    4.2970856    4.2970856   -9600.1628   -24748.013    24681.767   -28734.242    9016.8158    23286.974    5948.5902    79.345445 
   69800    1334.0791   -121.63872    1.2071028   -120.43162    -14816.14    4.2988909    4.2988909    4.2988909    -14816.14   -20062.358   -32680.615    8294.5523   -20239.691    -14920.95   -10650.878    79.445496 
   69900    683.92975   -121.05325   0.61883401   -120.43442   -12674.205     4.287971     4.287971     4.287971   -12674.205   -42008.069   -13017.441    17002.894   -32024.014    22989.733    -1128.869    78.841617 
   70000    1400.9513   -121.69851    1.2676102    -120.4309     1972.503    4.2829266    4.2829266    4.2829266     1972.503   -31488.035    39273.497   -1867.9524    6720.8876     44747.58    5623.8867    78.563695 
   70100    1693.3472    -121.9603    1.5321761   -120.42812   -11232.961    4.2953691    4.2953691    4.2953691   -11232.961   -21354.218    8262.9234   -20607.588    7926.0392   -10711.342   -5379.5912    79.250401 
   70200     866.8622   -121.22359   0.78435514   -120.43924   -18175.623    4.2953111    4.2953111    4.2953111   -18175.623   -36809.536   -2290.0219   -15427.312   -25394.284   -30246.709    565.49181    79.247188 
   70300     1069.634   -121.40977   0.96782732   -120.44194   -765.31866    4.2834317    4.2834317    4.2834317   -765.31866   -20974.143    2318.3235    16359.863   -26885.954    14943.105   -7080.3752    78.591491 
   70400    1989.6576   -122.22977     1.800284   -120.42948    9491.4727    4.2874962    4.2874962    4.2874962    9491.4727   -6527.7533    23808.951     11193.22    608.62216    13713.936   -2753.2435     78.81543 
   70500    1137.3832   -121.47062    1.0291282   -120.44149     1385.775    4.2945546    4.2945546    4.2945546     1385.775   -24074.899    28276.118   -43.894309    1417.4181   -27371.356    10073.002    79.205327 
   70600    345.42867   -120.76039   0.31255112   -120.44784    -16972.75     4.298959     4.298959     4.298959    -16972.75   -18298.553   -40815.647    8195.9502   -27298.515   -25784.894    -3360.141     79.44927 
   70700    1476.8759   -121.76824    1.3363083   -120.43193   -2203.7777    4.2928245    4.2928245    4.2928245   -2203.7777    4567.3229   -17200.989    6022.3335    -19636.98    20.353343   -837.30436    79.109637 
   70800    1709.1376   -121.96845    1.5464636   -120.42199    18812.696     4.282567     4.282567     4.282567    18812.696    18230.761    19490.748    18716.579    12036.508     18295.19    3184.8534    78.543909 
   70900    795.33008   -121.15946   0.71963137   -120.43983    -15609.76    4.2951583    4.2951583    4.2951583    -15609.76   -1886.2064   -31362.121   -13580.954    3446.5382   -12382.876   -4691.2851    79.238735 
   71000    960.45917   -121.30301   0.86904364   -120.43397   -15806.353    4.2990519    4.2990519    4.2990519   -15806.353   -9571.4696   -30706.999   -7140.5909   -31237.637   -29241.807   -3468.6891    79.454422 
   71100    1500.9327   -121.77932    1.3580755   -120.42125    13227.646    4.2798704    4.2798704    4.2798704    13227.646    3820.1947    13250.077    22612.665   -8102.4336    27491.735   -5761.0593    78.395633 
   71200    929.84201   -121.27479   0.84134059   -120.43345   -6357.9831    4.2874342    4.2874342    4.2874342   -6357.9831   -625.37315   -3205.3932   -15243.183    20601.563    42403.087    1435.0663    78.812012 
   71300    1035.3844   -121.36844   0.93683754    -120.4316   -21647.578    4.2992035    4.2992035    4.2992035   -21647.578   -18256.075   -31660.212   -15026.447   -5577.2778   -12877.088    6500.6766    79.462824 
   71400     1590.546   -121.85955    1.4391594   -120.42039    14412.475     4.283876     4.283876     4.283876    14412.475    5171.7345    18010.568    20055.122   -8309.5591   -15213.858   -1632.5379    78.615951 
   71500    1088.7151   -121.41615   0.98509231   -120.43105   -9234.5025    4.2913408    4.2913408    4.2913408   -9234.5025   -20457.312    25577.026   -32823.221    3264.9903    64601.837    6438.1829    79.027639 
   71600    903.99229   -121.25179   0.81795122   -120.43384   -21457.937    4.2956537    4.2956537    4.2956537   -21457.937   -34701.675    3010.9148    -32683.05    11771.858    45541.911   -3342.2564    79.266153 
   71700    1669.7285   -121.93193    1.5108055   -120.42113    12792.936    4.2823007    4.2823007    4.2823007    12792.936    5968.4311    1164.7383    31245.637    17610.136    -35877.81   -6883.1357    78.529253 
   71800    1216.7005   -121.53026    1.1008962   -120.42936    -12688.15    4.2960342    4.2960342    4.2960342    -12688.15    -41185.44    29922.199   -26801.209   -3468.7186    41595.207    5038.6599    79.287219 
   71900    862.35954   -121.21573   0.78028104   -120.43545   -21070.179    4.2950866    4.2950866    4.2950866   -21070.179   -64879.694    33696.165   -32027.009    2516.5265    84135.788   -3420.9942    79.234763 
   72000    1547.3143   -121.82243    1.4000425   -120.42238    27417.269    4.2747479    4.2747479    4.2747479    27417.269     3437.252    19741.518    59073.038    12845.503   -7294.4347    4522.5296    78.114475 
   72100    1325.0697   -121.62962    1.1989509   -120.43067   -4023.2422    4.2899952    4.2899952    4.2899952   -4023.2422   -22343.273   -8063.5295    18337.076    9008.8516    8678.9052    6108.0901    78.953322 
   72200    444.72761   -120.84308   0.40239889   -120.44069   -23192.171    4.2988181    4.2988181    4.2988181   -23192.171     -66951.5     17793.23   -20418.242   -1140.5654    81942.588    2028.0175    79.441457 
   72300    1182.3292    -121.5009    1.0697963   -120.43111    2640.4327    4.2868899    4.2868899    4.2868899    2640.4327   -2280.0396    19942.858   -9741.5201   -6570.3719    16840.851    6791.8879       78.782 
   72400    1642.6114   -121.90678    1.4862693   -120.42051    2932.8941    4.2868774    4.2868774    4.2868774    2932.8941   -5189.6783    10906.865    3081.4959    13063.699   -36878.245   -5176.5827    78.781308 
   72500    726.46554   -121.09417   0.65732129   -120.43685   -10111.255    4.2872422    4.2872422    4.2872422   -10111.255   -20211.129    23187.101   -33309.738    12251.326    61958.832    700.78533    78.801423 
   72600    915.83442   -121.26529   0.82866623   -120.43663   -2432.5663    4.2935021    4.2935021    4.2935021   -2432.5663    11468.442    24671.407   -43437.548    6590.9314    63421.229    5162.6034    79.147106 
   72700    1922.4081   -122.15725    1.7394353   -120.41782    1808.6873    4.2965359    4.2965359    4.2965359    1808.6873    12769.756   -205.25852   -7138.4357   -640.79982   -30145.947   -3664.0337    79.315002 
   72800    1135.2349   -121.45866    1.0271844   -120.43147    4513.9193    4.2838706    4.2838706    4.2838706    4513.9193    13443.012    36481.224   -36382.479   -5431.4001     15266.31    2105.5672    78.615652 
   72900    587.62014   -120.97264   0.53169106   -120.44095   -7751.2161    4.2867048    4.2867048    4.2867048   -7751.2161   -27356.783    48964.954   -44861.819    14364.371    74390.305   -1598.8323    78.771791 
   73000    1634.1332   -121.90704     1.478598   -120.42844    924.43691    4.2943363    4.2943363    4.2943363    924.43691     9729.474   -5202.3942   -1753.7691    3162.8294    3240.4818    2166.4475    79.193247 
   73100    1689.1485   -121.95377    1.5283771   -120.42539    2280.1587    4.2912274    4.2912274    4.2912274    2280.1587    23335.512   -10946.812   -5548.2243   -15551.007    4922.7922    1804.0601    79.021375 
   73200     523.6213   -120.91334   0.47378356   -120.43955   -6678.1464    4.2898991    4.2898991    4.2898991   -6678.1464   -23379.658    37414.721   -34069.503   -4689.6414    73696.084   -3259.1355    78.948017 
   73300    1227.2238   -121.54443    1.1104179   -120.43401    2984.2759    4.2884183    4.2884183    4.2884183    2984.2759   -2114.1811    27248.233   -16181.224    4017.9022    17657.213   -2892.0326    78.866294 
   73400     1984.787   -122.21681     1.795877   -120.42093    11531.786    4.2906387    4.2906387    4.2906387    11531.786    33600.002   -7260.9092    8256.2658   -705.42343   -29367.344    3233.5605    78.988858 
   73500    856.85957   -121.21428   0.77530455   -120.43898   -5168.2241     4.292107     4.292107     4.292107   -5168.2241   -29158.167    25464.827   -11811.332    -12465.46    58380.112    2395.7273    79.069979 
   73600    654.58341   -121.03598   0.59228082    -120.4437   -7957.1158    4.2887103    4.2887103    4.2887103   -7957.1158   -32843.314    32237.379   -23265.413   -17743.825    71091.699    2799.9701    78.882404 
   73700    1862.9228   -122.11315    1.6856117   -120.42753    4426.4102    4.2920106    4.2920106    4.2920106    4426.4102    11786.995   -3249.2718    4741.5071   -2473.9095   -19681.054   -1271.2958    79.064649 
   73800     1420.877   -121.71616    1.2856394   -120.43052   -4402.9953    4.2935289    4.2935289    4.2935289   -4402.9953   -19456.291    28546.552   -22299.247    9120.2971    21249.546   -7198.1902     79.14859 
   73900    278.12395   -120.68908    0.2516524   -120.43743    -4864.876    4.2909276    4.2909276    4.2909276    -4864.876    -25370.88    35581.203   -24804.951   -18387.012    80117.589    3142.7474    79.004817 
   74000     1118.334   -121.44131    1.0118921   -120.42941   -8319.7349    4.2947622    4.2947622    4.2947622   -8319.7349   -9106.8696   -19369.242    3516.9069   -13618.879    1908.1385   -3379.0464    79.216814 
   74100    1571.7655   -121.84247    1.4221665    -120.4203    2109.6962    4.2883892    4.2883892    4.2883892    2109.6962    7696.9157    7858.8729      -9226.7    582.15943   -10176.586   -4969.0152    78.864686 
   74200    978.48132   -121.31725   0.88535046    -120.4319    1574.1616    4.2812859    4.2812859    4.2812859    1574.1616   -2610.2819    50954.654   -43621.887    4991.0756    63990.578   -2448.7157    78.473442 
   74300    933.89825    -121.2822   0.84501076   -120.43719   -7601.9318    4.2961726    4.2961726    4.2961726   -7601.9318   -16703.954    5410.5054   -11512.347   -12523.145     38837.69    -1126.489    79.294885 
   74400    1558.1787   -121.83582    1.4098728   -120.42595   -10297.143    4.2958875    4.2958875    4.2958875   -10297.143   -4617.7323   -38544.521    12270.823   -36885.642   -16523.373    9639.5258    79.279095 
   74500    1275.1774   -121.57915    1.1538073   -120.42534    16782.042    4.2803277    4.2803277    4.2803277    16782.042    19284.625    38137.116   -7075.6151   -1457.7268    22947.199    3409.0693    78.420762 
   74600    1008.1487   -121.34523   0.91219412   -120.43303   -8367.1604    4.2935724    4.2935724    4.2935724   -8367.1604    -20060.81    33978.738    -39019.41    7111.9261    59189.276    1919.4421    79.150991 
   74700    1378.6933   -121.67438    1.2474706   -120.42691   -5409.2978       4.2944       4.2944       4.2944   -5409.2978   -6118.7501   -10931.861    822.71734   -21223.581    3043.0764   -4462.0548    79.196771 
   74800    1582.7486   -121.85393    1.4321042   -120.42183    11224.895     4.280175     4.280175     4.280175    11224.895    4168.5219    1293.2765    28212.886   -24811.243   -5871.1376   -6752.9293    78.412371 
   74900    941.35627   -121.28628   0.85175894   -120.43452    -11688.36    4.2923537    4.2923537    4.2923537    -11688.36   -41981.324     45952.93   -39036.685   -9077.9141    66678.792    1083.5762    79.083613 
   75000    1162.5048    -121.4842    1.0518587   -120.43234   -13983.526    4.2946117    4.2946117    4.2946117   -13983.526   -16407.351    24042.055   -49585.283    12189.241    38798.692   -8444.6449    79.208487 
   75100    1597.9986    -121.8678    1.4459027    -120.4219    12808.636    4.2830134    4.2830134    4.2830134    12808.636      25756.4    6486.9959     6182.511   -8442.9683   -26883.522    1676.9702    78.568471 
   75200    876.55121   -121.22881   0.79312195   -120.43569   -930.75582     4.288614     4.288614     4.288614   -930.75582   -15551.295    24472.163   -11713.136   -20677.196    35938.225    346.96425     78.87709 
   75300    523.25869   -120.91563   0.47345546   -120.44217    -15512.04     4.296991     4.296991     4.296991    -15512.04   -42423.439    46188.693   -50301.374   -2783.0515    80996.494    1883.1569    79.340209 
   75400    1681.2806   -121.94767    1.5212581   -120.42641    66.749285    4.2907916    4.2907916    4.2907916    66.749285    4320.0998    3429.2189   -7549.0709    690.44927   -1284.5299    5583.8262    78.997302 
   75500    1646.0506   -121.92023    1.4893811   -120.43085    2510.9267     4.285496     4.285496     4.285496    2510.9267   -88.515329    13397.561   -5776.2658    2415.7371    2122.8732   -10397.714    78.705176 
   75600    339.26327   -120.75699   0.30697254   -120.45001   -11867.146     4.289779     4.289779     4.289779   -11867.146   -52828.744    51001.013   -33773.707   -9964.0946     93077.59   -1459.7092     78.94139 
   75700    999.99505   -121.34858   0.90481654   -120.44376   -9124.1671     4.293379     4.293379     4.293379   -9124.1671   -26450.574    18612.447   -19534.374   -11215.057    31558.647   -1616.2451      79.1403 
   75800    1822.6557   -122.07226    1.6491772   -120.42308    4912.0055    4.2943912    4.2943912    4.2943912    4912.0055    18376.482   -5877.7515    2237.2863    4051.7395   -30295.709    -338.7871    79.196284 
   75900    912.39903   -121.25886   0.82555781   -120.43331   -4472.2266    4.2914517    4.2914517    4.2914517   -4472.2266    -15130.21    39830.421   -38116.891    8546.6034    60597.036    5958.3967    79.033769 
   76000     808.4422   -121.16551   0.73149549   -120.43402   -4725.8953    4.2868003    4.2868003    4.2868003   -4725.8953   -29513.176    40692.896   -25357.407   -11286.143    64555.585    366.25222    78.777056 
   76100    1758.1427   -122.01116    1.5908044   -120.42036    420.96018    4.2909157    4.2909157    4.2909157    420.96018    2109.0122   -16667.135    15821.003   -25067.276   -17491.644    1745.9389    79.004158 
   76200    1307.6325   -121.60969    1.1831733   -120.42651   -7257.3762    4.2958427    4.2958427    4.2958427   -7257.3762   -9175.6814    3949.9144   -16546.362   -6642.3012    24846.769     2028.666    79.276617 
   76300    730.72704   -121.09594   0.66117718   -120.43476    -4708.575    4.2889525    4.2889525    4.2889525    -4708.575   -2899.4826    50882.631   -62108.873     4358.056    75931.208   -6410.1391    78.895766 
   76400    1509.5376   -121.79168    1.3658613   -120.42582    4422.3152    4.2867865    4.2867865    4.2867865    4422.3152     6892.699    10697.571   -4323.3243   -8177.4195    4899.8602    -5168.845    78.776297 
   76500    1611.5214   -121.88061    1.4581384   -120.42247    1359.0978    4.2928376    4.2928376    4.2928376    1359.0978    4531.0816   -10678.813    10225.024   -23698.832   -11335.095   -1816.5414    79.110364 
   76600    629.60372   -121.00407   0.56967867   -120.43439   -19629.468    4.2969505    4.2969505    4.2969505   -19629.468   -42735.786    30070.576   -46223.195   -7191.3396    83701.454    508.04076    79.337962 
   76700    1168.3564   -121.48786    1.0571534   -120.43071   -7186.7243    4.2866095    4.2866095    4.2866095   -7186.7243   -9466.3083     27360.87   -39454.735    8396.1141    43943.873    2315.7534    78.766539 
   76800    1783.0346   -122.03458    1.6133272   -120.42126    7168.3782    4.2883155    4.2883155    4.2883155    7168.3782    31381.923   -11611.008    1734.2191    -3783.204   -31183.737   -1462.4399    78.860619 
   76900    583.29559   -120.96969   0.52777811   -120.44192    -14950.22    4.2967102    4.2967102    4.2967102    -14950.22   -30280.939    10465.756   -25035.476   -14881.388    62886.314    711.66044    79.324655 
   77000    463.12072   -120.86432   0.41904136   -120.44528   -3953.4924    4.2884568    4.2884568    4.2884568   -3953.4924   -37793.823     25951.32   -17.974597   -13418.052    75886.922    72.752186    78.868415 
   77100    1859.6075   -122.10956     1.682612   -120.42695    6783.8948    4.2895105    4.2895105    4.2895105    6783.8948    18549.349   -10460.411    12262.746   -4630.9278   -19563.942    857.82159    78.926568 
   77200    1553.8173   -121.83803    1.4059266    -120.4321   -1859.9935    4.2920434    4.2920434    4.2920434   -1859.9935   -20407.407    18413.428   -3586.0021    5286.2286    22179.716    3209.9639    79.066463 
   77300    690.72302   -121.06616    0.6249807   -120.44117    1780.1524    4.2905345    4.2905345    4.2905345    1780.1524    -32314.57     44811.19   -7156.1621   -7132.2755    82941.034    2373.0869    78.983102 
   77400    1456.5693   -121.74544    1.3179345    -120.4275   -5476.0787    4.2973084    4.2973084    4.2973084   -5476.0787   -3832.1412   -8761.1988   -3834.8961    -21059.61    5685.2235    2379.8363     79.35779 
   77500    1661.8386   -121.92539    1.5036665   -120.42172    7299.8611    4.2866894    4.2866894    4.2866894    7299.8611    9236.8707   -3652.3121    16315.025   -6940.1565   -10911.348   -3403.8345    78.770946 
   77600    802.15405   -121.15615   0.72580584   -120.43035    8143.0137    4.2825839    4.2825839    4.2825839    8143.0137    12183.752    54126.152   -41880.864    6927.7339    69764.124   -5462.1119    78.544834 
   77700    1121.1579   -121.44326    1.0144473   -120.42881   -22706.889    4.3009612    4.3009612    4.3009612   -22706.889    -34653.05    2032.0831   -35499.698   -8086.6512    40932.739    689.15171    79.560332 
   77800    1527.4517   -121.80062    1.3820704   -120.41855    2147.9995    4.2917047    4.2917047    4.2917047    2147.9995    2539.2622   -16979.718    20884.455   -32206.669   -22073.749     2862.552    79.047745 
   77900    851.89647   -121.19648   0.77081383   -120.42567    6719.8176    4.2835509    4.2835509    4.2835509    6719.8176   -9835.4941    38605.126   -8610.1794   -13255.816    45992.574    7338.0723    78.598054 
   78000    951.34355   -121.28982   0.86079563   -120.42902   -20222.291    4.2939766    4.2939766    4.2939766   -20222.291   -42801.997    36064.457   -53929.333    13550.857     69426.11    3582.2247    79.173348 
   78100    1639.7733   -121.90336    1.4837013   -120.41966    4252.9505    4.2872074    4.2872074    4.2872074    4252.9505    -564.9797    4387.4187    8936.4126   -17976.673   -9321.1161   -1950.2537    78.799502 
   78200    1070.9762   -121.39904   0.96904177      -120.43    2836.0166    4.2918068    4.2918068    4.2918068    2836.0166   -11361.621    12304.807    7564.8639   -36685.295     10786.09    6769.8961     79.05339 
   78300    563.17383   -120.94393   0.50957152   -120.43436   -19136.124    4.3001985    4.3001985    4.3001985   -19136.124   -53165.491    39893.228   -44136.107   -953.73257    77868.895    1469.8921    79.518011 
   78400    1605.4178    -121.8694    1.4526158   -120.41678    1935.4105    4.2887914    4.2887914    4.2887914    1935.4105    9540.4221     24769.56   -28503.751    9097.5725    14183.632    -5809.193    78.886876 
   78500    1589.4717   -121.85305    1.4381874   -120.41486     5676.182    4.2892045    4.2892045    4.2892045     5676.182    5413.3941    3357.4196    8257.7323   -20527.385   -14002.172    283.48133    78.909675 
   78600    529.15401    -120.9154   0.47878966   -120.43661   -17608.644    4.2939096    4.2939096    4.2939096   -17608.644   -37276.894     15680.95   -31229.987   -30432.976    63885.361   -1426.4538    79.169645 
   78700    966.50262   -121.31491   0.87451188   -120.44039    2451.1478    4.2883438    4.2883438    4.2883438    2451.1478   -18206.849    32543.319   -6983.0271   -9278.8122    56196.073    2432.6161    78.862183 
   78800    2249.8613   -122.45807    2.0357218   -120.42235    16619.833      4.28723      4.28723      4.28723    16619.833    24716.038    4810.5056    20332.955    17185.692   -18727.873    328.96486    78.800751 
   78900    1252.3805   -121.57435    1.1331802   -120.44116    1688.3604     4.294144     4.294144     4.294144    1688.3604    -21305.92    21026.731    5344.2698   -13252.003     26230.28   -1626.2628    79.182611 
   79000    477.92125   -120.87812   0.43243319   -120.44569    -14993.01    4.2956819    4.2956819    4.2956819    -14993.01   -68016.631    42947.881   -19910.281   -29674.773    72135.309    5262.5944    79.267716 
   79100    1610.6059   -121.88811    1.4573101    -120.4308    8763.0811    4.2903733    4.2903733    4.2903733    8763.0811    2292.5406     13312.46    10684.243   -12285.035    1081.7572    483.44398    78.974199 
   79200    1893.8024   -122.13676    1.7135522    -120.4232    11700.622    4.2871394    4.2871394    4.2871394    11700.622    12503.374     22761.71   -163.21816    11673.748   -4792.4043   -3995.2882    78.795756 
   79300    584.17817   -120.97018   0.52857668    -120.4416    4020.7284    4.2881023    4.2881023    4.2881023    4020.7284   -19068.338    70444.354   -39313.831   -3238.9912    72797.677    379.37383    78.848859 
   79400    786.66079   -121.15011   0.71178721   -120.43833   -11906.622    4.2959413    4.2959413    4.2959413   -11906.622    -16944.91    12760.798   -31535.753    -34383.78     35680.54    1276.4282    79.282079 
   79500    1651.9795   -121.91517    1.4947457   -120.42042   -2581.5807    4.2940298    4.2940298    4.2940298   -2581.5807    16918.321    -14091.68   -10571.383   -20818.217   -21511.936    7210.3392    79.176295 
   79600    1142.3294   -121.46131    1.0336037   -120.42771    4288.2705    4.2836668    4.2836668    4.2836668    4288.2705    10311.772    48653.988   -46100.949    13015.969    44707.338    7828.3523    78.604436 
   79700    677.68362   -121.05144   0.61318238   -120.43826   -15846.627    4.2867831    4.2867831    4.2867831   -15846.627   -34580.029    37812.248   -50772.099   -9197.2577    69840.039    3075.9348    78.776108 
   79800    1369.0562   -121.66945    1.2387508    -120.4307   -8968.1902    4.2918937    4.2918937    4.2918937   -8968.1902    -8965.366   -20721.038    2781.8334   -35061.461   -8747.7449   -3245.3425    79.058189 
   79900      1548.93   -121.82668    1.4015044   -120.42518   -18405.933    4.2955748    4.2955748    4.2955748   -18405.933   -15098.222   -19085.514   -21034.064   -14000.081    7247.1859   -3124.1996    79.261787 
   80000    707.82173   -121.07816   0.64045198   -120.43771   -23536.968    4.2875837    4.2875837    4.2875837   -23536.968   -48817.804    41246.539   -63039.638    11102.625    74372.094    497.34811    78.820253 
   80100    1132.5857   -121.45748    1.0247873   -120.43269   -2256.0668    4.2815323    4.2815323    4.2815323   -2256.0668   -10401.347    14558.046     -10924.9    1937.3816    22284.738   -1515.9164    78.486991 
   80200    1691.8856   -121.95534    1.5308536   -120.42449   -7208.6111    4.2985675    4.2985675    4.2985675   -7208.6111    1383.6063   -28498.028     5488.588   -19904.735    -22456.54   -2959.1991    79.427565 
   80300    998.89274   -121.33987   0.90381914   -120.43605   -13958.735    4.2927593    4.2927593    4.2927593   -13958.735   -28336.424    20676.955   -34216.738   -6136.5294    64121.398    1286.0608    79.106036 
   80400    923.64974   -121.26844   0.83573769    -120.4327    4300.4887    4.2768559    4.2768559    4.2768559    4300.4887   -10013.158    42039.817   -19125.193    3134.6648     68273.49    9058.5351    78.230096 
   80500     1840.884   -122.09303    1.6656705   -120.42736   -2701.2988    4.2918308    4.2918308    4.2918308   -2701.2988    -1684.083    -13470.55     7050.737    7097.9942   -32038.255    11276.495    79.054713 
   80600     1106.911   -121.43343    1.0015563   -120.43187   -8016.4606    4.2978779    4.2978779    4.2978779   -8016.4606   -29262.123     5253.985   -41.243819    4938.6119    25619.871    1454.3904    79.389344 
   80700    488.68367   -120.88281   0.44217125   -120.44064   -9266.7936    4.2862798    4.2862798    4.2862798   -9266.7936   -60488.465    39216.104   -6528.0204   -10433.139    89857.925   -3256.3293    78.748366 
   80800    1460.6276   -121.75336    1.3216066   -120.43175    1096.6207     4.284314     4.284314     4.284314    1096.6207    470.90852    2234.0133    584.94034   -7228.6986     2052.544    2579.1301     78.64007 
   80900     1526.334   -121.80784    1.3810591   -120.42678    4420.4646    4.2890021    4.2890021    4.2890021    4420.4646    4769.6117   -354.90033    8846.6824    2103.6423   -1702.7302    10452.566    78.898504 
   81000    589.47351   -120.97486   0.53336802   -120.44149   -11824.459      4.29588      4.29588      4.29588   -11824.459   -38517.952    34493.377   -31448.803    4415.1017    81705.521    2486.2275    79.278683 
   81100    1106.6149   -121.43578    1.0012884   -120.43449   -8378.9075    4.2928823    4.2928823    4.2928823   -8378.9075   -9424.8995    12636.153   -28347.975    922.55009     31245.61   -5330.3005    79.112837 
   81200    1805.6866   -122.05673    1.6338232   -120.42291    20835.356    4.2755317    4.2755317    4.2755317    20835.356    25001.864     12330.01    25174.195   -4698.8368   -30233.034   -3951.8684    78.157453 
   81300    899.49666   -121.25804   0.81388348   -120.44416    8281.6088    4.2861179    4.2861179    4.2861179    8281.6088    3947.6234    51961.547   -31064.344   -5299.7491    45990.979     4868.073    78.739445 
   81400    1106.0197   -121.43552    1.0007499   -120.43477   -25099.985    4.3049359    4.3049359    4.3049359   -25099.985   -46522.499    23099.879   -51877.336    324.41575    66197.592    9737.1425    79.781106 
   81500    1754.2187   -122.00775     1.587254   -120.42049    15866.879    4.2847383    4.2847383    4.2847383    15866.879    18522.316    5058.6859    24019.635    13894.053   -13062.651   -2915.3554    78.663434 
   81600    1150.8053   -121.46732    1.0412728   -120.42605    6908.8771    4.2815628    4.2815628    4.2815628    6908.8771   -24434.765    40451.271    4710.1258     5368.665    11407.891    -7373.202    78.488666 
   81700    856.30482   -121.20734    0.7748026   -120.43254   -23154.232    4.2956524    4.2956524    4.2956524   -23154.232   -56283.165    33447.001   -46626.534   -13872.007    63087.236    3170.7238    79.266084 
   81800    1631.1321   -121.89912    1.4758826   -120.42323     8941.955     4.288633     4.288633     4.288633     8941.955    17044.963    14977.471   -5196.5688    993.53665     15029.53    944.69801     78.87814 
   81900    1391.5807   -121.68669    1.2591315   -120.42755    7093.0515    4.2887448    4.2887448    4.2887448    7093.0515   -270.11602    4742.7232    16806.547    25688.183     -9460.11   -5955.1588    78.884305 
   82000    487.70697   -120.88102   0.44128752   -120.43973    -6302.491    4.2917929    4.2917929    4.2917929    -6302.491   -20631.997    24711.629   -22987.105    10731.662    45295.591   -8873.7999    79.052621 
   82100    1159.0755    -121.4795    1.0487558   -120.43074    1123.8073    4.2913077    4.2913077    4.2913077    1123.8073   -145.28928    28567.474   -25050.763   -15146.548    45904.316   -600.16107     79.02581 
   82200    1650.1198   -121.91221    1.4930631   -120.41915    12099.002    4.2926974    4.2926974    4.2926974    12099.002    21661.484     9060.058    5575.4632    8607.5721   -16057.041    4722.2308    79.102614 
   82300    832.67937   -121.18668    0.7534258   -120.43326    2238.9331    4.2885536    4.2885536    4.2885536    2238.9331   -10997.297    36437.146   -18723.049    28572.034    5849.7373   -475.33517    78.873759 
   82400    670.92541   -121.04267   0.60706741    -120.4356   -2797.4901     4.288583     4.288583     4.288583   -2797.4901   -15599.282    33748.398   -26541.586    11332.211    52257.182   -5522.7466    78.875377 
   82500    1618.9115   -121.89162    1.4648251    -120.4268    4487.5754    4.2912288    4.2912288    4.2912288    4487.5754    3830.8094    14409.569   -4777.6523     -10137.6    11824.033    3381.5322    79.021454 
   82600    1416.3465   -121.71188    1.2815401   -120.43034    13597.168    4.2895359    4.2895359    4.2895359    13597.168    19129.231    21159.278     502.9953     5086.419   -23731.964    10158.167    78.927967 
   82700     824.3302   -121.18144   0.74587129   -120.43557   -3728.8537    4.2935775    4.2935775    4.2935775   -3728.8537   -26380.077    20566.365   -5372.8484    25907.733    17930.299   -2005.2905    79.151273 
   82800    1347.3815   -121.64666    1.2191391   -120.42752   -375.84642    4.2954365    4.2954365    4.2954365   -375.84642   -12871.772    9160.6265    2583.6062    7204.5196    41618.668   -8386.1997    79.254134 
   82900    1971.9264   -122.20262    1.7842405   -120.41838    12623.878    4.2871117    4.2871117    4.2871117    12623.878    16156.956    11332.275    10382.403   -14186.975    -7169.631    5119.4939    78.794228 
   83000    1147.8014   -121.47358    1.0385549   -120.43502   -3177.1742    4.2882309    4.2882309    4.2882309   -3177.1742   -2436.9348   -7211.7109    117.12309    848.48207   -19332.901    13092.671    78.855956 
   83100    1039.4775   -121.37825   0.94054112   -120.43771   -13166.742    4.2951529    4.2951529    4.2951529   -13166.742   -25642.168   -4448.9705   -9409.0873    25316.535    23834.024    3011.6776    79.238436 
   83200    1772.9694   -122.02678      1.60422   -120.42256   -6648.2206    4.2969405    4.2969405    4.2969405   -6648.2206   -9107.2831   -1593.2183   -9244.1605    3217.8866    18435.717   -13462.665    79.337413 
   83300    1105.3593   -121.42794    1.0001524   -120.42779   -15691.394    4.2927335    4.2927335    4.2927335   -15691.394   -5476.9528   -22994.551   -18602.678   -25070.763   -13515.132   -7716.6613    79.104609 
   83400    624.24408   -120.99925   0.56482916   -120.43442   -10293.687    4.2876632    4.2876632    4.2876632   -10293.687     -15023.3   -1902.3835   -13955.377   -5257.0759   -18148.576     9975.618    78.824637 
   83500    1584.4588   -121.86192    1.4336516   -120.42827     125.2059     4.296414     4.296414     4.296414     125.2059   -10171.583    12480.111   -1932.9105    14601.166   -2388.0414    7040.8459    79.308251 
   83600    1433.1647   -121.72653    1.2967576   -120.42977    5938.6118    4.2928342    4.2928342    4.2928342    5938.6118    6288.8661    4830.3278    6696.6415   -12201.767    14965.029   -17299.837    79.110175 
   83700    384.30342    -120.7869   0.34772581   -120.43918    2462.0845    4.2878209    4.2878209    4.2878209    2462.0845   -9438.5379    1014.8823    15809.909   -30530.376   -14913.431   -12764.804    78.833336 
   83800    1146.9289    -121.4746    1.0377654   -120.43684   -11766.071    4.2968225    4.2968225    4.2968225   -11766.071   -26292.336   -281.30381   -8724.5728   -6465.7803   -21170.347    10889.922    79.330874 
   83900    1866.4111   -122.11182     1.688768   -120.42305    18113.276    4.2852889    4.2852889    4.2852889    18113.276    4615.6554     32038.88    17685.292    12136.753    12947.977     9312.885    78.693765 
   84000     924.2755   -121.27675   0.83630389   -120.44044   -3874.6848    4.2884018    4.2884018    4.2884018   -3874.6848    -16035.89   -21244.527    25656.362   -5822.8221    16750.186   -13054.399    78.865381 
   84100    835.31283   -121.19538    0.7558086   -120.43957    -24927.58    4.3009694    4.3009694    4.3009694    -24927.58    -23457.94     -52056.1    731.29867    -27390.84   -10220.439   -19304.842    79.560786 
   84200    1902.0077   -122.14243    1.7209765   -120.42146    13437.982    4.2813027    4.2813027    4.2813027    13437.982    3162.5161    6061.1955    31090.234   -6425.5172    -10835.72    -3795.758    78.474363 
   84300    1287.2222    -121.5962    1.1647057   -120.43149   -2978.2219    4.2867002    4.2867002    4.2867002   -2978.2219   -33828.024    3691.5809    21201.778    22551.977    27092.635    1248.5892    78.771537 
   84400    635.18573    -121.0164    0.5747294   -120.44167   -34840.978    4.2978832    4.2978832    4.2978832   -34840.978   -45290.636   -38767.059   -20465.239   -5448.1848    22301.375    -16168.72    79.389637 
   84500    1333.9513   -121.63929    1.2069872    -120.4323    12725.788    4.2826325    4.2826325    4.2826325    12725.788    21937.743    10285.087    5954.5329    -26906.06   -12253.689   -16824.346     78.54751 
   84600    1555.7187   -121.83415    1.4076469    -120.4265   -6331.8005    4.2935525    4.2935525    4.2935525   -6331.8005   -15188.906    4256.4672   -8062.9627    9747.4911    2354.1745    2470.5404    79.149892 
   84700    598.51541   -120.98273   0.54154932   -120.44118   -19157.699    4.2936948    4.2936948    4.2936948   -19157.699   -23820.276    2675.6125   -36328.435    23745.743    26321.381    16236.626    79.157764 
   84800    981.74081   -121.32422   0.88829971   -120.43592    15973.178    4.2794918    4.2794918    4.2794918    15973.178    24898.622    25378.497   -2357.5855    324.88622    25045.676   -4471.8199    78.374828 
   84900    1906.3871   -122.14755    1.7249391   -120.42261    5536.0827    4.2955586    4.2955586    4.2955586    5536.0827    30944.335   -883.19846   -13452.889   -11294.226   -9206.6826    -9486.094    79.260892 
   85000    988.27329   -121.33647   0.89421045   -120.44226   -7128.0895    4.2944121    4.2944121    4.2944121   -7128.0895    15364.996    6572.5215   -43321.786    7657.8782   -5369.4477    9753.4371    79.197445 
   85100    372.63034   -120.78523   0.33716377   -120.44807    -957.3031    4.2819856    4.2819856    4.2819856    -957.3031    -12857.01    40463.185   -30478.085    25012.238    25630.633    14453.817     78.51192 
   85200    1459.8616    -121.7598    1.3209134   -120.43889   -1631.4182    4.2902322    4.2902322    4.2902322   -1631.4182   -5134.5686    6121.1699   -5880.8558    10325.561    13073.449    5894.5861    78.966408 
   85300    1801.6323   -122.06224    1.6301547   -120.43208    6972.9115    4.2888315    4.2888315    4.2888315    6972.9115    10716.495   -4205.2989    14407.538   -32187.287   -4023.2954   -5522.5736    78.889091 
   85400    1048.3996     -121.392   0.94861398   -120.44339    10028.788    4.2869533    4.2869533    4.2869533    10028.788   -4761.4698    30723.922    4123.9123    -10965.83    10894.996    1017.4809    78.785495 
   85500    1249.8347    -121.5683    1.1308767   -120.43742   -4442.4078     4.294409     4.294409     4.294409   -4442.4078   -20299.318     19409.01   -12436.915    28623.146    26890.063     15787.65    79.197272 
   85600     1522.221   -121.80448    1.3773376   -120.42714     14828.87    4.2874041    4.2874041    4.2874041     14828.87    18842.075    13324.147    12320.388     -9302.29     2657.575   -1856.2428     78.81035 
   85700    1046.0989   -121.38095   0.94653224   -120.43442    7748.3574    4.2860781    4.2860781    4.2860781    7748.3574    11029.184   -12204.384    24420.272   -47459.644   -7278.5871   -20606.475    78.737248 
   85800     961.6085   -121.30431   0.87008358   -120.43423   -2767.0769    4.2946112    4.2946112    4.2946112   -2767.0769    5888.6814    -5950.523   -8239.3892   -5358.2965    11258.087   -11368.093    79.208455 
   85900    1449.5033   -121.73734     1.311541    -120.4258    2629.3706    4.2882637    4.2882637    4.2882637    2629.3706     7708.649    18817.694   -18638.231    25018.729    19356.453    6451.6542    78.857761 
   86000    1052.5955   -121.38724   0.95241057   -120.43483   -2898.7928    4.2849382    4.2849382    4.2849382   -2898.7928   -9124.5076   -20414.451    20842.581   -38654.906    6238.1651   -956.14372    78.674444 
   86100    701.14282   -121.07585   0.63440876   -120.44144   -8459.0647    4.2885059    4.2885059    4.2885059   -8459.0647   -10792.038   -39786.626     25201.47   -60046.189   -9916.2707   -23940.375    78.871124 
   86200    1363.0806   -121.67009     1.233344   -120.43675   -1483.4321    4.2872591    4.2872591    4.2872591   -1483.4321    13672.206   -7746.3678   -10376.135    6914.6135    10349.321   -12216.821    78.802352 
   86300    1533.1354   -121.81981    1.3872131   -120.43259   -1106.3396    4.2913837    4.2913837    4.2913837   -1106.3396   -14099.589   -5233.0305    16013.601   -3423.1419    11531.777    1166.5639     79.03001 
   86400    1016.1383   -121.35851   0.91942326   -120.43909   -6601.5788    4.2911081    4.2911081    4.2911081   -6601.5788   -38913.251   -35472.531    54581.045   -69420.115    3301.1059     2160.427    79.014788 
   86500    1317.7096   -121.62735    1.1922913   -120.43505    3444.1735    4.2858425    4.2858425    4.2858425    3444.1735    9970.2915   -24813.977    25176.205   -27587.371   -8374.0953   -22041.612    78.724266 
   86600    1713.0954   -121.97653    1.5500448   -120.42648    7246.3122    4.2900557    4.2900557    4.2900557    7246.3122    22941.891    -3581.608    2378.6539    19827.291   -2860.5353   -16520.154    78.956665 
   86700    947.82514   -121.29368   0.85761211   -120.43607   -5782.3373    4.2914707    4.2914707    4.2914707   -5782.3373   -5076.7844    -28525.82    16255.592   -47539.007    9411.7034    10288.183    79.034819 
   86800    843.15425   -121.20136   0.76290369   -120.43846   -3726.1655    4.2886577    4.2886577    4.2886577   -3726.1655   -9371.0299   -19626.574    17819.107   -57469.497    10327.818    4064.3913    78.879502 
   86900    1657.7673   -121.92464    1.4999827   -120.42466   -1756.7356    4.2935752    4.2935752    4.2935752   -1756.7356    12705.062    4614.5571   -22589.826      13530.4    -153.6438   -13140.549    79.151146 
   87000     1192.623   -121.50686    1.0791104   -120.42775   -9221.5203    4.2937499    4.2937499    4.2937499   -9221.5203    8520.3875    -27961.33   -8223.6179   -21912.112   -3296.4827   -14999.596    79.160808 
   87100    413.16822   -120.80948   0.37384329   -120.43563   -10825.521    4.2898222    4.2898222    4.2898222   -10825.521   -20095.132   -30136.736    17755.304   -70208.497    7762.7496    3543.7598    78.943775 
   87200    1133.3944    -121.4587     1.025519   -120.43318   -8910.4402    4.2895852    4.2895852    4.2895852   -8910.4402   -25778.468    479.78122   -1432.6337     5005.112     12220.54     12136.98    78.930688 
   87300    1560.7549   -121.83973    1.4122038   -120.42753    2353.3341    4.2866121    4.2866121    4.2866121    2353.3341   -13815.782    13240.171    7635.6135    23929.763    4940.4406   -132.18706    78.766683 
   87400     963.9867   -121.30988   0.87223542   -120.43765   -2866.9291    4.2894041    4.2894041    4.2894041   -2866.9291   -37703.832   -4451.6021    33554.647   -62226.493    -2064.499   -4616.7454    78.920694 
   87500    1028.6247   -121.36825   0.93072123   -120.43753   -5258.9019    4.2939857    4.2939857    4.2939857   -5258.9019   -30600.646   -8917.0795     23741.02   -50833.077    4001.4954    -3498.229    79.173853 
   87600    1678.4382    -121.9449    1.5186862   -120.42621    4271.8101    4.2874305    4.2874305    4.2874305    4271.8101   -20263.639    25839.951    7239.1183    25584.501    24196.045    5925.2243    78.811804 
   87700    1083.7166   -121.41497   0.98056953    -120.4344    226.82173     4.286908     4.286908     4.286908    226.82173    -44205.46    14362.321    30523.604   -20518.803    15157.833    10665.578    78.782993 
   87800    848.38727   -121.20773   0.76763863    -120.4401   -9300.5695    4.2934943    4.2934943    4.2934943   -9300.5695   -50601.158   -22250.746    44950.196   -58589.769   -7689.9113    875.01567    79.146675 
   87900    1574.7786   -121.85551    1.4248928   -120.43062     11078.72    4.2889374    4.2889374    4.2889374     11078.72      2486.18    24217.689    6532.2917   -110.68079   -1508.2348   -5807.8127    78.894938 
   88000    1630.2582    -121.9057    1.4750918   -120.43061    10362.644    4.2856967    4.2856967    4.2856967    10362.644    8235.4495    30549.956   -7697.4728   -495.73109    5446.5107   -10829.439    78.716232 
   88100    809.41397   -121.17526   0.73237477   -120.44288   -6903.7126    4.2898783    4.2898783    4.2898783   -6903.7126   -29529.004   -12620.245    21438.111   -66881.382    13646.859   -2064.2037    78.946872 
   88200    1079.4395   -121.41582   0.97669954   -120.43912   -3210.5536    4.2893765    4.2893765    4.2893765   -3210.5536    -21187.76   -11910.159    23466.258    -30967.42    6154.8398    4023.1204    78.919169 
   88300    1740.5898   -122.00321    1.5749222   -120.42829    4579.9562    4.2902231    4.2902231    4.2902231    4579.9562    12738.215     6209.884   -5208.2301    34073.319   -8517.0361   -10871.206    78.965907 
   88400    917.58337   -121.27274   0.83024871    -120.4425   -5363.6523      4.29065      4.29065      4.29065   -5363.6523   -1824.7121   -30720.574    16454.329   -30758.542    -2249.153   -16877.165    78.989485 
   88500    689.60727   -121.06838   0.62397115   -120.44441   -1711.1086    4.2853718    4.2853718    4.2853718   -1711.1086   -17767.664   -29259.494    41893.832   -71654.822    6347.5925   -5828.0715    78.698331 
   88600    1685.7143   -121.95882    1.5252698   -120.43355    2211.1941    4.2943386    4.2943386    4.2943386    2211.1941   -4419.6879     4538.546     6514.724       4726.7    24701.275    8894.4849    79.193373 
   88700    1675.6893   -121.94371    1.5161988   -120.42751   -11279.434    4.2985298    4.2985298    4.2985298   -11279.434   -10756.048   -22949.047   -133.20628    1297.5266    5043.2022    -3105.523    79.425478 
   88800    807.06897   -121.17068   0.73025297   -120.44043    4134.5106    4.2793299    4.2793299    4.2793299    4134.5106   -297.36779   -22389.412    35090.312   -68664.781   -18870.675   -11212.644    78.365932 
   88900    867.11385   -121.23092   0.78458283   -120.44633    7408.6153    4.2801006    4.2801006    4.2801006    7408.6153    8886.2597   -346.72562    13686.312   -32308.199    9318.4444   -2498.1039    78.408281 
   89000    1502.8285   -121.79676    1.3597908   -120.43697   -5352.7106    4.2935848    4.2935848    4.2935848   -5352.7106   -7826.9099    23140.098    -31371.32    22237.618    21569.297   -4019.3838    79.151678 
   89100    1155.3282   -121.48486    1.0453652    -120.4395    4843.4576    4.2879588    4.2879588    4.2879588    4843.4576    9802.6233    15185.775   -10458.026   -13687.291    11187.005    3888.9256    78.840941 
   89200    889.68626   -121.24774   0.80500683   -120.44274   -5386.3907    4.2885167    4.2885167    4.2885167   -5386.3907    -445.7516   -15249.107   -464.31392   -49093.836   -5869.9531   -6992.6703    78.871722 
   89300    1161.9481   -121.48844     1.051355   -120.43708   -5188.6865    4.2881055    4.2881055    4.2881055   -5188.6865   -7233.5119    15798.105   -24130.652   -17937.828   -3487.8976   -14198.883    78.849036 
   89400    1178.3557   -121.50214     1.066201   -120.43594    11490.805    4.2816477    4.2816477    4.2816477    11490.805    13568.172    50726.711   -29822.469    21675.691     18194.22    1743.4536    78.493336 
   89500    964.87184   -121.31446   0.87303632   -120.44143   -13359.586    4.2972367    4.2972367    4.2972367   -13359.586   -21914.737   -5972.9001   -12191.122   -11360.249     10823.54     2569.895    79.353821 
   89600    1430.3997   -121.72779    1.2942557   -120.43353   -11846.235    4.2949043    4.2949043    4.2949043   -11846.235   -18111.118   -20807.142    3379.5549   -33598.707    -6235.448    4370.7321    79.224676 
   89700    1580.3913   -121.85785    1.4299712   -120.42788      22028.3      4.27459      4.27459      4.27459      22028.3    19049.966    45732.977    1301.9584    398.03009   -7835.7384   -671.61943    78.105822 
   89800    994.51009   -121.34345   0.89985363    -120.4436   -5991.4545    4.2873927    4.2873927    4.2873927   -5991.4545   -26987.756    45007.495   -35994.102    6797.2038    9803.1188   -2977.5445    78.809723 
   89900    1217.1973   -121.54123    1.1013457   -120.43988   -11317.154    4.2975122    4.2975122    4.2975122   -11317.154   -23216.604    2781.4952   -13516.352    5178.3283    16657.292    4627.8607    79.369084 
   90000    1902.4157   -122.14863    1.7213457   -120.42728     14514.63    4.2862707    4.2862707    4.2862707     14514.63    31402.172    5668.5237    6473.1939   -4045.9236   -4597.5655    357.10265    78.747866 
   90100    1153.9665   -121.48535    1.0441331   -120.44122   -7695.4704    4.2859472    4.2859472    4.2859472   -7695.4704   -4488.7623    36736.245   -55333.894   -6358.4611   -19544.179   -5340.9518    78.730036 
   90200    260.00928   -120.69043   0.23526186   -120.45517   -13512.787    4.2851403    4.2851403    4.2851403   -13512.787     -21467.8    57031.794   -76102.355    11097.299    2736.0214   -5605.0786    78.685575 
   90300    1079.3607   -121.42822   0.97662827   -120.45159    1939.6225    4.2890423    4.2890423    4.2890423    1939.6225    19718.551    16589.981   -30489.664    13478.889    22440.472   -3289.3161    78.900723 
   90400    1765.4652   -122.03237      1.59743   -120.43494    -3989.721    4.2951854    4.2951854    4.2951854    -3989.721    27671.051   -11877.704    -27762.51     -7362.02   -5526.2496    3772.5396    79.240234 
   90500    877.90236   -121.24387    0.7943445   -120.44953     5357.345    4.2796932    4.2796932    4.2796932     5357.345    19135.139    41286.646    -44349.75   -14861.818   -10000.755   -1538.6236    78.385893 
   90600    503.70677   -120.91141   0.45576448   -120.45565    1071.6423    4.2828251    4.2828251    4.2828251    1071.6423    8910.9065    57035.759   -62731.738    3178.7556    14495.388   -3998.0082    78.558108 
   90700    1438.3733   -121.74247    1.3014704     -120.441   -5305.9159    4.2955054    4.2955054    4.2955054   -5305.9159    4059.9113    18649.542   -38627.201     9982.186    10437.669   -391.59383    79.257943 
   90800    1660.0138   -121.93444    1.5020153   -120.43243    21077.702     4.285315     4.285315     4.285315    21077.702    41909.929    4039.1832    17283.993   -15957.046   -2788.5253    5814.3045    78.695201 
   90900    1032.9952    -121.3759    0.9346758   -120.44122   -7857.3219    4.2893341    4.2893341    4.2893341   -7857.3219   -28933.083    12251.514    -6890.396   -19629.356    8794.9873    9306.9564    78.916828 
   91000    1044.7578   -121.38585   0.94531877   -120.44053   -10932.848    4.2894154    4.2894154    4.2894154   -10932.848   -30704.547    37549.896   -39643.892    840.43055    11691.386   -5232.5876    78.921318 
   91100    1540.8666   -121.82867    1.3942085   -120.43446    14869.634    4.2812684    4.2812684    4.2812684    14869.634    25966.234    28375.717   -9733.0494    2437.8061   -3654.0712   -10555.984    78.472476 
   91200     1480.869   -121.77691    1.3399214   -120.43698   -6446.0831    4.2924535    4.2924535    4.2924535   -6446.0831   -8372.1586    -22270.99    11304.899   -8100.5248    -4889.905   -2764.6994    79.089127 
   91300    1105.6264   -121.44221     1.000394   -120.44181    2447.8978    4.2855859    4.2855859    4.2855859    2447.8978   -2935.0332    12626.556   -2347.8298    -10647.74    16478.982    2811.6347    78.710127 
   91400    990.57326   -121.33775   0.89629151   -120.44146    12331.435    4.2804531    4.2804531    4.2804531    12331.435    31780.961    53009.281   -47795.938   -2881.5543    21858.348    1422.9614    78.427657 
   91500    1237.5187   -121.55727    1.1197329   -120.43754   -16786.273    4.2945893    4.2945893    4.2945893   -16786.273   -12316.159    16394.026   -54436.687    9583.1059   -1418.5741   -8498.5269    79.207244 
   91600    1088.8158   -121.42206   0.98518337   -120.43688    2224.6492    4.2840083    4.2840083    4.2840083    2224.6492   -13.574218    1143.6593    5543.8624     8124.142   -9527.0697   -5698.8479    78.623238 
   91700    789.49419   -121.15832   0.71435093   -120.44396    -8480.192    4.2826975    4.2826975    4.2826975    -8480.192   -27215.148    15964.514   -14189.942    456.95017    30808.772    4788.3063    78.551086 
   91800      1034.67   -121.38011   0.93619115   -120.44392   -21403.862    4.2917444    4.2917444    4.2917444   -21403.862   -38628.081    34911.683   -60495.188   -10269.206    40238.261    9432.4997    79.049942 
   91900    1711.6626   -121.98195    1.5487483   -120.43321    4632.9716    4.2831074    4.2831074    4.2831074    4632.9716     -1257.38    17147.161   -1990.8666    9718.7495    -3175.557    3279.8058    78.573645 
   92000    1203.8417   -121.53094    1.0892613   -120.44168    -10682.64    4.2918615    4.2918615    4.2918615    -10682.64    -44829.73   -20561.358    33343.168    24603.703   -3596.7119   -979.28546    79.056411 
   92100    704.94362   -121.08414    0.6378478    -120.4463   -23298.228    4.2932476    4.2932476    4.2932476   -23298.228   -76426.422    5994.4781    537.26053   -3327.8119    49017.504    -3710.271    79.133033 
   92200    1309.3998   -121.62378    1.1847724   -120.43901     12153.36    4.2783098    4.2783098    4.2783098     12153.36   -12492.483    48055.803    896.76005   -16201.485    33212.264    3237.7448    78.309901 
   92300    1663.4557   -121.93905    1.5051297   -120.43392    3260.4142    4.2877824    4.2877824    4.2877824    3260.4142   -8192.5524    11453.943    6519.8523    13895.408   -23330.181    5269.2031    78.831214 
   92400    1049.6516   -121.39146   0.94974685   -120.44171   -9772.4253    4.2922305    4.2922305    4.2922305   -9772.4253   -45736.647    6700.0135    9719.3577    20746.971   -3762.9095   -838.76077    79.076802 
   92500    900.24499   -121.25532   0.81456059   -120.44076    4775.0184    4.2863548    4.2863548    4.2863548    4775.0184   -21282.888      34321.3    1286.6437   -5586.1502    44152.655   -458.25374      78.7525 
   92600    1392.9485   -121.69416    1.2603691   -120.43379    -3694.028    4.2905934    4.2905934    4.2905934    -3694.028   -16457.472    28102.653   -22727.265   -13466.114    5873.6135   -184.94466    78.986359 
   92700    1228.2261   -121.54953    1.1113248    -120.4382    10006.299    4.2827202    4.2827202    4.2827202    10006.299   -7910.3464    39686.786   -1757.5444    7039.1178   -54010.169    661.23538    78.552335 
   92800    1096.9015    -121.4358   0.99249955    -120.4433    12480.865    4.2838265    4.2838265    4.2838265    12480.865    4993.5034     26689.99    5759.1015    11167.812   -17577.705    6020.2781    78.613228 
   92900    1499.7962   -121.79119    1.3570471   -120.43414   -5384.4982    4.2955848    4.2955848    4.2955848   -5384.4982   -20433.179   -497.48195    4777.1667   -1258.5819    36412.174   -910.07087    79.262342 
   93000    1089.2298   -121.42288   0.98555799   -120.43732    1639.4699    4.2868418    4.2868418    4.2868418    1639.4699   -26124.141    34112.908   -3070.3568   -7582.3242   -29043.124   -1304.2564    78.779348 
   93100    631.15792   -121.01381   0.57108495   -120.44272   -700.18878    4.2849809    4.2849809    4.2849809   -700.18878   -15932.268    28855.599   -15023.898    2009.6821   -67430.158    4280.4026    78.676799 
   93200    1355.8052   -121.66099    1.2267611   -120.43423   -5119.4745    4.2918972    4.2918972    4.2918972   -5119.4745    535.55895   -28380.905    12486.922    7665.1452    4196.0213    9804.6065    79.058386 
   93300    1362.5621   -121.66588    1.2328748     -120.433    6380.6151    4.2877922    4.2877922    4.2877922    6380.6151    -8292.132   -13168.262    40602.239    554.41917    2760.6603    8233.5647    78.831753 
   93400    771.77056   -121.14222   0.69831422    -120.4439   -3196.9322    4.2865647    4.2865647    4.2865647   -3196.9322   -37479.143    30727.145   -2838.7988   -7173.6505   -70779.666   -1395.3941     78.76407 
   93500    1239.5281   -121.55978    1.1215511   -120.43823   -472.27848    4.2867129    4.2867129    4.2867129   -472.27848   -25419.305    23081.661     920.8087   -2002.2859   -26811.502    3918.1828    78.772241 
   93600    1482.5711   -121.77543    1.3414615   -120.43396    7476.1792    4.2883774    4.2883774    4.2883774    7476.1792    13316.979   -5760.5885    14872.147    5945.6084    30628.004    8314.5233    78.864037 
   93700    1085.5838   -121.42236   0.98225901    -120.4401   -3894.8343    4.2932972    4.2932972    4.2932972   -3894.8343    3125.2162   -1246.5099   -13563.209     1102.728   -21366.983    719.27365    79.135777 
   93800    1555.9714   -121.84146    1.4078756   -120.43358    10335.944    4.2864873    4.2864873    4.2864873    10335.944   -19776.121     29633.65    21150.303   -963.93491   -38468.837   -1639.9665    78.759804 
   93900     1570.122   -121.85101    1.4206794   -120.43033    14859.523    4.2850478    4.2850478    4.2850478    14859.523   -3093.0439    32573.919    15097.694   -3753.5353    19786.738   -3057.9086    78.680479 
   94000    616.18921   -120.99894   0.55754094    -120.4414   -12800.171    4.2969435    4.2969435    4.2969435   -12800.171    9038.8064   -15505.532   -31933.787    747.16621    32971.915    2216.8208    79.337576 
   94100    1131.5285   -121.45776    1.0238307   -120.43393   -10350.349    4.2963475    4.2963475    4.2963475   -10350.349    11502.963   -35841.447   -6712.5645    2489.2799   -8444.3465    7957.0805     79.30457 
   94200    1771.8074   -122.02132    1.6031686   -120.41815    9482.9218    4.2866481    4.2866481    4.2866481    9482.9218    6279.4223   -1447.1417    23616.485   -101.72102   -7832.2575   -1474.8914    78.768668 
   94300    821.13426   -121.17752   0.74297953   -120.43454   -1407.9506    4.2853898    4.2853898    4.2853898   -1407.9506   -6137.9534     1640.461    273.64063   -4487.3024    45084.009   -4047.7915    78.699325 
   94400     534.9249   -120.92859   0.48401129   -120.44457   -13450.621    4.2893881    4.2893881    4.2893881   -13450.621    10603.566    -38559.23   -12396.199    1282.0527    28943.224    13603.647     78.91981 
   94500    1288.6446   -121.60437    1.1659927   -120.43838   -177.41597    4.2887316    4.2887316    4.2887316   -177.41597    39243.819   -32566.395   -7209.6714    8136.4717   -12317.484    13640.071    78.883577 
   94600    1493.8897   -121.78856    1.3517028   -120.43686    8366.1035    4.2825069    4.2825069    4.2825069    8366.1035    3668.4004    25878.774   -4448.8643   -222.80162    -18327.75   -4846.6444      78.5406 
   94700    1030.8591   -121.37698   0.93274294   -120.44424   -2526.0126     4.288903     4.288903     4.288903   -2526.0126   -12475.533    28540.273   -23642.778   -2597.4419    4529.5774    507.06236    78.893036 
   94800    1396.1929    -121.6996    1.2633047    -120.4363   -10264.564     4.293808     4.293808     4.293808   -10264.564    14369.763   -11423.727   -33739.729   -4091.9309    27591.394    14412.139    79.164025 
   94900    1512.2495   -121.79969    1.3683151   -120.43138    3489.2339    4.2835262    4.2835262    4.2835262    3489.2339    18781.895    7670.7138   -15984.907   -1647.0946   -16462.309    13505.189    78.596692 
   95000    984.51325   -121.33051   0.89080828    -120.4397   -2595.5931    4.2836317    4.2836317    4.2836317   -2595.5931   -23957.426    32212.024   -16041.377     4170.329   -57059.277   -837.76657    78.602503 
   95100    1234.0064   -121.55582    1.1165549   -120.43927   -7889.6784     4.290319     4.290319     4.290319   -7889.6784   -16481.967    6310.5064   -13497.574   -5035.7207   -5860.1866   -364.95585    78.971206 
   95200    1607.4906   -121.88464    1.4544913   -120.43015    8775.2353    4.2871203    4.2871203    4.2871203    8775.2353     20619.81    -4374.221    10080.117   -2163.5097    23611.186    16018.601    78.794703 
   95300    756.01885   -121.12854   0.68406175   -120.44448   -3274.5908     4.287643     4.287643     4.287643   -3274.5908   -17030.095    18869.565   -11663.242      8395.17   -41657.593     11183.73    78.823523 
   95400    598.42229   -120.98774   0.54146507   -120.44627   -9973.3294    4.2936619    4.2936619    4.2936619   -9973.3294   -23197.593    12994.806   -19717.201     3954.147   -59373.131   -2764.7364    79.155944 
   95500    1823.6445   -122.07151    1.6500719   -120.42144    1872.3072    4.2932203    4.2932203    4.2932203    1872.3072   -5875.0956   -3894.4179    15386.435   -1566.0203    9944.0605   -3066.1042    79.131521 
   95600    1363.6667   -121.66187    1.2338743   -120.42799    4573.2264    4.2898336    4.2898336    4.2898336    4573.2264    10173.802    15139.222   -11593.345   -4769.2084   -8679.3531    15445.119    78.944402 
   95700    579.25216   -120.96563   0.52411952   -120.44151   -12234.555    4.2865715    4.2865715    4.2865715   -12234.555   -22951.259    23455.177   -37207.584    5382.9953   -71292.179    20194.833    78.764446 
   95800    1118.2196   -121.45511    1.0117886   -120.44332    2327.0854    4.2830303    4.2830303    4.2830303    2327.0854   -1708.2044    21361.239   -12671.778    6875.2428   -26823.067    11.557155      78.5694 
   95900    1763.8628   -122.03096    1.5959801   -120.43498    5428.5981    4.2872028    4.2872028    4.2872028    5428.5981    7851.7262    12937.877   -4503.8085    4024.9224    29634.039   -7535.8995    78.799248 
   96000     1021.797   -121.37067   0.92454339   -120.44613    -9375.246    4.2914946    4.2914946    4.2914946    -9375.246   -14555.949    31838.642    -45408.43   -3313.5911   -30761.975    6047.8394    79.036136 
   96100     624.9381   -121.01616   0.56545713   -120.45071   -9338.5844    4.2855902    4.2855902    4.2855902   -9338.5844    10040.117    33890.832   -71946.702     2468.923    -55830.32    23430.628    78.710366 
   96200    1386.5329   -121.69404    1.2545641   -120.43948    5707.5684    4.2834174    4.2834174    4.2834174    5707.5684    30622.405    4805.0752   -18304.775    20288.752   -2180.8033    14818.761    78.590706 
   96300    1682.4326   -121.95521    1.5223004   -120.43291    1254.9364    4.2913239    4.2913239    4.2913239    1254.9364    10433.332   -726.75697    -5941.766    6304.5393    6189.0242   -12540.215    79.026707 
   96400    969.63361   -121.31728   0.87734487   -120.43994   -13156.455    4.2945304    4.2945304    4.2945304   -13156.455   -7110.9586    24715.347   -57073.753   -4461.7071   -51400.873    3297.5307    79.203988 
   96500    1183.6277   -121.50817    1.0709713    -120.4372   -2247.7461    4.2834491    4.2834491    4.2834491   -2247.7461   -1035.7226    20004.704   -25712.219   -5005.9194   -34891.701    20306.272    78.592453 
   96600    1645.3438   -121.91898    1.4887417   -120.43024    12431.031    4.2810316    4.2810316    4.2810316    12431.031    15179.462   -1836.4493    23950.081    16605.607    20991.342    3272.8921    78.459456 
   96700    1025.8468   -121.36812   0.92820772   -120.43991   -9513.4782    4.2931695    4.2931695    4.2931695   -9513.4782   -16625.412   -2043.5115   -9871.5108    24359.031   -26684.982   -14888.084    79.128713 
   96800    789.66589   -121.15897   0.71450629   -120.44446   -10522.042    4.2937151    4.2937151    4.2937151   -10522.042   -32679.082    27234.146   -26121.191   -4075.9771   -54913.321   -16145.982    79.158883 
   96900    1666.4242   -121.94186    1.5078156   -120.43404    9428.3015    4.2826945    4.2826945    4.2826945    9428.3015    4884.7043    24965.085   -1564.8847   -5954.1071   -4531.2016    2924.8042     78.55092 
   97000    1734.3837   -122.00297    1.5693068   -120.43366    16013.561    4.2825558    4.2825558    4.2825558    16013.561    3613.3209    21598.593    22828.768    15119.988    9306.9434    8042.5513    78.543291 
   97100    682.93098   -121.06939    0.6179303   -120.45146   -13950.336    4.2937988    4.2937988    4.2937988   -13950.336   -30381.432    11820.706    -23290.28    23240.468   -43118.378   -7568.1717    79.163518 
   97200    764.19371   -121.14332   0.69145853   -120.45187   -12459.064    4.2913003    4.2913003    4.2913003   -12459.064    -15425.54    23063.882   -45015.533     844.4991    -47328.95   -20589.346    79.025403 
   97300    1769.0725   -122.03762     1.600694   -120.43693    17562.455     4.280872     4.280872     4.280872    17562.455     31010.66    24269.299   -2592.5946   -5949.3863     9282.093   -8112.2489    78.450681 
   97400    1496.2889   -121.79252    1.3538736   -120.43865     2770.505     4.287379     4.287379     4.287379     2770.505    568.20898    7357.0946     386.2115    13322.888   -3271.4517    10458.346    78.808964 
   97500    548.14327   -120.94465   0.49597155   -120.44868   -24016.199    4.2940349    4.2940349    4.2940349   -24016.199   -48086.887    4365.3631   -28327.072    17114.122   -56970.385   -1383.2798    79.176575 
   97600    755.02879   -121.12928   0.68316592   -120.44612   -2898.1046    4.2853448    4.2853448    4.2853448   -2898.1046    2188.1208   -7200.9461   -3681.4885    9607.8903   -26146.987   -26454.779    78.696845 
   97700    1558.2107   -121.84132    1.4099018   -120.43142     3566.364    4.2860255    4.2860255    4.2860255     3566.364    32096.269   -20459.918   -937.25921   -5045.3166    17834.758   -17501.121     78.73435 
   97800    999.85374   -121.34395   0.90468868   -120.43927   -10655.666    4.2909239    4.2909239    4.2909239   -10655.666    -12968.94     5390.298   -24388.357    -352.2286   -20142.548    13082.968    79.004613 
   97900    601.96834   -120.98902   0.54467361   -120.44435   -4372.7463    4.2875485    4.2875485    4.2875485   -4372.7463   -16752.947    22836.943   -19202.235    18769.196   -52618.225    4796.3874    78.818316 
   98000    1456.0445   -121.75132    1.3174597   -120.43386    6010.3109    4.2922223    4.2922223    4.2922223    6010.3109    26658.984   -2357.0968   -6270.9543    10457.192   -6488.1157   -13398.252     79.07635 
   98100    1858.9559   -122.11175    1.6820223   -120.42973    2986.2474     4.289453     4.289453     4.289453    2986.2474    20628.528    9712.9283   -21382.714    -9540.182    9820.1254    1649.3455    78.923393 
   98200    660.33427   -121.04549   0.59748432   -120.44801    4676.7974    4.2806941    4.2806941    4.2806941    4676.7974    13557.908    42000.788   -41528.303     -978.073   -50602.991    17201.459    78.440901 
   98300    796.30439   -121.17625   0.72051295   -120.45574   -12449.376    4.2911568    4.2911568    4.2911568   -12449.376    -10307.17    13020.953   -40061.911     9685.494   -32540.783    17273.645    79.017476 
   98400    1901.1993   -122.15795    1.7202451    -120.4377    3135.1846    4.2900615    4.2900615    4.2900615    3135.1846    16865.187    1615.9048   -9075.5376    9175.6225    20428.284   -1374.5246    78.956983 
   98500    1571.6031    -121.8612    1.4220195   -120.43918    6508.9894    4.2812841    4.2812841    4.2812841    6508.9894    1518.1937    24451.409    -6442.634   -10042.962   -18786.647   -14750.891    78.473344 
   98600    746.71422    -121.1237   0.67564272   -120.44806   -15138.797    4.2914275    4.2914275    4.2914275   -15138.797   -43104.471    18640.254   -20952.175   -10715.822   -52168.334    8327.1493    79.032433 
   98700    1249.9252   -121.56636    1.1309586    -120.4354   -7713.4331    4.2927639    4.2927639    4.2927639   -7713.4331   -8859.4529    1534.5865   -15815.433    8572.8048    -6940.461    17043.967     79.10629 
   98800    1524.5878   -121.80635    1.3794791   -120.42687    9924.7382    4.2867636    4.2867636    4.2867636    9924.7382    27525.541    8026.2762   -5777.6023    5126.7403     14691.01   -8294.5462    78.775036 
   98900    1010.6115   -121.34852    0.9144225    -120.4341    -11100.36     4.290527     4.290527     4.290527    -11100.36   -11417.155    4574.1185   -26458.044   -14955.356   -41499.387    -24801.94    78.982688 
   99000    1069.9599    -121.4066   0.96812216   -120.43848   -1081.3146    4.2837147    4.2837147    4.2837147   -1081.3146    -5058.384    20175.797   -18361.357    353.20353   -40781.493   -256.02713    78.607069 
   99100    1474.4623   -121.76981    1.3341245   -120.43568    12237.315    4.2808713    4.2808713    4.2808713    12237.315    21808.794    19093.237   -4190.0868    13596.852    12965.639    20013.188    78.450644 
   99200     1205.425     -121.532    1.0906938   -120.44131   -11173.326    4.2937046    4.2937046    4.2937046   -11173.326    15035.836   -14326.263   -34229.551    2644.7501    5046.7079   -22471.382    79.158306 
   99300    723.94226   -121.10164   0.65503817    -120.4466   -4228.7435    4.2878493    4.2878493    4.2878493   -4228.7435    30744.064    6644.4011   -50074.696   -3191.2601   -36272.094   -41332.722    78.834902 
   99400    1280.3955   -121.59465    1.1585288   -120.43612    9257.7243    4.2808853    4.2808853    4.2808853    9257.7243    4174.2753    43888.541   -20289.643   -3580.8668    -22451.54    643.00101    78.451412 
   99500    1452.3254   -121.74715    1.3140945   -120.43306   -6125.2979    4.2926639    4.2926639    4.2926639   -6125.2979   -13861.271    17794.821   -22309.444    9275.0391    26782.756    6804.6123     79.10076 
   99600    962.55751   -121.30915   0.87094226   -120.43821   -3393.4965    4.2910576    4.2910576    4.2910576   -3393.4965    29883.035   -9524.9143    -30538.61    5413.7678    7262.9651   -35251.373    79.011995 
   99700    1158.9243   -121.48334     1.048619   -120.43473    2336.6341    4.2830001    4.2830001    4.2830001    2336.6341     28709.67    13579.154   -35278.921   -3953.5142   -37948.629   -28917.474    78.567739 
   99800     1478.663   -121.77143    1.3379254    -120.4335   -5213.5381    4.2872223    4.2872223    4.2872223   -5213.5381   -23095.053     32027.48   -24573.042     6525.507   -3248.6882    10008.429    78.800326 
   99900    1033.6074   -121.37763    0.9352297    -120.4424   -6648.1742    4.2860116    4.2860116    4.2860116   -6648.1742   -2955.1525    10841.203   -27830.573     6409.617    39456.536   -7870.0862    78.733583 
  100000    822.73423   -121.19251   0.74442722   -120.44808   -4008.0423    4.2844659    4.2844659    4.2844659   -4008.0423    41483.563   -16828.704   -36678.987    3974.1442    19095.494    -43379.33    78.648435 
Loop time of 22.1895 on 1 procs for 100000 steps with 8 atoms

Pair  time (%) = 7.05422 (31.7907)
Kspce time (%) = 5.3204 (23.9771)
Neigh time (%) = 0.0319953 (0.144191)
Comm  time (%) = 1.06538 (4.80127)
Outpt time (%) = 0.0265353 (0.119585)
Other time (%) = 8.691 (39.1671)

Nlocal:    8 ave 8 max 8 min
Histogram: 1 0 0 0 0 0 0 0 0 0
Nghost:    2189 ave 2189 max 2189 min
Histogram: 1 0 0 0 0 0 0 0 0 0
Neighs:    2282 ave 2282 max 2282 min
Histogram: 1 0 0 0 0 0 0 0 0 0

Total # of neighbors = 2282
Ave neighs/atom = 285.25
Neighbor list builds = 373
Dangerous builds = 0
unfix 20
unfix 21
print "seeds:4705067"
seeds:4705067
