LAMMPS (10 Feb 2015)
# ---- initialize simulations
clear
units metal
dimension 3
boundary p p p
atom_style charge
atom_modify map array
# ---- create atoms
read_data /Users/eugeneragasa/pyflamestk_git/pypospack/tests/tests_integration/workflow/WorkflowLammpsThermalExpansion/param_6993/MgO_NaCl_unit.npt.T800/lammps.structure
  triclinic box = (0 0 0) to (4.2565 4.2565 4.2565) with tilt (0 0 0)
  1 by 1 by 1 MPI processor grid
  reading atoms ...
  8 atoms
# ---- define interatomic potential
include potential.mod
mass 1 24.305
mass 2 15.999

group Mg type 1
4 atoms in group Mg
group O type 2
4 atoms in group O

set group Mg charge 1.61814101446
  4 settings made for charge
set group O charge -1.61814101446
  4 settings made for charge

variable R_cut equal 10.0

pair_style buck/coul/long ${R_cut}
pair_style buck/coul/long 10
pair_coeff 1 1 0.0 0.5 0.0 ${R_cut}
pair_coeff 1 1 0.0 0.5 0.0 10
pair_coeff 1 2 1169.10574889 0.285525631363 0.0 ${R_cut}
pair_coeff 1 2 1169.10574889 0.285525631363 0.0 10
pair_coeff 2 2 5328.19415446 0.197938803692 16.6059399876 ${R_cut}
pair_coeff 2 2 5328.19415446 0.197938803692 16.6059399876 10

kspace_style pppm 1.0e-5

neighbor 1.0 bin
neigh_modify every 1 delay 0 check yes
# ---- define settings
compute eng all pe/atom
compute eatoms all reduce sum c_eng
# ---- run minimization
reset_timestep 0
fix 1 all box/relax iso 0.0 vmax 0.001
thermo 10
thermo_style custom step pe lx ly lz xy xz yz press pxx pyy pzz pxy pxz pyz c_eatoms
min_style cg
minimize 1e-25 1e-25 5000 10000
PPPM initialization ...
  G vector (1/distance) = 0.352506
  grid = 8 8 8
  stencil order = 5
  estimated absolute RMS force accuracy = 3.81426e-05
  estimated relative force accuracy = 2.64886e-06
  using double precision FFTs
  3d grid and FFT values/proc = 3375 512
Neighbor list info ...
  1 neighbor list requests
  update every 1 steps, delay 0 steps, check yes
  master list distance cutoff = 11
Memory usage per processor = 4.06549 Mbytes
Step PotEng Lx Ly Lz Xy Xz Yz Press Pxx Pyy Pzz Pxy Pxz Pyz eatoms 
       0   -108.09373       4.2565       4.2565       4.2565            0            0            0    -32837.55    -32837.55    -32837.55    -32837.55 6.8800808e-12 1.9793426e-10 1.5308399e-10   -108.09373 
       9   -108.11055     4.226584     4.226584     4.226584            0            0            0    13.792758    13.792758    13.792758    13.792758 -4.4920118e-11 -8.154534e-11 2.0970287e-11   -108.11055 
Loop time of 0.0122111 on 1 procs for 9 steps with 8 atoms

Minimization stats:
  Stopping criterion = linesearch alpha is zero
  Energy initial, next-to-last, final = 
         -108.09372829     -108.110551709     -108.110551709
  Force two-norm initial, final = 4.74176 0.0024943
  Force max component initial, final = 4.74176 0.00196378
  Final line search alpha, max atom move = 0.00390625 7.67103e-06
  Iterations, force evaluations = 9 28

Pair  time (%) = 0.00331402 (27.1394)
Kspce time (%) = 0.00203991 (16.7054)
Neigh time (%) = 0 (0)
Comm  time (%) = 0.000409603 (3.35435)
Outpt time (%) = 0 (0)
Other time (%) = 0.00644755 (52.8008)

Nlocal:    8 ave 8 max 8 min
Histogram: 1 0 0 0 0 0 0 0 0 0
Nghost:    2189 ave 2189 max 2189 min
Histogram: 1 0 0 0 0 0 0 0 0 0
Neighs:    2344 ave 2344 max 2344 min
Histogram: 1 0 0 0 0 0 0 0 0 0

Total # of neighbors = 2344
Ave neighs/atom = 293
Neighbor list builds = 0
Dangerous builds = 0
unfix 1
# ---- define output variables ----
variable natoms equal "count(all)"
variable tot_energy equal "c_eatoms"
variable length_x equal "lx"
variable length_y equal "ly"
variable length_z equal "lz"
variable tilt_xy equal "xy"
variable tilt_xz equal "xz"
variable tilt_yz equal "yz"
variable tot_press equal "press"
variable press_xx equal "pxx"
variable press_yy equal "pyy"
variable press_zz equal "pzz"
variable press_xy equal "pxy"
variable press_xz equal "pxz"
variable press_yz equal "pyz"

# ---- output ----
print "pypospack:output_section:begin"
pypospack:output_section:begin
print "tot_energy = ${tot_energy}"
tot_energy = -108.110551708828
print "num_atoms = ${natoms}"
num_atoms = 8
print "xx = ${length_x}"
xx = 4.22658398474032
print "yy = ${length_y}"
yy = 4.22658398474032
print "zz = ${length_z}"
zz = 4.22658398474032
print "xy = ${tilt_xy}"
xy = 0
print "xz = ${tilt_xz}"
xz = 0
print "yz = ${tilt_yz}"
yz = 0
print "tot_press = ${tot_press}"
tot_press = 13.7927584127517
print "pxx = ${press_xx}"
pxx = 13.7927584125475
print "pyy = ${press_yy}"
pyy = 13.7927584121258
print "pzz = ${press_zz}"
pzz = 13.7927584135819
print "pxy = ${press_xy}"
pxy = -4.49201179574407e-11
print "pxz = ${press_xz}"
pxz = -8.15453399591787e-11
print "pyz = ${press_yz}"
pyz = 2.09702873442201e-11
print "pypospack:output_section:done"
pypospack:output_section:done
print "pypospack:lammps_sim:done"
pypospack:lammps_sim:done
#------------------------------------------------------------------------------
# RUN THERMOSTAT
# running using an NPT Nose-Hoover style thermostat
#------------------------------------------------------------------------------
variable tempdamp equal 0.1
variable pressdamp equal 1.0
# set initial velocities
velocity all create 800 2210875 mom yes dist gaussian loop all
# fix for Nose-Hoover style thermostat
fix 20 all npt temp 800 800 0.1 aniso 0.0 0.0 1.0 drag 1.0 couple xyz
variable boxx equal lx
variable boxy equal ly
variable boxz equal lz
variable boxp equal press
variable boxt equal temp
# calculate averages every 10000 steps
reset_timestep 0
fix 21 all ave/time 10 10 100 v_boxx v_boxy v_boxz v_boxp v_boxt file lattice.out
thermo_style custom step temp pe ke etotal press lx ly lz press pxx pyy pzz pxy pxz pyz vol
thermo_modify flush yes
thermo 100
run 100000
PPPM initialization ...
  G vector (1/distance) = 0.352801
  grid = 8 8 8
  stencil order = 5
  estimated absolute RMS force accuracy = 3.76353e-05
  estimated relative force accuracy = 2.61363e-06
  using double precision FFTs
  3d grid and FFT values/proc = 3375 512
Memory usage per processor = 3.06549 Mbytes
Step Temp PotEng KinEng TotEng Press Lx Ly Lz Press Pxx Pyy Pzz Pxy Pxz Pyz Volume 
       0          800   -108.11055   0.72385681   -107.38669      10254.2     4.226584     4.226584     4.226584      10254.2    2732.2079    12081.043    15949.349   -1496.0498    1408.5046   -3154.7807    75.503748 
     100    289.66105   -107.54923   0.26209141   -107.28714    -2188.739    4.2559972    4.2559972    4.2559972    -2188.739   -24072.129    3745.1269    13760.785   -1454.8249   -1790.4483   -6066.8992    77.091056 
     200    439.70044   -107.49817    0.3978502   -107.10032   -13560.311    4.2594495    4.2594495    4.2594495   -13560.311   -26674.855   -2671.6038   -11334.474   -801.97609   -4468.4251   -4764.9768    77.278808 
     300    844.20902   -107.68033   0.76385806   -106.91647   -1521.7951    4.2481557    4.2481557    4.2481557   -1521.7951   -11555.065     7223.277   -233.59695    911.85922    847.21435    4082.7237     76.66573 
     400    460.14701    -107.2036   0.41635068   -106.78725   -11948.732    4.2717467    4.2717467    4.2717467   -11948.732   -36968.138    5444.4167   -4322.4737   -2301.3012   -1985.4546   -9922.2858    77.950063 
     500    638.18208   -107.27449   0.57744056   -106.69705   -2989.4528    4.2607851    4.2607851    4.2607851   -2989.4528    -16859.82    12790.882   -4899.4204   -5404.7308   -5328.2123   -5357.4937    77.351525 
     600    1126.9929   -107.67687    1.0197269   -106.65715    571.90163    4.2627787    4.2627787    4.2627787    571.90163   -23167.175    18676.034    6206.8453    2380.6846    1483.2268     13650.55    77.460153 
     700    809.85118   -107.38169   0.73277037   -106.64892   -15927.436    4.2836068    4.2836068    4.2836068   -15927.436   -53011.637    9555.8335   -4326.5049    -6773.441   -8041.0727   -8199.3354    78.601129 
     800    888.26601   -107.44961   0.80372175   -106.64589    114.44978    4.2495429    4.2495429    4.2495429    114.44978   -19804.995    24232.887   -4084.5426   -5302.7977   -11614.284   -11004.781     76.74086 
     900    924.21583   -107.49659    0.8362499   -106.66034    6588.4641    4.2626415    4.2626415    4.2626415    6588.4641   -21987.425    37151.444    4601.3729   -1099.6783    695.68193   -8870.7842    77.452678 
    1000    580.75079   -107.17718   0.52547552    -106.6517   -10435.388    4.2833553    4.2833553    4.2833553   -10435.388   -39838.006    1398.4216    7133.4206   -1959.7283   -3855.1238   -1568.2302    78.587288 
    1100    777.65151   -107.35173   0.70363543    -106.6481    7456.5018    4.2412604    4.2412604    4.2412604    7456.5018   -1073.4101    22221.164    1221.7516   -2129.8086   -10261.443   -7449.9291     76.29302 
    1200    748.83508   -107.35075   0.67756172   -106.67319    4896.2163    4.2655337    4.2655337    4.2655337    4896.2163   -26344.915    10014.877    31018.687    10189.853    4488.2051    12971.902    77.610436 
    1300    828.51351   -107.40016   0.74965644   -106.65051   -15309.507    4.2872515    4.2872515    4.2872515   -15309.507     -38881.1     6625.021   -13672.441    7738.5959   -4303.4967    4939.1298    78.801938 
    1400    955.45855   -107.50928   0.86451897   -106.64476    13647.109      4.24057      4.24057      4.24057    13647.109    11155.155    13124.308    16661.863    -3874.858   -6090.1746   -7474.0055     76.25577 
    1500    796.84226   -107.38638   0.72099962   -106.66538    19337.424    4.2549508    4.2549508    4.2549508    19337.424   -12621.624    36411.471    34222.426    2171.8571    13549.141   -1175.9129     77.03421 
    1600    959.76998   -107.51476   0.86842004   -106.64634   -32600.673    4.2877691    4.2877691    4.2877691   -32600.673   -39394.356   -16097.405   -42310.258    3038.4545   -663.20814   -9244.0067    78.830479 
    1700    603.65977   -107.19303   0.54620404   -106.64683   -29.709026    4.2525681    4.2525681    4.2525681   -29.709026   -5594.0503   -4195.6688     9700.592   -7239.5496    1775.1446   -15242.389    76.904866 
    1800    822.38133   -107.39475   0.74410791   -106.65064    11933.009    4.2472572    4.2472572    4.2472572    11933.009   -5628.0631     10337.87     31089.22    1035.9887    8765.2229    1904.4468    76.617093 
    1900      922.458   -107.48525   0.83465938   -106.65059   -16561.892    4.2792089    4.2792089    4.2792089   -16561.892   -30840.644     893.1338   -19738.167    -6085.157    4291.5491     2567.851    78.359286 
    2000    588.76695    -107.1882   0.53272871   -106.65547     12664.25     4.257844     4.257844     4.257844     12664.25   -23842.836     17367.25    44468.337    -12997.16    4400.5684   -7165.9622    77.191457 
    2100    1038.5448   -107.59306   0.93969717   -106.65336    14886.522    4.2519227    4.2519227    4.2519227    14886.522   -138.33179    28395.938    16401.959    4039.1719    2745.4157    8741.8067     76.86986 
    2200    860.23651   -107.42962   0.77836007   -106.65126   -6668.7663    4.2760515    4.2760515    4.2760515   -6668.7663   -24597.868    26310.613   -21719.043    1377.8386    2014.5414    9602.5096    78.185963 
    2300    594.50826   -107.18623   0.53792357   -106.64831    9031.7404    4.2568117    4.2568117    4.2568117    9031.7404   -23504.927    19606.519    30993.628   -3377.1358    2947.0166   -6254.9625    77.135325 
    2400    848.78342    -107.4194   0.76799707   -106.65141    8095.4811    4.2580149    4.2580149    4.2580149    8095.4811   -4754.5687    28761.871    279.14106     4037.698    294.09731    -5135.704     77.20075 
    2500    960.50951   -107.51772   0.86908919   -106.64863   -12690.189    4.2711563    4.2711563    4.2711563   -12690.189   -22846.462   -15430.045     205.9403    3135.7117    3171.0719   -5174.9879    77.917749 
    2600    520.74826   -107.12139   0.47118397   -106.65021     13617.35    4.2586587    4.2586587    4.2586587     13617.35   -26062.608    1087.8532    65826.803    3841.3865    2212.7041    557.11266    77.235776 
    2700    1064.1132   -107.61253   0.96283202    -106.6497   -4020.6488    4.2640731    4.2640731    4.2640731   -4020.6488   -20936.484    15428.096   -6553.5588    8603.8886    -7600.834   -5243.7857    77.530737 
    2800    894.94952   -107.45952   0.80976913   -106.64975    18595.908    4.2600641    4.2600641    4.2600641    18595.908   -15695.263    34950.759    36532.229   -835.14837    7347.9909   -9230.4858    77.312267 
    2900    695.06267   -107.28565   0.62890731   -106.65674    7872.6321    4.2602976    4.2602976    4.2602976    7872.6321     -31613.8    30467.114    24764.583    6523.6066    6918.8602    946.05875    77.324981 
    3000    904.52619   -107.47379    0.8184343   -106.65536   -8117.9182    4.2658894    4.2658894    4.2658894   -8117.9182   -36349.275    28527.246   -16531.725    4022.6864   -8748.3022   -488.30119    77.629857 
    3100    738.12413   -107.32163   0.66787022   -106.65376    25518.148    4.2500333    4.2500333    4.2500333    25518.148   -1887.4509    15789.294    62652.601    -1178.678    10791.282    28.100705     76.76743 
    3200    728.54426   -107.32518   0.65920216   -106.66598   -27657.146    4.2711894    4.2711894    4.2711894   -27657.146   -29011.792   -37917.165   -16042.483    7454.1555    1853.5785   -7682.1017    77.919557 
    3300    884.13914   -107.45838   0.79998767   -106.65839   -22641.005    4.2642396    4.2642396    4.2642396   -22641.005    -37535.75   -25760.763   -4626.5021    4493.7302   -17393.168    7159.1406    77.539824 
    3400    778.94632   -107.35075     0.704807   -106.64594    43568.016    4.2401401    4.2401401    4.2401401    43568.016    1896.5323    83509.945    45297.571   -5596.6961    7783.7666    4499.1011    76.232581 
    3500    846.58095   -107.42312   0.76600423   -106.65711   -36376.274    4.2845384    4.2845384    4.2845384   -36376.274   -59027.226    560.40926   -50662.005   -2575.5442    610.98297   -16146.524    78.652427 
    3600    805.15981   -107.38214   0.72852552   -106.65362   -547.30467    4.2623145    4.2623145    4.2623145   -547.30467   -42725.011     56395.03   -15311.933   -77.752265   -10874.761   -9091.1872     77.43485 
    3700    1057.0689   -107.59462   0.95645811   -106.63816    34770.366     4.228718     4.228718     4.228718    34770.366    3221.4498    52528.507    48561.141   -4181.3247    6103.2512   -4192.0779    75.618171 
    3800    770.59542   -107.35977   0.69725093   -106.66252   -46381.545    4.2851901    4.2851901    4.2851901   -46381.545   -50162.528   -45675.694   -43306.412    4657.6296   -4883.5519   -6599.4665    78.688323 
    3900    708.39511   -107.29306   0.64097078   -106.65209   -4880.5854    4.2685168    4.2685168    4.2685168   -4880.5854   -30000.177    15227.835    130.58628   -3095.3941   -2423.7472   -6270.5602    77.773385 
    4000    838.65133    -107.3915   0.75882935   -106.63267    34274.128    4.2309607    4.2309607    4.2309607    34274.128    4835.9112    53234.048    44752.425   -4519.6615    1943.8429    9992.6043    75.738546 
    4100    592.18001   -107.20329   0.53581692   -106.66747   -15880.784    4.2734358    4.2734358    4.2734358   -15880.784   -33330.961    18740.708   -33052.099    894.17791   -6760.5275    3322.4271    78.042566 
    4200    715.69115   -107.30052   0.64757239   -106.65295   -3013.1044    4.2771543    4.2771543    4.2771543   -3013.1044   -37340.966    29698.116   -1396.4633    2990.7729    7381.4042    4676.4698    78.246469 
    4300    1161.9073   -107.68689    1.0513181   -106.63557    23513.887     4.236694     4.236694     4.236694    23513.887   -2809.5003    38784.046    34567.115   -2239.4312    -1406.017    -5714.969    76.046859 
    4400    916.53359   -107.48843   0.82929885   -106.65913   -14151.439    4.2643981    4.2643981    4.2643981   -14151.439   -33849.296    18706.374   -27311.393    8772.8699   -13090.651   -6676.1484    77.548466 
    4500    711.46355   -107.29348   0.64374717   -106.64973   -14655.311      4.27483      4.27483      4.27483   -14655.311   -42537.175   -7929.7365    6500.9788    5602.3143    6303.1943   -8288.8269    78.118978 
    4600    459.65914   -107.05989   0.41590925   -106.64398    19417.167    4.2469545    4.2469545    4.2469545    19417.167   -5478.9207    54841.809    8888.6128    177.06658   -6007.0394   -862.11065    76.600716 
    4700    593.20072   -107.19539   0.53674048   -106.65864    67.044342    4.2605583    4.2605583    4.2605583    67.044342   -19672.655     44124.21   -24250.422    5263.7066   -10119.781   -10807.283    77.339175 
    4800    866.42734   -107.43924   0.78396167   -106.65528    644.07604    4.2665571    4.2665571    4.2665571    644.07604   -32624.471    24192.023    10364.676    6176.9761    2442.9485    2302.4625    77.666313 
    4900    1061.5256   -107.61524   0.96049068   -106.65475   -17945.275    4.2639116    4.2639116    4.2639116   -17945.275   -38924.722   -3501.4902   -11409.614   -3381.6805   -10671.513    15104.178     77.52193 
    5000    1088.7607   -107.64028   0.98513356   -106.65515    -7547.336    4.2622089    4.2622089    4.2622089    -7547.336   -34024.989    37768.043   -26385.062    5688.0037   -56.917786    6400.5026    77.429095 
    5100    804.74493   -107.38434   0.72815013   -106.65619    12007.388    4.2614376    4.2614376    4.2614376    12007.388   -36677.914    52123.457    20576.622   -1140.8553   -3814.8225   -4573.3097    77.387068 
    5200    566.25237   -107.16944   0.51235705   -106.65709    4745.2756     4.271485     4.271485     4.271485    4745.2756   -33723.448     64554.55   -16595.275      -820.71   -8141.2951   -6887.6029    77.935737 
    5300    919.90698   -107.48431   0.83235117   -106.65196   -9829.2609    4.2605182    4.2605182    4.2605182   -9829.2609   -14914.397    7511.8247    -22085.21    3271.3166     7638.915   -10510.986    77.336992 
    5400    651.72846   -107.24484   0.58969761   -106.65515    -4565.181    4.2545923    4.2545923    4.2545923    -4565.181   -23542.185   -9657.0336    19503.676    1174.9976   -7967.3442   -5022.5471    77.014739 
    5500    857.47685   -107.43499   0.77586308   -106.65913   -11824.004    4.2731523    4.2731523    4.2731523   -11824.004   -37382.942    28648.259    -26737.33   -8401.9941    24.550987   -1282.7875    78.027034 
    5600    763.32103   -107.35465   0.69066891   -106.66398    1388.8794    4.2624408    4.2624408    4.2624408    1388.8794   -24119.069    64195.163   -35909.455    299.41966   -3758.5187   -8744.9683    77.441738 
    5700    759.32804   -107.34527   0.68705596   -106.65821     33308.31    4.2447736    4.2447736    4.2447736     33308.31   -8209.9016     83681.82    24453.013   -13215.265    -7976.187   -35.549501    76.482768 
    5800    1103.9968   -107.65914   0.99891948   -106.66022   -24266.763     4.276306     4.276306     4.276306   -24266.763   -32078.731    -17759.83   -22961.729   -4485.7095    4800.4554    15716.518    78.199923 
    5900    1107.7263   -107.65539    1.0022941   -106.65309   -16863.307    4.2618278    4.2618278    4.2618278   -16863.307   -18873.844   -9633.9752   -22082.101   -2476.6451   -7899.7316    3897.2463    77.408328 
    6000    771.88631   -107.34486   0.69841895   -106.64644     18319.98    4.2485499    4.2485499    4.2485499     18319.98   -10440.192    40007.707    25392.426   -8722.1388   -5538.1332    3332.7608    76.687074 
    6100    472.41247   -107.07957   0.42744873   -106.65212   -9155.7118    4.2767881    4.2767881    4.2767881   -9155.7118   -31402.256    25528.066   -21592.946   -14.559705    3966.4517    78.920423    78.226371 
    6200     651.3885   -107.23703      0.58939   -106.64764    3666.2364    4.2621831    4.2621831    4.2621831    3666.2364   -10460.257    42784.021   -21325.054    5823.6132   -6043.6216   -953.06992    77.427693 
    6300    923.71864   -107.48267   0.83580004   -106.64687    4657.1065    4.2511234    4.2511234    4.2511234    4657.1065   -18338.942    21107.684    11202.577    -7141.127   -81.932327   -6180.2468    76.826517 
    6400      899.514   -107.46583   0.81389917   -106.65193   -17889.288    4.2680406    4.2680406    4.2680406   -17889.288   -33154.689   -7473.4844    -13039.69    5783.8799    3029.9465   -2207.7257    77.747357 
    6500    1062.0068   -107.61128   0.96092603   -106.65035   -716.41258    4.2614139    4.2614139    4.2614139   -716.41258   -15500.528     26276.85    -12925.56    3418.4702   -2271.0204    1901.1995     77.38578 
    6600     982.5159   -107.54253   0.88900104   -106.65353   -3265.8478    4.2573251    4.2573251    4.2573251   -3265.8478   -27714.843    4584.7622    13332.537   -297.79253    1932.0177    380.13942    77.163239 
    6700    554.99726   -107.15888   0.50217319    -106.6567    3911.1324    4.2593566    4.2593566    4.2593566    3911.1324   -19915.146    40491.483   -8842.9406    4068.9332    2048.8796    15304.163    77.273753 
    6800    670.68913    -107.2604   0.60685362   -106.65354   -3175.1877    4.2626423    4.2626423    4.2626423   -3175.1877   -19358.515    23092.166   -13259.215    2875.6389   -5053.9443    8112.7164     77.45272 
    6900    699.42511   -107.28466   0.63285454   -106.65181   -5399.4094    4.2598351    4.2598351    4.2598351   -5399.4094   -27876.873    10310.874    1367.7704   -6063.1298    6798.7088    1392.1097    77.299799 
    7000    720.07576   -107.30457   0.65153968   -106.65303   -3381.9304    4.2584335    4.2584335    4.2584335   -3381.9304   -18731.412    6076.5857    2509.0354    3663.8033    4954.9658    16756.058    77.223522 
    7100    1068.1535   -107.61909   0.96648775    -106.6526    518.02736    4.2592669    4.2592669    4.2592669    518.02736   -22408.834    11290.176     12672.74    10422.423   -3685.7925   -438.63511    77.268872 
    7200    819.47377   -107.39849   0.74147709   -106.65701    8575.6919     4.262889     4.262889     4.262889    8575.6919   -31551.649    44051.153    13227.572   -5994.6774    6081.1759   -12634.439    77.466167 
    7300    754.48483   -107.33708   0.68267373   -106.65441     -595.614    4.2593421    4.2593421    4.2593421     -595.614   -30478.592    24401.256    4290.4941   -6038.9585    2149.1368   -1699.9152    77.272961 
    7400    658.94564   -107.24666   0.59622786   -106.65043    18786.715    4.2541181    4.2541181    4.2541181    18786.715   -23806.945    63252.393    16914.696     365.9094    826.05067   -8162.3353    76.988992 
    7500    743.33565   -107.32887   0.67258571   -106.65628   -20160.992    4.2630624    4.2630624    4.2630624   -20160.992   -39262.503   -18251.936   -2968.5355   -6983.1783    7077.5777   -1751.5531    77.475622 
    7600    527.18703   -107.13726    0.4770099   -106.66025   -14651.575     4.256799     4.256799     4.256799   -14651.575     -28707.5   -16298.458    1051.2331     1483.787   -1999.0564    6260.5984    77.134637 
    7700    1025.8255   -107.58259   0.92818843    -106.6544    236.78958    4.2534728    4.2534728    4.2534728    236.78958   -5684.9386    7098.3367   -703.02939    6933.1145    1613.8433     3829.188    76.953959 
    7800    870.24495   -107.44212   0.78741592   -106.65471   -4767.1421     4.268062     4.268062     4.268062   -4767.1421   -38495.191    30842.723    -6648.959   -6334.7418     10303.47    9543.8244    77.748527 
    7900     819.3549   -107.39672   0.74136953   -106.65535    2796.8436    4.2520861    4.2520861    4.2520861    2796.8436   -18978.473    18670.229    8698.7747   -1525.4819    4039.9957    -9065.202    76.878722 
    8000    875.80863   -107.45377   0.79245005   -106.66132    10040.377    4.2546532    4.2546532    4.2546532    10040.377   -4394.3181    37021.733    -2506.285    6491.4926   -1166.4316     4562.371    77.018049 
    8100    810.10634    -107.3878   0.73300124    -106.6548   -30517.824    4.2751315    4.2751315    4.2751315   -30517.824   -45812.414    -23093.58   -22647.477   -1841.7661    3142.7156   -7120.2492    78.135505 
    8200    661.74714   -107.24865   0.59876272   -106.64989   -6045.7004    4.2486374    4.2486374    4.2486374   -6045.7004   -11529.154   -4540.7091   -2067.2379   -4144.9363    1323.1479    3318.5024    76.691815 
    8300    701.62498   -107.28879   0.63484503   -106.65394    20902.603    4.2490732    4.2490732    4.2490732    20902.603    5439.7246    44766.509    12501.576    315.24202    3781.1302    14464.829    76.715416 
    8400    841.39965   -107.41116   0.76131608   -106.64984    937.89585    4.2699306    4.2699306    4.2699306    937.89585   -22016.575    22647.232    2183.0306   -6915.3444    -1033.569   -9391.3302    77.850687 
    8500    824.88935   -107.39805   0.74637722   -106.65167   -1795.1498    4.2590681    4.2590681    4.2590681   -1795.1498   -30203.106    37081.772   -12264.115   -2348.9378   -5463.8277    4803.0121     77.25805 
    8600    954.28287   -107.51695    0.8634552   -106.65349     18064.68    4.2449404    4.2449404    4.2449404     18064.68    2484.0014    35845.268    15864.772    -5803.646    2276.9142   -1918.0568    76.491782 
    8700    932.62704   -107.50566   0.84386054    -106.6618    6257.8644     4.262943     4.262943     4.262943    6257.8644    -6435.751    19228.142    5981.2025    736.97742    5028.2569   -7561.4189    77.469114 
    8800    588.59885    -107.1839   0.53257661   -106.65132    -29246.21    4.2812337    4.2812337    4.2812337    -29246.21    -42701.15   -28363.366   -16674.114    1337.6176    1256.8798    8770.5265     78.47057 
    8900    771.46658   -107.33683   0.69803917   -106.63879    25290.082    4.2366655    4.2366655    4.2366655    25290.082    22535.129    55809.125   -2474.0089    4588.3548   -1264.1128   -9096.5366    76.045329 
    9000    552.44039   -107.15823   0.49985967   -106.65837    26421.526    4.2502932    4.2502932    4.2502932    26421.526    15878.666    31569.671    31816.241    8701.0674    2573.1636   -7188.9977    76.781514 
    9100    537.95364    -107.1338   0.48675176   -106.64705   -26715.236    4.2883188    4.2883188    4.2883188   -26715.236   -53148.451   -9538.2474   -17459.009   -2904.0655    3732.8071    256.11564    78.860804 
    9200     1148.502   -107.67688    1.0391888   -106.63769    23442.094    4.2366193    4.2366193    4.2366193    23442.094    15216.998    46674.482    8434.8033    4178.9343    4405.7391   -19909.697    76.042836 
    9300     760.4604    -107.3403   0.68808055   -106.65221    17478.509    4.2411893    4.2411893    4.2411893    17478.509    7243.2175    13819.753    31372.555    3491.3193    4750.3478    425.26491    76.289183 
    9400    746.97399   -107.32136   0.67587776   -106.64549   -36593.345    4.2806388    4.2806388    4.2806388   -36593.345   -46509.783   -52251.129   -11019.124   -14985.864   -815.73529    5520.3454    78.437864 
    9500    773.78985   -107.34513   0.70014131   -106.64499     11947.26     4.250885     4.250885     4.250885     11947.26    12374.291    34771.879    -11304.39   -489.97823    1421.8332   -2453.6605    76.813593 
    9600     525.2804   -107.12204   0.47528475   -106.64676    20658.439    4.2373213    4.2373213    4.2373213    20658.439    15935.362    36630.857    9409.0968   -7620.6868    8282.0198    2601.2621    76.080647 
    9700    536.42955   -107.14426   0.48537273   -106.65889   -4026.4033    4.2700622    4.2700622    4.2700622   -4026.4033   -29857.451    16294.621    1483.6201   -16771.247   -117.85346    3860.6929    77.857888 
    9800    1117.1381   -107.65838      1.01081   -106.64757   -2563.6727    4.2640957    4.2640957    4.2640957   -2563.6727   -12102.874    938.29336    3473.5629   -35.840744    3940.2802    7828.2763     77.53197 
    9900    687.85551   -107.26954   0.62238612   -106.64716    25197.087    4.2387253    4.2387253    4.2387253    25197.087    6042.9669    43001.906    26546.387   -8959.3779    9795.8252   -3996.3359    76.156297 
   10000    1001.2924   -107.56428   0.90599042   -106.65829   -12385.975    4.2635667    4.2635667    4.2635667   -12385.975   -32954.255   -7299.3886    3095.7171    -14998.31    2814.6608     2257.581     77.50312 
   10100    930.22661   -107.49311   0.84168859   -106.65142    8856.3891    4.2562054    4.2562054    4.2562054    8856.3891    -2783.587    31008.896   -1656.1421    10874.989    5732.1351    5285.3021    77.102372 
   10200      358.272   -106.97486   0.32417204   -106.65069    18953.323    4.2403552    4.2403552    4.2403552    18953.323    3070.9742      35208.1    18580.895   -12957.405    2530.4395   -7563.3823    76.244184 
   10300    820.12863   -107.39516   0.74206962   -106.65309   -23961.684    4.2662311    4.2662311    4.2662311   -23961.684   -27780.321   -26994.688   -17110.042   -11643.573    4388.3556    5342.9571    77.648511 
   10400    762.38434   -107.33981   0.68982137   -106.64999    27094.288    4.2469295    4.2469295    4.2469295    27094.288    9582.3734    45013.638    26686.853    2025.7875    5350.7075    602.74336     76.59936 
   10500    851.63645    -107.4289   0.77057856   -106.65832   -9513.7116    4.2470217    4.2470217    4.2470217   -9513.7116   -11034.656   -12141.777   -5364.7014   -22309.237    3965.8458   -1214.3311    76.604353 
   10600    854.22448   -107.42742   0.77292026    -106.6545   -4642.2086    4.2637656    4.2637656    4.2637656   -4642.2086   -23678.179    4822.3782    4929.1755   -11459.838   -1252.9582    2009.6447    77.513967 
   10700    1045.4023   -107.59191     0.945902   -106.64601    10917.158    4.2446333    4.2446333    4.2446333    10917.158    7200.1928    9949.3831    15601.899    2906.5793   -2973.2084    6441.5644    76.475182 
   10800    471.16575   -107.08207   0.42632067   -106.65575   -19057.237    4.2583092    4.2583092    4.2583092   -19057.237    -26768.38   -16795.548   -13607.781   -27412.584    4250.4698    1224.7721    77.216758 
   10900    796.96092   -107.37084   0.72110699   -106.64974   -2618.2703    4.2542535    4.2542535    4.2542535   -2618.2703   -2727.9021   -2344.2098   -2782.6992   -12650.539   -3508.2924   -8907.6579    76.996341 
   11000     678.1111   -107.26592   0.61356917   -106.65235    13574.894    4.2522609    4.2522609    4.2522609    13574.894    12387.727    22626.776    5710.1796    3723.4053    1510.4465    5546.8403    76.888202 
   11100    701.73168   -107.28536   0.63494157   -106.65042   -30589.845    4.2679018    4.2679018    4.2679018   -30589.845   -32164.869   -28652.081   -30952.586   -27868.672    2624.8207   -6047.5296    77.739772 
   11200    1157.9485    -107.6883    1.0477362   -106.64056    22302.873    4.2376332    4.2376332    4.2376332    22302.873    23094.054    24910.465    18904.099    5672.9853   -4914.0133   -15310.755    76.097449 
   11300    926.77262   -107.49417   0.83856335   -106.65561    1029.0558    4.2511876    4.2511876    4.2511876    1029.0558   -12448.345    10023.304    5512.2087   -4205.3949     1845.253     15311.36    76.829995 
   11400    766.56916    -107.3472   0.69360788   -106.65359   -37843.401    4.2703332    4.2703332    4.2703332   -37843.401   -47541.501   -45393.069   -20595.632   -23379.284   -1830.9674    4035.0789    77.872712 
   11500    891.58081   -107.44811   0.80672105   -106.64139    19921.164    4.2408222    4.2408222    4.2408222    19921.164    9061.3031    43371.104    7331.0848    10483.434   -518.72045    2053.7336    76.269376 
   11600    643.63664   -107.23529   0.58237596   -106.65292   -10381.393    4.2566441    4.2566441    4.2566441   -10381.393   -15108.955   -13736.919   -2298.3049    -13815.65    5426.6498    5154.9786    77.126213 
   11700    757.20191   -107.33586    0.6851322   -106.65072   -23164.299    4.2599899    4.2599899    4.2599899   -23164.299   -28267.283   -23345.426   -17880.188   -15190.045   -2060.0541    1482.1409    77.308225 
   11800    1007.8078   -107.55504   0.91188568   -106.64315    15081.194      4.24457      4.24457      4.24457    15081.194    24141.223    21468.648   -366.28741     2703.285    1831.6325    8070.1401     76.47176 
   11900    681.16106   -107.26914   0.61632884   -106.65281   -3508.8015    4.2610503    4.2610503    4.2610503   -3508.8015    19698.151   -21852.619   -8371.9365   -13699.703    6842.1594     1770.548    77.365974 
   12000     916.7755   -107.47751   0.82951774     -106.648   -3889.6903    4.2523481    4.2523481    4.2523481   -3889.6903    15306.244   -29163.144    2187.8294   -13255.934   -3934.7317   -8681.5613    76.892933 
   12100    765.09191   -107.33899   0.69227123   -106.64672    16321.724    4.2524023    4.2524023    4.2524023    16321.724    43743.498    10821.741   -5600.0661   -1803.9567    1427.0593   -1198.4833    76.895872 
   12200    512.48099   -107.11294   0.46370357   -106.64924   -14652.272     4.265634     4.265634     4.265634   -14652.272    -9177.664   -28963.522   -5815.6309   -17347.721    11052.587    10255.792    77.615915 
   12300    842.92187    -107.4056   0.76269342    -106.6429    7970.1284    4.2400751    4.2400751    4.2400751    7970.1284    11695.285    2587.5238    9627.5767   -17846.981    4104.4304   -3247.2523    76.229074 
   12400    912.54377   -107.47758   0.82568878   -106.65189   -1117.2379    4.2566769    4.2566769    4.2566769   -1117.2379     915.3619    9968.5783   -14235.654    8280.2743    1273.8312   -780.25494    77.127996 
   12500    665.96634   -107.24986   0.60258034   -106.64728   -25695.962    4.2719699    4.2719699    4.2719699   -25695.962   -44710.979   -32548.811    171.90302   -21494.943    10092.769    6662.0796    77.962286 
   12600    1047.4367   -107.58079   0.94774273   -106.63305    17816.183    4.2319397    4.2319397    4.2319397    17816.183    -2801.496    9124.8268    47125.219    -15157.38    4781.3404    2073.9521    75.791138 
   12700    978.37739   -107.53193   0.88525642   -106.64668    -7213.201    4.2556595    4.2556595    4.2556595    -7213.201   -16586.185   -11221.217    6167.7993    13367.023    3347.6885     14215.62    77.072708 
   12800    412.02488   -107.02108   0.37280877   -106.64827   -24003.528    4.2708086    4.2708086    4.2708086   -24003.528    -49560.67   -53253.408    30803.493   -24004.499    7781.4982   -405.17955    77.898723 
   12900    992.45958   -107.53355   0.89799828   -106.63555    18896.948       4.2316       4.2316       4.2316    18896.948    4384.2049    6193.3346    46113.305   -8014.0173    -4441.467   -4067.8101    75.772887 
   13000    974.63808      -107.53   0.88187302   -106.64813   -9739.6863    4.2526368    4.2526368    4.2526368   -9739.6863    -18783.32   -6818.2464   -3617.4929    7312.5512    1752.2329    13532.855    76.908594 
   13100    532.57594   -107.13295    0.4818859   -106.65107   -30211.966    4.2690458    4.2690458    4.2690458   -30211.966   -50564.423    -45408.65    5337.1753   -33034.324    4592.2031    -217.1108    77.802301 
   13200    1095.1158   -107.63201    0.9908838   -106.64112    16078.175    4.2341583    4.2341583    4.2341583    16078.175    9771.5861    16243.001    22219.939   -4075.2236   -5547.9655   -3032.2617    75.910398 
   13300    861.64751   -107.43276   0.77963677   -106.65313   -6591.6785    4.2509816    4.2509816    4.2509816   -6591.6785   -13004.242    -26304.65    19533.856    3138.8153   -8340.1352   -1635.9953    76.818829 
   13400    429.75682   -107.04265   0.38885301   -106.65379    -25750.24    4.2674771    4.2674771    4.2674771    -25750.24   -33366.483   -60252.739    16368.501   -31842.029    6965.5546    10585.084    77.716566 
   13500    1047.6081   -107.58879   0.94789784   -106.64089    20236.305    4.2365754    4.2365754    4.2365754    20236.305    21751.629     25485.49    13471.797    2746.9725   -3595.3664   -4202.9785    76.040473 
   13600    784.74323   -107.36076   0.71005217   -106.65071   -5271.6032    4.2512878    4.2512878    4.2512878   -5271.6032   -11686.541   -17004.807    12876.537    -8894.333    3927.0068    7165.2471    76.835426 
   13700    696.78036   -107.28181   0.63046152   -106.65135   -23192.842    4.2643975    4.2643975    4.2643975   -23192.842   -34280.647   -25664.344   -9633.5358   -26434.235     5829.365    7985.0457    77.548433 
   13800     986.7604   -107.53562   0.89284155   -106.64278    22263.376    4.2370468    4.2370468    4.2370468    22263.376    13700.538     41177.23    11912.359    2817.7741   -4286.8116   -6349.1513    76.065859 
   13900    691.43476   -107.28005    0.6256247   -106.65443    -2575.035    4.2486759    4.2486759    4.2486759    -2575.035    -562.0942   -30818.406    23655.395   -17354.717    3733.7331    2434.3646    76.693896 
   14000    652.71977    -107.2398   0.59059456    -106.6492   -20210.442    4.2667232    4.2667232    4.2667232   -20210.442   -25978.564   -39570.968    4918.2054   -18859.173    3584.4778    495.28357    77.675386 
   14100    813.34412   -107.37752   0.73593085   -106.64159     16793.27    4.2405466    4.2405466    4.2405466     16793.27    15212.916    33383.472     1783.422    5590.2348   -8782.1313    -696.2208    76.254509 
   14200    785.17423   -107.35888   0.71044215   -106.64843    388.41114    4.2404639    4.2404639    4.2404639    388.41114     1718.007   -16018.466    15465.693   -17738.627   -1428.1987    1357.9753    76.250047 
   14300    903.09371   -107.46539   0.81713817   -106.64825   -11708.643    4.2662906    4.2662906    4.2662906   -11708.643    -27599.15   -1544.5064   -5982.2716   -9888.4944    4370.0068    3932.3867    77.651761 
   14400    981.64767   -107.53598   0.88821544   -106.64776     2398.213    4.2460024    4.2460024    4.2460024     2398.213    97.150996    31928.766   -24831.278    8657.6801    -5998.991   -2194.9894    76.549209 
   14500    613.20824   -107.20527    0.5548437   -106.65042    14671.751    4.2369536    4.2369536    4.2369536    14671.751    20045.526   -4137.6809     28107.41    -12592.55   -3354.3323    2304.9923    76.060841 
   14600     845.6659   -107.41241   0.76517628   -106.64723   -11393.129    4.2655843    4.2655843    4.2655843   -11393.129   -16317.817   -7537.8664   -10323.703   -6659.7618   -80.104014    5791.8495    77.613198 
   14700    671.23263   -107.25705   0.60734539   -106.64971    3342.9911    4.2484986    4.2484986    4.2484986    3342.9911    9544.2717    13227.252   -12742.551    2664.7767   -4605.3384   -8845.2563    76.684296 
   14800     701.1104   -107.28519   0.63437942   -106.65081    9867.2189    4.2340852    4.2340852    4.2340852    9867.2189    28244.759   -13347.886    14704.784   -17388.493   -5912.2215    5855.9156    75.906468 
   14900    1006.9205     -107.563   0.91108287   -106.65192   -4474.8454    4.2608144    4.2608144    4.2608144   -4474.8454   -15295.234     14865.96   -12995.262   -9882.2222   -2019.0068    2362.6752    77.353122 
   15000    803.92181   -107.38097   0.72740535   -106.65356    -7849.053    4.2549677    4.2549677    4.2549677    -7849.053    7095.4551     7630.927   -38273.541    1278.6669    -4714.827   -13417.326    77.035129 
   15100    752.73281   -107.32957   0.68108847   -106.64848    12806.719    4.2369448    4.2369448    4.2369448    12806.719    15857.974    9740.3403    12821.842   -13701.605   -6938.4653    9773.5808    76.060366 
   15200    869.08592   -107.43796    0.7863672   -106.65159    10861.445    4.2519991    4.2519991    4.2519991    10861.445   -65.992139    31810.993    839.33534   -5822.5366    6085.4504    -2926.332    76.874003 
   15300    747.16575    -107.3295   0.67605127   -106.65345   -18696.901      4.25867      4.25867      4.25867   -18696.901    7749.0357    -33452.89   -30386.849    1582.1141   -9580.5564   -15440.318    77.236387 
   15400    628.80497   -107.22185   0.56895595    -106.6529    10990.429    4.2416391    4.2416391    4.2416391    10990.429    10203.887   -1603.5459    24370.945   -12599.794   -1474.5876    9793.7793    76.313458 
   15500    1005.1822   -107.56131   0.90950995    -106.6518    4937.1943     4.245815     4.245815     4.245815    4937.1943    1774.8844    14769.659   -1732.9611   -627.64801    8866.8943    -7181.339    76.539073 
   15600    743.45239   -107.32617   0.67269135   -106.65347   -14926.837     4.261029     4.261029     4.261029   -14926.837    4745.1086   -12612.634   -36912.987    2564.4756   -6131.9966   -15324.053    77.364809 
   15700    820.15998   -107.38927   0.74209799   -106.64717    13934.493    4.2455236    4.2455236    4.2455236    13934.493    3378.3225     41108.13   -2682.9725   -9127.3741    1781.2441    9243.5082    76.523315 
   15800     955.7224   -107.51312   0.86475771   -106.64836    7380.8202    4.2431589    4.2431589    4.2431589    7380.8202    3869.6626    14431.937    3840.8609    -5385.754    5034.5749   -14390.843    76.395518 
   15900    708.04855   -107.29425   0.64065721    -106.6536    -9114.798    4.2566589    4.2566589    4.2566589    -9114.798    9451.5727   -18720.329   -18075.637    935.28862   -1344.2613   -12192.742    77.127017 
   16000    756.28249   -107.33217   0.68430029   -106.64787    10462.301    4.2506822    4.2506822    4.2506822    10462.301    3367.8142    11605.812    16413.277    -8513.894   -1215.5453     8056.105    76.802599 
   16100    831.64625    -107.4006     0.752491   -106.64811   -5021.0193    4.2473628    4.2473628    4.2473628   -5021.0193   -6411.4701   -9212.7705     561.1827    1053.7805    5928.0261   -16669.516    76.622812 
   16200    749.36482   -107.32861   0.67804104   -106.65057    1442.8414    4.2502321    4.2502321    4.2502321    1442.8414     25463.18    -5371.224   -15763.432    -3151.928   -5768.6446   -7232.9037    76.778203 
   16300    780.61214   -107.35465   0.70631427   -106.64833    5961.4574    4.2533016    4.2533016    4.2533016    5961.4574   -6530.0519    27389.082   -2974.6577    -7423.423   -2667.3473    7220.9111    76.944672 
   16400    780.38851   -107.35654   0.70611193   -106.65043   -8952.4036    4.2492349    4.2492349    4.2492349   -8952.4036   -4954.6788    3588.9956   -25491.527    3181.3304    15004.719   -16251.068    76.724176 
   16500    904.67292   -107.46724   0.81856707   -106.64868    17042.088    4.2433599    4.2433599    4.2433599    17042.088    21213.768    10592.739    19319.757   -245.99715   -9734.1837   -3784.5625    76.406374 
   16600    842.93983   -107.41393   0.76270967   -106.65122     6843.782    4.2556553    4.2556553    4.2556553     6843.782    -7063.383     18111.62     9483.109   -1946.9012    5167.7774    5747.5188    77.072477 
   16700    715.53804   -107.30032   0.64743386   -106.65288   -10803.159    4.2544808    4.2544808    4.2544808   -10803.159   -14275.969    -18236.05    102.54163   -2036.8959    15889.745   -20210.417    77.008683 
   16800    982.35902   -107.53422   0.88885909   -106.64537     15188.77    4.2422199    4.2422199    4.2422199     15188.77     33289.82     -4407.34     16683.83   -1085.7675   -8294.5458   -3130.7789    76.344812 
   16900    623.88043   -107.21601   0.56450012   -106.65151    2640.3886    4.2533564    4.2533564    4.2533564    2640.3886   -12625.819    22113.188   -1566.2037    3344.6842    6696.2451    3964.0849    76.947641 
   17000    565.22361   -107.16435    0.5114262   -106.65293   -14171.452     4.255859     4.255859     4.255859   -14171.452   -9535.6877   -1776.1962   -31202.473   -1966.6166    11679.425   -24467.402    77.083549 
   17100    1075.1061   -107.61763   0.97277862   -106.64486    19583.677    4.2426254    4.2426254    4.2426254    19583.677     22058.83    5659.3558    31032.846   -19.554899   -2698.0461    3324.6051    76.366707 
   17200    784.87128    -107.3634   0.71016803   -106.65323     5684.844    4.2496721    4.2496721    4.2496721     5684.844    -5550.875    25641.058   -3035.6512    3239.3021    6018.7661    675.58254    76.747856 
   17300    710.11958   -107.29935   0.64253112   -106.65682   -5846.9719    4.2552106    4.2552106    4.2552106   -5846.9719   -16240.196   -2296.1343    995.41464    2475.4099    9883.2859   -18436.674    77.048323 
   17400    1232.0609   -107.76164    1.1147946   -106.64685    10212.483    4.2491485    4.2491485    4.2491485    10212.483    22647.987     -10902.1    18891.563    866.61814   -2856.1673    7394.7667    76.719492 
   17500    695.04086   -107.28194   0.62888757   -106.65305   -3078.3032    4.2476151    4.2476151    4.2476151   -3078.3032   -10546.144    8640.2385   -7329.0041    4058.4562    11063.223   -10805.995    76.636467 
   17600    379.83517   -107.00281   0.34368284   -106.65913    2571.5909     4.253627     4.253627     4.253627    2571.5909    9214.7038    7919.4557   -9419.3867    1955.7856    11793.147   -14213.788    76.962332 
   17700    1013.3057   -107.56336   0.91686029    -106.6465    8156.5413    4.2528405    4.2528405    4.2528405    8156.5413     7773.308   -1478.0785    18174.394   -1903.7297   -11781.681     3644.221    76.919645 
   17800    662.67758   -107.25497    0.5996046   -106.65537   -2230.7567    4.2443014    4.2443014    4.2443014   -2230.7567    665.61319    7849.4186   -15207.302    4949.5236    12717.386   -17501.006    76.457245 
   17900    685.46824   -107.28183   0.62022607    -106.6616   -108.90157     4.253265     4.253265     4.253265   -108.90157   -11527.075    7219.0539    3981.3163   -2966.7348    13730.339   -16221.838    76.942682 
   18000    1237.2547   -107.76702    1.1194941   -106.64753    6341.8476    4.2557764    4.2557764    4.2557764    6341.8476    7149.5303   -464.40452    12340.417    686.89659   -8142.0143    3585.7218    77.079062 
   18100    891.86972   -107.46011   0.80698247   -106.65312   -3955.2882    4.2409704    4.2409704    4.2409704   -3955.2882   -961.03391   -7844.0082   -3060.8225    4903.3154    7962.7679   -6040.1703    76.277372 
   18200    538.44196   -107.14695    0.4871936   -106.65975    9233.4429    4.2518723    4.2518723    4.2518723    9233.4429   -1790.0321     12932.48    16557.881    205.53677    10169.136   -12890.384    76.867125 
   18300    947.50802   -107.50609   0.85732517   -106.64877   -7802.7321    4.2601905    4.2601905    4.2601905   -7802.7321     11702.62   -9064.4337   -26046.382    824.81808   -426.35181    1076.5484    77.319146 
   18400    454.83694   -107.06516   0.41154603   -106.65361    -9289.431    4.2445017    4.2445017    4.2445017    -9289.431    7519.0329   -13555.858   -21831.468    2794.2085    12223.441   -17974.699    76.468073 
   18500     683.6475   -107.27352   0.61857863   -106.65494    4105.9763    4.2429071    4.2429071    4.2429071    4105.9763     2904.121    11463.388   -2049.5804    1504.4237    9808.5025    -5127.699    76.381921 
   18600    1037.1235   -107.58811   0.93841117    -106.6497    1938.0797    4.2590046    4.2590046    4.2590046    1938.0797    15992.541   -12369.951    2191.6492    1167.9553   -4367.6035    -2024.491    77.254597 
   18700    760.71567   -107.34313   0.68831152   -106.65482   -16481.878    4.2569991    4.2569991    4.2569991   -16481.878   -10893.261   -32013.748   -6538.6248    564.39422    15679.722   -30100.868    77.145515 
   18800    1024.1776   -107.57536   0.92669743   -106.64866    17412.181    4.2338646    4.2338646    4.2338646    17412.181    8618.9942    14702.839    28914.711    717.37427    18401.922    2429.3266    75.894601 
   18900    922.94188   -107.49066   0.83509721   -106.65556    5565.3368    4.2525472    4.2525472    4.2525472    5565.3368    20081.853    351.15186   -3736.9949   -4906.5188   -12304.904    1568.7327    76.903736 
   19000    446.26804   -107.05857    0.4037927   -106.65478   -34206.092    4.2674642    4.2674642    4.2674642   -34206.092   -20034.021   -32209.183   -50375.072     2482.688    15523.312   -24887.106    77.715863 
   19100    848.55585   -107.41019   0.76779116   -106.64239    14669.356    4.2274571    4.2274571    4.2274571    14669.356    22751.238    21123.001    133.82903    2455.8265    10899.029    261.65742    75.550548 
   19200    710.87704   -107.29955   0.64321649   -106.65633     9742.914    4.2492212    4.2492212    4.2492212     9742.914    17470.786   -2326.7255    14084.682   -1887.8462   -9461.5629   -2505.7675     76.72343 
   19300    558.08684   -107.15396    0.5049687     -106.649    -31576.98    4.2731591    4.2731591    4.2731591    -31576.98   -22091.727   -35325.183   -37314.031    5174.5681    12992.513   -21450.511    78.027411 
   19400    1172.0789   -107.69614    1.0605216   -106.63562      27610.1    4.2220305    4.2220305    4.2220305      27610.1    12562.674    29043.886    41223.739    3842.7453    -3162.446    5258.4001    75.259983 
   19500    764.03953    -107.3483   0.69131902   -106.65698    10173.994    4.2454403    4.2454403    4.2454403    10173.994    26790.178   -756.76416    4488.5671     321.0646   -4928.7686   -2268.6208    76.518811 
   19600    675.88288   -107.25593   0.61155304   -106.64437   -38729.579    4.2730824    4.2730824    4.2730824   -38729.579   -26182.672   -34000.854    -56005.21    5579.4811    11842.484   -20235.565    78.023207 
   19700    998.21425   -107.53918   0.90320523   -106.63598    20010.013    4.2250759    4.2250759    4.2250759    20010.013    22188.219    29475.161    8366.6586    2489.7499   -2307.7173    9370.5476    75.422955 
   19800    672.61749   -107.26367   0.60859844   -106.65507    2111.7484    4.2458644    4.2458644    4.2458644    2111.7484    14983.795     -5527.12   -3121.4295   -1230.6724   -5708.7923   -3161.6671    76.541744 
   19900    698.39655    -107.2784   0.63192388   -106.64648   -26051.311     4.267067     4.267067     4.267067   -26051.311   -15881.515   -33631.953   -28640.464    6781.0377    6591.3351   -23146.846    77.694162 
   20000    990.81367   -107.53505   0.89650903   -106.63854    24280.792    4.2305335    4.2305335    4.2305335    24280.792    10518.482    21232.731    41091.162    4609.8583    4846.2273    7010.6019    75.715609 
   20100    699.95858   -107.28776   0.63333724   -106.65442   -1472.6818    4.2476618    4.2476618    4.2476618   -1472.6818    6423.9988   -10272.971   -569.07294    114.20185   -3846.9038   -6380.7885    76.638994 
   20200    689.29093   -107.27652   0.62368492   -106.65284   -8557.7051    4.2587291    4.2587291    4.2587291   -8557.7051    11274.851   -21948.294   -14999.672    4155.9408    3487.0986   -16620.793    77.239606 
   20300    1015.9112   -107.56506   0.91921777   -106.64584    6405.9183    4.2444552    4.2444552    4.2444552    6405.9183   -4980.0283    16254.936    7942.8474    12258.399    5831.8884    3774.9903    76.465557 
   20400    678.65569   -107.26631   0.61406193   -106.65225    5494.8948    4.2465368    4.2465368    4.2465368    5494.8948    24445.085   -2025.5662   -5934.8348   -2207.5524    -9044.338   -13834.781    76.578114 
   20500    885.90764   -107.45474   0.80158785   -106.65316   -2207.0988    4.2482017    4.2482017    4.2482017   -2207.0988    17430.511   -16203.921   -7847.8866     5153.431    5320.6247   -11965.709    76.668219 
   20600    855.46361   -107.42703   0.77404145   -106.65299    1954.6995    4.2559984    4.2559984    4.2559984    1954.6995   -2153.7451   -12373.912    20391.756    7567.9676   -2297.2985    3452.9389    77.091123 
   20700    802.93822   -107.38086   0.72651537   -106.65435   -1747.6226    4.2442799    4.2442799    4.2442799   -1747.6226    14070.403   -19772.224     458.9531   -4718.6356   -13034.522   -12179.628    76.456087 
   20800    595.07379   -107.19351   0.53843528   -106.65508    21149.377     4.238073     4.238073     4.238073    21149.377    42661.914   -9726.8432    30513.061    9272.8756    10038.767   -12146.409    76.121143 
   20900    814.04569   -107.38876   0.73656565    -106.6522   -14186.539    4.2652422    4.2652422    4.2652422   -14186.539    -28431.96   -21891.036    7763.3795    496.17288    -7488.064    6405.4389    77.594526 
   21000    735.03222   -107.31919    0.6650726   -106.65412    8907.6777     4.242292     4.242292     4.242292    8907.6777    18622.477    1772.1012    6328.4545   -2099.5276   -4940.3545   -17034.629    76.348703 
   21100    927.43648   -107.49204   0.83916402   -106.65287    11146.052    4.2306255    4.2306255    4.2306255    11146.052     17040.39   -393.41311    16791.179    12260.427    2993.4415   -15437.366    75.720551 
   21200    903.90112   -107.46811   0.81786873   -106.65024   -21678.129    4.2696285    4.2696285    4.2696285   -21678.129   -27942.949   -33771.918   -3319.5213    9090.3225   -7898.2751     4663.788    77.834166 
   21300    906.81196   -107.47009   0.82050252   -106.64959   -940.56738    4.2437964    4.2437964    4.2437964   -940.56738    20796.713    -14533.33    -9085.085   -1998.1413    1875.1257   -21347.173    76.429959 
   21400    771.63629   -107.34521   0.69819273   -106.64702    13315.401    4.2315851    4.2315851    4.2315851    13315.401    30233.076   -10996.238    20709.364    9060.1623   -2704.6679   -8321.9487    75.772083 
   21500    725.44935   -107.30339   0.65640182   -106.64699   -22944.836    4.2659794    4.2659794    4.2659794   -22944.836   -30407.626   -41058.164    2631.2819    7221.0213    1950.0776    1542.5823    77.634771 
   21600    745.06033   -107.32147   0.67414624   -106.64732    2081.7511    4.2447429    4.2447429    4.2447429    2081.7511    20100.248   -13170.915   -684.07937    -5321.116   -2264.9524   -18431.142    76.481109 
   21700    821.89487   -107.39125   0.74366775   -106.64758   -1924.1233    4.2387707    4.2387707    4.2387707   -1924.1233   -1169.5367   -15205.646    10602.813    11813.885    5639.8806   -4527.5324    76.158741 
   21800    806.80414   -107.37932   0.73001334   -106.64931   -16451.155     4.261768     4.261768     4.261768   -16451.155   -23907.124   -32927.783    7481.4416    -1857.125    2560.0436    5592.5977    77.405068 
   21900     930.0513   -107.48789   0.84152996   -106.64636    9774.7742    4.2436475    4.2436475    4.2436475    9774.7742     35804.48   -4789.2132   -1690.9439   -4811.4716   -4640.6931   -21489.434    76.421915 
   22000    821.50427   -107.39244   0.74331433   -106.64912    2791.4707    4.2422763    4.2422763    4.2422763    2791.4707    369.79699   -19420.578    27425.193    13992.738    16854.424   -5688.5848    76.347854 
   22100    607.05381   -107.20208   0.54927504    -106.6528   -8896.7752    4.2555039    4.2555039    4.2555039   -8896.7752   -21701.094   -37031.356    32042.124   -6479.6057   -3018.2351    6566.5602    77.064254 
   22200    802.44136   -107.37399    0.7260658   -106.64792   -208.83152     4.246552     4.246552     4.246552   -208.83152   -1086.1849   -8254.7795    8714.4699   -1662.9121   -459.95918   -16197.889    76.578938 
   22300    612.21401   -107.20682    0.5539441   -106.65287    -9514.015    4.2460195    4.2460195    4.2460195    -9514.015   -25888.319   -27098.173    24444.447    5600.8906    4450.0358    85.997766    76.550135 
   22400    700.30122   -107.28833   0.63364726   -106.65468   -8656.2859    4.2484062    4.2484062    4.2484062   -8656.2859   -18131.633   -26684.601    18847.377   -7725.7171   -2676.0204    6507.1857    76.679296 
   22500    1225.5423   -107.75656    1.1088964   -106.64767    2313.8876    4.2504446    4.2504446    4.2504446    2313.8876    24555.068   -5775.4095   -11837.995    1888.4541    5116.7171   -6385.5696    76.789721 
   22600     738.6755   -107.32326   0.66836912   -106.65489   -6606.9446    4.2502682    4.2502682    4.2502682   -6606.9446   -9858.2112   -28989.714    19027.092   -4225.4312   -2433.0627    1429.0268    76.780161 
   22700    690.89622   -107.27997   0.62513742   -106.65483   -586.58029    4.2417981    4.2417981    4.2417981   -586.58029    2896.7879   -26239.364    21582.835   -14566.322    7022.3766    5392.5024    76.322043 
   22800    977.48467   -107.53329   0.88444867   -106.64884   -8015.7872     4.258037     4.258037     4.258037   -8015.7872   -802.99845   -17726.791   -5517.5719    2799.2559   -2903.3385   -10139.463    77.201956 
   22900    511.04655   -107.11915   0.46240566   -106.65675   -19166.565    4.2504577    4.2504577    4.2504577   -19166.565   -40487.799   -32336.585     15324.69   -10577.312    4737.1329    1345.6134     76.79043 
   23000    714.40012   -107.30207   0.64640424   -106.65567    6298.7436    4.2322241    4.2322241    4.2322241    6298.7436    5559.9679   -17415.269    30751.532   -15540.858    1385.4184    5878.7343    75.806417 
   23100    1188.3147     -107.728    1.0752121   -106.65279    3775.5513    4.2555571    4.2555571    4.2555571    3775.5513     6360.221    -1759.983    6726.4159    2003.2628   -7055.5211   -1415.9511    77.067146 
   23200    840.42553   -107.42006   0.76043468   -106.65962   -2535.8554    4.2491518    4.2491518    4.2491518   -2535.8554   -18002.298   -25054.625    35449.357   -9874.1535    9093.6064    3141.0666    76.719672 
   23300    711.03203    -107.2983   0.64335672   -106.65495    11530.607    4.2374631    4.2374631    4.2374631    11530.607    14362.269   -13944.957    34174.508   -2310.3656   -4767.6334    10489.991    76.088283 
   23400    883.37854   -107.45007   0.79929947   -106.65077    -1736.988    4.2522805    4.2522805    4.2522805    -1736.988   -4421.1401   -7442.1873    6652.3634    505.25912   -7433.9172    4602.0231    76.889266 
   23500    424.21639   -107.03856   0.38383991   -106.65472    3763.6451    4.2472183    4.2472183    4.2472183    3763.6451   -20609.544   -24918.571     56819.05   -16937.664    579.88258    232.95961    76.614989 
   23600    815.50841    -107.3895   0.73788914   -106.65161   -11645.948     4.246634     4.246634     4.246634   -11645.948    -4875.287    -28511.33   -1551.2282    3601.8113    908.53193    10381.255    76.583376 
   23700    857.21805   -107.42564    0.7756289   -106.65001    10137.305    4.2448947    4.2448947    4.2448947    10137.305     12881.66    1991.9946    15538.261    634.30282   -12227.547   -98.949156    76.489312 
   23800    940.79159   -107.50478     0.851248   -106.65353    1658.6676    4.2457128    4.2457128    4.2457128    1658.6676    -3431.846   -12006.143    20413.992   -18448.278    8122.3815   -1551.1897    76.533549 
   23900    920.60372   -107.48698    0.8329816   -106.65399   -5120.2116    4.2536033    4.2536033    4.2536033   -5120.2116    372.45218   -25226.929    9493.8421    4050.0394    5367.9003    4238.8802    76.961045 
   24000     759.9888   -107.34194   0.68765384   -106.65429    6505.4467     4.240805     4.240805     4.240805    6505.4467    3935.5303    1856.3385    13724.471   -2808.5856   -18701.397   -9869.4704    76.268447 
   24100    592.74205   -107.19266   0.53632546   -106.65634   -2224.8476     4.246302     4.246302     4.246302   -2224.8476   -25287.165   -10078.059    28690.681   -9655.5479    5632.7242   -2184.6153    76.565416 
   24200    776.54343   -107.35207   0.70263282   -106.64944   -13454.149    4.2547009    4.2547009    4.2547009   -13454.149   -19444.793   -28971.241    8053.5884    7572.9596    -2994.414    58.105218    77.020639 
   24300    738.37861   -107.31932   0.66810049   -106.65122   -4138.5943    4.2407181    4.2407181    4.2407181   -4138.5943   -6558.1146   -7573.5706    1715.9021   -8925.6134   -15382.855   -14408.936     76.26376 
   24400    805.12753   -107.38534   0.72849631   -106.65684    5515.9796    4.2450696    4.2450696    4.2450696    5515.9796   -9590.9715   -3046.0955    29185.006   -7998.2419   -1704.3665   -3539.3168    76.498766 
   24500     1236.705   -107.77113    1.1189966   -106.65213   -8289.5348     4.250861     4.250861     4.250861   -8289.5348    1940.3233   -18027.174   -8781.7541    8407.0303    7540.1793   -466.53035     76.81229 
   24600    768.57439   -107.35088   0.69542226   -106.65546    1713.2661     4.244283     4.244283     4.244283    1713.2661    2612.1307   -8959.0944    11486.762   -6887.8497   -10143.221   -18019.916    76.456254 
   24700    768.56037   -107.34906   0.69540958   -106.65365     3553.899    4.2450665    4.2450665    4.2450665     3553.899   -17305.362   -275.00504    28242.064   -8379.3088   -1391.8194    117.46586    76.498601 
   24800    891.83991   -107.45567   0.80695549   -106.64871   -4095.2755    4.2480704    4.2480704    4.2480704   -4095.2755   -10275.676   -10152.707    8142.5566    4969.1551    1714.9951     845.5247    76.661113 
   24900    373.62136   -106.99454   0.33806045   -106.65648    -8138.841     4.249434     4.249434     4.249434    -8138.841   -14158.566   -28094.022    17836.065   -6677.2387   -12886.554   -18527.552     76.73496 
   25000    814.27396   -107.38904   0.73677219   -106.65226     3081.219    4.2441917    4.2441917    4.2441917     3081.219   -5911.1297   -2241.1915    17395.978   -1763.8151    2944.3651   -562.21785     76.45132 
   25100    1009.4949    -107.5642   0.91341223   -106.65079    8823.9342    4.2433572    4.2433572    4.2433572    8823.9342    21856.775   -6062.0651    10677.092    6080.0161    -5108.865   -1271.1735    76.406228 
   25200    563.35705   -107.16897    0.5097373   -106.65923   -3607.5451    4.2527957    4.2527957    4.2527957   -3607.5451    10270.582   -28234.851    7141.6343   -10952.329   -16795.345   -18727.786    76.917219 
   25300     1145.651   -107.68786    1.0366091   -106.65125    1367.1798    4.2445162    4.2445162    4.2445162    1367.1798   -1871.3557   -4493.6403    10466.535     570.6193    4135.4234   -3138.0206    76.468856 
   25400    870.92051   -107.44051   0.78802718   -106.65248    13741.225    4.2419188    4.2419188    4.2419188    13741.225    12338.664   -1409.4878    30294.499    5252.5297   -564.90319   -3111.5565    76.328555 
   25500    476.06954   -107.09277   0.43075773   -106.66201   -20205.131    4.2513755    4.2513755    4.2513755   -20205.131   -13814.389   -31432.207   -15368.797   -6483.2862   -17996.099   -24889.876    76.840184 
   25600    797.17358   -107.37763   0.72129941   -106.65633    7399.1666    4.2414004    4.2414004    4.2414004    7399.1666   -7073.0527   -9042.7453    38313.298    3519.2736    3566.3465    2156.3692    76.300578 
   25700    858.18286    -107.4309   0.77650189    -106.6544   -2833.6496    4.2490573    4.2490573    4.2490573   -2833.6496    5952.7837   -16471.374    2017.6418   -1086.5521    3695.6626   -4369.1794    76.714552 
   25800    468.69293   -107.08113   0.42408322   -106.65705   -22817.876    4.2560192    4.2560192    4.2560192   -22817.876   -9771.3961    -39422.54   -19259.691   -5045.3617   -16766.737   -19659.964    77.092254 
   25900    1001.6549   -107.55488   0.90631837   -106.64856    17716.018    4.2348429    4.2348429    4.2348429    17716.018    8623.4135    2556.3669    41968.274    3022.3707    3511.1718    2750.3627    75.947226 
   26000    1091.3581    -107.6422   0.98748374   -106.65472   -2916.1493     4.246136     4.246136     4.246136   -2916.1493     4303.876    5.4183518   -13057.742    2313.6462     3588.012   -11560.492    76.556434 
   26100    513.17199   -107.12389    0.4643288   -106.65956   -15639.144    4.2578178    4.2578178    4.2578178   -15639.144   -18728.079   -23821.216   -4368.1381   -7752.3785   -12490.169   -23433.947    77.190033 
   26200    1120.0918   -107.65936    1.0134826   -106.64588    15088.046    4.2382055    4.2382055    4.2382055    15088.046    8765.6215    12933.028    23565.488   -2443.1932   -7545.1104    6215.1225    76.128283 
   26300    898.21533    -107.4651   0.81272411   -106.65238   -1614.1147    4.2467768    4.2467768    4.2467768   -1614.1147    8830.6131   -1463.8546   -12209.103    5668.5998    -2451.741     -8114.19    76.591098 
   26400    476.05844   -107.08776   0.43074768   -106.65701   -15166.578    4.2532407    4.2532407    4.2532407   -15166.578   -10893.739   -32656.763   -1949.2319   -9840.0773   -16376.674   -18979.697    76.941366 
   26500    923.65259   -107.48591   0.83574028   -106.65017    14420.071    4.2392026    4.2392026    4.2392026    14420.071    27954.314    2721.4244    12584.476   -1945.8832   -1885.6816     4296.704    76.182025 
   26600    788.92274    -107.3688   0.71383388   -106.65496    5529.0133    4.2438405    4.2438405    4.2438405    5529.0133    23265.578    12014.132    -18692.67    6420.3525    4142.0424    -9155.986    76.432341 
   26700    513.35791   -107.12336   0.46449702   -106.65886    1055.9513    4.2514491    4.2514491    4.2514491    1055.9513    20875.436   -6304.8105   -11402.772   -14596.492   -12020.453   -10001.948    76.844174 
   26800    1011.9686   -107.56611   0.91565049   -106.65046    11314.743    4.2453067    4.2453067    4.2453067    11314.743    26195.269    14088.289   -6339.3291   -7210.1988    5607.0535    3629.6213    76.511587 
   26900    875.58034     -107.445   0.79224349   -106.65275    9653.5793    4.2420309    4.2420309    4.2420309    9653.5793    17390.216    20986.238   -9415.7161    1758.6388    9581.1782   -13423.968     76.33461 
   27000    742.07087    -107.3269   0.67144132   -106.65546   -2014.8307    4.2483847    4.2483847    4.2483847   -2014.8307    7112.4334   -21871.205    8714.2795   -11134.457   -13472.244   -4775.3271    76.678131 
   27100    982.92249   -107.54094   0.88936892   -106.65157   -5691.0534    4.2477464    4.2477464    4.2477464   -5691.0534   -14902.809   -672.21399   -1498.1369   -8172.4138    5311.9826    3440.3025    76.643573 
   27200    831.31757    -107.4051   0.75219361    -106.6529   -461.39498    4.2428078    4.2428078    4.2428078   -461.39498    1226.9973    6776.4261   -9387.6084    1448.0072    7564.6874   -16717.646    76.376559 
   27300    617.46328   -107.21392   0.55869375   -106.65523    -3369.731    4.2483496    4.2483496    4.2483496    -3369.731    2571.2555   -9851.3342   -2829.1143   -10420.834   -14811.547   -5267.9808    76.676229 
   27400    875.61329   -107.44342    0.7922733   -106.65115   -5412.3199    4.2470063    4.2470063    4.2470063   -5412.3199   -9082.8502    9891.4926   -17045.602   -9558.3136    2015.7927    1002.5893    76.603519 
   27500    867.71124   -107.43625   0.78512336   -106.65113    4950.8259    4.2439434    4.2439434    4.2439434    4950.8259     20380.23     14887.73   -20415.483     5113.565    5014.2369    -11838.21    76.437902 
   27600    722.44932   -107.30714   0.65368733   -106.65345   -7839.8607    4.2509897    4.2509897    4.2509897   -7839.8607    -1707.473    -24409.52    2597.4114    -16669.54   -13488.523   -4016.6678    76.819269 
   27700    871.58766   -107.44086   0.78863083   -106.65222    -2413.259    4.2451563    4.2451563    4.2451563    -2413.259   -4054.6431   -1216.6776   -1968.4564   -9227.4455    9067.8787    -205.2205    76.503455 
   27800    1054.6387    -107.6035   0.95425924   -106.64925    9549.1525    4.2408202    4.2408202    4.2408202    9549.1525    24575.088    4004.6476    67.721593    10117.625    7050.7464   -3971.2818    76.269269 
   27900    505.62882   -107.11475   0.45750358   -106.65724    -12165.06    4.2512491    4.2512491    4.2512491    -12165.06   -27859.204   -23953.848    15317.872   -21096.057   -8967.9969   -1617.1347    76.833333 
   28000    651.49933   -107.24545   0.58949028   -106.65596   -1651.6002    4.2400907    4.2400907    4.2400907   -1651.6002   -14410.588    9725.4432   -269.65631    -10232.36     6240.194    737.43648    76.229913 
   28100    1056.3151   -107.60698   0.95577613   -106.65121   -656.43604    4.2428809    4.2428809    4.2428809   -656.43604    3707.6532    11287.021   -16963.983    7437.6569    2423.9497   -3848.6587    76.380503 
   28200    417.91513   -107.03729    0.3781384   -106.65915   -22538.349    4.2539086    4.2539086    4.2539086   -22538.349   -36996.815   -29478.105   -1140.1262    -25173.55   -8716.5167    145.01404    76.977615 
   28300    808.83755   -107.38716   0.73185321    -106.6553    8270.6621    4.2348006    4.2348006    4.2348006    8270.6621    6516.5388    10749.607    7545.8401   -4368.1906    823.10832    989.60469    75.944952 
   28400    1290.3432   -107.82057    1.1675296   -106.65305    2248.5525    4.2461403    4.2461403    4.2461403    2248.5525    11999.269     1991.428   -7245.0397   -1738.1273   -6015.9936   -1104.2463    76.556668 
   28500    527.16851   -107.14214   0.47699315   -106.66515   -9008.5002    4.2502161    4.2502161    4.2502161   -9008.5002   -20447.161   -29003.824    22425.485   -23802.756   -11972.912    2567.1918    76.777338 
   28600     918.9792   -107.48921   0.83151169    -106.6577     11038.76    4.2374365    4.2374365    4.2374365     11038.76    11702.033    4931.4012    16482.845    1854.4046     6999.706    6482.4567    76.086849 
   28700     1073.799   -107.62316   0.97159594   -106.65157   -9985.7412    4.2529747    4.2529747    4.2529747   -9985.7412   -5566.1338   -11298.343   -13092.747   -5612.1188    1832.8097    150.31698    76.926928 
   28800    292.31261   -106.92505    0.2644906   -106.66056    186.17199    4.2409989    4.2409989    4.2409989    186.17199   -7124.3281   -15588.916     23271.76   -29831.724   -13311.769    659.44487    76.278911 
   28900    804.77694   -107.38388   0.72817909    -106.6557    1967.0473    4.2404413    4.2404413    4.2404413    1967.0473     17530.02    1615.6426   -13244.521    6539.6519   -1113.3844    3686.5435    76.248825 
   29000    984.43503    -107.5417    0.8907375   -106.65096   -14915.456    4.2527842    4.2527842    4.2527842   -14915.456   -6755.3984   -10474.037   -27516.931   -6666.2217     8563.936   -3055.6853    76.916592 
   29100    533.69439   -107.13902    0.4828979   -106.65612      11746.7    4.2346042    4.2346042    4.2346042      11746.7    5728.5037    -4546.799    34058.395   -27460.195   -13856.652     1422.225    75.934382 
   29200    1032.1106   -107.58889   0.93387536   -106.65501    1476.8566    4.2478832    4.2478832    4.2478832    1476.8566    15896.312   -10666.216   -799.52653    11285.252   -7918.9764    2347.5743     76.65098 
   29300    1087.0059   -107.63591   0.98354579   -106.65236   -11335.075    4.2488565    4.2488565    4.2488565   -11335.075   -17875.547   -12124.847   -4004.8322   -8089.0555    6007.0556   -8765.1593     76.70368 
   29400    498.32317   -107.10506   0.45089328   -106.65416    21329.223    4.2320304    4.2320304    4.2320304    21329.223    22874.971    3849.1094     37263.59   -22014.712   -10311.418   -1096.4257    75.796011 
   29500    948.79812   -107.51041   0.85849248   -106.65192     -10183.4    4.2533681    4.2533681    4.2533681     -10183.4   -616.62722   -11742.959   -18190.613    8992.4655   -4591.2844    2579.8312    76.948281 
   29600    814.20692   -107.38928   0.73671153   -106.65256   -3381.6369    4.2437057    4.2437057    4.2437057   -3381.6369    10203.709    5287.7122   -25636.332   -12928.578    1337.6385     -5623.41    76.425058 
   29700    455.68979     -107.069   0.41231769   -106.65668    8477.1828    4.2389371    4.2389371    4.2389371    8477.1828    20230.953    1356.9235    3843.6718   -15630.227   -16724.144   -2094.9782    76.167714 
   29800     1057.175   -107.60449   0.95655414   -106.64794   -5843.1061    4.2519737    4.2519737    4.2519737   -5843.1061    3422.7049   -5862.6731    -15089.35      7172.06   -1791.0272   -3222.0191    76.872624 
   29900    918.83747   -107.48234   0.83138345   -106.65096    16583.346    4.2331621    4.2331621    4.2331621    16583.346    22552.661    15236.483    11960.895   -13477.469    7687.3983   -2316.7723    75.856831 
   30000    577.16359   -107.18465   0.52222975   -106.66242    1158.0018    4.2481366    4.2481366    4.2481366    1158.0018   -7394.7942    -8324.168    19192.968   -14279.262   -13640.158    2177.6565    76.664699 
   30100    1146.3144   -107.68921    1.0372094     -106.652    624.90718    4.2478858    4.2478858    4.2478858    624.90718    -2915.511    2412.7512    2377.4814    2805.4994    547.00192   -1134.7478     76.65112 
   30200    733.27626   -107.31737   0.66348377   -106.65388    22424.534    4.2261598    4.2261598    4.2261598    22424.534    29582.764     26167.55    11523.288   -10435.957    893.17934   -10705.195    75.481017 
   30300    466.43351   -107.08394   0.42203885    -106.6619   -23862.653    4.2590679    4.2590679    4.2590679   -23862.653   -28894.813   -21358.309   -21334.837   -14402.672   -17891.789    1418.4913    77.258038 
   30400    1072.8708   -107.62205   0.97075601    -106.6513    10295.435    4.2414562    4.2414562    4.2414562    10295.435    27551.787    12556.466   -9221.9478    1552.8174    360.57231    2684.0079    76.303588 
   30500    742.86515   -107.32355      0.67216   -106.65139    18359.848    4.2233713    4.2233713    4.2233713    18359.848    19808.995    29406.125    5864.4238   -9305.7514   -7989.4616   -8279.5996    75.331706 
   30600    546.72099   -107.14963   0.49468464   -106.65494   -32429.379    4.2632879    4.2632879    4.2632879   -32429.379   -40634.258   -28301.116   -28352.764   -15395.156   -20243.526    1298.2373    77.487918 
   30700    1150.9626   -107.69121    1.0414152    -106.6498    17382.768    4.2340025    4.2340025    4.2340025    17382.768     26296.43    16112.364    9739.5092    1939.4391      4116.35    6256.7001    75.902017 
   30800    747.16933   -107.33044   0.67605451   -106.65438    11449.253    4.2267466    4.2267466    4.2267466    11449.253   -10666.203    25976.495    19037.466   -11095.165   -425.04542   -442.00844    75.512464 
   30900    615.55908   -107.20744   0.55697079   -106.65047   -31830.938    4.2635441    4.2635441    4.2635441   -31830.938   -37275.681   -30484.896   -27732.237   -13169.459   -14419.787    4940.7942    77.501888 
   31000    986.58622   -107.53894   0.89268395   -106.64626    16798.376    4.2318903    4.2318903    4.2318903    16798.376    40697.663    14527.638   -4830.1722    2528.0293    1467.4669    13031.242    75.788479 
   31100    670.70669   -107.25884   0.60686951   -106.65197    3006.3922    4.2302103    4.2302103    4.2302103    3006.3922   -8984.7893    25859.348    -7855.382   -12477.849   -6940.7504   -3719.7093    75.698256 
   31200    695.43313     -107.279   0.62924251   -106.64976   -28258.247    4.2572269    4.2572269    4.2572269   -28258.247   -20041.425   -21328.891   -43404.424   -9678.6958   -9829.3371    6967.6106    77.157899 
   31300     959.8654   -107.51566   0.86850638   -106.64716    11430.658     4.234017     4.234017     4.234017    11430.658    34744.397     15884.57   -16336.992    6306.7389    723.77268    20721.339    75.902798 
   31400    782.43244   -107.36037   0.70796132   -106.65241   -2364.8653    4.2359641    4.2359641    4.2359641   -2364.8653    -26482.37    14745.987    4641.7873   -11566.044   -16886.209   -7165.2239    76.007563 
   31500    792.17163    -107.3686   0.71677353   -106.65183   -19533.028    4.2500005    4.2500005    4.2500005   -19533.028    -21865.62    -20753.73   -15979.733    -11262.19   -10000.933    7148.5046    76.765654 
   31600    870.25245   -107.43719   0.78742271   -106.64977    12581.385    4.2354447    4.2354447    4.2354447    12581.385    33333.096    11368.749   -6957.6902    4843.9781    7985.6599    23382.374    75.979606 
   31700    682.93919   -107.27178   0.61793773   -106.65385   -4923.8599    4.2418308    4.2418308    4.2418308   -4923.8599   -22999.207    6236.6019    1991.0257   -7603.5506   -14748.266   -3118.1117    76.323804 
   31800    654.83935    -107.2462    0.5925124   -106.65369   -11190.249     4.244397     4.244397     4.244397   -11190.249    794.44501   -4007.0599   -30358.132   -12634.064   -9602.1772      11730.2    76.462414 
   31900    904.26827    -107.4683   0.81820093    -106.6501    3250.3286    4.2385555    4.2385555    4.2385555    3250.3286     22455.69    15092.756    -27797.46    5574.8499    2686.9965    13674.427    76.147143 
   32000    762.58186   -107.34308    0.6900001   -106.65308   -9417.6229    4.2453727    4.2453727    4.2453727   -9417.6229   -28379.349    1405.1844   -1278.7039   -6148.6904   -10792.138   -6338.9326    76.515158 
   32100    818.48083   -107.39336   0.74057866   -106.65278   -1901.0486    4.2385117    4.2385117    4.2385117   -1901.0486    140.62201   -3271.8806   -2571.8872   -9858.8333   -4366.4008    17153.635    76.144786 
   32200    984.33083     -107.542   0.89064323   -106.65136    7499.7435    4.2388377    4.2388377    4.2388377    7499.7435    15610.863    5226.5959     1661.771    4302.5673    2863.0616     11268.25    76.162354 
   32300    716.62154   -107.30384   0.64841423   -106.65543   -9884.6282    4.2461758    4.2461758    4.2461758   -9884.6282   -38387.857   -10792.211    19526.183   -10744.027   -4780.8824   -10042.146    76.558588 
   32400    716.39039   -107.30234   0.64820508   -106.65414    1413.8383      4.23727      4.23727      4.23727    1413.8383    8170.9006   -196.60073   -3732.7851   -5446.8993   -1362.3313    12540.727    76.077885 
   32500    873.70132   -107.44202   0.79054332   -106.65148   -1930.0461     4.241423     4.241423     4.241423   -1930.0461    5211.9859    8779.6934   -19781.818    3355.3874    10003.223    13266.438    76.301795 
   32600    627.51587   -107.22294   0.56778954   -106.65515   -7579.5715    4.2438641    4.2438641    4.2438641   -7579.5715   -21801.626    -2107.341    1170.2522   -14781.945   -3333.1193   -7103.1115    76.433617 
   32700    828.55027   -107.40235   0.74968969   -106.65266    5928.9043    4.2378753    4.2378753    4.2378753    5928.9043    20631.336    7906.0097   -10750.633   -6877.7186   -1354.8405    6774.5712    76.110493 
   32800    934.56597    -107.4967   0.84561493   -106.65109   -2370.2008    4.2434351    4.2434351    4.2434351   -2370.2008    -848.0963    5681.9407   -11944.447    6108.4502     13478.82    4858.9273    76.410436 
   32900    706.98055   -107.29456   0.63969086   -106.65487   -6445.6051    4.2422776    4.2422776    4.2422776   -6445.6051   -21191.959   -17152.838    19007.982   -7361.6183   -3572.8478   -5946.6127    76.347928 
   33000     901.0241   -107.46722   0.81526554   -106.65195    4393.1614    4.2405101    4.2405101    4.2405101    4393.1614    12184.887   -3596.1806    4590.7773   -8535.1846   -405.98821     6191.321    76.252537 
   33100    907.93488   -107.47377   0.82151856   -106.65226    -5080.227     4.239925     4.239925     4.239925    -5080.227   -15624.055    9672.0095   -9288.6355     4550.135    14835.464    -2292.038    76.220978 
   33200    602.67635   -107.20224   0.54531423   -106.65693   -5185.5164    4.2402373    4.2402373    4.2402373   -5185.5164   -6665.7871   -12080.067    3189.3051   -5472.5779   -694.68167   -7532.9561    76.237821 
   33300    867.51475   -107.43696   0.78494558   -106.65201   -2360.3533    4.2464155    4.2464155    4.2464155   -2360.3533    11897.194    4773.7853   -23752.039   -7834.3792    1851.2763    5203.5883    76.571556 
   33400    808.23409   -107.38414   0.73130719   -106.65283   -3149.8074    4.2363117    4.2363117    4.2363117   -3149.8074   -8818.7782    23476.582   -24107.226    165.48624    22678.852   -424.39198    76.026277 
   33500    623.23445   -107.22112   0.56391563   -106.65721   -3539.1275    4.2387119    4.2387119    4.2387119   -3539.1275    4831.2513   -19711.297    4262.6636   -15148.703    27.306054   -6202.0017    76.155577 
   33600    941.76565   -107.50344   0.85212935   -106.65131   -10726.589    4.2497572    4.2497572    4.2497572   -10726.589   -9151.0474   -10390.167   -12638.553   -2749.5933    10126.135     1426.261    76.752471 
   33700    908.91107   -107.47435   0.82240184   -106.65194    -726.5162    4.2318603    4.2318603    4.2318603    -726.5162   -15204.441    15463.946   -2439.0538    3566.5413    31040.613    3249.0337    75.786868 
   33800    694.59145   -107.28498   0.62848094    -106.6565   -3202.5837    4.2422239    4.2422239    4.2422239   -3202.5837    9230.1012   -32170.343    13332.491   -14011.161   -4551.9495   -4105.6033    76.345028 
   33900    855.27488   -107.42549   0.77387069   -106.65162    -19551.25    4.2494141    4.2494141    4.2494141    -19551.25   -25309.589    -5549.983   -27794.176   -1723.5791    16946.127   -2952.0033    76.733882 
   34000    728.86239   -107.30902   0.65949001   -106.64953    8669.9635    4.2251411    4.2251411    4.2251411    8669.9635    4406.0475     38986.96   -17383.117    5024.2398    29504.198   -867.90457    75.426445 
   34100    733.84019   -107.31817   0.66399402   -106.65418   -13089.686    4.2480429    4.2480429    4.2480429   -13089.686   -3801.6282   -26648.714   -8818.7159   -9317.8147   -8214.9043   -7467.4941    76.659624 
   34200    718.25747   -107.30394   0.64989446   -106.65404   -18445.352    4.2467622    4.2467622    4.2467622   -18445.352   -29025.766    1056.1899    -27366.48   -3861.3098    22677.539   -1431.8874    76.590309 
   34300    861.38104   -107.42697   0.77939567   -106.64757    12761.111    4.2227039    4.2227039    4.2227039    12761.111    7014.2928    30359.519    909.52126   -2115.1132    24879.761    472.05363    75.295996 
   34400    911.25287    -107.4743   0.82452075   -106.64978   -18763.247    4.2530112    4.2530112    4.2530112   -18763.247   -16401.856   -48177.495    8289.6087   -8662.0064   -8948.4592   -6930.7573    76.928909 
   34500    671.63979   -107.26425    0.6077138   -106.65653   -17877.619    4.2408562    4.2408562    4.2408562   -17877.619   -35598.583   -4347.6038    -13686.67   -2295.4326    32518.824    3843.8324    76.271209 
   34600     791.3109   -107.36566   0.71599473   -106.64966    15147.087    4.2234389    4.2234389    4.2234389    15147.087     10951.26    36200.798   -1710.7976   -5.2828868     21208.26    8570.0131    75.335324 
   34700    903.12717   -107.46498   0.81716844   -106.64781   -22999.959    4.2544217    4.2544217    4.2544217   -22999.959   -25971.969   -28116.574   -14911.334   -9312.8666   -9212.0037   -469.44735    77.005477 
   34800    572.91869   -107.17606   0.51838887   -106.65767   -7889.0608    4.2352251    4.2352251    4.2352251   -7889.0608   -20283.998    27712.661   -31095.846    868.50874     37742.32    440.79914    75.967792 
   34900     924.3403   -107.48936   0.83636253     -106.653    11720.114    4.2296814    4.2296814    4.2296814    11720.114    10118.815    40301.185   -15259.659   -119.06349    10673.432    8727.2182    75.669868 
   35000    985.02744    -107.5397   0.89127353   -106.64843   -20714.219    4.2534614    4.2534614    4.2534614   -20714.219   -22460.667    -27909.01   -11772.979   -10004.891   -6037.6928    665.88467    76.953342 
   35100    607.48419   -107.20434   0.54966446   -106.65468    4007.2551    4.2298468    4.2298468    4.2298468    4007.2551   -8724.7964      20559.2    187.36149    -3417.487    36697.994   -6502.5005    75.678743 
   35200    883.00978   -107.45216   0.79896581   -106.65319    4644.8037    4.2376178    4.2376178    4.2376178    4644.8037    6584.3284    11288.821   -3938.7381    1268.9728   -1677.7374     11156.82    76.096617 
   35300    726.20796   -107.30822   0.65708823   -106.65113   -14115.381    4.2494246    4.2494246    4.2494246   -14115.381   -10039.811   -21820.257   -10486.074   -6286.4411    2316.6772    4650.2369    76.734449 
   35400    577.17454   -107.17395   0.52223966   -106.65171    11744.649     4.227141     4.227141     4.227141    11744.649   -758.23973    39697.918   -3705.7312   -5557.2961    34263.691   -3811.8948    75.533602 
   35500    908.74871   -107.47528   0.82225493   -106.65303   -5234.5327    4.2445952    4.2445952    4.2445952   -5234.5327    5282.0809    8532.2068   -29517.886    4208.7342   -9019.5611    16163.719    76.473123 
   35600    945.62237   -107.50826   0.85561899   -106.65264   -7509.7252     4.243502     4.243502     4.243502   -7509.7252   -4376.9679    2686.2535   -20838.461   -6352.7472    9185.6962    6320.1844    76.414053 
   35700     797.6704   -107.37383   0.72174894   -106.65208    15695.956    4.2287923    4.2287923    4.2287923    15695.956   -1530.6029    47080.421    1538.0497   -8337.9659    27884.352   -2180.3212     75.62216 
   35800    995.78674   -107.55156   0.90100877   -106.65055   -11165.178    4.2488033    4.2488033    4.2488033   -11165.178    4673.6298   -12692.532   -25476.631    1104.7334   -9499.4602    21910.483    76.700796 
   35900    747.11054   -107.32814   0.67600132   -106.65214    7378.7149     4.236473     4.236473     4.236473    7378.7149    21502.115     1832.543   -1198.5128   -5206.9475    10150.311    3370.6477    76.034959 
   36000    569.71619   -107.16874   0.51549118   -106.65324    7777.2257    4.2332591    4.2332591    4.2332591    7777.2257    3800.2986    16528.435    3002.9438   -4329.3721    20033.572   -2182.0482    75.862044 
   36100    764.49633   -107.34183   0.69173235    -106.6501   -16979.986    4.2501538    4.2501538    4.2501538   -16979.986    14325.664   -33590.451    -31675.17    502.54037   -6719.4334    30430.461    76.773961 
   36200    849.16238   -107.41827   0.76833997   -106.64993     15574.88    4.2314696    4.2314696    4.2314696     15574.88     23001.76    24046.537   -323.65592    933.38461     11141.26   -794.78112    75.765881 
   36300    798.96418   -107.37831   0.72291958   -106.65539    811.60773    4.2383474    4.2383474    4.2383474    811.60773    -12331.43    28711.806   -13945.554   -5265.9673    18797.363    3308.9932    76.135928 
   36400    975.04259   -107.53449   0.88223903   -106.65225   -8349.9237    4.2469678    4.2469678    4.2469678   -8349.9237    14886.001   -17867.952   -22067.821    2775.2862   -7760.2597    31716.155    76.601436 
   36500    956.12907   -107.51368   0.86512567   -106.64855    22131.155    4.2305608    4.2305608    4.2305608    22131.155    26475.406    27914.669    12003.392   -2096.9851    12101.664   -7706.4131    75.717074 
   36600    585.14748   -107.18431   0.52945374   -106.65485   -14098.564     4.244813     4.244813     4.244813   -14098.564   -10036.894    -13743.96   -18514.839   -15173.554    17406.653     14259.66    76.484898 
   36700    689.54087   -107.27683   0.62391107   -106.65292    -5152.006    4.2404496    4.2404496    4.2404496    -5152.006    33648.636   -38423.792   -10680.862    1339.1462   -8918.9259    26718.451    76.249274 
   36800    915.24032   -107.47706   0.82812867   -106.64893    14201.121    4.2314059    4.2314059    4.2314059    14201.121    18003.025    16133.993    8466.3468   -3211.2736     16003.29   -11932.417    75.762458 
   36900    568.02975   -107.17055   0.51396526   -106.65658   -22267.003    4.2492928    4.2492928    4.2492928   -22267.003   -17935.454   -14090.895   -34774.659   -11670.777     15234.98    22826.666    76.727309 
   37000    918.99564   -107.48573   0.83152657    -106.6542    3575.5739    4.2354419    4.2354419    4.2354419    3575.5739    15018.506   -6228.5408     1936.757   -1472.3758   -4372.8669    21601.963    75.979456 
   37100    1160.6617   -107.70006    1.0501911   -106.64987     12602.12    4.2344758    4.2344758    4.2344758     12602.12    617.74271    27796.752    9391.8654    2724.9636     16693.23   -9245.7465    75.927475 
   37200    530.37529   -107.13718   0.47989471   -106.65729   -22552.492    4.2498716    4.2498716    4.2498716   -22552.492    -15042.68   -26408.527   -26206.268   -3625.6399     11702.78    30253.068     76.75867 
   37300    836.11938   -107.40885   0.75653839   -106.65231    8698.2354    4.2320978    4.2320978    4.2320978    8698.2354    20650.739   -14302.866    19746.833    -5765.573   -4245.9316    11895.707    75.799629 
   37400    943.51415   -107.50504   0.85371143   -106.65133    2028.5934    4.2379203    4.2379203    4.2379203    2028.5934    2732.4233    2046.0474    1307.3094    2849.1942    5074.4933     -4175.93    76.112913 
   37500     365.3318   -106.99033   0.33055989   -106.65977   -18751.787    4.2473107    4.2473107    4.2473107   -18751.787   -2866.2379   -33431.518   -19957.605   -4949.5716    9895.5786    35526.277    76.619988 
   37600    962.92801   -107.52343    0.8712775   -106.65216    17126.746    4.2321878    4.2321878    4.2321878    17126.746    12250.454    8690.7244    30439.059   -896.31924   -7669.4179    6751.4296    75.804465 
   37700    1067.0336   -107.61794   0.96547445   -106.65247   -1113.3098    4.2420541    4.2420541    4.2420541   -1113.3098   -12437.725    6228.7411    2869.0547    2527.5249    1757.7611    880.27904    76.335859 
   37800    479.03962   -107.09405   0.43344512   -106.66061   -8072.6241    4.2428946    4.2428946    4.2428946   -8072.6241   -4609.3045   -19984.749    376.18108   -6821.3738    14358.472    37090.757    76.381243 
   37900    1110.2025   -107.65526    1.0045346   -106.65073    13874.946    4.2326976    4.2326976    4.2326976    13874.946   -3488.0657    13859.299    31253.606     1283.395   -7310.1105    1814.3664    75.831863 
   38000     773.2842   -107.35403    0.6996838   -106.65435   -8139.0519    4.2456872    4.2456872    4.2456872   -8139.0519   -14070.991   -7954.2249   -2391.9401    3057.9429    5135.3135    4529.9921     76.53216 
   38100    372.05854   -106.99538   0.33664639   -106.65873    -10473.17     4.241859     4.241859     4.241859    -10473.17    2429.8159   -25527.076   -8322.2489    -3038.503    13750.844    34794.123    76.325329 
   38200    1015.1195   -107.56747   0.91850142   -106.64897    16972.088    4.2323629    4.2323629    4.2323629    16972.088    10217.395    14571.467    26127.403   -3315.2759   -8662.6659   -7189.5909    75.813876 
   38300      784.153   -107.36467   0.70951811   -106.65515   -9804.8462    4.2440076    4.2440076    4.2440076   -9804.8462   -362.04274    -13971.15   -15081.346    870.98965    4952.3854    7659.6427    76.441369 
   38400    700.42097   -107.29265   0.63375562   -106.65889   -7555.4427    4.2391245    4.2391245    4.2391245   -7555.4427    4125.5956   -16443.516   -10348.408    2745.3308    13769.119    31755.673    76.177813 
   38500     1193.408   -107.73092    1.0798207    -106.6511    11089.405    4.2367234    4.2367234    4.2367234    11089.405   -3608.5306    8472.0323    28404.715   -1759.9573   -4570.3606   -13004.938    76.048443 
   38600    808.21487   -107.38744    0.7312898   -106.65615    -14609.06    4.2439577    4.2439577    4.2439577    -14609.06   -8435.3226   -20257.219   -15134.638    47.021845    964.32137    16430.975    76.438672 
   38700    644.59506   -107.23889   0.58324316   -106.65565    -2288.965    4.2356389    4.2356389    4.2356389    -2288.965    1126.7952   -2404.6707   -5589.0195   -162.60147    8384.6203    29052.284    75.990058 
   38800    801.23521   -107.37562   0.72497445   -106.65064    1301.1371    4.2410097    4.2410097    4.2410097    1301.1371   -5335.4939    4543.1126    4695.7926   -3069.7401   -5324.9721   -20691.576    76.279492 
   38900     516.3024   -107.12257   0.46716126   -106.65541   -15518.434    4.2423921    4.2423921    4.2423921   -15518.434    10413.937   -12843.235   -44126.005   -187.91789    1438.5536    16281.943     76.35411 
   39000    737.86907   -107.32091   0.66763944   -106.65327    5878.0362    4.2323513    4.2323513    4.2323513    5878.0362    17035.279    14168.719   -13569.889   -4625.9148    6978.2006    22050.855    75.813252 
   39100    950.94489   -107.51271   0.86043492   -106.65228   -5051.4803    4.2464613    4.2464613    4.2464613   -5051.4803    -10546.54   -7157.0302    2549.1289   -2673.2541   -8563.1515   -21465.475    76.574034 
   39200    879.80893    -107.4514   0.79606961   -106.65533   -9916.4315    4.2417723    4.2417723    4.2417723   -9916.4315    3941.4764   -11373.131    -22317.64    437.89047    1816.3037    15144.901    76.320649 
   39300    1106.7558   -107.65001    1.0014159   -106.64859    15259.048    4.2296163    4.2296163    4.2296163    15259.048    14673.285    16976.901    14126.957   -2772.4517    9344.6118     16450.34    75.666374 
   39400      767.692   -107.34771   0.69462386   -106.65309    -15721.12    4.2494894    4.2494894    4.2494894    -15721.12   -18794.159   -22332.654   -6036.5474   -558.72665   -8576.7339   -16569.561    76.737962 
   39500    622.55723   -107.21758   0.56330286   -106.65428   -14353.997    4.2409581    4.2409581    4.2409581   -14353.997    11214.994   -14575.939   -39701.046     -2459.46    -1631.167    17260.481    76.276709 
   39600     792.9688    -107.3645   0.71749483   -106.64701    16683.415    4.2278951    4.2278951    4.2278951    16683.415    30178.258    20163.149   -291.16108    1157.4033    1974.5217    7776.8739    75.574035 
   39700     435.7411   -107.05018    0.3942677   -106.65591   -19600.581    4.2494845    4.2494845    4.2494845   -19600.581   -12740.455   -30214.711   -15846.577    2532.1943   -6524.1896   -17754.277    76.737695 
   39800    833.00771    -107.4088   0.75372288   -106.65508    1662.1086    4.2394598    4.2394598    4.2394598    1662.1086    17146.853    4077.9686   -16238.496   -2771.5682   -4239.4118    10043.218    76.195892 
   39900    1122.2668   -107.66443    1.0154505   -106.64898     19815.17    4.2319979    4.2319979    4.2319979     19815.17    17508.222    19595.281    22342.009      8095.76    1654.3191    2967.4758     75.79426 
   40000    672.41601   -107.26741   0.60841613   -106.65899   -6695.7454    4.2455535    4.2455535    4.2455535   -6695.7454    -5992.406   -21022.121    6927.2904    7108.0803   -6077.3822   -17052.123    76.524932 
   40100    1085.6656   -107.63371   0.98233308   -106.65138    8475.3969    4.2417275    4.2417275    4.2417275    8475.3969    23848.612     12233.27   -10655.691   -199.21948   -1053.7815    1631.6565    76.318232 
   40200     907.1679   -107.47321   0.82082458   -106.65239    8604.1342    4.2360463    4.2360463    4.2360463    8604.1342    12830.783    9643.7509    3337.8683    7958.4837    10762.452    101.05065    76.011989 
   40300    323.56159   -106.95382   0.29276532   -106.66105   -3980.4999    4.2389006    4.2389006    4.2389006   -3980.4999    11730.747     -20468.6   -3203.6468    1202.5078   -7169.3776   -16721.087    76.165743 
   40400    901.37459   -107.46699   0.81558267   -106.65141   -1769.8444    4.2437085    4.2437085    4.2437085   -1769.8444    12298.191    2965.8403   -20573.564   -3130.4338    201.29699   -3990.5425    76.425209 
   40500    710.19608   -107.29592   0.64260033   -106.65332   -4886.3917    4.2417775    4.2417775    4.2417775   -4886.3917   -14771.439    895.87694   -783.61351    6555.4012    12001.377   -59.561363    76.320928 
   40600    537.70762   -107.14317   0.48652915   -106.65665    -2805.434     4.236784     4.236784     4.236784    -2805.434   -750.11319   -20579.067    12912.878    98.458103   -5546.3725   -19462.295    76.051706 
   40700    1184.3091   -107.72132    1.0715878   -106.64973    2300.9751    4.2407693    4.2407693    4.2407693    2300.9751    4490.6055    581.41846    1830.9013   -6983.7725    2972.4006   -1439.0747    76.266519 
   40800    948.76251   -107.51233   0.85846026   -106.65387   -7443.9279    4.2427446    4.2427446    4.2427446   -7443.9279   -19519.698   -8499.0811    5686.9955    6221.1761    10842.181    3358.7182    76.373143 
   40900    794.87884   -107.37461   0.71922308   -106.65539    1720.4065    4.2359335    4.2359335    4.2359335    1720.4065    12046.846   -23068.253    16182.627    1298.3737   -2624.3695   -18109.995    76.005914 
   41000    1065.0799   -107.61304   0.96370667   -106.64933    -2299.579    4.2417264    4.2417264    4.2417264    -2299.579    10038.858   -5460.5014   -11477.093   -6599.6989     10434.52    3022.6819    76.318174 
   41100     577.1388   -107.17688   0.52220731   -106.65467   -7318.4738    4.2416621    4.2416621    4.2416621   -7318.4738   -10699.338    -7872.554    -3383.529    7600.8891    14941.308    5370.7446    76.314703 
   41200    755.79832    -107.3349   0.68386221   -106.65104    4833.2651      4.23557      4.23557      4.23557    4833.2651    12802.942   -9007.2545    10704.108   -2757.8483   -7411.4974   -12003.624    75.986354 
   41300    816.77362   -107.38958   0.73903394   -106.65055   -632.35423    4.2424211    4.2424211    4.2424211   -632.35423   -2457.1991    4314.1947   -3754.0583   -3219.6778    11853.226    6104.8032    76.355673 
   41400    541.78993    -107.1477   0.49022292   -106.65747   -1379.6869    4.2389515    4.2389515    4.2389515   -1379.6869   -22138.203    6050.2294    11948.913    8306.3467    13957.627    10566.689    76.168488 
   41500    1091.2807   -107.64005   0.98741372   -106.65264    8358.8548    4.2373906    4.2373906    4.2373906    8358.8548    456.61042    5966.9115    18653.043    4095.6759   -10968.031   -6285.1404    76.084381 
   41600    922.96532   -107.48864   0.83511842   -106.65352    3644.7156    4.2429574    4.2429574    4.2429574    3644.7156   -4378.4113    6399.6071     8912.951     324.8065    16129.505    5677.6191    76.384638 
   41700    490.08306   -107.10223   0.44343745    -106.6588   -3125.2147    4.2408834    4.2408834    4.2408834   -3125.2147   -6111.5084    133.78804   -3397.9237    8010.8342    16586.023     13133.68    76.272678 
   41800    1058.5191   -107.60653   0.95777032   -106.64876    10686.916    4.2362778    4.2362778    4.2362778    10686.916    12483.954    8227.9893    11348.804    8052.9882   -7766.0835   -4116.2947    76.024451 
   41900     636.2602   -107.23053    0.5757016   -106.65483    7467.1957     4.240125     4.240125     4.240125    7467.1957   -4187.4686    15958.546     10630.51   -509.97845    20346.642    2091.0177    76.231766 
   42000    440.54345   -107.05911   0.39861298   -106.66049   -13102.001    4.2440734    4.2440734    4.2440734   -13102.001   -25663.644    4935.0689   -18577.429    7638.6788    10269.712     14728.82    76.444923 
   42100    1091.1853   -107.63846   0.98732743   -106.65114    13100.908    4.2333931    4.2333931    4.2333931    13100.908   -4425.1294    16096.728    27631.126    5947.4237   -8557.6794   -4560.8215    75.869253 
   42200    873.14565     -107.447   0.79004054   -106.65696   -2609.6856     4.240565     4.240565     4.240565   -2609.6856   -21405.631    16123.657    -2547.082   -4013.2811    22986.137    1268.8798    76.255501 
   42300     630.0538   -107.22788   0.57008592    -106.6578   -18129.288    4.2462404    4.2462404    4.2462404   -18129.288   -20660.267    607.66523   -34335.261    10514.801     1566.649    19438.607    76.562085 
   42400    952.58173   -107.50999   0.86191596   -106.64807    16218.215    4.2294484    4.2294484    4.2294484    16218.215    22094.199    17606.663    8953.7834    2450.0678   -8114.1965   -9990.9588    75.657364 
   42500    613.07259   -107.21043   0.55472096   -106.65571   -15490.596     4.244908     4.244908     4.244908   -15490.596   -10992.149   -490.06457   -34989.574   -4149.3847    25872.882   -3512.2936    76.490032 
   42600    555.98104   -107.15893   0.50306333   -106.65587   -15236.608    4.2427762    4.2427762    4.2427762   -15236.608   -9419.6243   -9033.8501   -27256.351    8566.5425   -787.86992    23891.787    76.374851 
   42700    980.08559   -107.53538   0.88680204   -106.64858    13441.554    4.2269824    4.2269824    4.2269824    13441.554    16410.413    4272.5005     19641.75    372.35501   -6593.8653    -16080.31    75.525101 
   42800    831.40247   -107.40606   0.75227043   -106.65379   -21078.427    4.2503405    4.2503405    4.2503405   -21078.427   -26356.909   -13052.189   -23826.184    -2705.842     21092.44    -7795.551     76.78408 
   42900    939.23337   -107.50269   0.84983809   -106.65285   -4573.0148    4.2367948    4.2367948    4.2367948   -4573.0148   -12142.904    1536.8666    -3113.007    4632.2877    2576.1036    26040.527     76.05229 
   43000    972.73554   -107.52958   0.88015156   -106.64943    8651.8319    4.2299257    4.2299257    4.2299257    8651.8319     20504.49    653.63505    4797.3703    1012.8426    302.31681   -18151.049    75.682979 
   43100     598.8001   -107.19419   0.54180691   -106.65238   -27196.048    4.2506118    4.2506118    4.2506118   -27196.048   -12608.582   -20182.085   -48797.476    -1834.432    15388.499   -10726.513    76.798783 
   43200    686.83216   -107.27238   0.62146018   -106.65092    1640.0484    4.2306559    4.2306559    4.2306559    1640.0484    9161.8254    1826.1408   -6067.8211    3636.3722   -220.67102    22217.771     75.72218 
   43300    701.60076   -107.28838   0.63482311   -106.65355     402.0477    4.2361118    4.2361118    4.2361118     402.0477    12665.818   -8810.8778   -2648.7974    3738.3904    2184.1181   -25330.816    76.015516 
   43400    738.36613   -107.32169   0.66808919   -106.65361   -16858.414    4.2481817    4.2481817    4.2481817   -16858.414    -17812.47   -7351.0721   -25411.699   -1680.3059    16780.562   -9772.4597    76.667141 
   43500    993.23384    -107.5487   0.89869886      -106.65    12901.903    4.2304858    4.2304858    4.2304858    12901.903    835.88861      22065.7     15804.12    6481.6526   -20.362108    21247.007    75.713047 
   43600     936.3307   -107.50105   0.84721169   -106.65384   -3763.8084    4.2398373    4.2398373    4.2398373   -3763.8084    272.96874   -4436.9565   -7127.4374    3928.4963   -2365.8024   -28895.923    76.216251 
   43700     779.0473   -107.35842   0.70489837   -106.65352   -8865.1948    4.2435629    4.2435629    4.2435629   -8865.1948   -11043.193    14802.876   -30355.267   -696.69175    14455.794   -4424.6706    76.417345 
   43800    806.58448   -107.37913   0.72981458   -106.64932    2177.8337    4.2354506    4.2354506    4.2354506    2177.8337    4265.7685    6840.1877   -4572.4552    5812.4606    2312.5821    19854.094    75.979926 
   43900    555.58492   -107.15589   0.50270491   -106.65319    -11663.27    4.2403048    4.2403048    4.2403048    -11663.27    10402.965   -25939.625    -19453.15    2737.5782   -1040.4079     -35790.6    76.241464 
   44000    765.18407     -107.345   0.69235463   -106.65264   -2707.3926    4.2364179    4.2364179    4.2364179   -2707.3926   -1773.5153    2525.4887   -8874.1512   -19.967999    13682.361   -3796.9074    76.031992 
   44100    960.55813   -107.52053   0.86913318    -106.6514   -2180.0188    4.2410497    4.2410497    4.2410497   -2180.0188   -1271.5037   -17947.124    12678.571    6156.6057   -470.30329    9074.4826    76.281651 
   44200    752.37184   -107.33716   0.68076186    -106.6564   -9566.1743    4.2402061    4.2402061    4.2402061   -9566.1743    7460.2027   -28121.494   -8037.2316    831.69045    752.41471   -41923.226    76.236138 
   44300    988.51907    -107.5467   0.89443283   -106.65227    11131.039    4.2304029    4.2304029    4.2304029    11131.039   -4832.6852    30108.656     8117.146   -1366.8904    18988.471    92.351753    75.708595 
   44400    870.41421   -107.44045   0.78756907   -106.65289   -7354.2091     4.245893     4.245893     4.245893   -7354.2091   -6300.8643   -5480.9194   -10280.844    3565.6637   -63.830264    2428.1024    76.543289 
   44500    470.01897   -107.08368   0.42528304   -106.65839   -6867.9823    4.2389817    4.2389817    4.2389817   -6867.9823     12182.35   -12006.536   -20779.761    1910.5857   -691.76054   -37027.143    76.170118 
   44600    903.37902   -107.46872   0.81739633   -106.65132    15668.338     4.228611     4.228611     4.228611    15668.338    2767.5052    24841.796    19395.713   -1225.4083    16039.917    4803.1256    75.612432 
   44700    868.36707   -107.43895   0.78571677   -106.65323    -12962.18    4.2477873    4.2477873    4.2477873    -12962.18    12.374036   -32297.695     -6601.22     155.2942    1199.4496   -8943.2756    76.645787 
   44800    632.57132   -107.23006   0.57236383   -106.65769   -3123.6425    4.2380807    4.2380807    4.2380807   -3123.6425    14471.026   -32374.649    8532.6952   -139.43732    1788.4993   -32500.617     76.12156 
   44900    1062.0038   -107.61151   0.96092332   -106.65059    14479.043    4.2308796    4.2308796    4.2308796    14479.043   -5374.7899    7392.7694    41419.151    -3897.588    10321.619    5252.8476    75.734194 
   45000    817.14814   -107.39372   0.73937281   -106.65434   -8070.3703    4.2429751    4.2429751    4.2429751   -8070.3703   -406.43691    -19894.46   -3910.2138   -1280.4552   -3668.9999   -22884.344    76.385589 
   45100     528.5317   -107.13521   0.47822659   -106.65699   -916.09074    4.2393978    4.2393978    4.2393978   -916.09074    9033.0681   -14087.096    2305.7554   -331.75631   -407.33955   -23847.407    76.192552 
   45200    958.90695    -107.5174   0.86763916   -106.64976    2879.5339    4.2379094    4.2379094    4.2379094    2879.5339   -9504.7918    3534.1601    14609.234   -5993.0952    8178.9564    13869.601    76.112329 
   45300    765.04768   -107.34639   0.69223122   -106.65416   -4616.1263    4.2373932    4.2373932    4.2373932   -4616.1263    15159.229   -18117.823   -10889.785   -1748.0536   -3895.7898   -29912.598    76.084519 
   45400     768.1563   -107.35119   0.69504397   -106.65615    1425.0397    4.2385103    4.2385103    4.2385103    1425.0397    11835.376   -18865.383    11305.126   -2321.2296   -5986.9472   -13498.313    76.144711 
   45500    1074.3895   -107.62349   0.97213021   -106.65136   -3517.5621     4.243161     4.243161     4.243161   -3517.5621   -9549.2145   -21490.288    20486.817   -5494.2663    6674.0482     16909.67    76.395634 
   45600    731.99526   -107.31673   0.66232469    -106.6544    5438.4622    4.2326557    4.2326557    4.2326557    5438.4622     18912.08     -12794.8    10198.107   -47.089872    643.76959   -34008.228    75.829612 
   45700    672.22233   -107.26383   0.60824089   -106.65559    1302.8682    4.2397521    4.2397521    4.2397521    1302.8682    5163.4938   -6801.6457    5546.7564   -418.88555   -3804.6794   -5544.0435    76.211653 
   45800    822.48389   -107.39538    0.7442007   -106.65118   -11214.597    4.2449429    4.2449429    4.2449429   -11214.597   -17969.256    -11484.52   -4190.0147   -6320.8997    4542.8941     11462.13    76.491918 
   45900    618.63813   -107.21228   0.55975678   -106.65252    8370.9693    4.2282056    4.2282056    4.2282056    8370.9693    17485.225    6805.3123    822.37012   -4728.6938   -699.41053   -38680.406    75.590686 
   46000    786.74131   -107.36711   0.71186007   -106.65525   -5288.5102    4.2408256    4.2408256    4.2408256   -5288.5102    7136.3526   -11987.017   -11014.866     2844.486   -3487.3483    9135.8168    76.269559 
   46100    927.40308   -107.49131    0.8391338   -106.65217   -12842.288    4.2451521    4.2451521    4.2451521   -12842.288   -10189.439   -28651.796    314.37012    -1987.748    5134.6197    14119.607    76.503231 
   46200    878.44749   -107.44603   0.79483775   -106.65119    9674.6546    4.2284758    4.2284758    4.2284758    9674.6546    19087.537   -3803.0564    13739.483   -3734.3327   -251.17831   -35462.177    75.605181 
   46300    880.45896   -107.45003   0.79665777   -106.65337   -6548.7938    4.2408125    4.2408125    4.2408125   -6548.7938    13849.069   -24476.058   -9019.3927    3423.2736   -3181.2566    22023.426    76.268852 
   46400    780.78092   -107.35923   0.70646698   -106.65276   -6554.3349    4.2431918    4.2431918    4.2431918   -6554.3349   -3047.2231   -11782.167   -4833.6143   -3274.7281    1331.8389    16630.484    76.397299 
   46500    745.54117   -107.32569   0.67458132   -106.65111    7542.2798    4.2327134    4.2327134    4.2327134    7542.2798    12577.905    12564.319   -2515.3844   -2016.1052     1708.864   -32462.226    75.832711 
   46600    701.90602   -107.28869   0.63509931   -106.65359   -3797.1855    4.2387114    4.2387114    4.2387114   -3797.1855    14313.788   -7478.3964   -18226.948    7317.2962    378.39525    22218.971    76.155549 
   46700    716.55614   -107.30203   0.64835505   -106.65367    2659.6589    4.2403439    4.2403439    4.2403439    2659.6589   -2101.1992    3126.0779     6954.098   -4114.3644    1401.8554    9035.6486    76.243571 
   46800    897.44381    -107.4638   0.81202602   -106.65177    2427.2653     4.237476     4.237476     4.237476    2427.2653    3775.9942   -7697.0629    11202.865   -7971.7436    4503.0881   -26137.656    76.088981 
   46900    798.45952   -107.37693   0.72246296   -106.65447    -3128.409    4.2361909    4.2361909    4.2361909    -3128.409    15597.857   -25166.169    183.08576    7194.7421    -943.4078    26567.643    76.019771 
   47000    871.31196   -107.44176   0.78838138   -106.65338    2120.8625     4.238563     4.238563     4.238563    2120.8625     419.7673   -9644.6632    15587.483   -4445.2973    291.98899     7970.038    76.147551 
   47100    864.19768   -107.43401   0.78194422   -106.65206   -9099.5627    4.2424333    4.2424333    4.2424333   -9099.5627    2763.4829   -17991.714   -12070.457   -8082.1373    3305.1357   -12503.239    76.356332 
   47200    666.33684   -107.25706   0.60291557   -106.65414   -1525.5995    4.2340171    4.2340171    4.2340171   -1525.5995    23627.609   -7446.1017   -20758.306    5620.6298   -1498.4435    33373.451    75.902804 
   47300    824.75325   -107.39903   0.74625407   -106.65277    2796.3801    4.2381066    4.2381066    4.2381066    2796.3801   -5270.2847    4919.1798    8740.2452   -14196.387   -1993.2958    2397.5203    76.122952 
   47400    824.50314   -107.39873   0.74602777    -106.6527   -6966.1909      4.24282      4.24282      4.24282   -6966.1909   -3562.0602   -13580.863   -3755.6493   -9861.1917   -974.67564   -9555.9578    76.377217 
   47500    699.05754   -107.28679   0.63252195   -106.65427    8844.1695    4.2321478    4.2321478    4.2321478    8844.1695    22393.195   -7735.7368    11875.051    8054.6657   -1086.5051    28502.011    75.802319 
   47600    907.77923   -107.47423   0.82137773   -106.65285    174.31437    4.2403199    4.2403199    4.2403199    174.31437   -15393.101   -18203.937    34119.981   -17139.993   -2679.9875   -3609.6933    76.242277 
   47700    780.42482   -107.35853   0.70614478   -106.65238   -5256.3299    4.2413218    4.2413218    4.2413218   -5256.3299   -2076.1082   -26335.072    12642.191   -11025.982   -667.66191   -2478.3567    76.296333 
   47800     714.9661   -107.30002   0.64691635    -106.6531    6251.7641    4.2328923    4.2328923    4.2328923    6251.7641    29403.413   -11248.112    599.99137    4739.0966    1848.4517    26691.392    75.842329 
   47900    889.63965   -107.45681   0.80496465   -106.65185   -3646.0336    4.2402514    4.2402514    4.2402514   -3646.0336   -10273.974   -5183.6586    4519.5316   -17552.394   -7865.5065   -357.97344    76.238583 
   48000    747.53188   -107.33057   0.67638256   -106.65418   -4609.1764    4.2393396    4.2393396    4.2393396   -4609.1764    5223.6189   -5426.0578    -13625.09   -6971.2136   -3417.6289    8054.3537    76.189414 
   48100    837.06709   -107.41041    0.7573959   -106.65301    3686.8337    4.2366314    4.2366314    4.2366314    3686.8337    24488.898   -5920.7249   -7507.6718    3057.9875    4644.7573    20335.307    76.043488 
   48200    896.28895   -107.46191   0.81098107   -106.65093   -3890.7002     4.241508     4.241508     4.241508   -3890.7002   -12742.062   -16935.969     18005.93   -20376.496   -8240.6072   -5253.7763    76.306381 
   48300    630.17696   -107.22364   0.57019735   -106.65344    2675.5115    4.2357203    4.2357203    4.2357203    2675.5115    10116.268   -18873.826    16784.093    -5877.944   -5688.6873     11465.48    75.994439 
   48400    743.81112   -107.32609   0.67301594   -106.65307   -806.68904    4.2397735    4.2397735    4.2397735   -806.68904     21565.94   -30516.018    6530.0113    6050.7656    4088.3137    13693.335    76.212808 
   48500    822.66405   -107.39506   0.74436372    -106.6507    646.74304    4.2400333    4.2400333    4.2400333    646.74304   -5850.7979    -11327.69    19118.717   -17416.968   -5430.3775   -10624.583    76.226822 
   48600    682.70158   -107.27143   0.61772273   -106.65371    5862.3406     4.233791     4.233791     4.233791    5862.3406    13909.056    4210.0594   -532.09391   -5474.6712   -6755.2967      17416.2    75.890646 
   48700     944.9133   -107.50798   0.85497741     -106.653   -3971.0244     4.241648     4.241648     4.241648   -3971.0244    13091.719   -10179.882    -14824.91    4846.3483    2662.8699    13519.716    76.313938 
   48800    994.70393    -107.5518   0.90002902   -106.65177    3756.9198     4.236769     4.236769     4.236769    3756.9198   -4505.8572    4391.4612    11385.155   -12492.504   -5962.7908   -6441.4657    76.050901 
   48900    641.09178   -107.23669   0.58007331   -106.65662   -254.25096    4.2339786    4.2339786    4.2339786   -254.25096    13660.138   -8294.2035   -6128.6871   -1693.1278   -10579.105    22426.392    75.900732 
   49000    754.04254   -107.33624   0.68227354   -106.65396   -12910.549    4.2438046    4.2438046    4.2438046   -12910.549    5319.9956   -39587.009   -4464.6332    4338.1107    3449.2427    7684.5113      76.4304 
   49100    813.31861   -107.38697   0.73590777   -106.65106    4079.6664    4.2361222    4.2361222    4.2361222    4079.6664    1180.1176    -12128.39    23187.271   -8219.9716   -4955.5349   -4877.5393    76.016077 
   49200     609.5918   -107.20731   0.55157147   -106.65574   -1439.6432    4.2355315    4.2355315    4.2355315   -1439.6432     13518.19   -12361.012    -5476.108     -1924.23    -10405.31    26982.215    75.984281 
   49300    909.52625   -107.47743   0.82295847   -106.65447   -4174.2261    4.2417612    4.2417612    4.2417612   -4174.2261    7008.5907   -19129.052   -402.21687    8961.6672    2781.4503   -1362.1751     76.32005 
   49400    1095.9142   -107.64211   0.99160616    -106.6505    13769.835    4.2347701    4.2347701    4.2347701    13769.835    15075.296    14639.441    11594.769   -3702.3429   -2086.3144    -5430.156    75.943308 
   49500    699.84161   -107.28941    0.6332314   -106.65617   -1967.7634    4.2403267    4.2403267    4.2403267   -1967.7634    17008.589   -8497.7787   -14414.101   -6252.9895   -6534.1084    36734.088    76.242646 
   49600    855.83331   -107.42472   0.77437597   -106.65035   -3725.4587    4.2414446    4.2414446    4.2414446   -3725.4587    429.49653   -20589.757    8983.8842    10539.074    811.77052   -4910.9916    76.302963 
   49700    716.20698   -107.29799   0.64803912   -106.64995    10006.355    4.2308943    4.2308943    4.2308943    10006.355    16125.331   -748.03663    14641.769    1577.9673    2837.8318   -1074.8939    75.734982 
   49800    496.33152   -107.10666   0.44909119   -106.65757   -10794.856    4.2412362    4.2412362    4.2412362   -10794.856    8402.8304   -24612.209   -16175.188   -1363.6307   -2879.0003     39357.74    76.291713 
   49900    1055.6427    -107.6066    0.9551677   -106.65143    448.29748    4.2412773    4.2412773    4.2412773    448.29748    -325.2908   -7134.5097    8804.6929    10654.017    931.74631    -5921.625    76.293935 
   50000    989.33051   -107.54808   0.89516704   -106.65291    8444.7438    4.2323591    4.2323591    4.2323591    8444.7438    27892.321      6913.92   -9472.0093    1034.1793    7756.7371    8944.2812     75.81367 
   50100     733.7402   -107.32233   0.66390355   -106.65843   -6667.6511    4.2410288    4.2410288    4.2410288   -6667.6511    16151.104   -10116.726   -26037.331    1054.5995   -6746.4498    35387.122    76.280522 
   50200    1103.4707   -107.64802   0.99844347   -106.64958    3462.4282    4.2395023    4.2395023    4.2395023    3462.4282   -889.96753    1198.6952    10078.557    8689.2337    425.10941   -8985.7183    76.198186 
   50300    571.86378   -107.17208   0.51743436   -106.65465   -1905.5744     4.234925     4.234925     4.234925   -1905.5744    20797.031    -20309.54   -6204.2142    2529.0821    5373.3595    23741.515    75.951644 
   50400    409.22773   -107.02862   0.37027785   -106.65834    -9053.369    4.2390528    4.2390528    4.2390528    -9053.369    3908.3901   -23850.123   -7218.3745   -5064.2042   -5940.7698    27120.657    76.173949 
   50500     1023.527   -107.57687   0.92610872   -106.65077    5268.0271     4.237712     4.237712     4.237712    5268.0271    348.16313    637.12403    14818.794     8338.107   -6723.3191   -11360.073    76.101693 
   50600    789.04838   -107.37069   0.71394755   -106.65675     1771.555    4.2367413    4.2367413    4.2367413     1771.555     33900.07   -17716.112   -10869.294    5207.1306    1500.1903     33206.23    76.049411 
   50700     874.3105   -107.44762   0.79109451   -106.65653    205.81441    4.2384555    4.2384555    4.2384555    205.81441     16766.09    264.86445   -16413.511   -8911.2415   -3431.7428    17416.185    76.141755 
   50800    1074.6148   -107.62266    0.9723341   -106.65033    4659.8004    4.2380238    4.2380238    4.2380238    4659.8004    6854.8134    7207.4379   -82.850123    7137.3077   -9867.5717   -9702.0946     76.11849 
   50900    532.76753   -107.13826   0.48205925    -106.6562   -5104.3643     4.238351     4.238351     4.238351   -5104.3643    35162.377   -35084.608   -15390.862    4161.2884    2030.3853    36841.166    76.136125 
   51000    722.48272   -107.30573   0.65371755   -106.65202   -975.31136    4.2363254    4.2363254    4.2363254   -975.31136     15363.17   -14923.582   -3365.5224   -937.70495   -4346.3706    8322.4051    76.027017 
   51100    753.73809   -107.33436   0.68199806   -106.65236   -166.16833    4.2382806    4.2382806    4.2382806   -166.16833    11799.621   -17696.187    5398.0612    4653.7469   -6016.1553   -125.37464    76.132331 
   51200    545.32644   -107.15186   0.49342282   -106.65844   -5563.3459    4.2397078    4.2397078    4.2397078   -5563.3459    33179.057   -40622.912   -9246.1824    4322.5849    2911.2654    40442.073    76.209269 
   51300    1185.0557   -107.72245    1.0722633   -106.65019    8627.5416    4.2357869    4.2357869    4.2357869    8627.5416    8279.4529    13030.216    4572.9556    4832.1726   -3690.2073   -3389.2057    75.998028 
   51400     890.1963   -107.46068   0.80546832   -106.65521    510.33806    4.2386486    4.2386486    4.2386486    510.33806    10723.524    150.09329   -9342.6036    1845.0606   -2011.0137    14198.509    76.152163 
   51500     585.5613   -107.18819   0.52982817   -106.65836   -6847.6965    4.2394978    4.2394978    4.2394978   -6847.6965    27916.382   -27606.892   -20852.579    6765.3085    -125.4015    41846.888    76.197941 
   51600    1100.4287   -107.64463   0.99569097   -106.64894    8122.5924    4.2346488    4.2346488    4.2346488    8122.5924    9120.6057    8610.8111    6636.3604   -3619.7795     203.3639   -12532.374    75.936781 
   51700    546.10153   -107.15274   0.49412414   -106.65861   -12269.322    4.2399598    4.2399598    4.2399598   -12269.322    16716.068   -33900.734   -19623.299   -3.2202153   -5616.8147    26097.904    76.222856 
   51800    534.04793   -107.14352   0.48321779   -106.66031    -9190.422    4.2377069    4.2377069    4.2377069    -9190.422    17164.084   -39693.317   -5042.0335    8782.4073    169.98405    34518.579    76.101417 
   51900     1193.266   -107.72908    1.0796922   -106.64939    7424.6426    4.2365783    4.2365783    4.2365783    7424.6426   -2708.3054    3213.3079    21768.925    -4461.232    1410.6027    -11909.05    76.040632 
   52000    681.74535   -107.27519   0.61685752   -106.65833   -15324.891    4.2418337    4.2418337    4.2418337   -15324.891    8316.0278   -24575.914   -29714.787    849.96705   -10236.867    37490.033    76.323963 
   52100    802.14481   -107.38238   0.72579748   -106.65658    2292.8671    4.2343582    4.2343582    4.2343582    2292.8671    9735.9663   -301.21148   -2556.1535    6589.9556    1601.0509    16675.002    75.921152 
   52200    1113.3657   -107.65653    1.0073966   -106.64914    1690.7295     4.240129     4.240129     4.240129    1690.7295    1680.1148    4806.5519   -1414.4783    993.17803   -2072.6423   -2768.0628     76.23198 
   52300     550.5947   -107.15643   0.49818966   -106.65824   -16609.805    4.2394755    4.2394755    4.2394755   -16609.805    22714.251   -25193.889   -47349.778    -3510.781   -6461.7804    45384.985    76.196738 
   52400    709.80153   -107.29779   0.64224334   -106.65554    7815.2742    4.2312196    4.2312196    4.2312196    7815.2742    18928.973   -584.92175    5101.7715    8564.6316   -1026.2547    2012.2063    75.752453 
   52500    938.54377   -107.50035   0.84921413   -106.65113   -6906.6467    4.2445951    4.2445951    4.2445951   -6906.6467    5148.0633   -28835.121    2967.1177    3595.0073    3154.8093    4671.9466    76.473122 
   52600    727.30211   -107.31381   0.65807823   -106.65574   -5629.4425    4.2373725    4.2373725    4.2373725   -5629.4425    27977.717   -20546.621   -24319.423   -2207.6416    572.28072    41518.598    76.083401 
   52700     987.9105   -107.54462   0.89388219   -106.65074    14232.308    4.2303825    4.2303825    4.2303825    14232.308    8175.4212    11470.199    23051.305    13465.952   -5348.9724   -7309.5658      75.7075 
   52800    772.69565   -107.35304   0.69915127   -106.65389   -11064.532    4.2444789    4.2444789    4.2444789   -11064.532   -1999.2035   -18548.376   -12646.017    2381.0191    4347.3963    14590.315    76.466841 
   52900    664.90445   -107.25701   0.60161952   -106.65539   -2518.0616    4.2362153    4.2362153    4.2362153   -2518.0616    23977.868     1284.323   -32816.376   -784.29723   -117.90896    31653.806    76.021088 
   53000    924.88415   -107.48641   0.83685461   -106.64955    6650.6507    4.2333138    4.2333138    4.2333138    6650.6507    7417.9831    7698.4238     4835.545    10868.672   -4964.9281   -10712.683    75.864988 
   53100    481.97885   -107.09298   0.43610459   -106.65688   -15299.634    4.2433339    4.2433339    4.2433339   -15299.634    12389.882   -37202.219   -21086.565    870.83761    2974.5797    28716.475    76.404972 
   53200    769.61608   -107.35244   0.69636481   -106.65607    4907.6138    4.2351553    4.2351553    4.2351553    4907.6138    41622.623   -13597.048   -13302.733   -5788.8183     545.3219    23486.279    75.964033 
   53300    1150.9712   -107.69105     1.041423   -106.64963    7600.7187    4.2370986    4.2370986    4.2370986    7600.7187    18898.149   -8225.0865    12129.093    8063.9353   -2817.1643   -9682.6547    76.068653 
   53400    524.85258   -107.13499   0.47489765   -106.66009   -12187.357    4.2420406    4.2420406    4.2420406   -12187.357    15717.693   -32083.026   -20196.737    2775.6194    730.42775    38603.876    76.335134 
   53500    897.37216   -107.46757   0.81196119   -106.65561     2815.447    4.2339472    4.2339472    4.2339472     2815.447    13069.655    6367.9461    -10991.26   -12861.306    7259.2524    11004.137    75.899045 
   53600    1030.6929   -107.58439   0.93259258    -106.6518    503.21272    4.2381481    4.2381481    4.2381481    503.21272    5999.4627    5273.0766   -9762.9011    7957.7024   -4325.9966   -5580.4158    76.125189 
   53700    398.43434   -107.02196   0.36051176   -106.66145   -15281.411    4.2394771    4.2394771    4.2394771   -15281.411    9566.4375   -23878.252   -31532.419    4521.1084   -1660.6395    39169.649    76.196828 
   53800     834.6148   -107.41095   0.75517701   -106.65577    2867.6126    4.2348439    4.2348439    4.2348439    2867.6126    10778.517   -1984.0264   -191.65241   -8825.2732    10763.945   -2254.8649    75.947277 
   53900    930.87793    -107.4936   0.84227791   -106.65132   -4515.0024    4.2423746    4.2423746    4.2423746   -4515.0024    21285.755   -26409.307   -8421.4549    2175.0677    875.48454    4558.7766    76.353163 
   54000    591.23471   -107.19208   0.53496159   -106.65712   -8822.2301    4.2362088    4.2362088    4.2362088   -8822.2301    16945.491   -29977.369   -13434.812    3459.4905   -2271.6664    37776.144    76.020739 
   54100    988.44779   -107.54738   0.89436834   -106.65301    5073.9436    4.2323253    4.2323253    4.2323253    5073.9436    1402.3409    10028.445    3791.0448   -3525.0938    9451.4179   -9975.3737    75.811855 
   54200    878.72853   -107.44866   0.79509204   -106.65357   -10067.556    4.2439854    4.2439854    4.2439854   -10067.556    14322.545   -9404.2621   -35120.952   -1550.1909    4745.4779    14768.243     76.44017 
   54300    741.33452   -107.32647   0.67077506   -106.65569   -3590.7929    4.2339565    4.2339565    4.2339565   -3590.7929    17842.721    -2218.409    -26396.69    6079.1075   -1856.6836    32033.716    75.899547 
   54400    862.33782   -107.43263   0.78026139   -106.65236    5429.0126    4.2338099    4.2338099    4.2338099    5429.0126    6070.1735    13680.667   -3463.8032   -2687.9571    11998.366   -9319.1777    75.891662 
   54500    584.20323    -107.1845   0.52859936    -106.6559   -10376.291    4.2437235    4.2437235    4.2437235   -10376.291    28413.445   -29406.918     -30135.4   -3100.0414    3890.8883    23075.001    76.426018 
   54600     820.0281   -107.39522   0.74197865   -106.65324    6047.3638    4.2332017    4.2332017    4.2332017    6047.3638    31090.637   -13606.354    657.80879    6664.6763   -4110.0666    19147.023     75.85896 
   54700    982.69032    -107.5403   0.88915885   -106.65114    4189.0863    4.2371485    4.2371485    4.2371485    4189.0863     10312.33   -3248.3233    5503.2524    -2973.804    13760.585   -7290.3427     76.07134 
   54800    600.34636   -107.20176     0.543206   -106.65855   -7014.5314    4.2408171    4.2408171    4.2408171   -7014.5314    32775.972   -19482.982   -34336.584   -3869.4659    2802.8922    32275.071      76.2691 
   54900    954.18025   -107.51699   0.86336235   -106.65363    7714.9663     4.233619     4.233619     4.233619    7714.9663    20920.719     13116.64   -10892.461    2133.2665   -6113.4665    7234.8695    75.881394 
   55000    918.55456   -107.48382   0.83112747   -106.65269    1183.9621    4.2398208    4.2398208    4.2398208    1183.9621    10846.469     8281.447    -15576.03    4616.2505    5671.2001   -3113.7045     76.21536 
   55100    346.50106   -106.97324   0.31352144   -106.65972   -6936.0446    4.2388121    4.2388121    4.2388121   -6936.0446    26784.626   -9999.1186   -37593.641   -4922.3539    5212.0927     39727.76    76.160978 
   55200    828.44526   -107.40147   0.74959469   -106.65188    3322.4518    4.2361505    4.2361505    4.2361505    3322.4518    6325.7028    7313.4832   -3671.8307     1016.327   -6172.1645   -1715.7978    76.017596 
   55300    839.34032   -107.41177   0.75945276   -106.65232   -7702.6903    4.2417801    4.2417801    4.2417801   -7702.6903    8988.9914   -18552.879   -13544.183    7807.4563    1659.5601    7757.2388     76.32107 
   55400    635.56244   -107.23367   0.57507025    -106.6586   -1764.3826    4.2342914    4.2342914    4.2342914   -1764.3826    35219.257   -17255.211   -23257.194   -3212.9852    6372.9088    40999.295    75.917557 
   55500    1282.1445   -107.81213    1.1601113   -106.65201    4912.8341    4.2370715    4.2370715    4.2370715    4912.8341     4992.313    7913.0796    1833.1098    4218.7269   -8198.2644   -7068.9746    76.067191 
   55600    940.32346    -107.5071   0.85082443   -106.65628   -9583.3526    4.2441745    4.2441745    4.2441745   -9583.3526    12727.181    -22832.48   -18644.758    5177.2391    798.32893    20654.077    76.450387 
   55700    651.84805   -107.24721   0.58980582   -106.65741    888.23315     4.233678     4.233678     4.233678    888.23315    25408.693   -10180.523   -12563.471   -896.18326    8606.2403    33461.589     75.88457 
   55800    1064.4163   -107.61215   0.96310627   -106.64905    2388.4779    4.2384931    4.2384931    4.2384931    2388.4779   -8263.4488    6710.2966    8718.5858   -121.48992   -5204.9978   -12625.035    76.143779 
   55900    434.52739   -107.05097   0.39316951    -106.6578   -14055.907    4.2415582    4.2415582    4.2415582   -14055.907    10314.849   -34035.445   -18447.126    5900.4218   -4443.7477    32622.006    76.309094 
   56000      446.554   -107.06188   0.40405145   -106.65783    217.48005    4.2332741    4.2332741    4.2332741    217.48005    22937.575   -15333.076   -6952.0585   -1251.6945    8805.5901    22516.629    75.862854 
   56100    1026.7583   -107.57897   0.92903248   -106.64994   -3255.5555    4.2413122    4.2413122    4.2413122   -3255.5555   -10624.231    666.12842     191.4364   -3769.1583   -4209.1586   -10222.292    76.295816 
   56200    654.05996   -107.24986    0.5918072   -106.65806   -6284.4852    4.2390732    4.2390732    4.2390732   -6284.4852     21663.94   -22187.346    -18330.05     6153.014   -8084.8171    40773.305    76.175049 
   56300    1036.8304   -107.59328   0.93814596   -106.65513    8117.6414    4.2339471    4.2339471    4.2339471    8117.6414    25515.153    -304.9402   -857.28827   -236.90626    9242.6276     10147.69    75.899041 
   56400    1218.1898   -107.75438    1.1022437   -106.65214   -67.317977    4.2413622    4.2413622    4.2413622   -67.317977    6673.0462   -2488.7526   -4386.2476   -3264.2539   -30.338204   -1261.2306    76.298513 
   56500     716.0843    -107.3069   0.64792813   -106.65898   -772.30893    4.2361504    4.2361504    4.2361504   -772.30893    36264.797   -14939.129   -23642.595     615.2511   -6497.9457    40494.648    76.017595 
   56600     953.1372   -107.51604   0.86241857   -106.65362    8540.5038    4.2359441    4.2359441    4.2359441    8540.5038    24472.662    292.39709    856.45184     3878.925    946.99962    -2422.088    76.006486 
   56700    753.96899   -107.33754   0.68220698   -106.65534   -5786.2008    4.2413461    4.2413461    4.2413461   -5786.2008    2684.2623   -10612.879   -9429.9854   -2034.8442    2687.1655    5968.9744    76.297644 
   56800    288.71341   -106.92123   0.26123396      -106.66    2729.2034    4.2340218    4.2340218    4.2340218    2729.2034    23556.178    470.15875   -15838.727    103.20121   -4849.5758    35101.838    75.903056 
   56900    787.13123   -107.36616   0.71221288   -106.65394    5994.4404    4.2382017    4.2382017    4.2382017    5994.4404     2276.081      5868.35    9838.8902    5655.0914   -3911.0545   -8107.7749     76.12808 
   57000    739.36512   -107.32389    0.6689931    -106.6549    1088.9353    4.2400488    4.2400488    4.2400488    1088.9353    8987.0927   -4298.1259    -1422.161   -1369.2845     3986.368    15256.619    76.227658 
   57100    655.63829   -107.25088   0.59323531   -106.65764    6155.8826    4.2348019    4.2348019    4.2348019    6155.8826    29444.957    4121.1107    -15098.42    1954.1617   -8008.8637    26321.516    75.945017 
   57200    1129.2421   -107.67478     1.021762   -106.65301    5183.8304    4.2386113    4.2386113    4.2386113    5183.8304    3655.3784    5027.6008     6868.512    4121.3349   -5967.4413    -8605.969    76.150152 
   57300    995.92569   -107.55566   0.90113449   -106.65453    4484.5815    4.2378976    4.2378976    4.2378976    4484.5815    25086.684   -3639.2986    -7993.641   -1747.7889    6381.9805    25508.964    76.111691 
   57400    837.57962   -107.41302   0.75785964   -106.65516    4181.2801    4.2372606    4.2372606    4.2372606    4181.2801    25712.083    5718.8236   -18887.066    3119.4226   -7936.0646    17013.191    76.077379 
   57500    855.27307   -107.42628   0.77386905   -106.65241   -2631.1232    4.2388121    4.2388121    4.2388121   -2631.1232   -9737.3188    3931.2495   -2087.3004    9517.4541   -10443.607    -9018.044    76.160974 
   57600    491.39788   -107.10101   0.44462713   -106.65638   -1370.3767     4.234913     4.234913     4.234913   -1370.3767    11487.091   -3063.3979   -12534.823    1736.7039    4986.1835    29295.036    75.950997 
   57700    731.72603   -107.31612   0.66208109   -106.65404   -5917.2287    4.2401408    4.2401408    4.2401408   -5917.2287   -2460.9738   -1592.6157   -13698.097   -3355.1942   -1789.9163    8967.6004     76.23262 
   57800    850.05184   -107.42099   0.76914477   -106.65184   -7800.9201    4.2409339    4.2409339    4.2409339   -7800.9201   -22307.255   -1797.3699    701.86426    16462.329   -12962.171   -5613.4195    76.275402 
   57900    700.22064   -107.28994   0.63357435   -106.65637    2058.5591    4.2337203    4.2337203    4.2337203    2058.5591    15763.335   -564.64764     -9023.01    1526.0288    6933.8001    28775.479    75.886843 
   58000    1197.0812   -107.73442    1.0831442   -106.65128    2865.0511    4.2405323    4.2405323    4.2405323    2865.0511    17901.351    368.17133   -9674.3688   -5808.5438    390.99692    1943.3179    76.253735 
   58100    952.21153   -107.51673     0.861581   -106.65515   -812.94152     4.237523     4.237523     4.237523   -812.94152    8250.0258   -3533.1002   -7155.7502    17408.029   -10379.137    1970.1272    76.091511 
   58200    394.08389   -107.01834   0.35657538   -106.66176     635.9975    4.2331687    4.2331687    4.2331687     635.9975    29119.325   -10854.901   -16356.432    1036.2071    9214.0418    32742.577    75.857187 
   58300    870.32187   -107.44122   0.78748551   -106.65373   -4758.0256    4.2428641    4.2428641    4.2428641   -4758.0256   -229.56013   -5598.5357    -8445.981   -2627.7688    2459.6173   -3244.0922    76.379598 
   58400    682.97519   -107.27403    0.6179703   -106.65606   -1634.2466    4.2368227    4.2368227    4.2368227   -1634.2466    2142.1352   -6343.7201   -701.15501    12407.367   -4680.6402    9252.5562    76.053791 
   58500    485.84418   -107.10116   0.43960202   -106.66155   -3053.7993    4.2350834    4.2350834    4.2350834   -3053.7993    7022.2797   -9276.7191   -6906.9585    1572.9116    6527.6716    33342.564    75.960164 
   58600    1275.2395   -107.80661    1.1538635   -106.65274    4035.1478    4.2389211    4.2389211    4.2389211    4035.1478    1254.2948    4292.1305    6559.0181   -7811.7524    11941.764   -9995.6528     76.16685 
   58700    997.38711   -107.55974   0.90245682   -106.65728    4300.7787     4.235166     4.235166     4.235166    4300.7787    18226.222   -2930.1836   -2393.7022    12126.551   -3896.7131    13986.605     75.96461 
   58800    535.62126   -107.14623   0.48464137   -106.66159    -8909.802    4.2409566    4.2409566    4.2409566    -8909.802    7134.2938   -13619.268   -20244.432    4522.0177    1831.1224    28200.396    76.276626 
   58900    940.16158   -107.50251   0.85067795   -106.65183    301.14204    4.2365997    4.2365997    4.2365997    301.14204   -3596.1831    7357.8062    -2858.197   -14409.809    12926.669   -8652.4742    76.041786 
   59000    552.04131   -107.15536   0.49949858   -106.65586   -344.72133    4.2331625    4.2331625    4.2331625   -344.72133     16414.24   -5480.2482   -11968.156    6988.6245   -5160.9685     25106.79    75.856852 
   59100    496.21338   -107.10821   0.44898429   -106.65922   -14736.298    4.2428269    4.2428269    4.2428269   -14736.298   -2600.1746    -18659.91    -22948.81    6187.4323    2936.6075    21784.678    76.377591 
   59200    1022.9317   -107.57838   0.92557007   -106.65281    8041.6716    4.2337768    4.2337768    4.2337768    8041.6716    4586.2219    14633.919    4904.8736   -10490.097    7829.3276   -6383.4827    75.889884 
   59300    908.36639   -107.47851     0.821909    -106.6566    2874.2226    4.2341987    4.2341987    4.2341987    2874.2226    23629.854   -6432.6633   -8574.5226    734.76071   -2811.3123    33618.661    75.912569 
   59400      1002.52   -107.56231   0.90710116   -106.65521   -6943.9993    4.2431608    4.2431608    4.2431608   -6943.9993    4032.2379   -10744.562   -14119.674    7574.5624   -780.05502    13275.286    76.395621 
   59500    1015.8494   -107.57156   0.91916184   -106.65239    7495.5731    4.2330302    4.2330302    4.2330302    7495.5731    6734.0738    18007.295   -2254.6494    -3543.379    4507.7665   -7319.7346     75.84974 
   59600    542.91382   -107.14921   0.49123984   -106.65797   -4719.0276    4.2365328    4.2365328    4.2365328   -4719.0276    25361.192   -13405.757   -26112.518   -1982.5503    4711.7336    38352.849    76.038181 
   59700    826.46015   -107.39957   0.74779851   -106.65178   -8292.6165    4.2408234    4.2408234    4.2408234   -8292.6165    1567.7533   -8680.4723    -17765.13    10822.837   -4977.5019    3844.2985    76.269442 
   59800    576.34821   -107.17556   0.52149197   -106.65406    1839.8938    4.2340362    4.2340362    4.2340362    1839.8938    14352.165    3271.7596   -12104.243   -2998.0912    3732.9341   -655.70894    75.903834 
   59900    453.19705   -107.07042   0.41006221   -106.66036   -11741.194    4.2390874    4.2390874    4.2390874   -11741.194     19736.86   -28361.173   -26599.269   -5618.3799    4622.9465    42020.121    76.175813 
   60000    1136.8903   -107.68101    1.0286822   -106.65233    2116.7639    4.2366196    4.2366196    4.2366196    2116.7639    1093.7541   -4002.8667    9259.4043    7147.2546   -3024.0925   -4004.0783    76.042852 
   60100    866.89766   -107.44261   0.78438722   -106.65822    1797.7559    4.2345173    4.2345173    4.2345173    1797.7559     6788.599    685.78137   -2081.1127   -1181.0782    4247.1707    8682.2889    75.929708 
   60200    706.38681   -107.30181   0.63915363   -106.66266   -7738.4654    4.2418023    4.2418023    4.2418023   -7738.4654    19687.073     -18848.1   -24054.369   -7117.0055    49.470908    41722.532    76.322266 
   60300    1335.6009   -107.85886    1.2084797   -106.65038    10369.474    4.2357334    4.2357334    4.2357334    10369.474    14351.025    8159.2056    8598.1927   -3749.9321   -427.42282   -10973.331    75.995148 
   60400    762.55483   -107.34902   0.68997563   -106.65904    164.74038      4.23572      4.23572      4.23572    164.74038    22168.317   -4454.1758    -17219.92   -1545.9953    5104.6553    15183.394    75.994426 
   60500    491.64754   -107.10674   0.44485303   -106.66188   -10558.364    4.2409859    4.2409859    4.2409859   -10558.364    21248.552   -26736.086   -26187.557   -9000.0425    3870.5719    35279.759    76.278208 
   60600    1045.7205    -107.5978   0.94618986   -106.65161    9851.8416    4.2336358    4.2336358    4.2336358    9851.8416    6617.7034    1552.0836    21385.738    -3604.024   -2280.7059   -12168.315    75.882302 
   60700    531.35067   -107.14065   0.48077725   -106.65988   -5438.1674    4.2377769    4.2377769    4.2377769   -5438.1674    2618.5627   -13557.082   -5375.9829    3370.3852   -317.87774    23736.084    76.105189 
   60800    373.68086   -107.00016    0.3381143   -106.66204   -8549.8612    4.2408107    4.2408107    4.2408107   -8549.8612   -3590.9162   -16512.048   -5546.6199   -11600.701    4524.0157    27040.114    76.268756 
   60900    1033.6994   -107.58612   0.93531297   -106.65081    12670.691     4.234435     4.234435     4.234435    12670.691    1148.1808    5802.8482    31061.043   -2160.3117   -721.04583   -10198.358    75.925284 
   61000    766.63313   -107.35078   0.69366576   -106.65712   -4056.4362    4.2394924    4.2394924    4.2394924   -4056.4362    14358.284   -14656.258   -11871.334    4340.9387     909.4243    33305.065    76.197649 
   61100     795.6989    -107.3798   0.71996509   -106.65983   -815.63978     4.236427     4.236427     4.236427   -815.63978    18685.238   -15920.274   -5211.8841   -11109.039    2649.1841    19090.071    76.032482 
   61200    1204.8232   -107.74379    1.0901493   -106.65364    16675.285    4.2329034    4.2329034    4.2329034    16675.285    30467.888   -2938.6842    22496.652   -2863.2432    861.91333   -7299.2046    75.842927 
   61300    882.07745    -107.4561   0.79812221   -106.65798   -3101.2682    4.2431681    4.2431681    4.2431681   -3101.2682    30218.264   -22578.037   -16944.032    2282.1123    3756.3764     31269.37    76.396017 
   61400    647.62857   -107.24212   0.58598794   -106.65613    3741.9283    4.2364843    4.2364843    4.2364843    3741.9283     10834.28   -5304.7407    5696.2457   -12969.746    4018.2591    7678.0309    76.035571 
   61500    735.79849   -107.31775   0.66576594   -106.65198    10188.436    4.2313803    4.2313803    4.2313803    10188.436      5846.53   -3741.0681    28459.845    806.51279   -722.73162   -2088.0998    75.761083 
   61600    548.67148   -107.15207   0.49644949   -106.65562   -9143.5317    4.2425052    4.2425052    4.2425052   -9143.5317      1856.86    -17798.41   -11489.046    4813.2896   -1802.2477    30687.379    76.360218 
   61700       678.71   -107.26888   0.61411107   -106.65477    338.05679    4.2365257    4.2365257    4.2365257    338.05679   -4232.3622   -3498.5299    8745.0624   -15500.303    2433.1461      1293.24    76.037799 
   61800    854.29429   -107.42786   0.77298343   -106.65488    6656.5956    4.2325056    4.2325056    4.2325056    6656.5956    3188.6786   -2692.0413    19473.149    1437.2473    276.19783    1416.8215    75.821542 
   61900    1031.7585   -107.58836   0.93355677   -106.65481   -3415.5052    4.2427475    4.2427475    4.2427475   -3415.5052    21693.558   -15201.956   -16738.117    8858.5425   -3991.7334    27846.073    76.373302 
   62000    1100.0363   -107.64764   0.99533596    -106.6523    5705.3099    4.2375693    4.2375693    4.2375693    5705.3099    19368.883   -4101.3142    1848.3612   -15160.751    2823.6706   -2986.8848    76.094004 
   62100     818.5694   -107.39567   0.74065879   -106.65501    3724.4847    4.2331784    4.2331784    4.2331784    3724.4847    10855.668   -11918.251    12236.037    6670.7616    530.59167    3331.7999     75.85771 
   62200    734.12359   -107.31865   0.66425046    -106.6544    -4279.914     4.240185     4.240185     4.240185    -4279.914    7148.8471   -14076.978   -5911.6114    9480.3026   -3136.4976    21173.577       76.235 
   62300    671.92932   -107.26094   0.60797577   -106.65297     1316.341    4.2380116    4.2380116    4.2380116     1316.341   -2176.2651   -4343.3051    10468.593   -16398.715    2585.4301   -7419.1015    76.117833 
   62400     475.2205   -107.08695    0.4299895   -106.65696   -189.12664    4.2361577    4.2361577    4.2361577   -189.12664   -9901.1444   -3653.6283    12987.393    11791.941    2802.3244    4657.6045    76.017986 
   62500    846.88388   -107.42151   0.76627834   -106.65523    3993.8947    4.2376351    4.2376351    4.2376351    3993.8947    14598.199    1053.8303   -3670.3456    8540.3849   -3639.9883    16182.603    76.097551 
   62600    1076.0458   -107.62657   0.97362888   -106.65294    10125.307    4.2366475    4.2366475    4.2366475    10125.307    25749.902    1984.4069    2641.6115   -16720.213    100.48864    -10906.11    76.044359 
   62700    875.75497   -107.45036   0.79240151   -106.65796   -2650.8202    4.2386912    4.2386912    4.2386912   -2650.8202    4246.8459   -14441.018    2241.7119     14709.14    9001.7993    4139.0252    76.154458 
   62800    967.64114   -107.53058   0.87554204   -106.65504    4725.2002    4.2344587    4.2344587    4.2344587    4725.2002    18153.434    -4152.413    174.57967     11778.32   -5389.0677    11658.994    75.926559 
   62900    823.50027   -107.39892   0.74512035    -106.6538    877.16862    4.2378356    4.2378356    4.2378356    877.16862    3934.5795   -5850.5924    4547.5187   -10539.121   -3011.5061   -10804.803    76.108349 
   63000    454.52281   -107.06805   0.41126179   -106.65679   -12428.177    4.2423339    4.2423339    4.2423339   -12428.177   -32436.747   -11391.262    6543.4781     15516.93    9116.1053    2591.3804    76.350965 
   63100    695.35473   -107.28326   0.62917157   -106.65409    6684.1048    4.2304321    4.2304321    4.2304321    6684.1048    750.53958    14245.069    5056.7061    7929.5108   -9819.5024    5716.3022    75.710162 
   63200    836.26149   -107.41213   0.75666697   -106.65547    2290.9458    4.2372994    4.2372994    4.2372994    2290.9458    4562.4807     5712.351   -3401.9941   -4464.1477    -8041.008    -9795.933    76.079465 
   63300    845.30748   -107.42089   0.76485197   -106.65603    -4040.342    4.2434709    4.2434709    4.2434709    -4040.342   -1895.1093   -8946.3494   -1279.5674    18254.531    7981.9531    2018.1894    76.412372 
   63400    1037.9509    -107.5924   0.93915978   -106.65324    11655.498    4.2318216    4.2318216    4.2318216    11655.498    30295.227    10505.757   -5834.4901    2715.9838   -16105.853    4388.4614    75.784793 
   63500    979.87016   -107.53984   0.88660711   -106.65324    1827.7724    4.2371139    4.2371139    4.2371139    1827.7724    15855.093   -1498.0031   -8873.7728   -5631.8417    -13528.21   -10351.751    76.069472 
   63600    679.75329   -107.27016   0.61505506    -106.6551   -1590.1778    4.2399541    4.2399541    4.2399541   -1590.1778   -4550.3737   -10327.514    10107.354    18709.387    8325.6776    162.51174    76.222546 
   63700    589.93742   -107.18851   0.53378777   -106.65472    1837.2774    4.2346576    4.2346576    4.2346576    1837.2774    -5075.029    12238.955   -1652.0941    5961.5793   -18613.088    4218.5082    75.937257 
   63800    639.29571   -107.23307   0.57844819   -106.65462    -7202.291    4.2383738    4.2383738    4.2383738    -7202.291   -19243.741    2843.9679   -5207.0998   -4182.6846   -15378.501   -10240.138    76.137353 
   63900    719.87266   -107.30586   0.65135591    -106.6545    1964.1136    4.2374191    4.2374191    4.2374191    1964.1136   -5334.8536   -2076.7266    13303.921    18474.571    9233.9369     1270.795    76.085915 
   64000     862.5002   -107.43536   0.78040831   -106.65495    1226.6556    4.2389587    4.2389587    4.2389587    1226.6556    5049.8456    11643.656   -13013.535    2041.0237   -19865.229    3805.5854     76.16888 
   64100    1058.9037   -107.61193   0.95811833   -106.65381    2766.2401    4.2376461    4.2376461    4.2376461    2766.2401    16546.865    6146.8904   -14395.035    1443.9598   -9814.8873    -10231.58    76.098142 
   64200    957.89075   -107.52098   0.86671968   -106.65426    12211.295    4.2330529    4.2330529    4.2330529    12211.295    23410.613     2825.562     10397.71    22013.274    6441.4174    718.09943    75.850961 
   64300    752.43627   -107.33722   0.68082015    -106.6564   -5248.6361     4.241556     4.241556     4.241556   -5248.6361   -12592.264    11029.929   -14183.573   -1324.9662   -24994.055    4106.6163    76.308976 
   64400    742.15967   -107.32517   0.67152166   -106.65365   -4536.3416    4.2377126    4.2377126    4.2377126   -4536.3416   -16565.596    7544.9513   -4588.3799    1955.0662   -5185.5786   -11330.535    76.101723 
   64500    570.29911   -107.17028   0.51601862   -106.65426    4756.8262    4.2317619    4.2317619    4.2317619    4756.8262    -5839.677    3400.3299    16709.826    19210.412     458.3434   -1324.0306    75.781585 
   64600    614.17237    -107.2117   0.55571607   -106.65598   -9878.7822    4.2432623    4.2432623    4.2432623   -9878.7822   -20571.773    7902.6702   -16967.244    1376.2961   -25668.834    5399.2428    76.401105 
   64700    1014.7026   -107.57072   0.91812421    -106.6526    3273.9222    4.2363761    4.2363761    4.2363761    3273.9222    6956.3208    14366.585   -11501.139   -2164.8178   -353.50626   -10472.046    76.029743 
   64800    903.39974   -107.47303   0.81741507   -106.65561    7570.2538     4.231868     4.231868     4.231868    7570.2538    20822.626    6377.0802   -4488.9447    18004.259   -1743.4517    950.70043    75.787285 
   64900    871.80319   -107.44622   0.78882585    -106.6574   -7693.0104    4.2427622    4.2427622    4.2427622   -7693.0104   -4491.1275    8835.9713   -27423.875    5169.5921    -23481.85    8194.5035    76.374097 
   65000     1005.135   -107.56152   0.90946725   -106.65205    6982.2975     4.235809     4.235809     4.235809    6982.2975    2571.1604    22566.438    -4190.706   -3870.6949    5111.8203   -7483.3995    75.999216 
   65100    578.08372   -107.17914    0.5230623   -106.65608   -2629.7887    4.2353864    4.2353864    4.2353864   -2629.7887   -7000.3255   -80.109559   -808.93104    17008.587   -3644.0128    3503.0809    75.976468 
   65200    506.33515   -107.11486   0.45814268   -106.65672   -9352.3659    4.2403741    4.2403741    4.2403741   -9352.3659   -21519.293     4955.113   -11492.918    2151.2022   -20024.699    9175.3244      76.2452 
   65300    908.31974   -107.47362   0.82186679   -106.65175     5401.615    4.2328756    4.2328756    4.2328756     5401.615   -5257.3347    18082.482    3379.6978   -5472.8608    11961.081   -5624.7407    75.841433 
   65400     785.2204   -107.36833   0.71048392   -106.65784   -10721.657    4.2383873    4.2383873    4.2383873   -10721.657   -6712.1641   -15780.829   -9671.9784    20599.011   -5936.9855    2761.0761    76.138079 
   65500    854.36164   -107.43192   0.77304437   -106.65888    -8194.718    4.2382261    4.2382261    4.2382261    -8194.718    565.30667   -4741.8664   -20407.594    2267.0862   -19202.543    9939.6326    76.129391 
   65600    1138.4627   -107.68188    1.0301049   -106.65178    5704.8005     4.234159     4.234159     4.234159    5704.8005    10810.452    9136.7914   -2832.8425   -4252.6575    14768.446   -3783.7629    75.910438 
   65700       710.94    -107.2992   0.64327345   -106.65593   -14822.398    4.2420548    4.2420548    4.2420548   -14822.398   -13046.152   -20273.879   -11147.162    24982.307   -7561.7459     3404.005    76.335901 
   65800    540.77426   -107.14586   0.48930391   -106.65656   -1948.0077    4.2323093    4.2323093    4.2323093   -1948.0077   -6411.8289    2265.0921   -1697.2863   -127.37211   -15893.776    11034.638    75.810997 
   65900    748.30416   -107.33124   0.67708133   -106.65416    2449.9466    4.2336847    4.2336847    4.2336847    2449.9466   -14589.827    10145.912    11793.754   -6871.1331    12770.948   -2417.7869    75.884928 
   66000    635.76288    -107.2315   0.57525162   -106.65625   -14842.001    4.2452394    4.2452394    4.2452394   -14842.001   -23175.859   -22292.349    942.20544    24819.472   -6449.6704     4205.666    76.507947 
   66100    892.68632   -107.46186   0.80772135   -106.65414    4657.3149    4.2324203    4.2324203    4.2324203    4657.3149    18790.588   -4255.7106   -562.93245   -2960.7045   -11743.275    11972.565    75.816959 
   66200    1101.3642   -107.64852    0.9965375   -106.65199    4179.8378    4.2351832    4.2351832    4.2351832    4179.8378    11130.239   -1298.2145     2707.489   -9047.7911    10761.276   -2101.6415    75.965533 
   66300    845.17271   -107.42073   0.76473003     -106.656   -8198.7602    4.2411245    4.2411245    4.2411245   -8198.7602   -4265.5695   -22783.501    2452.7899    27514.514   -2508.2918    1712.2936    76.285688 
   66400    825.42425   -107.40094   0.74686121   -106.65408    5114.1068    4.2317212    4.2317212    4.2317212    5114.1068     15913.07   -1896.6009    1325.8517    160.95089   -5465.5664    12919.605    75.779398 
   66500    631.13629   -107.22532   0.57106538   -106.65426   -8537.2353    4.2403884    4.2403884    4.2403884   -8537.2353    -24711.57   -5506.3949    4606.2593   -2431.5875    13139.608   -913.19449    76.245976 
   66600    437.81118   -107.05235   0.39614076   -106.65621   -10028.258    4.2398779    4.2398779    4.2398779   -10028.258   -29136.793   -18845.106    17897.125    28069.013    1321.7447    2145.7231     76.21844 
   66700    860.93273   -107.43142   0.77899003   -106.65243    11053.943    4.2294731    4.2294731    4.2294731    11053.943    25808.069   -412.04354    7765.8039   -3417.9265   -2654.4765    15919.742    75.658686 
   66800    897.04233    -107.4671   0.81166275   -106.65544   -3121.7193     4.240265     4.240265     4.240265   -3121.7193    5981.6527   -15779.943    433.13217    7086.1336    9778.7738   -1215.1781    76.239316 
   66900    853.59609   -107.43096   0.77235168    -106.6586   -4003.7615     4.239265     4.239265     4.239265   -4003.7615    6096.4033   -28901.851    10794.163    27809.197    3574.0153    1513.0093    76.185391 
   67000    1174.2186   -107.71466    1.0624576    -106.6522    11254.454    4.2309481    4.2309481    4.2309481    11254.454    45099.374   -8522.5018   -2813.5107   -7882.8213   -6485.9853    19907.841    75.737872 
   67100    794.47171   -107.37419    0.7188547   -106.65534   -13457.064    4.2419579    4.2419579    4.2419579   -13457.064   -17561.889   -23506.969    697.66448    11361.601    6119.0981    -1512.684    76.330669 
   67200     483.9321   -107.09477   0.43787194   -106.65689   -10938.255    4.2365808    4.2365808    4.2365808   -10938.255    -31022.06   -20038.872    18246.166     22571.83     6519.122     2839.238    76.040768 
   67300    786.81608   -107.36435   0.71192772   -106.65242    2669.2454     4.232425     4.232425     4.232425    2669.2454    12534.179    -3423.609   -1102.8341   -6618.1814   -4414.2851    20860.478    75.817212 
   67400    647.47468   -107.24154    0.5858487   -106.65569   -14242.483    4.2417652    4.2417652    4.2417652   -14242.483   -22882.059   -22307.605    2462.2158    16199.748    3046.5895   -3056.4246    76.320268 
   67500    731.02968   -107.31927   0.66145101   -106.65782    -3513.582    4.2348532    4.2348532    4.2348532    -3513.582   -1724.8849   -20454.226    11638.365    15923.851    9773.4525    2978.9112    75.947778 
   67600    1236.0383   -107.77067    1.1183934   -106.65227    4261.3525    4.2363166    4.2363166    4.2363166    4261.3525    38366.831   -15266.188   -10316.585   -6462.2835    -1872.798    19497.811    76.026538 
   67700     882.1185   -107.45466   0.79815936    -106.6565   -8357.7235    4.2398838    4.2398838    4.2398838   -8357.7235    5263.5529   -31148.877    812.15319    25194.587    2402.1284   -6729.0202    76.218757 
   67800    764.17301   -107.34791    0.6914398   -106.65647   -339.30836    4.2333905    4.2333905    4.2333905   -339.30836    2877.6748   -16988.639    13093.039    9493.4003    7612.2836     -179.607    75.869112 
   67900    868.50947   -107.43734   0.78584562    -106.6515   -3358.5335    4.2397441    4.2397441    4.2397441   -3358.5335    -1.426104   -9534.7074   -539.46712   -7165.4502   -2977.2273    14534.427    76.211226 
   68000    375.43939   -106.99708   0.33970545   -106.65737   -11229.904    4.2381454    4.2381454    4.2381454   -11229.904   -30789.268   -19923.618    17023.174    26019.203     680.9429   -5436.3254    76.125042 
   68100     612.2016   -107.21121   0.55393288   -106.65728   -2169.9011    4.2343974    4.2343974    4.2343974   -2169.9011   -22077.701   -9079.8277    24647.825    3620.8946    11163.593    -4313.136    75.923259 
   68200    1123.6441   -107.66783    1.0166968   -106.65114    432.45817    4.2391573    4.2391573    4.2391573    432.45817     3771.152   -9448.0547    6974.2773   -4970.9042   -5468.2891    6929.5138    76.179584 
   68300    762.09546   -107.34866   0.68955999    -106.6591     692.0927    4.2360595    4.2360595    4.2360595     692.0927    8474.6292   -24793.457    18395.106    24571.899   -6613.8709   -4376.2437    76.012698 
   68400    979.13336   -107.54245   0.88594044   -106.65651    2495.7159    4.2375196    4.2375196    4.2375196    2495.7159    13511.197   -14828.339    8804.2893   -1664.2898    15724.463   -6559.4517    76.091328 
   68500    1017.0211   -107.57181   0.92022209   -106.65159    3387.1972    4.2375749    4.2375749    4.2375749    3387.1972    5613.8892   -239.27402    4786.9763    436.91655    -11052.68    3867.5114    76.094304 
   68600    370.75101   -106.99444    0.3354633   -106.65898   -1836.3564    4.2341148    4.2341148    4.2341148   -1836.3564   -19050.734    -9513.058    23054.723    24869.771   -11571.983   -4244.5013    75.908059 
   68700    565.96286   -107.16946   0.51209509   -106.65736    -4674.848    4.2387223    4.2387223    4.2387223    -4674.848   -22977.897   -4815.6907    13769.043   -5793.4549    14665.514   -9437.7783    76.156135 
   68800    922.80192   -107.48701   0.83497057   -106.65203     5475.365    4.2370033    4.2370033    4.2370033     5475.365    372.13924    3358.3618    12695.594    1241.8031   -12766.995    1139.5213    76.063519 
   68900    755.02852   -107.33981   0.68316567   -106.65665   -2116.6743    4.2381933    4.2381933    4.2381933   -2116.6743   -3910.8338    -20238.89    17799.701    23737.893   -7158.6366   -1039.0498    76.127624 
   69000    1004.0782   -107.56249   0.90851105   -106.65398   -307.10571    4.2359768    4.2359768    4.2359768   -307.10571    12377.183   -13809.586    511.08543   -8546.0089     12210.84   -9756.7184    76.008249 
   69100    1040.1718   -107.59366   0.94116931   -106.65249     7441.888    4.2329849    4.2329849    4.2329849     7441.888     17363.58    4597.4513     364.6324    2667.8757   -12176.699   -3490.3873    75.847308 
   69200    698.47134   -107.28736   0.63199155   -106.65536    -11636.52     4.242562     4.242562     4.242562    -11636.52   -21769.203   -13902.134    761.77627    17815.836   -5367.8976      910.719    76.363284 
   69300    564.75142   -107.16588   0.51099895   -106.65488   -2283.6674    4.2348913    4.2348913    4.2348913   -2283.6674   -11115.775   -945.42961    5210.2021    -8931.184    13193.798    -10207.34    75.949828 
   69400    714.92644   -107.29979   0.64688047    -106.6529    6768.9733    4.2322528    4.2322528    4.2322528    6768.9733   -12.850331    10789.587    9530.1828    6232.4884   -10129.071   -382.41014    75.807958 
   69500    860.45423   -107.43168   0.77855707   -106.65312   -7187.9658    4.2429015    4.2429015    4.2429015   -7187.9658   -18722.001   -14820.145    11978.249    12111.139   -7232.4207    144.61446    76.381617 
   69600     821.3369   -107.39935   0.74316289   -106.65619    7431.7419    4.2318673    4.2318673    4.2318673    7431.7419    15406.266    -9084.879    15973.839   -9286.5799    14788.968   -9021.5683    75.787246 
   69700    1014.6801   -107.57372   0.91810388   -106.65562    8208.3293    4.2341004    4.2341004    4.2341004    8208.3293    23070.785     -6016.54    7570.7429    3852.5484   -12052.632     4981.438    75.907287 
   69800    994.47608   -107.55264   0.89982286   -106.65282   -2547.1053    4.2425691    4.2425691    4.2425691   -2547.1053   -3799.0873   -12686.717    8844.4879    7374.2078   -3951.3757   -33.493976    76.363666 
   69900     493.3647   -107.10353   0.44640675   -106.65712    4492.0092    4.2317896    4.2317896    4.2317896    4492.0092    5225.0341   -2828.9893    11079.983   -9926.5942    15033.169   -7164.8966    75.783074 
   70000    648.48939   -107.24284   0.58676682   -106.65607   -801.78937    4.2349959    4.2349959    4.2349959   -801.78937    1085.4323    847.38264    -4338.183    1031.2749   -14424.199    2484.2923    75.955456 
   70100    882.44889   -107.45013    0.7984583   -106.65167   -386.14322    4.2400604    4.2400604    4.2400604   -386.14322   -18333.035   -1338.1298    18512.735    3421.9674     4874.594    233.10865     76.22828 
   70200     577.9569   -107.18152   0.52294755   -106.65857   -4432.0947    4.2359029    4.2359029    4.2359029   -4432.0947   -10678.728   -9422.2262    6804.6699   -11581.172    17189.123   -4158.9752    76.004271 
   70300    1037.4032    -107.5946   0.93866419   -106.65593    2927.3997    4.2351659    4.2351659    4.2351659    2927.3997    11346.897   -8580.8515    6016.1542    1038.8987   -10989.942    2566.9191    75.964607 
   70400    1232.3472   -107.76771    1.1150537   -106.65266     9171.324     4.235726     4.235726     4.235726     9171.324    6700.7095   -1911.7993    22725.062    221.65199    10488.603   -1042.2923    75.994749 
   70500    524.37171    -107.1361   0.47446254   -106.66164   -3737.7922    4.2377661    4.2377661    4.2377661   -3737.7922    5031.1207   -11217.706   -5026.7913   -11981.624    17114.212   -6975.4336    76.104607 
   70600    770.35325   -107.35282   0.69703181   -106.65579   -762.19361    4.2368436    4.2368436    4.2368436   -762.19361    16633.903    -10941.44   -7979.0442     2370.002   -7238.8008    4137.0989    76.054919 
   70700    809.94536   -107.38494   0.73285559   -106.65209    6033.1826    4.2345892    4.2345892    4.2345892    6033.1826   -2995.4463    9767.7372    11327.257   -737.33657    12069.285    95.052677    75.933575 
   70800     479.6198   -107.09361   0.43397008   -106.65964    -9824.947    4.2372317    4.2372317    4.2372317    -9824.947   -15563.299   -8210.9376   -5700.6041   -10752.408    17567.977   -7922.5209    76.075819 
   70900    960.27351   -107.52506   0.86887565   -106.65619    3215.1176    4.2359563    4.2359563    4.2359563    3215.1176    6425.3076   -14321.154    17541.199    635.28203     -8747.75    1175.1861    76.007144 
   71000    1108.9309   -107.65729     1.003384   -106.65391    3110.1465    4.2361079    4.2361079    4.2361079    3110.1465   -10345.332    499.87993    19175.891    2747.6161    14947.962    3351.9875    76.015306 
   71100    713.66527   -107.30387   0.64573933   -106.65813   -3953.1559    4.2367263    4.2367263    4.2367263   -3953.1559    4627.0873   -7069.0226   -9417.5323   -8548.2857    18501.084   -3369.5938    76.048601 
   71200    816.41118   -107.39198   0.73870599   -106.65327    486.50994    4.2350153    4.2350153    4.2350153    486.50994    22019.441   -14799.877    -5760.034   -623.53768   -9987.1925    3033.8493    75.956504 
   71300    609.12242   -107.20556   0.55114676   -106.65442   -6585.8734     4.238055     4.238055     4.238055   -6585.8734   -8478.3403    636.28546   -11915.565     11102.66    22921.678    1608.2107    76.120174 
   71400     640.9503   -107.23523    0.5799453   -106.65529   -466.27179    4.2343731    4.2343731    4.2343731   -466.27179    4912.6438   -997.20908   -5314.2501   -7420.8864    16650.592   -3925.3405    75.921951 
   71500    907.16596   -107.47411   0.82082282   -106.65329    3847.3561    4.2354503    4.2354503    4.2354503    3847.3561    7793.6989   -14575.446    18323.816   -293.95178   -8495.5083    4073.8852    75.979908 
   71600    844.16299   -107.42032   0.76381641   -106.65651   -7814.8954    4.2403639    4.2403639    4.2403639   -7814.8954    -27717.08    -3997.036      8269.43    15954.197    28357.873    427.71675    76.244653 
   71700    1068.3438    -107.6204   0.96665989   -106.65374    9820.3829    4.2306642    4.2306642    4.2306642    9820.3829    11920.177    3289.6361    14251.336   -5923.4471    10437.067   -5721.3481    75.722628 
   71800    869.42817   -107.44104   0.78667688   -106.65436   -836.42327     4.237421     4.237421     4.237421   -836.42327    16275.688   -15445.227   -3339.7307    3687.9661   -3398.6307   -3569.4092    76.086017 
   71900    424.30433   -107.04185   0.38391948   -106.65793   -17997.589    4.2420086    4.2420086    4.2420086   -17997.589   -17416.904   -9087.4237    -27488.44    16345.654    29178.916    4044.2647    76.333403 
   72000     751.4606   -107.33245   0.67993734   -106.65251    9870.4984    4.2280841    4.2280841    4.2280841    9870.4984    24874.769     7570.918   -2834.1919    -180.1784    2626.1364   -5220.5988    75.584169 
   72100     828.1408   -107.40371   0.74931919   -106.65439   -4991.9631     4.237208     4.237208     4.237208   -4991.9631    11774.324   -12087.054    -14663.16    3471.6582  -0.85618279   -6787.9737     76.07454 
   72200      626.403   -107.22753    0.5667826   -106.66075   -12640.958    4.2415852    4.2415852    4.2415852   -12640.958   -26475.364   -641.15764   -10806.352    15350.233    30583.426    6105.7202    76.310549 
   72300    1247.3685   -107.78073    1.1286452   -106.65209    11036.964    4.2310101    4.2310101    4.2310101    11036.964    11471.912    1460.7347    20178.245    4482.0883    1556.3802   -7092.6146    75.741198 
   72400     995.4883   -107.55571   0.90073873   -106.65497   -348.78126    4.2373636    4.2373636    4.2373636   -348.78126    8688.6605   -9228.7868    -506.2174   -2768.8621    2157.3152   -1769.8826    76.082923 
   72500    504.99108   -107.11664   0.45692654   -106.65971    -11045.69    4.2380148    4.2380148    4.2380148    -11045.69   -15879.167   -3897.3276   -13360.574    13929.334    28914.592    5716.2714    76.118007 
   72600    804.74872   -107.38082   0.72815356   -106.65267    4963.2277    4.2333232    4.2333232    4.2333232    4963.2277    15054.084   -6421.5381    6257.1367    2692.4209   -263.72012   -8183.0579    75.865492 
   72700    653.39636   -107.24686   0.59120676   -106.65566   -9080.2964    4.2377051    4.2377051    4.2377051   -9080.2964    8033.2693   -11356.357   -23917.802   -6312.3152    6617.3678   -1017.6404     76.10132 
   72800    459.22227   -107.07669   0.41551396   -106.66117   -7916.3567    4.2354587    4.2354587    4.2354587   -7916.3567   -16498.092    8912.8635   -16163.842    14750.135     31721.38    5669.6495    75.980363 
   72900    1224.3661   -107.76154    1.1078322   -106.65371    5697.7259    4.2362051    4.2362051    4.2362051    5697.7259   -1936.9233   -1374.1319    20404.233   -1432.1241   -7086.4508   -1788.3972    76.020539 
   73000    1051.5192   -107.60801   0.95143668   -106.65658    467.57422    4.2375081    4.2375081    4.2375081    467.57422    -1242.036   -991.75734     3636.516   -2993.5402    14270.758   -4678.8076    76.090708 
   73100    609.22617   -107.21297   0.55124064   -106.66173   -3909.8282    4.2331254    4.2331254    4.2331254   -3909.8282   -18472.735     3969.499    2773.7519    13680.823    34538.184    5973.7545     75.85486 
   73200     966.6173   -107.52939   0.87461565   -106.65478     3042.343    4.2366954    4.2366954    4.2366954     3042.343    1864.7047   -9830.4853     17092.81    892.83779    -13942.69     1404.772    76.046935 
   73300    655.71255   -107.25085   0.59330249   -106.65755   -6231.1214    4.2361502    4.2361502    4.2361502   -6231.1214    1850.0416   -3085.4299   -17457.976   -1403.1095    16865.539   -4372.2183    76.017584 
   73400    265.61839   -106.90362    0.2403371   -106.66328   -11155.627    4.2349256    4.2349256    4.2349256   -11155.627   -14985.324    2705.0403   -21186.597    11215.072     28792.32    8961.5245    75.951677 
   73500    1017.8081   -107.57587   0.92093419   -106.65494    624.10415    4.2378591    4.2378591    4.2378591    624.10415   -3876.7476   -1037.6317    6786.6917     5581.603   -18005.646   -405.69694    76.109618 
   73600    1063.4079   -107.61741   0.96219382   -106.65522    4834.0503    4.2337882    4.2337882    4.2337882    4834.0503   -8984.9193    13012.359    10474.711   -3323.1588    19938.846   -2487.7309    75.890493 
   73700    787.97579   -107.37387   0.71297705   -106.66089    -8315.926    4.2363133    4.2363133    4.2363133    -8315.926   -22329.843    1043.2988   -3661.2336    10675.212    23121.258    8971.8474    76.026364 
   73800     1082.632   -107.63372   0.97958822   -106.65413    1761.8888    4.2359905    4.2359905    4.2359905    1761.8888    539.96878   -5109.8158    9855.5134    4499.6836   -19533.571    2027.8866    76.008983 
   73900    737.54063   -107.32291   0.66734226   -106.65556    -6086.284    4.2348612    4.2348612    4.2348612    -6086.284   -7027.6816    10583.079   -21814.249   -4209.4309     28871.39   -1198.4073    75.948207 
   74000    388.57631   -107.00963   0.35159201   -106.65804   -17787.506    4.2386006    4.2386006    4.2386006   -17787.506   -4938.5902   -9323.7198   -39100.208    12876.053    20760.221    7290.2887    76.149575 
   74100    743.40176   -107.32571   0.67264553   -106.65306    1373.6293    4.2320714    4.2320714    4.2320714    1373.6293    13969.877   -1079.8193   -8769.1696    1486.1701   -20203.164    5102.1148    75.798214 
   74200     726.1827   -107.31317   0.65706537   -106.65611   -2141.8239    4.2363409    4.2363409    4.2363409   -2141.8239   -7211.2568    12402.202   -11616.417    -3564.939    32040.013   -2377.4598    76.027848 
   74300    941.46557   -107.50767   0.85185783   -106.65581   -9786.8974    4.2400216    4.2400216    4.2400216   -9786.8974   -6856.2872   -12102.877   -10401.528    9918.7354    17185.034     9255.888     76.22619 
   74400      1127.22   -107.67243    1.0199324    -106.6525    9048.8478     4.230183     4.230183     4.230183    9048.8478    13801.165    44.636808    13300.742    493.52953   -18470.939    6905.8663    75.696793 
   74500    812.00869   -107.39167   0.73472252   -106.65695   -7211.5081    4.2371534    4.2371534    4.2371534   -7211.5081   -15019.366    17175.765   -23790.923   -1769.4486    28224.425   -6214.2196    76.071602 
   74600    749.07309   -107.33276   0.67777707   -106.65499   -8942.2715    4.2387519    4.2387519    4.2387519   -8942.2715    10277.629    -5164.324   -31940.119    1268.0334    14284.816    13083.383    76.157729 
   74700    740.92858   -107.32328   0.67040775   -106.65287    2710.1368    4.2302217    4.2302217    4.2302217    2710.1368    27462.476    610.92615   -19942.992    297.44619   -11016.471    10054.938    75.698869 
   74800    409.65676   -107.02897   0.37066604   -106.65831   -4207.5219    4.2385624    4.2385624    4.2385624   -4207.5219    -45.37081    16840.783   -29417.978   -1912.2789    28817.799   -6859.6545    76.147515 
   74900    841.26667   -107.41602   0.76119576   -106.65483   -3148.9983    4.2375894    4.2375894    4.2375894   -3148.9983    20232.603   -16095.185   -13584.413   -3324.5442    8436.1527    16541.799    76.095089 
   75000    1040.5563    -107.5937   0.94151721   -106.65218    6737.7016     4.231893     4.231893     4.231893    6737.7016    25839.106   -7912.8207    2286.8198    1298.2844    -290.6051    10698.026    75.788627 
   75100    826.98487   -107.40594   0.74827329   -106.65767   -7510.3969    4.2375697    4.2375697    4.2375697   -7510.3969   -18892.664    12233.628   -15872.154   -3984.6224    31735.188   -4718.4796    76.094026 
   75200    907.48483   -107.47689   0.82111134   -106.65578   -1536.7751    4.2352697    4.2352697    4.2352697   -1536.7751    13997.211   -6789.9869    -11817.55   -2920.3648   -2616.7286    22199.253    75.970189 
   75300    934.86425   -107.49835   0.84588482   -106.65246   -2284.7248    4.2360555    4.2360555    4.2360555   -2284.7248    14257.275    3434.9557   -24546.405    3792.4127     7245.494    8527.6822    76.012482 
   75400    498.71125   -107.10815   0.45124442    -106.6569   -5365.7698    4.2366775    4.2366775    4.2366775   -5365.7698   -7200.4301     23653.04    -32549.92   -2141.5365    30480.279   -3839.7044    76.045973 
   75500    590.92766   -107.19061   0.53468377   -106.65593   -2794.4098    4.2330246    4.2330246    4.2330246   -2794.4098    23797.144   -5763.3365   -26417.037     -3565.02   -7598.0358    27486.206    75.849439 
   75600    862.57543   -107.43401   0.78047637   -106.65354   -6690.1841     4.238419     4.238419     4.238419   -6690.1841     10457.63   -6060.5588   -24467.623    3665.5984    8452.4119    6629.3931    76.139787 
   75700    849.51686   -107.42429   0.76866071   -106.65563   -6676.8218    4.2363527    4.2363527    4.2363527   -6676.8218   -11265.975    8281.8799    -17046.37   -140.40829    28092.878   -2347.7603    76.028484 
   75800    885.43428    -107.4577   0.80115955   -106.65654   -290.35866    4.2326898    4.2326898    4.2326898   -290.35866    18151.663   -13860.634   -5162.1052   -2296.7691   -6528.4297    27276.306    75.831442 
   75900    1071.5205   -107.62302   0.96953423   -106.65349   -2511.7594    4.2383538    4.2383538    4.2383538   -2511.7594   -622.22503     2325.197   -9238.2502    3811.2114    6777.3635    2510.7734    76.136275 
   76000    827.80024   -107.40392   0.74901105   -106.65491   -2208.9116    4.2360051    4.2360051    4.2360051   -2208.9116   -5163.9076     17886.39   -19349.217    -1528.482    18821.526    577.54713    76.009769 
   76100     465.1601   -107.07856   0.42088663   -106.65767   -6493.3772    4.2332049    4.2332049    4.2332049   -6493.3772    16553.202    1858.2145   -37891.549    -1022.946   -13306.971    28159.425    75.859132 
   76200    699.58212   -107.28755    0.6329966   -106.65455   -9701.1953    4.2376352    4.2376352    4.2376352   -9701.1953   -1508.0429    8816.3551   -36411.898    1794.2956    6935.1525    -3011.926    76.097553 
   76300    796.83515   -107.37427   0.72099319   -106.65328   -7273.7046    4.2370739    4.2370739    4.2370739   -7273.7046   -2521.0041    10449.738   -29749.848   -942.58942    13952.511    5888.3028    76.067319 
   76400     573.3989   -107.17791   0.51882338   -106.65908   -5838.4625    4.2340015    4.2340015    4.2340015   -5838.4625    9065.5585   -7473.8946   -19107.052   -2689.8397   -18490.375    28912.727    75.901967 
   76500     1111.282   -107.66163    1.0055113   -106.65612    1972.4615    4.2357516    4.2357516    4.2357516    1972.4615   -3877.4574    5769.7225    4025.1195    157.32827    3834.5241   -10151.761    75.996126 
   76600    1225.6867   -107.76288    1.1090271   -106.65385    2154.8484    4.2370546    4.2370546    4.2370546    2154.8484    3807.4123     5522.185   -2865.0522    3280.5177    12041.536    12234.529    76.066279 
   76700    525.02132   -107.13776   0.47505032   -106.66271   -6647.3585      4.23467      4.23467      4.23467   -6647.3585    6251.6703    2913.6036    -29107.35   -3813.3236   -15545.814    24987.411    75.937923 
   76800    827.33857   -107.40589   0.74859333    -106.6573   -5092.3202    4.2355677    4.2355677    4.2355677   -5092.3202    1726.7048     10172.09   -27175.756    690.32496   -6768.0568   -15302.858    75.986227 
   76900    842.56344   -107.41631   0.76236911   -106.65394   -3423.6894    4.2367833    4.2367833    4.2367833   -3423.6894    14644.021    8770.8037   -33685.892    2024.7514    2616.8142    14293.082     76.05167 
   77000    265.55496   -106.90296   0.24027971   -106.66268   -9889.8298    4.2353611    4.2353611    4.2353611   -9889.8298    3646.6287    573.20203    -33889.32   -3470.4148   -14174.168    20929.052    75.975111 
   77100    829.26547   -107.40933   0.75033682   -106.65899   -665.62558    4.2352884    4.2352884    4.2352884   -665.62558   -6273.9538    10180.611   -5903.5339    147.38828   -9780.7968   -17294.829    75.971197 
   77200     1156.697   -107.70037    1.0466037   -106.65376    3108.1091    4.2355148    4.2355148    4.2355148    3108.1091    8419.1687    4169.1627   -3264.0042   -2824.2133    2764.1581    14035.065    75.983379 
   77300    732.66873   -107.32407   0.66293406   -106.66114   -5241.8942    4.2369545    4.2369545    4.2369545   -5241.8942    10.762514   -1283.6942   -14452.751   -1809.3102   -14083.201    16665.972    76.060891 
   77400    1039.0259     -107.596   0.94013243   -106.65587   -1994.7301    4.2359326    4.2359326    4.2359326   -1994.7301   -1462.5347     6483.884    -11005.54    -2750.388   -4908.2236   -18922.018    76.005866 
   77500    927.50341   -107.49311   0.83922458   -106.65388    1402.7568    4.2334692    4.2334692    4.2334692    1402.7568    20219.086    8314.7897   -24325.605    191.48989    13150.625     17390.13    75.873343 
   77600    471.03571   -107.08504   0.42620301   -106.65883   -8154.3644    4.2378781    4.2378781    4.2378781   -8154.3644    8104.6533   -250.40749   -32317.339    739.00887    -16437.08    11445.697    76.110644 
   77700    652.70083   -107.24491   0.59057742   -106.65434   -3152.7584    4.2373337    4.2373337    4.2373337   -3152.7584   -4398.0706    12499.771   -17559.976   -6596.2006   -3161.1406   -16893.629    76.081312 
   77800    715.83437   -107.30129   0.64770198   -106.65359    695.69042    4.2317509    4.2317509    4.2317509    695.69042    6871.2963    14995.896   -19780.121    4529.1831    22378.126    18000.348    75.780993 
   77900    775.85694   -107.35878   0.70201166   -106.65677   -5771.1774      4.23743      4.23743      4.23743   -5771.1774    681.59277   -4444.9186   -13550.206    200.16795   -16735.278    6254.9077    76.086502 
   78000    1006.1145    -107.5644   0.91035353   -106.65404   -2277.5565    4.2388535    4.2388535    4.2388535   -2277.5565   -8369.9459    3612.1948   -2074.9185   -6497.2717   -1966.1816   -9805.1922    76.163208 
   78100    946.90501   -107.51162   0.85677955   -106.65484     4633.403     4.231249     4.231249     4.231249     4633.403     9231.995    14451.731    -9783.517     4340.524    27490.123    12463.764    75.754034 
   78200    929.02816   -107.49514    0.8406042   -106.65454   -93.919775    4.2366648    4.2366648    4.2366648   -93.919775    12710.216    25.292003   -13017.268    -3417.891   -13503.094      4435.48    76.045287 
   78300    683.15201   -107.27323    0.6181303    -106.6551   -4104.6488    4.2387797    4.2387797    4.2387797   -4104.6488   -252.55366    10306.033   -22367.426   -4272.9096    5736.4177     -6379.49    76.159228 
   78400    559.64159    -107.1619   0.50637547   -106.65553   -200.80576     4.232366     4.232366     4.232366   -200.80576    10872.895     22388.75   -33864.062    1053.5822    27507.345    7879.9572    75.814041 
   78500    812.79203   -107.38777   0.73543131   -106.65234   -4152.4693    4.2370246    4.2370246    4.2370246   -4152.4693    12735.543   -4695.8884   -20497.062   -3751.7864   -15502.491    6054.5385    76.064666 
   78600    633.95384   -107.23049   0.57361476   -106.65687   -3689.3001     4.236825     4.236825     4.236825   -3689.3001   -7148.5992    7709.7323   -11629.034   -3967.4932     14465.59   -8056.4249    76.053914 
   78700     899.6437    -107.4711   0.81401652   -106.65708    3205.4466    4.2335562    4.2335562    4.2335562    3205.4466   -1724.2476    11956.886   -616.29861   -3161.7263    26803.766    7488.1069    75.878018 
   78800    1250.8643   -107.78363    1.1318083   -106.65183    5218.2787    4.2375901    4.2375901    4.2375901    5218.2787    14515.896   -2788.3303    3927.2706    1055.9737   -15891.543     3833.319    76.095125 
   78900    609.80119   -107.21293   0.55176093   -106.66117    237.87949    4.2348456    4.2348456    4.2348456    237.87949    3539.9633    17535.425    -20361.75   -4838.1191    23655.442   -8913.0349    75.947368 
   79000    789.97407   -107.37222   0.71478514   -106.65743   -591.95438    4.2363686    4.2363686    4.2363686   -591.95438    9672.7879    18502.099    -29950.75   -2916.7071    24745.563    5375.1385    76.029338 
   79100    917.89537   -107.48275   0.83053102   -106.65222   -541.95078    4.2377171    4.2377171    4.2377171   -541.95078    23824.331     725.9552   -26176.139    6986.5528    -9630.046   -1493.3692    76.101968 
   79200    242.07955    -106.8826   0.21903867   -106.66356    -7199.049    4.2317896    4.2317896    4.2317896    -7199.049   -2986.1002    18886.747   -37497.794   -5389.2779    30500.866   -7477.2177    75.783073 
   79300      803.356   -107.38862   0.72689339   -106.66173   -2967.3748    4.2371907    4.2371907    4.2371907   -2967.3748    -9843.931    5979.6525   -5037.8459   -1649.1263    14552.265    -1165.139    76.073611 
   79400    1237.6258   -107.77404    1.1198298   -106.65421    1831.5637    4.2385267    4.2385267    4.2385267    1831.5637    3310.0752   -5295.6112     7480.227    9283.9766   -5526.8045   -2108.0977    76.145594 
   79500    659.69481   -107.26005   0.59690573   -106.66315   -4399.1277    4.2332895    4.2332895    4.2332895   -4399.1277   -15034.874    16741.907   -14904.416   -4187.3618    31612.266   -8212.6206    75.863681 
   79600    1048.5649   -107.60618   0.94876352   -106.65742    68.015482    4.2356809    4.2356809    4.2356809    68.015482    1362.3284    6482.4172   -7640.6992   -2057.8993   -292.62643    -4755.242    75.992323 
   79700    953.24216   -107.51773   0.86251354   -106.65522   -1051.5073    4.2369805    4.2369805    4.2369805   -1051.5073    9378.0907    4026.3069   -16558.919    11569.943    1864.0845    3485.3824    76.062288 
   79800    308.16313   -106.94051   0.27883248   -106.66168   -9970.0865    4.2353148    4.2353148    4.2353148   -9970.0865   -5753.7785    18490.025   -42646.506    10.000533    35863.122   -7940.6544    75.972617 
   79900    681.52985   -107.27223   0.61666253   -106.65557   -1811.0756    4.2364916    4.2364916    4.2364916   -1811.0756    4246.9863     4319.368   -13999.581    -4044.007   -6691.2625   -2084.2992    76.035961 
   80000    834.57818   -107.40937   0.75514388   -106.65423   -3130.2779     4.236221     4.236221     4.236221   -3130.2779   -5977.5996    1581.5677   -4994.8018    16354.796    7642.7422    5693.6718    76.021393 
   80100    708.70553   -107.30111   0.64125165   -106.65985   -2022.9137    4.2348586    4.2348586    4.2348586   -2022.9137   -7424.8248    13007.965   -11651.881    713.54137    33143.977   -9687.6474    75.948069 
   80200    1186.1267   -107.72759    1.0732324   -106.65436    3174.5652    4.2367218    4.2367218    4.2367218    3174.5652    6729.2894   -2663.5121    5457.9183   -6411.1617    -8061.745   -2910.6854    76.048356 
   80300    972.67321   -107.53615   0.88009516   -106.65606    620.91059    4.2361376    4.2361376    4.2361376    620.91059    1105.2795   -1222.1344    1979.5867    17277.272    5772.2723    6864.0215    76.016902 
   80400    600.40337   -107.20183   0.54325758   -106.65857   -4146.8144     4.234755     4.234755     4.234755   -4146.8144   -1377.0036    7951.8306    -19015.27   -433.66312    26308.344   -9896.3399    75.942496 
   80500    781.14929   -107.36003   0.70680029   -106.65323   -525.07074    4.2366905    4.2366905    4.2366905   -525.07074    13019.724   -5328.5931   -9266.3431   -5328.4235   -5058.4579   -6733.7809    76.046674 
   80600    610.18281   -107.20802   0.55210623   -106.65591   -914.16458    4.2355492    4.2355492    4.2355492   -914.16458    95.081625    5291.3961   -8128.9715    14047.667    4039.8393    8594.0623    75.985231 
   80700    571.09202   -107.17585   0.51673606   -106.65911   -2933.6941     4.235138     4.235138     4.235138   -2933.6941   -2050.9888    13474.459   -20224.552    700.89949    22564.469   -10832.662    75.963105 
   80800    1065.7925   -107.61844    0.9643515   -106.65408    2539.6787    4.2369456    4.2369456    4.2369456    2539.6787    10278.808   -2352.9398   -306.83167   -3125.5885   -3259.8603   -12902.226     76.06041 
   80900    983.91994   -107.54537   0.89027144    -106.6551    3072.6212    4.2361685    4.2361685    4.2361685    3072.6212   -5413.0085    2375.5348    12255.337    11722.218    6848.6387    10802.615    76.018565 
   81000    696.48921   -107.28846   0.63019807   -106.65826   -4030.2429    4.2355554    4.2355554    4.2355554   -4030.2429   -2100.6938   -674.32395   -9315.7108    299.89935    21377.246   -14133.646    75.985567 
   81100     917.2975   -107.48381   0.82999006   -106.65382    1672.4258    4.2351217    4.2351217    4.2351217    1672.4258    21650.832   -15665.524   -968.03058   -5954.2269    -6577.329    -14090.71    75.962225 
   81200    724.85802   -107.31078   0.65586677   -106.65492   -605.51919    4.2364711    4.2364711    4.2364711   -605.51919    6475.1099   -7621.8637   -669.80374    13636.172    9637.0701    13629.804    76.034861 
   81300    458.64178   -107.07475   0.41498872   -106.65976   -7995.8074    4.2361118    4.2361118    4.2361118   -7995.8074    5599.8405    2117.8652   -31705.128    1960.9432    21566.986   -18342.556    76.015514 
   81400    951.41394    -107.5157   0.86085933   -106.65484    2650.4999    4.2359164    4.2359164    4.2359164    2650.4999    16467.473    722.14982   -9238.1231   -7844.1661   -5856.6479   -11262.152    76.004997 
   81500    1050.7715   -107.60441   0.95076016   -106.65365   -199.23979    4.2370315    4.2370315    4.2370315   -199.23979   -13152.943    6050.4614    6504.7624    15131.661    8316.4316    12923.128    76.065036 
   81600    667.37572   -107.26394   0.60385558   -106.66009   -4458.0542    4.2347416    4.2347416    4.2347416   -4458.0542   -5620.4763     3889.531   -11643.217    3255.0243    20481.755   -21571.024    75.941773 
   81700    1005.8159   -107.56526   0.91008332   -106.65517    174.44614    4.2361472    4.2361472    4.2361472    174.44614    9328.5404   -14368.309    5563.1072   -1860.7473   -2593.4126   -13759.637    76.017418 
   81800    795.38064   -107.37494   0.71967712   -106.65526    2716.7222    4.2363237    4.2363237    4.2363237    2716.7222    6994.3751   -9893.3089      11049.1    10521.849    2002.3944    7246.0006    76.026924 
   81900    377.91988   -107.00255   0.34194985    -106.6606   -6613.4199    4.2348339    4.2348339    4.2348339   -6613.4199    12528.802   -7584.3633   -24784.698    685.13206    19835.686   -21850.733    75.946742 
   82000    825.31359   -107.40229   0.74676108   -106.65553   -1017.7243    4.2378203    4.2378203    4.2378203   -1017.7243    17863.136   -7297.4684   -13618.841   -1003.4675   -5126.1734   -11656.666    76.107527 
   82100    940.59279   -107.50549   0.85106812   -106.65442     2895.533    4.2349397    4.2349397    4.2349397     2895.533    -1016.028    9477.8899    224.73714    8876.8342    -1941.484    4099.7827    75.952432 
   82200    669.61625   -107.26672   0.60588286   -106.66084   -1054.7017    4.2345882    4.2345882    4.2345882   -1054.7017    3392.2639    10204.609   -16760.978    2083.1492    22798.904   -23908.369    75.933522 
   82300    1203.5866   -107.74346    1.0890304   -106.65443     723.8736    4.2390221    4.2390221    4.2390221     723.8736   -738.82733    4392.3236   -1481.8754   -6132.0087   -8389.6963   -7159.0568    76.172297 
   82400    949.13631   -107.51433   0.85879848   -106.65553    7275.3025    4.2345031    4.2345031    4.2345031    7275.3025    2149.6343    9356.2373    10320.036    9929.2364   -3032.0488    4703.1116    75.928945 
   82500    452.28672   -107.07023   0.40923852   -106.66099    -6648.919    4.2349367    4.2349367    4.2349367    -6648.919    7475.9949   -7986.5333   -19436.219    6462.4388    24024.912   -27815.035    75.952269 
   82600    825.38353   -107.40028   0.74682436   -106.65345   -3658.6989    4.2388876    4.2388876    4.2388876   -3658.6989    10940.424   -12221.221   -9695.2995   -3164.3916   -3416.2644   -4980.0699    76.165046 
   82700    659.08078   -107.25162   0.59635014   -106.65527    3359.7846    4.2335203    4.2335203    4.2335203    3359.7846    8550.8759    5251.8059   -3723.3281    11435.857   -1519.9497      3592.28    75.876088 
   82800    392.72351   -107.01765   0.35534449    -106.6623    -5434.174    4.2359088    4.2359088    4.2359088    -5434.174    14111.973    -4251.259   -26163.236     4264.123    19781.038     -28650.3    76.004586 
   82900    1169.0608   -107.71215    1.0577907   -106.65436    830.55832    4.2384869    4.2384869    4.2384869    830.55832    4563.5357    4082.7676   -6154.6284   -534.06355      1579.98   -346.71311    76.143445 
   83000    1111.1324   -107.66112     1.005376   -106.65574    7564.5691    4.2336407    4.2336407    4.2336407    7564.5691    2812.1073    16186.459    3695.1406    14303.247    419.20454   -326.46268    75.882566 
   83100    704.40211   -107.29902   0.63735783   -106.66166   -4317.2729    4.2372322    4.2372322    4.2372322   -4317.2729    5445.2376     4109.047   -22506.103    4159.5177    17635.335   -27026.153    76.075848 
   83200    1107.8939   -107.65608    1.0024457   -106.65363     1701.798    4.2362313    4.2362313    4.2362313     1701.798    4586.9251    2160.0788     -1641.61   -7871.0674   -107.33794    8960.6846    76.021949 
   83300    682.05429   -107.27373   0.61713705    -106.6566    3609.0875    4.2338829    4.2338829    4.2338829    3609.0875    8878.1601    -2728.857    4677.9595    9793.0908   -1692.0005   -3371.4377     75.89559 
   83400    303.94594   -106.93541   0.27501667   -106.66039   -10185.666    4.2387198    4.2387198    4.2387198   -10185.666    10453.933   -15027.474   -25983.457    6342.6166    17853.442   -24983.218    76.155998 
   83500    782.63385   -107.36187   0.70814356   -106.65372    2727.7942    4.2351557    4.2351557    4.2351557    2727.7942    12855.581   -3287.4192   -1384.7792   -7928.4965    1119.2865    12103.773    75.964054 
   83600    824.67593   -107.40103   0.74618411   -106.65485     2727.804    4.2340559    4.2340559    4.2340559     2727.804    3204.0899   -79.774303    5059.0963    10250.379   -1910.3808   -3857.5865    75.904891 
   83700    785.10268   -107.36949   0.71037741   -106.65911   -2554.5041    4.2384273    4.2384273    4.2384273   -2554.5041   -1492.1937    13390.829   -19562.148    6275.2298     14586.46   -21792.617    76.140236 
   83800    1189.9943   -107.73027    1.0767318   -106.65354    6927.0235    4.2345777    4.2345777    4.2345777    6927.0235     -436.167    21045.862    171.37598   -3770.2566    4278.1383    10328.138    75.932956 
   83900    930.07357   -107.49751   0.84155011   -106.65596    4353.4044    4.2354021    4.2354021    4.2354021    4353.4044   -654.70405     3451.242    10263.675    18106.117   -642.49065   -1243.6792    75.977316 
   84000     695.2352   -107.28556   0.62906342   -106.65649   -3437.1488    4.2377625    4.2377625    4.2377625   -3437.1488     3487.416    1886.0895   -15684.952    4495.9416    13018.105   -16885.061    76.104412 
   84100     689.0208   -107.27713    0.6234405   -106.65369     1875.463    4.2339505    4.2339505    4.2339505     1875.463    10945.337    -500.3448    -4818.603   -5770.2998    5694.6613    11971.321    75.899221 
   84200    577.51777   -107.17853   0.52255021   -106.65598   -3535.8205    4.2358002    4.2358002    4.2358002   -3535.8205   -400.23829   -19025.708    8818.4843    19532.486   -4808.5144    2150.4083    75.998742 
   84300    694.04334   -107.28393     0.627985   -106.65595    503.40605    4.2371905    4.2371905    4.2371905    503.40605    -4076.204    18910.441   -13324.019      5182.77    14637.629   -14655.732      76.0736 
   84400    929.06572   -107.49458   0.84063819   -106.65395    3155.9833      4.23587      4.23587      4.23587    3155.9833   -9657.1091    24333.566   -5208.5072   -5415.4695    6850.4778    15412.762    76.002497 
   84500    928.09466    -107.4962   0.83975955   -106.65644    458.38146    4.2345024    4.2345024    4.2345024    458.38146   -16670.974    -64.64738    18110.766    19915.939   -8587.8464     3255.165    75.928907 
   84600    964.17945   -107.52796   0.87240983   -106.65555     6324.028    4.2347208    4.2347208    4.2347208     6324.028   -5872.4272    27474.054   -2629.5433    3389.6809    15572.281   -9493.4818    75.940657 
   84700     876.1558    -107.4478   0.79276418   -106.65504   -4675.9701     4.238915     4.238915     4.238915   -4675.9701   -6806.1818    426.44615   -7648.1748   -1312.6372    9193.1006     14581.47    76.166519 
   84800    600.70403   -107.20032   0.54352963   -106.65679   -4404.9509    4.2346824    4.2346824    4.2346824   -4404.9509   -5401.3482   -25354.464     17540.96     24321.11   -7141.7505    1610.7406    75.938588 
   84900     702.9743   -107.29085   0.63606592   -106.65478    2187.4516    4.2332412    4.2332412    4.2332412    2187.4516   -822.53107    18183.084   -10798.198    60.222812    17520.991    -3836.636    75.861084 
   85000    732.75305   -107.31773   0.66301036   -106.65471   -7297.4705     4.239571     4.239571     4.239571   -7297.4705   -11280.573     4322.206   -14934.045    3337.5648    10417.299    9672.6428    76.201892 
   85100    740.86722   -107.32737   0.67035223   -106.65702   -4234.1779    4.2344786    4.2344786    4.2344786   -4234.1779   -20816.703   -12494.974    20609.143    27916.641   -6231.8832    3375.9196    75.927629 
   85200    987.07773   -107.54792   0.89312868   -106.65479    6093.7655    4.2339994    4.2339994    4.2339994    6093.7655   -16751.367    30548.812    4483.8517   -1026.2456    17821.909   -4707.4527     75.90185 
   85300    986.69559   -107.54737    0.8927829   -106.65459   -3170.2201    4.2392047    4.2392047    4.2392047   -3170.2201   -18547.978    7890.6267    1146.6914    4694.7624    9589.8458     6750.663    76.182137 
   85400    739.35376   -107.32605   0.66898282   -106.65707   -703.45663    4.2336234    4.2336234    4.2336234   -703.45663   -13880.678   -15491.793    27262.101    23404.807   -5770.8703    9285.6586    75.881634 
   85500    758.67875   -107.34186   0.68646848   -106.65539    406.44304    4.2352921    4.2352921    4.2352921    406.44304   -12294.883    21663.499   -8149.2872   -3090.6794    16765.169   -4620.3764    75.971394 
   85600    671.04415   -107.26237   0.60717485    -106.6552   -3391.6057    4.2373326    4.2373326    4.2373326   -3391.6057   -2067.3971    2405.5691   -10512.989    5412.3982    7916.2295     7484.556    76.081253 
   85700    613.12901   -107.21134   0.55477202   -106.65656   -2621.5542    4.2347259    4.2347259    4.2347259   -2621.5542   -6413.7585   -17900.362    16449.458    23344.229   -3923.0288     7949.535     75.94093 
   85800    841.60425   -107.41629   0.76150121   -106.65479   -2002.6343    4.2376093    4.2376093    4.2376093   -2002.6343   -22186.356    20081.505   -3903.0519   -6580.9924    17916.862    -4093.069    76.096158 
   85900    967.70455   -107.53052   0.87559941   -106.65492    5699.3351    4.2342722    4.2342722    4.2342722    5699.3351   -9137.6109    11679.999    14555.617    6780.6762    7698.4074    8541.5552    75.916525 
   86000    968.35359   -107.53232   0.87618668   -106.65614    2671.0035    4.2342354    4.2342354    4.2342354    2671.0035    -15997.89   -9317.7952    33328.695    27291.809   -3401.3717    2485.5577    75.914548 
   86100    896.21188   -107.46637   0.81091134   -106.65546   -2698.6998    4.2396425    4.2396425    4.2396425   -2698.6998   -27242.331    17965.228     1181.004   -9416.8359     17670.57   -4811.9289    76.205745 
   86200    740.70184   -107.32556   0.67020259   -106.65536    2905.9962    4.2333745    4.2333745    4.2333745    2905.9962   -1173.5412    4038.0818     5853.448    5520.4041    5615.0151    7669.2827     75.86825 
   86300    602.41967   -107.20072   0.54508198   -106.65563   -2076.5533    4.2337502    4.2337502    4.2337502   -2076.5533    3586.5019   -19257.129    9440.9672    21660.588   -2724.2222    4640.5256    75.888454 
   86400    608.61511   -107.20628   0.55068774   -106.65559    -7750.384    4.2397425    4.2397425    4.2397425    -7750.384   -16487.944    8339.7038   -15102.912   -9879.3828    16788.748   -3190.0454    76.211139 
   86500     756.5377   -107.34023   0.68453121    -106.6557    7611.2062    4.2334282    4.2334282    4.2334282    7611.2062   -1370.8337    13438.542     10765.91    5339.0928     222.3422     4396.428    75.871138 
   86600    975.31258   -107.53795   0.88248332   -106.65546    6911.7402    4.2335978    4.2335978    4.2335978    6911.7402   -9625.9623    3033.4008    27327.782    14247.459   -1198.9545    7569.3879    75.880258 
   86700    990.72746   -107.55227   0.89643102   -106.65584    1384.8931    4.2393156    4.2393156    4.2393156    1384.8931   -26489.109    20837.895    9805.8937   -10001.243    16483.531   -3282.6046    76.188118 
   86800    965.65184   -107.52869   0.87374208   -106.65495    6492.5746    4.2350958    4.2350958    4.2350958    6492.5746   -12882.684    17870.542    14489.866     6433.861   -6974.3336    3389.4643    75.960833 
   86900    780.51217   -107.36071   0.70622381   -106.65449    2633.1317      4.23341      4.23341      4.23341    2633.1317   -520.51438   -3777.2416    12197.151    14316.902   -2041.0878     4064.534    75.870159 
   87000    568.28933   -107.16997   0.51420012   -106.65577   -5916.8711    4.2373435    4.2373435    4.2373435   -5916.8711   -9092.9686    4060.0204   -12717.665   -10233.768    14241.912   -7879.4602    76.081844 
   87100    574.45798    -107.1753   0.51978165   -106.65552    -1155.787    4.2359791    4.2359791    4.2359791    -1155.787   -3558.9316    8054.6766    -7963.106      3180.02   -10876.401    6993.1616    76.008373 
   87200    690.50307   -107.28046   0.62478169   -106.65568    2437.4042    4.2350144    4.2350144    4.2350144    2437.4042   -1622.2265   -1235.9501    10170.389     12365.54   -2998.3954   -125.05652    75.956454 
   87300    916.84458   -107.48472   0.82958024   -106.65514     405.3416    4.2364408    4.2364408    4.2364408     405.3416   -11627.532    5545.1658    7298.3911   -10150.464     8784.532   -10225.653     76.03323 
   87400    1037.6133   -107.59401   0.93885435   -106.65516    3556.3096    4.2361417    4.2361417    4.2361417    3556.3096   -14603.997    15245.633    10027.293      3357.57   -11098.105    9919.0761    76.017125 
   87500    1006.6614   -107.56649    0.9108484   -106.65564    783.68262    4.2360598    4.2360598    4.2360598    783.68262   -10658.032   -914.05964     13923.14    6691.0096   -1015.0479   -2828.2919    76.012714 
   87600    898.32556    -107.4678   0.81282384   -106.65498    3041.0359    4.2346112    4.2346112    4.2346112    3041.0359   -1602.7255    7516.2715    3209.5617   -9344.0077    4373.6331   -9638.3545    75.934762 
   87700    707.48829   -107.29607   0.64015027   -106.65592     42.67812    4.2358298    4.2358298    4.2358298     42.67812   -6592.9967    15982.175   -9261.1438    5923.4791   -15394.786    8497.1024    76.000335 
   87800    436.63627   -107.05232   0.39507767   -106.65724   -2178.2369    4.2378539    4.2378539    4.2378539   -2178.2369    1785.8311   -961.13985    -7359.402    6824.7813   -2465.8293   -3528.6354    76.109337 
   87900    714.97257   -107.30139    0.6469222   -106.65447    -413.3114    4.2343543    4.2343543    4.2343543    -413.3114    5532.1907   -5807.0732   -965.05166   -7984.7245    3418.7586    -10116.87    75.920942 
   88000    800.49602   -107.37943   0.72430562   -106.65512    1365.9352    4.2345926    4.2345926    4.2345926    1365.9352   -1775.5012    8320.9549    -2447.648    3777.9323   -18753.325    8664.0124    75.933757 
   88100    768.51149   -107.35463   0.69536535   -106.65926   -2979.3304    4.2383274    4.2383274    4.2383274   -2979.3304   -7131.9301    -6932.983    5126.9219    7191.4281   -3750.6935   -2271.5042    76.134853 
   88200    1177.3943   -107.72014    1.0653311   -106.65481    9691.9117    4.2344927    4.2344927    4.2344927    9691.9117    1963.3773    7428.9684    19683.389   -5776.6487    3358.5501   -10990.566    75.928383 
   88300    1055.9969   -107.61117   0.95548819   -106.65568    6718.3982    4.2349512    4.2349512    4.2349512    6718.3982   -899.20723    21078.331   -23.929243    2254.3328   -13310.392     13631.14    75.953054 
   88400    565.55191   -107.17197   0.51172325   -106.66024   -6426.2501    4.2394043    4.2394043    4.2394043   -6426.2501   -773.84103     -6625.26   -11879.649    6578.9007   -40.305457   -4865.8705    76.192902 
   88500    874.30681   -107.44428   0.79109117   -106.65318    3803.1451    4.2336222    4.2336222    4.2336222    3803.1451    13273.534    237.24523   -2101.3443   -2590.9321    1126.8809   -13458.444    75.881571 
   88600    633.95913   -107.22987   0.57361955   -106.65625    -1761.611    4.2342679    4.2342679    4.2342679    -1761.611    13891.083   -2581.5445   -16594.371    2365.7046    -7876.402    19045.341    75.916295 
   88700    393.07376   -107.01692    0.3556614   -106.66126   -9838.1907     4.239577     4.239577     4.239577   -9838.1907    5473.8123   -25103.709   -9884.6755    10368.922   -1554.3637   -2732.2602    76.202212 
   88800    991.01427   -107.55061   0.89669053   -106.65392    6284.5373    4.2347568    4.2347568    4.2347568    6284.5373    5272.9916    918.99031     12661.63    679.64143    5578.2369    -11733.79    75.942593 
   88900    860.86086   -107.43504     0.778925   -106.65611    209.21631    4.2356587    4.2356587    4.2356587    209.21631    2714.8481    1192.4422   -3279.6413    1090.2279    917.08116    20162.149    75.991127 
   89000    840.76793   -107.41884   0.76074449   -106.65809   -4911.5139    4.2376473    4.2376473    4.2376473   -4911.5139   -5355.5276   -10886.991    1507.9768     13671.69   -9828.1763    2678.1599    76.098207 
   89100    1086.0653   -107.63597   0.98269475   -106.65327    9749.0753    4.2339617    4.2339617    4.2339617    9749.0753    3250.9828    21016.841    4979.4017    149.95046    16642.569   -7162.1995    75.899823 
   89200    760.52136   -107.34546   0.68813571   -106.65732   -3620.5749    4.2365042    4.2365042    4.2365042   -3620.5749    706.04179    9293.3373   -20861.104   -142.34322    11896.312    18013.257    76.036642 
   89300    696.70169   -107.28695   0.63039033   -106.65656   -1526.4119    4.2364021    4.2364021    4.2364021   -1526.4119    6183.7879    -8994.361   -1768.6625    11921.078   -12782.748    3416.5585    76.031143 
   89400    813.80272   -107.39016   0.73634581   -106.65381    1256.4599     4.235665     4.235665     4.235665    1256.4599    805.37884    6957.8726   -3993.8718   -44.705647    23468.139   -6671.6673    75.991465 
   89500    647.80149   -107.24263    0.5861444   -106.65648   -5721.5463     4.236668     4.236668     4.236668   -5721.5463    8311.3399   -11666.097   -13809.882    1774.2931    11877.425    19251.607     76.04546 
   89600    815.12847   -107.39246   0.73754537   -106.65492    -534.9938    4.2343997    4.2343997    4.2343997    -534.9938    2328.6227   -17426.953    13493.349    9152.6676   -7301.8835    4841.5587    75.923383 
   89700    793.58657   -107.37362    0.7180538   -106.65557    1251.3346    4.2370116    4.2370116    4.2370116    1251.3346    -11618.84    12304.639    3068.2047    251.90197    27960.212   -7901.1833    76.063963 
   89800    805.90684   -107.38447   0.72920144   -106.65527   -3643.4565    4.2371407    4.2371407    4.2371407   -3643.4565   -10582.602    3440.6825   -3788.4506   -263.14534    6521.3751    18644.773    76.070917 
   89900    832.10969   -107.40672   0.75291033   -106.65381    272.13442    4.2345891    4.2345891    4.2345891    272.13442   -14691.867    2616.0439    12892.226    9485.1632   -5990.5159    8109.4548    75.933573 
   90000    748.14136   -107.33303   0.67693403   -106.65609   -7334.2181     4.237522     4.237522     4.237522   -7334.2181   -30286.908    23011.007   -14726.754    -42.05401    30381.048   -6352.3263    76.091455 
   90100     969.8335   -107.53145   0.87752573   -106.65393     937.5739    4.2355773    4.2355773    4.2355773     937.5739    8120.5731    1241.8806    -6549.732   -2705.0447    4881.2449    10498.918    75.986745 
   90200    931.39737    -107.4975   0.84274792   -106.65475    3950.6954    4.2348738    4.2348738    4.2348738    3950.6954    7968.6792   -6664.3856    10547.793    12057.369   -4481.0127    8046.3212    75.948889 
   90300    686.76131   -107.28012   0.62139607   -106.65872   -4667.5192    4.2383385    4.2383385    4.2383385   -4667.5192   -19667.216    13439.363   -7774.7046    3378.4927    33649.532   -4740.4363    76.135448 
   90400    952.64436   -107.51455   0.86197264   -106.65257    4080.8758    4.2351581    4.2351581    4.2351581    4080.8758    4349.5422   -6040.2389    13933.324    879.23061    4700.4564    6536.4844    75.964183 
   90500    654.29585   -107.24752   0.59202064    -106.6555    -5191.505    4.2363034    4.2363034    4.2363034    -5191.505   -27469.857   -5491.6135    17386.955    9968.1403    4497.5562    9240.6677     76.02583 
   90600    387.47871   -107.01084   0.35059888   -106.66024   -12899.928    4.2375677    4.2375677    4.2375677   -12899.928   -55711.814    26743.377   -9731.3482    1279.9531     33314.11    -7015.684    76.093919 
   90700    1009.2308   -107.56674   0.91317328   -106.65356    7697.1691    4.2336084    4.2336084    4.2336084    7697.1691   -4640.7845    14261.813    13470.479   -69.411098   -4608.5787    4300.2187    75.880825 
   90800    919.29506   -107.48836   0.83179749   -106.65657    985.88309    4.2380196    4.2380196    4.2380196    985.88309   -11839.166    8255.4395    6541.3762    7825.4054    14037.071    8312.3863    76.118264 
   90900    732.15958   -107.32406   0.66247338   -106.66159   -5243.9647    4.2366492    4.2366492    4.2366492   -5243.9647   -23542.807     26810.64   -18999.728    1000.8649    27725.702   -6290.4694    76.044449 
   91000    1233.2126   -107.76952    1.1158367   -106.65368    10227.709    4.2334625    4.2334625    4.2334625    10227.709    17042.363     4986.212     8654.552    -3661.527   -15816.215   -3178.8329     75.87298 
   91100    854.03147   -107.42905   0.77274562   -106.65631   -7433.6817    4.2403353    4.2403353    4.2403353   -7433.6817   -20451.617   -3372.9129    1523.4844    4020.6322    22305.973    1768.8315     76.24311 
   91200    399.26644    -107.0207   0.36126467   -106.65944   -8974.3771    4.2348435    4.2348435    4.2348435   -8974.3771   -35692.262    17932.822   -9163.6919    2795.0253    25666.206   -2654.3194    75.947255 
   91300    745.18871   -107.32757    0.6742624   -106.65331    3395.6445    4.2331703    4.2331703    4.2331703    3395.6445   -5336.8505    4919.9032    10603.881   -2779.2744   -18941.455   -9629.4557    75.857273 
   91400    622.21033   -107.21877   0.56298899   -106.65578   -8335.4627    4.2404495    4.2404495    4.2404495   -8335.4627   -28739.125    3057.1287    675.60823    1593.8262    24691.514   -1063.7629    76.249268 
   91500     689.0504   -107.28197   0.62346728    -106.6585   -859.99855    4.2328837    4.2328837    4.2328837   -859.99855   -17363.082    23276.336     -8493.25    4705.8118    22663.444    -2840.977    75.841865 
   91600    1163.9192   -107.70747    1.0531385   -106.65434    4260.4647    4.2349925    4.2349925    4.2349925    4260.4647    11856.612    6101.0473   -5176.2652   -1912.8366   -18136.802   -12627.865    75.955272 
   91700    989.42148   -107.55167   0.89524935   -106.65642   -6700.3547     4.240749     4.240749     4.240749   -6700.3547    -15011.39    7602.7045   -12692.378    2516.5394    25071.978    3757.9252    76.265425 
   91800    847.30427   -107.42262   0.76665871   -106.65597    2328.1209     4.232261     4.232261     4.232261    2328.1209   -4144.3316    18628.169   -7499.4748    8070.7092    14185.846   -4577.1792      75.8084 
   91900    892.26218   -107.46068   0.80733757   -106.65334    -1183.826    4.2360258    4.2360258    4.2360258    -1183.826    5338.8736   -4313.9621   -4576.3894   -3765.4536    -13753.22   -16785.383    76.010884 
   92000    448.85587   -107.06371   0.40613422   -106.65758   -6995.5565    4.2382335    4.2382335    4.2382335   -6995.5565    -23761.37    4051.4521   -1276.7519   -3332.8315    26617.854    3575.6382     76.12979 
   92100    471.64751   -107.08428   0.42675658   -106.65753   -1023.1054    4.2330689    4.2330689    4.2330689   -1023.1054   -12075.244    5364.8485    3641.0791    10516.095     9573.149   -5098.0608    75.851821 
   92200    882.25383   -107.45168    0.7982818    -106.6534   -4994.5009    4.2384672    4.2384672    4.2384672   -4994.5009    3998.4031   -13597.169    -5384.737     -2418.67   -8685.5206   -15512.597    76.142387 
   92300    767.72122   -107.35168   0.69465029   -106.65703   -1892.6595    4.2364031    4.2364031    4.2364031   -1892.6595   -8358.9792    8685.7076   -6004.7068   -7300.9406    27370.712    2107.6545      76.0312 
   92400    959.06755   -107.52542   0.86778447   -106.65764    3681.4338     4.233748     4.233748     4.233748    3681.4338    10567.786    3248.9403    -2772.425    10854.495    7651.5202   -3292.1447    75.888333 
   92500     1249.563   -107.78378    1.1306308   -106.65315     1277.251    4.2376962    4.2376962    4.2376962     1277.251    21183.807   -8050.7973   -9301.2564    1523.7962   -5159.9281   -14053.726    76.100841 
   92600    733.53968   -107.32252   0.66372212    -106.6588    926.07252    4.2352359    4.2352359    4.2352359    926.07252   -8054.7923    11498.433   -665.42337   -7195.4069    21429.409    3590.5835    75.968372 
   92700     635.1395   -107.23191   0.57468756   -106.65723   -6750.7663     4.237508     4.237508     4.237508   -6750.7663   -16361.455   -11259.816    7368.9722    5982.2985    6453.5059   -3314.0834      76.0907 
   92800    806.74116   -107.38186   0.72995636   -106.65191   -6745.6231    4.2370562    4.2370562    4.2370562   -6745.6231   -8502.4942   -14030.376    2296.0009    495.28368   -2252.3706   -15475.555    76.066368 
   92900    411.00166   -107.03019   0.37188294   -106.65831   -3575.5439    4.2329757    4.2329757    4.2329757   -3575.5439   -23102.559    3606.5742    8769.3529   -7766.8911    16193.225    3716.4178    75.846813 
   93000    716.19285    -107.3063   0.64802634   -106.65827   -7702.3565     4.239547     4.239547     4.239547   -7702.3565    -4747.225    -22385.69    4025.8452     2914.746    6379.9786    495.98619    76.200597 
   93100    1099.7545   -107.64807     0.995081   -106.65299    2573.0057    4.2363608    4.2363608    4.2363608    2573.0057     15966.86   -9822.3531    1574.5102    1274.9438   -6202.3331   -10061.855    76.028922 
   93200    750.31499    -107.3383   0.67890077    -106.6594    1406.5906    4.2331616    4.2331616    4.2331616    1406.5906   -5437.6686    7768.8639    1888.5766   -7620.5579    11779.177    1170.9873    75.856807 
   93300    1044.6521   -107.60098   0.94522317   -106.65576   -3868.4146    4.2408017    4.2408017    4.2408017   -3868.4146    -3404.759   -6901.9692   -1298.5155    5475.9822    6318.5235    7499.0695    76.268269 
   93400    1048.7945   -107.60243   0.94897133   -106.65346     3763.054    4.2352092    4.2352092    4.2352092     3763.054   -7612.3773     15352.31    3549.2292      1525.65   -11952.311    393.91233    75.966936 
   93500    524.75588   -107.13492   0.47481014   -106.66011   -2958.5281    4.2335566    4.2335566    4.2335566   -2958.5281    -36021.58    18708.839    8437.1571   -14266.938    7309.0553   -1265.6826     75.87804 
   93600    751.30175   -107.33501   0.67979361   -106.65522   -4116.7214    4.2397377    4.2397377    4.2397377   -4116.7214   -9667.9326   -9165.6412    6483.4097    876.53838    6123.6855    13038.311     76.21088 
   93700    734.27361   -107.31812   0.66438619   -106.65373   -453.77008    4.2358519    4.2358519    4.2358519   -453.77008   -10234.491   -881.48643    9754.6669    934.77778   -14651.877    1012.8946    76.001525 
   93800    454.49927   -107.06948   0.41124049   -106.65824   -10757.791    4.2369256    4.2369256    4.2369256   -10757.791   -28582.961   -10940.968     7250.555   -13644.968    3087.2515   -252.62254    76.059334 
   93900     872.6531   -107.44347   0.78959487   -106.65388   -1422.7779    4.2365428    4.2365428    4.2365428   -1422.7779    9403.8367   -15867.544    2195.3741   -4621.1624    6783.6869    17168.023    76.038718 
   94000      887.814   -107.45798   0.80331276   -106.65466    3604.9708    4.2339988    4.2339988    4.2339988    3604.9708    247.32116    9348.1336    1219.4577     1747.773   -16315.686    1125.6961     75.90182 
   94100    769.83278   -107.35514   0.69656087   -106.65857   -8826.5373    4.2396114    4.2396114    4.2396114   -8826.5373   -29136.223    3241.6463   -585.03512   -9867.3407    1395.0101   -288.27285     76.20407 
   94200    1086.5165   -107.63696   0.98310294   -106.65386     4512.876    4.2351673    4.2351673    4.2351673     4512.876    4344.0467     1263.307    7931.2743   -3431.7956    8744.6645    16319.482    75.964678 
   94300    917.94033   -107.48583    0.8305717   -106.65526    3021.0667    4.2342516    4.2342516    4.2342516    3021.0667   -13945.112    15421.585    7586.7276    1728.9768   -16990.822    5565.5395    75.915418 
   94400    692.94956   -107.28436   0.62699532   -106.65736   -10128.858    4.2405814    4.2405814    4.2405814   -10128.858   -34645.636   -3936.2486    8195.3115    -15928.15     3688.974   -3301.4515    76.256385 
   94500    841.00384   -107.41381   0.76095795   -106.65285    2864.1591    4.2339558    4.2339558    4.2339558    2864.1591    7916.0718   -12288.347    12964.753   -677.55976    8525.9039      10980.2    75.899505 
   94600     589.5626   -107.18915   0.53344863    -106.6557   -2085.7899    4.2348765    4.2348765    4.2348765   -2085.7899   -3044.5443   -5627.1377    2414.3122    8766.8043    -20674.51    4543.7863    75.949031 
   94700    564.81346   -107.16832   0.51105509   -106.65726   -11389.997    4.2396154    4.2396154    4.2396154   -11389.997    -16007.19   -19558.937     1396.137    -16475.05    4743.7681   -4218.5866    76.204284 
   94800    901.77539   -107.46817   0.81594532   -106.65222    3690.2156    4.2341376    4.2341376    4.2341376    3690.2156    14764.297   -12642.135     8948.485    1429.0286    7455.1519    10176.954    75.909287 
   94900    771.29944   -107.35454   0.69788794   -106.65665   -5074.0297    4.2368158    4.2368158    4.2368158   -5074.0297   -17274.133    5064.3029   -3012.2595    12696.681    -19379.89    2420.8049     76.05342 
   95000    954.80876   -107.52026   0.86393103   -106.65633   -1225.3299    4.2365718    4.2365718    4.2365718   -1225.3299   -23785.612    15038.834    5070.7881   -12040.969    2879.0388   -1662.9312    76.040279 
   95100    1122.4814   -107.66865    1.0156448   -106.65301     5682.032    4.2344902    4.2344902    4.2344902     5682.032   -3381.2026    11699.128    8728.1703     4775.351    3893.9929    11110.761    75.928252 
   95200    687.18081   -107.28054   0.62177564   -106.65876   -5850.6271    4.2385803    4.2385803    4.2385803   -5850.6271   -25341.343    5381.7671     2407.695    14675.666   -16929.194    2493.1444    76.148483 
   95300    793.22937   -107.37281   0.71773061   -106.65508    40.812164    4.2346981    4.2346981    4.2346981    40.812164   -6779.6823   -5139.0337    12041.152   -16231.614   -716.56385   -1549.4138    75.939436 
   95400    709.20727   -107.29585   0.64170564   -106.65414   -21.838374    4.2353497    4.2353497    4.2353497   -21.838374    8139.1094   -21820.209    13615.584    7800.9436    2006.3998    3359.3087    75.974497 
   95500    398.16992   -107.02015   0.36027251   -106.65988   -10613.508    4.2385974    4.2385974    4.2385974   -10613.508   -14763.407   -17382.263    305.14795    22673.217   -16134.217    5245.2776    76.149402 
   95600    917.94937   -107.48582   0.83057988   -106.65524    8009.5201    4.2333774    4.2333774    4.2333774    8009.5201    9162.3895    10136.442    4729.7291   -17350.057   -2449.3866   -2027.8672    75.868407 
   95700    991.83697     -107.553   0.89743493   -106.65556    2807.9751     4.236439     4.236439     4.236439    2807.9751    532.42258    5623.6378    2267.8649    12434.496    4423.9641   -961.30706    76.033131 
   95800    736.69394   -107.32796   0.66657616   -106.66138   -8199.8661    4.2388396    4.2388396    4.2388396   -8199.8661   -23829.004     7215.465   -7986.0598    27993.646    -16635.26    8139.3786    76.162457 
   95900    1212.2746   -107.75081    1.0968916   -106.65392    11488.171    4.2323033    4.2323033    4.2323033    11488.171    3216.1609    24412.582    6835.7703   -12578.412   -3755.5427   -1255.5125    75.810671 
   96000    812.58764   -107.39327   0.73524637   -106.65802   -1987.9037     4.237579     4.237579     4.237579   -1987.9037   -8214.3332   -9059.9258    11310.548    16332.977    3193.4889    1438.0118    76.094529 
   96100    294.84812   -106.92968   0.26678478    -106.6629   -10392.695    4.2389164    4.2389164    4.2389164   -10392.695   -9746.3137   -18023.404   -3408.3669    21679.054   -18110.536    5025.9488      76.1666 
   96200    867.47858   -107.43817   0.78491285   -106.65325    12176.807    4.2320002    4.2320002    4.2320002    12176.807    20822.099    8024.1755    7684.1476   -8641.6267   -5579.1965    -1199.271    75.794385 
   96300    703.91734   -107.29412    0.6369192    -106.6572   -3536.6279    4.2372773    4.2372773    4.2372773   -3536.6279    436.86556    -19141.96    8095.2109    19892.564    2886.1361    2521.4498    76.078274 
   96400    545.06547   -107.15744    0.4931867   -106.66425   -10660.783    4.2383065    4.2383065    4.2383065   -10660.783    -9080.366   -7252.8131   -15649.171    17392.227   -18585.549     2736.839    76.133725 
   96500    1341.0198   -107.86841    1.2133829   -106.65503    14382.328    4.2320119    4.2320119    4.2320119    14382.328    9770.5094    34478.706   -1102.2298   -6794.2735   -8246.3551   -1941.3542    75.795013 
   96600    1069.5945   -107.62662   0.96779161   -106.65883    2808.7743    4.2371535    4.2371535    4.2371535    2808.7743   -3423.4111    6540.5901    5309.1438    18212.094    5190.0363   -1370.4334     76.07161 
   96700    549.17091   -107.15912   0.49690138   -106.66222   -9173.9906    4.2395787    4.2395787    4.2395787   -9173.9906    -7503.082    -5205.666   -14813.224    15940.967   -19375.438    6889.6427    76.202304 
   96800    880.83483   -107.44986   0.79699786   -106.65287    7997.2401    4.2326665    4.2326665    4.2326665    7997.2401    14807.745    3356.7211    5827.2542   -9629.5327   -8843.5139    1413.3554    75.830189 
   96900    575.36486   -107.17668   0.52060222   -106.65608   -6714.7267    4.2362594    4.2362594    4.2362594   -6714.7267    1356.5257   -34995.202    13494.496    18935.065    7478.0553   -784.79893    76.023462 
   97000    412.94945   -107.03441   0.37364534   -106.66076   -12312.454    4.2372789    4.2372789    4.2372789   -12312.454   -5290.5425   -23388.321   -8258.4983    16052.092    -18662.73    5118.0653    76.078363 
   97100    981.70675   -107.54341    0.8882689   -106.65514    9483.4904    4.2336608    4.2336608    4.2336608    9483.4904    10225.347    12970.287     5254.837   -12653.038   -8435.5697    2915.3457    75.883643 
   97200    943.14363   -107.50995   0.85337618   -106.65658    458.17409     4.237938     4.237938     4.237938    458.17409   -8845.3456    1962.5164    8257.3514    19244.147    9372.8957     2127.426    76.113867 
   97300    889.63505   -107.46292   0.80496049   -106.65796    -962.1624    4.2363082    4.2363082    4.2363082    -962.1624   -5349.4364     14868.51   -12405.561    12942.177   -14460.125    2243.7241    76.026089 
   97400    1065.1301   -107.61637   0.96375206   -106.65262    9005.7024    4.2337284    4.2337284    4.2337284    9005.7024    12068.093    12033.109    2915.9051   -12922.332   -5820.7226    665.42388     75.88728 
   97500    588.30045   -107.19036   0.53230661   -106.65806   -7408.5539    4.2374016    4.2374016    4.2374016   -7408.5539   -2524.8728   -26010.422    6309.6329    16416.629    9214.8989   -1725.5052    76.084972 
   97600    642.92774   -107.23831   0.58173453   -106.65657   -5655.4939    4.2357067    4.2357067    4.2357067   -5655.4939    9694.0015   -21528.465   -5132.0186     11314.34   -6072.9783    6200.7229     75.99371 
   97700    826.80348   -107.40103   0.74810916   -106.65292    5219.8518    4.2348771    4.2348771    4.2348771    5219.8518    17770.782   -12050.019    9938.7926   -13688.609   -1954.9393    1368.6894    75.949067 
   97800    511.32823   -107.12284   0.46266053   -106.66018   -7619.1166    4.2376809    4.2376809    4.2376809   -7619.1166   -15530.253   -25483.432    18156.335    16076.706    8593.1942   -4335.5223    76.100018 
   97900    982.46226   -107.54661    0.8889525   -106.65765    1244.1602    4.2345105    4.2345105    4.2345105    1244.1602    1351.5752   -1225.3282    3606.2335    13287.508    5171.2745    4831.6821    75.929343 
   98000    1227.4589   -107.76459    1.1106306   -106.65396    7643.4334    4.2355996    4.2355996    4.2355996    7643.4334    8520.1299    6564.1432    7846.0271   -14274.826   -1304.7026    2224.0175    75.987947 
   98100     579.5137   -107.18779   0.52435617   -106.66344    -8460.639    4.2380505    4.2380505    4.2380505    -8460.639   -17511.739   -16617.574    8747.3957    15338.007    9251.8867    986.26445     76.11993 
   98200    907.64569   -107.47902   0.82125689   -106.65776    1154.4612    4.2333594    4.2333594    4.2333594    1154.4612    15503.601   -4713.6952   -7326.5227    12303.666    9288.8046     1023.669    75.867437 
   98300    882.67385   -107.45362   0.79866185   -106.65496     2747.698    4.2362905    4.2362905    4.2362905     2747.698    21245.133   -10349.386   -2652.6535   -6685.4334   -8426.4963    -445.4948    76.025136 
   98400    233.68708   -106.87448   0.21144498   -106.66303   -13180.741     4.238682     4.238682     4.238682   -13180.741     -14562.1   -35202.095    10221.971    16961.264    10390.436   -257.04674    76.153964 
   98500    769.76124   -107.35405   0.69649614   -106.65756    458.79352    4.2333837    4.2333837    4.2333837    458.79352      9507.75   -14812.722    6681.3523    5171.1132    5243.8079    527.75933    75.868747 
   98600    1008.3409    -107.5668   0.91236805   -106.65443    126.33581    4.2362302    4.2362302    4.2362302    126.33581    1626.3849   -5096.5267    3849.1493    328.36252   -16650.459    1255.7932    76.021887 
   98700    752.31353   -107.34147   0.68070909   -106.66076   -6524.4413    4.2377444    4.2377444    4.2377444   -6524.4413    -14883.52   -19284.583    14594.779    18723.492     9749.192   -4092.2885    76.103439 
   98800    1164.9454   -107.70962    1.0540671   -106.65555    5223.2245     4.233889     4.233889     4.233889    5223.2245    8570.2528    8836.1139   -1736.6931    603.61257   -178.11329    74.987532    75.895915 
   98900    999.79778   -107.56083   0.90463804   -106.65619    1565.6449    4.2359789    4.2359789    4.2359789    1565.6449    4071.5568    10733.393   -10108.016    363.87163    -21471.23    1930.4836    76.008361 
   99000    629.18913   -107.22707   0.56930355   -106.65777   -6187.3455     4.237746     4.237746     4.237746   -6187.3455   -795.41456   -24042.285    6275.6633    16635.446    7872.4298   -261.95606    76.103527 
   99100    673.12313   -107.26329   0.60905596   -106.65424   -4073.3861    4.2353593    4.2353593    4.2353593   -4073.3861     8702.062   -17365.579   -3556.6416   -2108.1801   -7955.9735   -68.916584    75.975013 
   99200    532.84787   -107.13805   0.48213195   -106.65592   -4848.1369    4.2344192    4.2344192    4.2344192   -4848.1369    929.99641   -9154.2511    -6320.156    3630.8813   -25635.304   -674.39492     75.92443 
   99300    668.54904   -107.26119   0.60491722   -106.65627   -3765.8729     4.236617     4.236617     4.236617   -3765.8729    5655.6309   -30306.906    13353.657    15388.039    6726.9692    1417.2291    76.042717 
   99400    856.75209   -107.43133    0.7752073   -106.65612   -282.63271    4.2370946    4.2370946    4.2370946   -282.63271    2394.3549    983.00141   -4225.2544   -7316.2212   -13155.251    -2359.967    76.068437 
   99500     993.9192   -107.55541   0.89931898   -106.65609    4398.1108    4.2344483    4.2344483    4.2344483    4398.1108    1737.1317    22453.708   -10996.507    6527.4553   -24986.619    2102.0081    75.925996 
   99600    1122.4442   -107.67011    1.0156111    -106.6545    4184.0756    4.2356373    4.2356373    4.2356373    4184.0756    10136.957   -6364.1054    8779.3752    10023.968    7928.2599   -2731.8338    75.989974 
   99700    855.85893   -107.43137   0.77439915   -106.65697   -3089.7691    4.2376852    4.2376852    4.2376852   -3089.7691     3057.387     290.0016   -12616.696   -11476.718   -16930.645   -5850.1914    76.100246 
   99800    740.84162   -107.32579   0.67032906   -106.65546    1646.1131    4.2346704    4.2346704    4.2346704    1646.1131    8183.9284    8696.0489   -11941.638    6023.3557   -20550.656     3239.088    75.937946 
   99900    672.78788   -107.26341   0.60875261   -106.65465   -170.10949    4.2347318    4.2347318    4.2347318   -170.10949     16776.95   -22851.471    5564.1922    6878.7432    10044.001   -1947.3868    75.941249 
  100000    449.15593   -107.06428   0.40640572   -106.65787     -8174.53    4.2380438    4.2380438    4.2380438     -8174.53   -1730.8224    -13054.21   -9738.5579   -9294.7425    -18674.96   -5489.8092    76.119571 
Loop time of 23.5216 on 1 procs for 100000 steps with 8 atoms

Pair  time (%) = 7.77853 (33.0698)
Kspce time (%) = 5.64325 (23.9918)
Neigh time (%) = 0 (0)
Comm  time (%) = 1.15295 (4.90167)
Outpt time (%) = 0.0264604 (0.112494)
Other time (%) = 8.92038 (37.9242)

Nlocal:    8 ave 8 max 8 min
Histogram: 1 0 0 0 0 0 0 0 0 0
Nghost:    2189 ave 2189 max 2189 min
Histogram: 1 0 0 0 0 0 0 0 0 0
Neighs:    2472 ave 2472 max 2472 min
Histogram: 1 0 0 0 0 0 0 0 0 0

Total # of neighbors = 2472
Ave neighs/atom = 309
Neighbor list builds = 0
Dangerous builds = 0
unfix 20
unfix 21
print "seeds:2210875"
seeds:2210875
