LAMMPS (10 Feb 2015)
# ---- initialize simulations
clear
units metal
dimension 3
boundary p p p
atom_style charge
atom_modify map array
# ---- create atoms
read_data /Users/eugeneragasa/pyflamestk_git/pypospack/tests/tests_integration/workflow/WorkflowLammpsThermalExpansion/param_2856/MgO_NaCl_unit.npt.T1100/lammps.structure
  triclinic box = (0 0 0) to (4.2565 4.2565 4.2565) with tilt (0 0 0)
  1 by 1 by 1 MPI processor grid
  reading atoms ...
  8 atoms
# ---- define interatomic potential
include potential.mod
mass 1 24.305
mass 2 15.999

group Mg type 1
4 atoms in group Mg
group O type 2
4 atoms in group O

set group Mg charge 1.71287520642
  4 settings made for charge
set group O charge -1.71287520642
  4 settings made for charge

variable R_cut equal 10.0

pair_style buck/coul/long ${R_cut}
pair_style buck/coul/long 10
pair_coeff 1 1 0.0 0.5 0.0 ${R_cut}
pair_coeff 1 1 0.0 0.5 0.0 10
pair_coeff 1 2 1268.25800143 0.292150986054 0.0 ${R_cut}
pair_coeff 1 2 1268.25800143 0.292150986054 0.0 10
pair_coeff 2 2 34972.2762623 0.190168709461 15.9037418312 ${R_cut}
pair_coeff 2 2 34972.2762623 0.190168709461 15.9037418312 10

kspace_style pppm 1.0e-5

neighbor 1.0 bin
neigh_modify every 1 delay 0 check yes
# ---- define settings
compute eng all pe/atom
compute eatoms all reduce sum c_eng
# ---- run minimization
reset_timestep 0
fix 1 all box/relax iso 0.0 vmax 0.001
thermo 10
thermo_style custom step pe lx ly lz xy xz yz press pxx pyy pzz pxy pxz pyz c_eatoms
min_style cg
minimize 1e-25 1e-25 5000 10000
PPPM initialization ...
  G vector (1/distance) = 0.353245
  grid = 8 8 8
  stencil order = 5
  estimated absolute RMS force accuracy = 4.15075e-05
  estimated relative force accuracy = 2.88254e-06
  using double precision FFTs
  3d grid and FFT values/proc = 3375 512
Neighbor list info ...
  1 neighbor list requests
  update every 1 steps, delay 0 steps, check yes
  master list distance cutoff = 11
Memory usage per processor = 4.06549 Mbytes
Step PotEng Lx Ly Lz Xy Xz Yz Press Pxx Pyy Pzz Pxy Pxz Pyz eatoms 
       0    -118.2398       4.2565       4.2565       4.2565            0            0            0    92099.563    92099.563    92099.563    92099.563 -2.6648665e-10 1.3518399e-10 2.2028947e-10    -118.2398 
      10   -118.33067     4.299065     4.299065     4.299065            0            0            0    34673.493    34673.493    34673.493    34673.493 -1.1760899e-11 -1.3745134e-10 -5.0678772e-11   -118.33067 
      18   -118.34767    4.3277342    4.3277342    4.3277342            0            0            0    -4.391814    -4.391814    -4.391814    -4.391814 -1.1240186e-10 -1.6034703e-10 -8.891662e-11   -118.34767 
Loop time of 0.0123348 on 1 procs for 18 steps with 8 atoms

Minimization stats:
  Stopping criterion = linesearch alpha is zero
  Energy initial, next-to-last, final = 
        -118.239795936     -118.347671294     -118.347671294
  Force two-norm initial, final = 13.2992 0.00175014
  Force max component initial, final = 13.2992 0.000655584
  Final line search alpha, max atom move = 0.00390625 2.56088e-06
  Iterations, force evaluations = 18 35

Pair  time (%) = 0.00323057 (26.1907)
Kspce time (%) = 0.00209522 (16.9862)
Neigh time (%) = 0 (0)
Comm  time (%) = 0.000416994 (3.38062)
Outpt time (%) = 1.78814e-05 (0.144967)
Other time (%) = 0.00657415 (53.2975)

Nlocal:    8 ave 8 max 8 min
Histogram: 1 0 0 0 0 0 0 0 0 0
Nghost:    2189 ave 2189 max 2189 min
Histogram: 1 0 0 0 0 0 0 0 0 0
Neighs:    2344 ave 2344 max 2344 min
Histogram: 1 0 0 0 0 0 0 0 0 0

Total # of neighbors = 2344
Ave neighs/atom = 293
Neighbor list builds = 0
Dangerous builds = 0
unfix 1
# ---- define output variables ----
variable natoms equal "count(all)"
variable tot_energy equal "c_eatoms"
variable length_x equal "lx"
variable length_y equal "ly"
variable length_z equal "lz"
variable tilt_xy equal "xy"
variable tilt_xz equal "xz"
variable tilt_yz equal "yz"
variable tot_press equal "press"
variable press_xx equal "pxx"
variable press_yy equal "pyy"
variable press_zz equal "pzz"
variable press_xy equal "pxy"
variable press_xz equal "pxz"
variable press_yz equal "pyz"

# ---- output ----
print "pypospack:output_section:begin"
pypospack:output_section:begin
print "tot_energy = ${tot_energy}"
tot_energy = -118.347671293792
print "num_atoms = ${natoms}"
num_atoms = 8
print "xx = ${length_x}"
xx = 4.32773421076983
print "yy = ${length_y}"
yy = 4.32773421076983
print "zz = ${length_z}"
zz = 4.32773421076983
print "xy = ${tilt_xy}"
xy = 0
print "xz = ${tilt_xz}"
xz = 0
print "yz = ${tilt_yz}"
yz = 0
print "tot_press = ${tot_press}"
tot_press = -4.39181402043263
print "pxx = ${press_xx}"
pxx = -4.39181402021402
print "pyy = ${press_yy}"
pyy = -4.39181402042068
print "pzz = ${press_zz}"
pzz = -4.39181402066319
print "pxy = ${press_xy}"
pxy = -1.12401857084108e-10
print "pxz = ${press_xz}"
pxz = -1.60347032595802e-10
print "pyz = ${press_yz}"
pyz = -8.89166196817966e-11
print "pypospack:output_section:done"
pypospack:output_section:done
print "pypospack:lammps_sim:done"
pypospack:lammps_sim:done
#------------------------------------------------------------------------------
# RUN THERMOSTAT
# running using an NPT Nose-Hoover style thermostat
#------------------------------------------------------------------------------
variable tempdamp equal 0.1
variable pressdamp equal 1.0
# set initial velocities
velocity all create 1100 5918837 mom yes dist gaussian loop all
# fix for Nose-Hoover style thermostat
fix 20 all npt temp 1100 1100 0.1 aniso 0.0 0.0 1.0 drag 1.0 couple xyz
variable boxx equal lx
variable boxy equal ly
variable boxz equal lz
variable boxp equal press
variable boxt equal temp
# calculate averages every 10000 steps
reset_timestep 0
fix 21 all ave/time 10 10 100 v_boxx v_boxy v_boxz v_boxp v_boxt file lattice.out
thermo_style custom step temp pe ke etotal press lx ly lz press pxx pyy pzz pxy pxz pyz vol
thermo_modify flush yes
thermo 100
run 100000
PPPM initialization ...
  G vector (1/distance) = 0.352508
  grid = 8 8 8
  stencil order = 5
  estimated absolute RMS force accuracy = 4.29555e-05
  estimated relative force accuracy = 2.9831e-06
  using double precision FFTs
  3d grid and FFT values/proc = 3375 512
Memory usage per processor = 3.06549 Mbytes
Step Temp PotEng KinEng TotEng Press Lx Ly Lz Press Pxx Pyy Pzz Pxy Pxz Pyz Volume 
       0         1100   -118.34768   0.99530312   -117.35238    13109.348    4.3277342    4.3277342    4.3277342    13109.348    12660.606    15564.485    11102.952   -6622.9557   -7933.3308    577.90982    81.055361 
     100    509.50416   -117.68115   0.46101007   -117.22014    9259.7898    4.3474509    4.3474509    4.3474509    9259.7898    18883.168   -14576.122    23472.324    13776.985   -2470.8068    57.858947    82.168253 
     200    682.97373   -117.56329   0.61796898   -116.94532   -23278.253    4.3694141    4.3694141    4.3694141   -23278.253   -35961.386   -32837.737   -1035.6348    21747.745    2169.6443    3398.7255    83.419894 
     300    1331.1946    -117.9091    1.2044928   -116.70461    13648.195    4.3551321    4.3551321    4.3551321    13648.195    26271.768   -4516.6799    19189.497    -14017.83    5143.8823    2404.5669    82.604556 
     400    997.41621    -117.4356   0.90248314   -116.53312     21186.22    4.3470732    4.3470732    4.3470732     21186.22    16162.215   -14822.684    62219.129    34349.882   -120.85125   -1229.6174    82.146842 
     500    880.40328    -117.2046   0.79660739   -116.40799   -11634.768    4.3689512    4.3689512    4.3689512   -11634.768   -40248.424   -33127.202    38471.324    32331.112   -5909.8791   -1696.3454     83.39338 
     600    1262.2831   -117.47845    1.1421403   -116.33631    7471.8966    4.3673673    4.3673673    4.3673673    7471.8966    22969.455   -21070.635     20516.87   -17108.158    10215.029   -10350.252    83.302715 
     700    1249.9718   -117.45294    1.1310007   -116.32194   -11167.646    4.3557816    4.3557816    4.3557816   -11167.646   -39357.482   -27044.195    32898.737    37595.144    5703.0079    5377.0579    82.641521 
     800    865.62615   -117.11256   0.78323674   -116.32932    7448.2114    4.3586426    4.3586426    4.3586426    7448.2114   -2632.2205    -30836.01    55812.864    33268.271   -2886.8441   -5970.8803     82.80447 
     900     1539.379   -117.72184    1.3928625   -116.32898   -16457.725    4.3660232    4.3660232    4.3660232   -16457.725    5238.5187   -24167.057   -30444.636    -17698.58   -18922.925   -15743.462    83.225826 
    1000    862.79124   -117.11656   0.78067165   -116.33589   -6806.7057    4.3669718    4.3669718    4.3669718   -6806.7057   -6763.7276   -36570.671    22914.282    28544.666   -3431.8831    4037.7782    83.280088 
    1100    1167.7544     -117.387    1.0566087   -116.33039    3467.8314    4.3556617    4.3556617    4.3556617    3467.8314    5012.4424   -24719.679    30110.731    27400.889    7919.5491    438.15726    82.634694 
    1200    1292.8574   -117.50293    1.1698045   -116.33313   -8189.6188    4.3634408    4.3634408    4.3634408   -8189.6188    47070.423   -38309.696   -33329.583   -17038.164    10513.226   -28211.956    83.078234 
    1300    1079.6596   -117.31079   0.97689865   -116.33389    177.46436    4.3660959    4.3660959    4.3660959    177.46436    3394.1392   -30184.209    27322.463    16837.071    336.86961    3836.1064    83.229982 
    1400    1107.0604   -117.33233    1.0016915   -116.33063    7826.1161     4.363949     4.363949     4.363949    7826.1161    32482.644   -24838.487    15834.192    24108.825   -751.89214   -363.21703     83.10727 
    1500    1290.6711    -117.4957    1.1678263   -116.32788   -26983.995    4.3689912    4.3689912    4.3689912   -26983.995    11236.967   -49947.437   -42241.516   -9564.8181    3906.5296   -27142.337     83.39567 
    1600    1051.6243   -117.28008   0.95153173   -116.32855    8448.1356    4.3569842    4.3569842    4.3569842    8448.1356    27173.337   -15734.406    13905.475    3014.1595    7280.5203    8634.8289    82.709987 
    1700      1307.15   -117.51489    1.1827368   -116.33215   -11058.201    4.3650624    4.3650624    4.3650624   -11058.201   -1655.3988   -22746.762   -8772.4436     22907.08    6465.5579   -4842.5206    83.170893 
    1800    980.73148   -117.22418   0.88738645    -116.3368   -20937.372    4.3662192    4.3662192    4.3662192   -20937.372      14804.8   -47837.669   -29779.246    1860.7495   -1713.8004   -22352.209    83.237033 
    1900    940.08863   -117.18296   0.85061195   -116.33235    20773.641    4.3471172    4.3471172    4.3471172    20773.641     48659.14   -1179.9595    14841.742   -5008.7227   -5273.8659     3201.881    82.149332 
    2000    1240.0694    -117.4554    1.1220409   -116.33336   -7771.7798    4.3722897    4.3722897    4.3722897   -7771.7798    625.98551    4487.2762   -28428.601    5022.8613   -130.44946   -474.56811      83.5847 
    2100    1151.3389   -117.37397    1.0417557   -116.33221   -18370.226    4.3688602    4.3688602    4.3688602   -18370.226    -1070.451   -22026.545   -32013.682    12330.777   -2030.3682   -19200.637    83.388169 
    2200    614.90855   -116.88498   0.55638218   -116.32859    34575.422    4.3409065    4.3409065    4.3409065    34575.422     38357.79    42789.498    22578.979   -11228.859    -5216.471   -10977.633    81.797737 
    2300    1180.3216   -117.40935    1.0679798   -116.34137    1302.8502    4.3605741    4.3605741    4.3605741    1302.8502    13045.616    8044.2951    -17181.36   -10737.305    -2167.951    19408.959    82.914601 
    2400    1318.7143   -117.52667    1.1932004   -116.33347    1257.1584    4.3705779    4.3705779    4.3705779    1257.1584   -13567.336    18315.846   -977.03438    3931.2531    2821.1204   -13603.854    83.486564 
    2500    862.49884   -117.11664   0.78040708   -116.33624   -427.81723    4.3616952    4.3616952    4.3616952   -427.81723    12245.054   -14228.131    699.62502    -5851.399    423.38511   -14949.625    82.978569 
    2600     842.7262   -117.09957   0.76251637   -116.33706   -4608.3738    4.3526918    4.3526918    4.3526918   -4608.3738    14446.736   -23069.627   -5202.2307   -13512.029    565.55199    21969.198    82.465777 
    2700    1278.3331     -117.493    1.1566626   -116.33633    8127.7617    4.3526113    4.3526113    4.3526113    8127.7617   -3827.2058    340.42854    27870.062   -10015.032   -1606.6195   -1474.2998      82.4612 
    2800    1365.2097   -117.56932    1.2352704   -116.33405    -23765.08    4.3762471    4.3762471    4.3762471    -23765.08   -2297.2681    -27943.27   -41054.704    5474.0473   -1067.3449   -22760.154    83.811868 
    2900     704.2983    -116.9703    0.6372639   -116.33303    3600.8789    4.3651175    4.3651175    4.3651175    3600.8789    16934.058   -4714.3782   -1417.0433   -12840.158    3795.7083     22443.61    83.174046 
    3000    1173.7833   -117.38948    1.0620638   -116.32742    8940.6044    4.3468819    4.3468819    4.3468819    8940.6044   -12948.209    23327.634    16442.388   -13352.032   -1085.5976    12515.818    82.135998 
    3100    1493.1944   -117.68562    1.3510737   -116.33455   -3114.4521    4.3652003    4.3652003    4.3652003   -3114.4521   -10336.656    12029.233   -11035.933    8775.6809    4229.2592   -16135.041    83.178778 
    3200    1256.6463   -117.46961    1.1370399   -116.33257    382.94213    4.3682934    4.3682934    4.3682934    382.94213   -3570.5748     28443.21   -23723.808   -1309.8016   -552.11419    21425.628    83.355719 
    3300    828.88426    -117.0848    0.7499919    -116.3348    6488.6487     4.360835     4.360835     4.360835    6488.6487   -24137.285    11360.046    32243.185   -9562.3214   -4039.7892    13874.886    82.929481 
    3400    1545.6894   -117.72224    1.3985723   -116.32366   -22254.629    4.3688298    4.3688298    4.3688298   -22254.629   -41360.177    -20857.64   -4546.0717     10023.89   -3272.6965    -9428.729    83.386432 
    3500    1270.7515   -117.46878    1.1498026   -116.31898   -1649.9921    4.3653753    4.3653753    4.3653753   -1649.9921    -4795.379   -1294.9551    1140.3578    5367.0774    2162.2938     26218.07     83.18878 
    3600    1061.1357   -117.28334   0.96013788   -116.32321   -22373.125    4.3671302    4.3671302    4.3671302   -22373.125    -20736.73   -41838.214   -4544.4317    -12410.95    4979.5331      17359.2    83.289149 
    3700    1258.9762   -117.46298    1.1391481   -116.32383   -17430.654    4.3615612    4.3615612    4.3615612   -17430.654   -38287.797   -26330.566    12326.401     8482.201   -5933.6663   -2201.7154    82.970921 
    3800    1362.1063   -117.55764    1.2324624   -116.32518   -1713.0486    4.3555481    4.3555481    4.3555481   -1713.0486   -514.42516   -5585.7715    961.05087    20213.844    7692.2434    4480.4903    82.628227 
    3900    1129.4988    -117.3553    1.0219943   -116.33331   -14997.463    4.3651458    4.3651458    4.3651458   -14997.463   -5568.6932   -30319.277    -9104.419   -12929.815     1627.141    13795.206    83.175659 
    4000    930.07294   -117.17748   0.84154955   -116.33594    3955.2081    4.3618183    4.3618183    4.3618183    3955.2081    11294.192   -18313.229    18884.661   -18767.421   -3687.5908    2538.6518    82.985594 
    4100    1312.7631    -117.5186    1.1878156   -116.33078    7645.2313    4.3578433    4.3578433    4.3578433    7645.2313     10255.04    11945.237     735.4165    15659.588   -1054.7738   -10430.768    82.758923 
    4200    930.31148   -117.17904   0.84176538   -116.33728    6749.9638     4.361839     4.361839     4.361839    6749.9638    43942.985   -10235.334    -13457.76   -10380.201    4445.7977    7822.4509    82.986776 
    4300    851.58766   -117.10933   0.77053441   -116.33879     1078.592    4.3647407    4.3647407    4.3647407     1078.592    5908.0643   -1591.5279   -1080.7604   -28771.655   -2272.9303    2014.0404    83.152508 
    4400    1156.0571   -117.37774    1.0460248   -116.33171    4208.9552    4.3627036    4.3627036    4.3627036    4208.9552    5076.6418   -1126.8858    8677.1096    759.09122   -16134.576   -16418.932    83.036132 
    4500    1127.3027   -117.35311    1.0200072    -116.3331    12353.743    4.3543826    4.3543826    4.3543826    12353.743    34786.457   -5647.9694    7922.7414    2727.7956    10500.101   -2272.4462    82.561917 
    4600    891.90686   -117.15233   0.80701607   -116.34531   -525.48917    4.3559778    4.3559778    4.3559778   -525.48917   -15787.372     10209.55    4001.3548   -27803.272    1967.8406    4793.5689    82.652685 
    4700    891.07141   -117.15684   0.80626014   -116.35058   -897.31106    4.3684028    4.3684028    4.3684028   -897.31106    39213.656   -29417.984   -12487.606   -11382.769    5302.3462   -8999.4672     83.36198 
    4800      1266.01   -117.48712    1.1455124   -116.34161    8552.3487    4.3636669    4.3636669    4.3636669    8552.3487    45829.737   -16169.623   -4003.0682    7735.7792    5026.7017   -18697.028     83.09115 
    4900    1095.6792   -117.33004   0.99139358   -116.33864    13068.469    4.3500337    4.3500337    4.3500337    13068.469    29255.308    1504.1177    8445.9829   -15605.121    11170.842   -651.19066    82.314787 
    5000    853.15283   -117.11559   0.77195061   -116.34364    -9239.548    4.3636775    4.3636775    4.3636775    -9239.548    14665.271   -23512.822   -18871.093   -28454.197    4551.6095   -5286.9348    83.091758 
    5100    1079.5291   -117.31736   0.97678059   -116.34058   -4332.0644    4.3664298    4.3664298    4.3664298   -4332.0644    55314.923   -34504.146    -33806.97    11099.654   -6621.7895   -30006.157     83.24908 
    5200    1490.1124   -117.68065     1.348285   -116.33236     19104.63    4.3438298    4.3438298    4.3438298     19104.63    31202.311    10335.707    15775.873   -14389.756   -7111.7299   -1023.5313    81.963104 
    5300    923.17402   -117.18287   0.83530725   -116.34756    9222.3906    4.3591465    4.3591465    4.3591465    9222.3906    30722.195   -10375.066    7320.0421   -30607.449    5079.3336   -2251.7678    82.833192 
    5400    1024.1642    -117.2621    0.9266853   -116.33542   -25517.101    4.3767904    4.3767904    4.3767904   -25517.101    474.84426   -37189.857    -39836.29      10742.3   -3026.9218   -29244.641    83.843082 
    5500     1290.428    -117.4961    1.1676064   -116.32849    3517.8655    4.3500482    4.3500482    4.3500482    3517.8655    4001.3191    12320.403   -5768.1253   -3788.1888    -624.4821   -2171.6891    82.315609 
    5600    1155.3023   -117.38036    1.0453418   -116.33502    9396.6057    4.3469513    4.3469513    4.3469513    9396.6057   -4367.5769    8485.4877    24071.906   -38629.638    3074.2598    945.81075    82.139932 
    5700    1049.6047    -117.2869   0.94970437    -116.3372   -12332.356     4.369124     4.369124     4.369124   -12332.356   -22010.934   -21490.412    6504.2775   -11744.639   -958.76033   -16130.972    83.403276 
    5800    1252.6505   -117.46606    1.1334245   -116.33264   -8801.6617    4.3625048    4.3625048    4.3625048   -8801.6617   -24519.194    21329.027   -23214.818    12238.874    8986.3491   -7553.3852    83.024787 
    5900    901.33651   -117.15276   0.81554821   -116.33721    4157.6317     4.354977     4.354977     4.354977    4157.6317   -31166.876    28771.099    14868.672   -24655.613   -280.46069    12850.861    82.595729 
    6000    1252.6969   -117.47015    1.1334665   -116.33669   -3312.1612    4.3543481    4.3543481    4.3543481   -3312.1612   -26753.737    -10416.77    27234.023   -26085.993   -1875.6645    9398.0992    82.559955 
    6100    1387.0964   -117.59361     1.255074   -116.33854    14661.785    4.3582008    4.3582008    4.3582008    14661.785   -9723.5471    41802.531     11906.37     9732.162   -149.40936   -23334.287     82.77929 
    6200    990.62313   -117.24349   0.89633663   -116.34715   -21385.024    4.3677926    4.3677926    4.3677926   -21385.024   -49146.521    -18837.78    3829.2279    -15838.95   -2469.2431     2725.485    83.327053 
    6300    789.23817   -117.06208   0.71411928   -116.34796   -3924.6999    4.3501038    4.3501038    4.3501038   -3924.6999   -19720.374   -37486.673    45432.948   -23096.473    2505.8115    20509.654    82.318767 
    6400    1466.8137   -117.67412    1.3272039   -116.34692    7905.5595    4.3534653    4.3534653    4.3534653    7905.5595   -14919.901    39762.618   -1126.0381    9949.8351    1891.1295    2508.7122    82.509746 
    6500    1363.0842   -117.57357    1.2333472   -116.34022   -15136.302    4.3721739    4.3721739    4.3721739   -15136.302   -40040.659   -6455.4039    1087.1565   -11710.335    668.57415   -881.48306    83.578058 
    6600    839.43482   -117.09871   0.75953826   -116.33917      -1091.9    4.3535474    4.3535474    4.3535474      -1091.9   -28401.801   -27454.195    52580.297   -28954.768    6202.1853    5641.0299    82.514414 
    6700    1118.0115   -117.35062    1.0116003   -116.33902    2384.2894    4.3572003    4.3572003    4.3572003    2384.2894   -2143.5341    26394.174   -17097.772    15417.843    6026.7278    16907.781    82.722295 
    6800    1558.3698   -117.73601    1.4100458   -116.32596    -17024.94    4.3726434    4.3726434    4.3726434    -17024.94   -30896.404   -9550.2982   -10628.117   -7343.7156    1177.2458    1279.4518    83.604989 
    6900    1083.8124   -117.30886   0.98065623    -116.3282    4187.7232    4.3599513    4.3599513    4.3599513    4187.7232   -26974.801    3451.0643    36086.906   -22897.176    2104.6986    4123.2216    82.879076 
    7000    1153.8811   -117.37559    1.0440559   -116.33154   -6964.4022    4.3584884    4.3584884    4.3584884   -6964.4022   -12966.897   -409.37196   -7516.9374    12104.232    6841.2213    29722.295    82.795684 
    7100    1388.6128   -117.58679     1.256446   -116.33035   -9232.2426    4.3645128    4.3645128    4.3645128   -9232.2426   -6359.1422   -5934.6724   -15402.913    2995.0005    7040.6961   -9062.9786    83.139482 
    7200    1139.0369   -117.36362    1.0306245     -116.333    679.52919    4.3709448    4.3709448    4.3709448    679.52919   -32975.521    38623.093   -3608.9846   -14827.781    6431.5776    -3565.695    83.507592 
    7300    1555.3311   -117.73168    1.4072963   -116.32438    -23895.87    4.3723927    4.3723927    4.3723927    -23895.87   -28543.254   -26406.604   -16737.752    1205.3799     4902.521    14974.708    83.590607 
    7400    1335.5529   -117.52831    1.2084363   -116.31988    9196.7621    4.3511041    4.3511041    4.3511041    9196.7621    4796.4419     32031.54   -9237.6954    17172.439    8835.3548   -1681.9946    82.375571 
    7500    1119.8474   -117.34711    1.0132615   -116.33385   -10461.538    4.3627402    4.3627402    4.3627402   -10461.538   -9946.7455    410.50268   -21848.371    -19086.02    7684.4617   -8456.3316    83.038227 
    7600     1290.216   -117.49369    1.1674145   -116.32627   -23209.729    4.3831587    4.3831587    4.3831587   -23209.729   -25950.835   -28716.199   -14962.152   -6967.1675    3892.8171    3866.1475    84.209596 
    7700     1740.719   -117.89325    1.5750391   -116.31821     6798.632    4.3528313    4.3528313    4.3528313     6798.632    19561.907    9996.9862   -9162.9971    27837.102    4474.7999    3735.1773    82.473707 
    7800    1055.3777   -117.28725   0.95492789   -116.33233    1972.7659    4.3497281    4.3497281    4.3497281    1972.7659    3106.9724   -9751.0614    12562.387   -15899.374      4930.58   -10724.696    82.297443 
    7900    960.44123   -117.21018   0.86902741   -116.34116   -31824.839    4.3779314    4.3779314    4.3779314   -31824.839   -33409.617   -42656.511   -19408.388   -24272.575    9107.8058    1208.8828    83.908675 
    8000    1609.3486   -117.77387    1.4561725    -116.3177   -2274.3782    4.3747462    4.3747462    4.3747462   -2274.3782    406.18624   -15888.604    8659.2835    13921.243    2541.4966    1157.9568    83.725664 
    8100    1251.6308   -117.45125    1.1325018   -116.31875   -10524.045    4.3670831    4.3670831    4.3670831   -10524.045   -17741.236   -29865.924    16035.024   -12874.514    4314.7766   -10123.971    83.286451 
    8200    792.21293   -117.03957    0.7168109   -116.32276    -11114.72    4.3662847    4.3662847    4.3662847    -11114.72   -15436.493   -14952.338   -2955.3288   -31285.464    9903.0684   -4538.4684    83.240781 
    8300    1550.6117   -117.72076    1.4030261   -116.31773    2385.1836    4.3624004    4.3624004    4.3624004    2385.1836    23828.217    6200.6739    -22873.34    3058.4771    12748.598    5353.1648    83.018822 
    8400    1332.5501   -117.53178    1.2057193   -116.32606   -16630.132    4.3639479    4.3639479    4.3639479   -16630.132   -6598.4133   -22810.715   -20481.267   -12014.577     4570.423   -2926.7074    83.107204 
    8500    849.08536   -117.10041   0.76827028   -116.33214   -9047.2743    4.3606774    4.3606774    4.3606774   -9047.2743    148.26821   -21141.372   -6148.7188   -21323.739     777.7202   -11168.585    82.920493 
    8600    1286.8546   -117.49199    1.1643731   -116.32762   -3913.1374    4.3646886    4.3646886    4.3646886   -3913.1374    2287.9759    6786.8398   -20814.228    3625.2843    10712.377    13590.579    83.149529 
    8700    1251.5652   -117.45727    1.1324425   -116.32483   -14348.695    4.3637995    4.3637995    4.3637995   -14348.695   -14492.774   -18009.367   -10543.942    3671.0578    5242.9254     4372.183    83.098727 
    8800    936.65097   -117.17687   0.84750148   -116.32937    130.17641    4.3576529    4.3576529    4.3576529    130.17641     -4646.76   -35131.186    40168.475   -21302.789   -573.93723   -6156.5482    82.748074 
    8900    1187.4982   -117.40216    1.0744733   -116.32769   -7437.9609    4.3628357    4.3628357    4.3628357   -7437.9609    1591.9653   -7632.9428   -16272.905    2439.2952    829.10443    4095.4382    83.043677 
    9000    1147.0485   -117.36799    1.0378736   -116.33012   -9529.6069    4.3580098    4.3580098    4.3580098   -9529.6069   -15108.781   -28164.479    14684.439    23514.115    3186.1483    12119.513    82.768411 
    9100    931.69658    -117.1789   0.84301865   -116.33588     9044.451    4.3588742    4.3588742    4.3588742     9044.451    -9763.197   -4004.3673    40900.917   -18457.052   -2680.8657   -2888.0776     82.81767 
    9200     1280.282   -117.48915    1.1584261   -116.33073   -6186.6308    4.3617951    4.3617951    4.3617951   -6186.6308    5002.3716   -4655.1928   -18907.071   -7729.8272   -13709.633   -5221.0681    82.984271 
    9300    863.08151   -117.11502   0.78093429   -116.33409    6339.3773    4.3583859    4.3583859    4.3583859    6339.3773    5455.6293   -1420.0079     14982.51    10913.373   -2571.7456     16888.82    82.789841 
    9400    970.85111   -117.21209   0.87844648   -116.33365    -6362.363    4.3666415    4.3666415    4.3666415    -6362.363   -7463.4981   -35370.505    23746.915   -16369.594   -658.22004    5459.2704    83.261189 
    9500    1287.6325   -117.49231     1.165077   -116.32724    8291.8682     4.357399     4.357399     4.357399    8291.8682    9434.3794    20834.425   -5393.2002   -4547.7799   -20798.114   -10968.858    82.733615 
    9600    984.02276   -117.22508   0.89036447   -116.33471    2091.4483    4.3545321    4.3545321    4.3545321    2091.4483    1084.2071    6332.7474   -1142.6095    5502.2012   -6831.9583    11427.653    82.570421 
    9700    877.80918   -117.13084   0.79426019   -116.33658   -6921.9905    4.3671337    4.3671337    4.3671337   -6921.9905   -8500.1246   -2832.4527   -9433.3942    -5064.148    11180.047    8401.3105    83.289349 
    9800    1298.6329   -117.50156    1.1750303   -116.32653    9602.0774    4.3566663    4.3566663    4.3566663    9602.0774    2816.6176    27434.492   -1444.8778    -2576.023    -15094.85   -4008.9667    82.691885 
    9900    911.31873   -117.16117   0.82458034   -116.33659    -12445.66    4.3634283    4.3634283    4.3634283    -12445.66   -35264.526    20322.998   -22395.453   -7028.5689   -14901.029   -256.82852    83.077521 
   10000    1121.1613   -117.34658    1.0144503   -116.33213   -9133.2993    4.3592564    4.3592564    4.3592564   -9133.2993   -11335.301    5263.8661   -21328.463    14480.149    16992.914    7762.7383    82.839456 
   10100    1197.7495   -117.41453    1.0837489   -116.33078    14205.824    4.3534311    4.3534311    4.3534311    14205.824   -10115.887     20062.62    32670.739    6732.4346   -8618.4862     1740.086    82.507801 
   10200    859.38553   -117.11482   0.77759009   -116.33723     -24894.7    4.3754501    4.3754501    4.3754501     -24894.7   -31357.956    2422.7516   -45748.896     -6310.89   -36092.117   -9084.4345     83.76608 
   10300    1163.1262   -117.38258     1.052421   -116.33016    2161.4536    4.3577281    4.3577281    4.3577281    2161.4536    1215.0352    2880.9999    2388.3257    14697.696    7581.5497       4835.8     82.75236 
   10400    1303.0851   -117.51016    1.1790588    -116.3311    13413.748    4.3527512    4.3527512    4.3527512    13413.748    6603.2599    -1295.168    34933.152    4806.8048   -4853.6546    4850.1385    82.469155 
   10500    711.43797   -116.98382   0.64372403    -116.3401   -12173.947     4.373836     4.373836     4.373836   -12173.947    1453.8977   -15687.845   -22287.893   -1269.2238     -50391.7    -11749.53    83.673415 
   10600    1110.1245   -117.33802     1.004464   -116.33355    3909.0084    4.3563416    4.3563416    4.3563416    3909.0084    -5145.425   -11718.013    28590.463    6777.5519    -20105.86    238.98013    82.673396 
   10700    1335.3416   -117.54147    1.2082452   -116.33322    10367.888    4.3565624    4.3565624    4.3565624    10367.888     592.9548    -15796.23     46306.94    12961.164    4967.0898    12907.725    82.685969 
   10800    1080.3727   -117.31512   0.97754394   -116.33758   -12748.685    4.3682595    4.3682595    4.3682595   -12748.685   -22076.912   -6128.1238    -10041.02    5084.5833   -43708.947    8840.4242    83.353777 
   10900    1228.0876   -117.44306    1.1111995   -116.33186    -3263.201     4.365135     4.365135     4.365135    -3263.201   -7641.5826   -19075.821    16927.801   -3351.3649    -16257.32    -9490.219    83.175044 
   11000    1347.7534   -117.54909    1.2194756   -116.32961   -14318.781    4.3655061    4.3655061    4.3655061   -14318.781    6124.3568   -39127.848   -9952.8514    17654.995    8619.3356    8871.9404    83.196256 
   11100    1011.5646   -117.24646   0.91528494   -116.33117   -6899.8647    4.3559268    4.3559268    4.3559268   -6899.8647   -7047.0413   -3621.1453   -10031.407     2410.625   -41873.101     16529.47    82.649784 
   11200     1150.058   -117.37347    1.0405967   -116.33287   -615.65879    4.3684159    4.3684159    4.3684159   -615.65879     -29060.6   -9492.8144    36706.438   -4683.0223   -14041.003   -2814.6026    83.362733 
   11300    1445.5809   -117.63256     1.307992   -116.32456   -27207.032    4.3728458    4.3728458    4.3728458   -27207.032   -28994.647   -45799.748   -6826.7017    13798.359    11551.108    7129.9528    83.616594 
   11400    649.45007   -116.91245   0.58763607   -116.32481     18596.63    4.3411738    4.3411738    4.3411738     18596.63   -12439.307    28536.298      39692.9    5552.2907   -38172.087    3975.9663    81.812852 
   11500     1029.553   -117.27566   0.93156121    -116.3441   -3731.8245    4.3577358    4.3577358    4.3577358   -3731.8245   -21878.119    8793.1875    1889.4583    756.93556   -23727.872    9895.2677    82.752798 
   11600    1539.4502   -117.72516    1.3929268   -116.33223   -15630.922    4.3688098    4.3688098    4.3688098   -15630.922   -31579.314   -24166.914    8853.4631   -7365.7445    13585.321   -6828.1177    83.385282 
   11700    980.67597   -117.22245   0.88733622   -116.33512    835.47003    4.3468463    4.3468463    4.3468463    835.47003   -14331.163    6165.8997    10671.673    5945.9889   -29886.002   -2736.4297    82.133977 
   11800    852.64208   -117.11772   0.77148848   -116.34623   -16252.067    4.3606238    4.3606238    4.3606238   -16252.067   -11507.133    9657.7114   -46906.778    7464.4079   -39056.246    5359.8907    82.917435 
   11900    1510.3131   -117.69547     1.366563   -116.32891   -5092.9385    4.3643237    4.3643237    4.3643237   -5092.9385    9590.2141   -16542.628   -8326.4013   -5599.8097    15115.621   -6927.4032    83.128676 
   12000    825.73802   -117.08101   0.74714512   -116.33386   -3814.4687    4.3611715    4.3611715    4.3611715   -3814.4687   -7667.9247   -15232.913    11457.432     7574.785   -26737.095    -4440.377    82.948685 
   12100     640.6503   -116.92143   0.57967386   -116.34176   -18049.537    4.3653426    4.3653426    4.3653426   -18049.537   -31793.433    4353.5947   -26708.774    6150.1349   -43148.721   -5256.9826    83.186913 
   12200    1652.6808    -117.8252    1.4953803   -116.32982    15846.364      4.34399      4.34399      4.34399    15846.364    25283.497    12882.842    9372.7528    78.569168    13811.665    585.62893    81.972173 
   12300    1133.6526   -117.37604    1.0257527   -116.35029    5155.2166    4.3560839    4.3560839    4.3560839    5155.2166    7794.8869   -16618.247    24289.009   -4374.4592   -8610.5565   -7486.3239    82.658727 
   12400    569.70597   -116.86652   0.51548194   -116.35104    -44435.91    4.3748793    4.3748793    4.3748793    -44435.91   -69287.114   -10127.908   -53892.709    11289.206   -49299.216   -8381.2794    83.733306 
   12500    1084.0537   -117.31795   0.98087457   -116.33707    22658.986    4.3401136    4.3401136    4.3401136    22658.986    16790.511    23663.348    27523.099    8313.9488   -566.97991     10596.07    81.752925 
   12600    1508.8636   -117.70703    1.3652515   -116.34178    2852.9195    4.3484876    4.3484876    4.3484876    2852.9195    10684.763     4158.925   -6284.9299   -5007.1487    18018.308    1294.8882    82.227047 
   12700    885.74944    -117.1465   0.80144471   -116.34505   -28558.926    4.3696186    4.3696186    4.3696186   -28558.926    -29962.13   -232.12477   -55482.523    739.83457   -36043.226   -8145.0333    83.431602 
   12800    903.59233     -117.155   0.81758933   -116.33741    11481.069    4.3510212    4.3510212    4.3510212    11481.069    17752.943    2426.5129     14263.75     8101.738   -20390.087    11466.506    82.370858 
   12900    1186.3777   -117.40942    1.0734594   -116.33596   -2806.6208     4.358426     4.358426     4.358426   -2806.6208   -11536.636   -11218.539    14335.312    2166.0926    30438.288    10267.161    82.792123 
   13000     1157.336   -117.38591    1.0471819   -116.33872   -393.66823    4.3529331    4.3529331    4.3529331   -393.66823   -16121.418    6095.2711    8845.1418   -2312.4243    1864.8392   -2764.3284    82.479494 
   13100    901.51391   -117.16338   0.81570873   -116.34767    17859.386    4.3574668    4.3574668    4.3574668    17859.386   -2217.0967    3366.1107    52429.145    17994.651   -27746.081    5621.4408    82.737472 
   13200    1191.4569   -117.41564    1.0780553   -116.33759   -25024.409    4.3794684    4.3794684    4.3794684   -25024.409   -29237.558   -43545.846   -2289.8241     8595.061    13901.784    11308.522    83.997079 
   13300     1406.293   -117.60577    1.2724435   -116.33333    7031.9917    4.3464313    4.3464313    4.3464313    7031.9917    4104.2534    4453.1902    12538.532   -11300.534     17753.06    7826.6609    82.110453 
   13400    1146.4828   -117.37775    1.0373617   -116.34039    8273.4824    4.3412718    4.3412718    4.3412718    8273.4824   -19149.849    23510.518    20459.778    15384.396   -26416.521   -4279.4569    81.818392 
   13500    967.52001   -117.22014   0.87543244   -116.34471   -26184.352    4.3785027    4.3785027    4.3785027   -26184.352   -38490.597    -43715.35    3652.8908    21914.097   -16407.645    4288.8651    83.941528 
   13600    1397.9748   -117.59877    1.2649169   -116.33385    2543.2594    4.3588825    4.3588825    4.3588825    2543.2594   -6336.6687   -26981.705    40948.152   -6111.7371    13858.095    13564.307    82.818143 
   13700    965.44669    -117.2067   0.87355645   -116.33315    13572.138    4.3401676    4.3401676    4.3401676    13572.138   -11599.349    10249.859    42065.902     11344.31   -9946.5505    2823.0809    81.755976 
   13800    499.15439   -116.80265   0.45164538     -116.351   -20865.216    4.3640926    4.3640926    4.3640926   -20865.216   -65983.635   -5728.9928    9116.9815    26369.068   -32567.543   -2093.8147    83.115469 
   13900    1233.8412   -117.45368    1.1164055   -116.33728   -9917.5861    4.3614813    4.3614813    4.3614813   -9917.5861    -16106.15   -18775.758    5129.1497   -2527.2275    531.17703    7866.7483    82.966363 
   14000    1127.6405   -117.35797    1.0203129   -116.33765    7922.6501    4.3514079    4.3514079    4.3514079    7922.6501    -13001.12    15432.167    21336.903   -3460.1512   -543.11712     6587.382    82.392826 
   14100    708.26353   -116.98946   0.64085173   -116.34861    6706.9273     4.355367     4.355367     4.355367    6706.9273   -33237.582    38739.005    14619.359    19270.203    -28470.43   -10326.891     82.61792 
   14200    839.95775   -117.10625   0.76001142   -116.34624    7278.0266    4.3596049    4.3596049    4.3596049    7278.0266   -24763.621    22332.336    24265.364    5839.3244   -14418.486   -3457.7136    82.859324 
   14300    1075.4428   -117.31176   0.97308328   -116.33868    362.67147     4.363453     4.363453     4.363453    362.67147   -16728.718    4737.3494    13079.383   -24103.272    6537.3721    2555.8576    83.078934 
   14400    893.99987   -117.14323   0.80890987   -116.33432     5877.052    4.3607919    4.3607919    4.3607919     5877.052    -18110.79    29717.888     6024.058    8248.3626   -26864.348   -21.238305    82.927024 
   14500    957.96066   -117.19864   0.86678294   -116.33186    -6176.352    4.3578987    4.3578987    4.3578987    -6176.352   -27356.469   -4645.0801    13472.493    11710.341   -30222.888   -4393.3505    82.762077 
   14600    1058.9553   -117.28914   0.95816505   -116.33098   -6955.3373    4.3600851    4.3600851    4.3600851   -6955.3373   -5221.9938   -31339.172    15695.154   -27051.276    9069.9493     6867.248    82.886708 
   14700    989.35994   -117.22651   0.89519366   -116.33131    -21664.26     4.370174     4.370174     4.370174    -21664.26   -14333.756   -20088.394   -30570.631   -6341.7238   -12928.487    14091.381    83.463425 
   14800    926.23429   -117.17324   0.83807625   -116.33517   -9623.1691    4.3600099    4.3600099    4.3600099   -9623.1691   -30279.462    7778.2557   -6368.3014    21016.394   -30356.314   -5541.6525    82.882423 
   14900    1015.1468   -117.25267   0.91852619   -116.33415    15748.563    4.3394271    4.3394271    4.3394271    15748.563   -9224.6443    20120.808    36349.525   -9217.5198   -7946.0656    2291.9556    81.714137 
   15000    996.93131   -117.25079    0.9020444   -116.34875    12952.433    4.3602512    4.3602512    4.3602512    12952.433    6073.2417    28224.687    4559.3701    -13261.72   -1707.7396    18864.243    82.896182 
   15100    933.23173   -117.18162   0.84440768   -116.33721   -9108.6661     4.377725     4.377725     4.377725   -9108.6661   -26415.924    21807.684   -22717.759    16028.564   -14893.825    2649.2259    83.896808 
   15200    724.93524   -116.98214   0.65593664   -116.32621     9428.779    4.3573755    4.3573755    4.3573755     9428.779   -13373.546    29001.082    12658.801    3779.1178   -8442.3961   -4633.0568    82.732274 
   15300    1112.6788   -117.32905    1.0067751   -116.32228    12788.725    4.3482976    4.3482976    4.3482976    12788.725   -4152.3658    7461.4315    35057.108   -22215.259    363.01529    1290.0131    82.216271 
   15400    1152.8808   -117.37555    1.0431508    -116.3324     738.2486    4.3587238    4.3587238    4.3587238     738.2486   -14008.246    34528.347   -18305.355    850.17981   -13777.093    10654.523    82.809099 
   15500    699.54934   -116.97156   0.63296695    -116.3386   -12981.774    4.3691538    4.3691538    4.3691538   -12981.774    -22106.95   -4569.9052   -12268.467    8088.1836   -9056.9085   -16295.128    83.404982 
   15600    972.89887    -117.2133   0.88029934     -116.333   -5148.7504     4.355982     4.355982     4.355982   -5148.7504    5537.1807   -24533.284    3549.8524   -14409.751   -1076.2045    -13520.26    82.652927 
   15700    1362.0514    -117.5636    1.2324127   -116.33119   -3122.7292     4.343864     4.343864     4.343864   -3122.7292    3440.7987    13429.791   -26238.778   -7629.5504   -2678.2692    16308.666     81.96504 
   15800    786.87485   -117.05799    0.7119809   -116.34601   -9788.4675    4.3602774    4.3602774    4.3602774   -9788.4675   -1627.6585    16222.543   -43960.287    14913.412    4523.5228    -8594.419    82.897675 
   15900    1276.7316   -117.49053    1.1552136   -116.33532   -17564.655    4.3660021    4.3660021    4.3660021   -17564.655   -1247.0748   -21823.992   -29622.899   -1479.8541   -84.461269   -16678.576     83.22462 
   16000    1374.3399   -117.57545    1.2435317   -116.33192   -9673.1595    4.3561043    4.3561043    4.3561043   -9673.1595    14428.355    -9519.718   -33928.115   -14861.697   -5390.9958    19448.874    82.659886 
   16100      686.714    -116.9646   0.62135326   -116.34324     2298.223    4.3474342    4.3474342    4.3474342     2298.223    99.217867    37244.969   -30449.518    8229.7136   -3783.8014    4147.4769    82.167304 
   16200     1125.109   -117.36681    1.0180223   -116.34879   -3682.2736    4.3545586    4.3545586    4.3545586   -3682.2736   -5835.3333    17498.397   -22709.884    11530.947     10943.12   -4848.0572    82.571925 
   16300    1597.2096   -117.78486    1.4451889   -116.33967   -2360.6133    4.3634577    4.3634577    4.3634577   -2360.6133    13975.516    -25164.85    4107.4937     1866.921    1583.6418    8213.8135    83.079198 
   16400    899.41891    -117.1616   0.81381313   -116.34779    18706.435    4.3498056    4.3498056    4.3498056    18706.435    28265.574    37914.982   -10061.252    2164.9476    -15863.22    9397.7318    82.301842 
   16500     721.9197    -117.0061   0.65320812   -116.35289   -7274.9822    4.3596508    4.3596508    4.3596508   -7274.9822   -25079.057    20919.952   -17665.841    6069.1498   -1736.6386    5673.6482    82.861946 
   16600     1359.286   -117.56542    1.2299105   -116.33551       -19736    4.3665394    4.3665394    4.3665394       -19736   -6657.4488   -37341.112   -15209.439    4390.3153    6150.3248   -12378.989    83.255351 
   16700    1303.3322   -117.51031    1.1792824   -116.33103    14307.148    4.3410543    4.3410543    4.3410543    14307.148    38861.892     2600.269    1459.2817   -14706.866    -5353.158    4984.4263    81.806096 
   16800    891.78493   -117.15416   0.80690574   -116.34726   -8931.2943    4.3571499    4.3571499    4.3571499   -8931.2943   -32325.875    6395.3471   -863.35549    8612.1466   -10256.027    13882.904    82.719425 
   16900    1124.4868   -117.35835    1.0174593   -116.34089   -19009.597    4.3627871    4.3627871    4.3627871   -19009.597   -14456.194   -8979.5795   -33593.017    11753.798     6799.489    -16609.13    83.040904 
   17000    1265.2605   -117.47817    1.1448343   -116.33333      19754.2    4.3380606    4.3380606    4.3380606      19754.2    55452.691   -11768.799     15578.71   -20068.893      4371.54   -14472.086    81.636965 
   17100     1144.451   -117.38305    1.0355233   -116.34752   -8271.0209    4.3622287    4.3622287    4.3622287   -8271.0209   -14427.106   -20137.003    9751.0468   -9551.0237   -6023.7692    18843.999    83.009024 
   17200    1222.3775   -117.44479    1.1060328   -116.33876   -15513.077    4.3621842    4.3621842    4.3621842   -15513.077    -6244.045    43.097339   -40338.282    3602.9912    2867.6629   -2816.9581    83.006482 
   17300    1071.1928   -117.30273   0.96923776   -116.33349    23367.553    4.3332068    4.3332068    4.3332068    23367.553    57416.946    8267.5663    4418.1455   -637.91868    3344.5505   -37555.319    81.363243 
   17400    1320.4605   -117.54035    1.1947804   -116.34557   -8541.3533    4.3604905    4.3604905    4.3604905   -8541.3533   -3558.1038   -33527.087    11461.131   -13960.957    1534.9613    58.687121     82.90983 
   17500    1369.5939   -117.57224    1.2392374   -116.33301   -10654.191    4.3640767    4.3640767    4.3640767   -10654.191   -10057.632    9154.2785   -31059.218   -10794.672   -11117.441     4302.686    83.114564 
   17600    730.71999   -116.99881    0.6611708   -116.33764    10692.704    4.3446598    4.3446598    4.3446598    10692.704    65502.973    4107.9495    -37532.81    9265.7823    6744.1677   -32243.756    82.010097 
   17700    1095.3561   -117.33316   0.99110124   -116.34206   -12217.263    4.3563088    4.3563088    4.3563088   -12217.263    2892.5576   -15373.363   -24170.984   -7697.1059    9960.3933   -9470.5385    82.671532 
   17800    1547.5829   -117.73792    1.4002855   -116.33763    4836.6186    4.3476729    4.3476729    4.3476729    4836.6186     23774.73    3789.5808   -13054.455   -10173.185    -9900.854    10813.789    82.180844 
   17900    789.05388   -117.06764   0.71395253   -116.35369    4831.9499    4.3565234    4.3565234    4.3565234    4831.9499    21885.454    34078.811   -41468.415    3013.5383   -1949.0522   -14237.508    82.683747 
   18000    1067.5255   -117.31259   0.96591952   -116.34667   -12426.942     4.358896     4.358896     4.358896   -12426.942    1893.3584    5391.1818   -44565.366   -955.11328    16449.404   -16476.397    82.818911 
   18100    1000.3636   -117.24326   0.90515001   -116.33811     28914.52     4.338194     4.338194     4.338194     28914.52    32811.166    69679.239   -15746.844   -860.79386   -1934.0443    18126.033    81.644498 
   18200    830.45434     -117.104   0.75141254   -116.35259   -13025.548    4.3589159    4.3589159    4.3589159   -13025.548   -3741.9554    6920.5941   -42255.284   -3595.0365   -10300.131    18245.345    82.820046 
   18300    1217.1688   -117.44032    1.1013199     -116.339   -136.65675    4.3592912    4.3592912    4.3592912   -136.65675   -20376.385    49198.929   -29232.514   -6427.6675    11874.561   -9537.4044    82.841443 
   18400     1248.287   -117.46516    1.1294763   -116.33569    2800.4524    4.3463027    4.3463027    4.3463027    2800.4524    21673.361    6513.1743   -19785.178    14833.538    557.56306    14078.472    82.103167 
   18500    426.98294   -116.73696   0.38634314   -116.35061   -22230.763    4.3560091    4.3560091    4.3560091   -22230.763   -16549.249   -18164.354   -31978.685    4551.3884    -6509.335    28533.641    82.654469 
   18600    1153.5246   -117.38305    1.0437333   -116.33932   -7026.4753    4.3548869    4.3548869    4.3548869   -7026.4753   -15960.062    24954.625   -30073.989   -12836.683    2700.1535   -4666.7368    82.590605 
   18700    1154.4392   -117.37841    1.0445608   -116.33385   -17463.991    4.3653171    4.3653171    4.3653171   -17463.991   -19220.487     5336.713   -38508.198    19806.911     671.6373   -2294.3566    83.185454 
   18800    750.45629    -117.0217   0.67902862   -116.34267   -8356.1873    4.3473494    4.3473494    4.3473494   -8356.1873   -2698.1476   -13554.755   -8815.6595    19148.726   -6257.6098    24268.641    82.162501 
   18900    1030.2374   -117.27394   0.93218049   -116.34176    20680.562    4.3412531    4.3412531    4.3412531    20680.562   -8464.0929     63962.12     6543.659   -5135.8268   -17345.089    10404.901    81.817332 
   19000    1450.8764   -117.65152    1.3127835   -116.33873   -25554.735    4.3687899    4.3687899    4.3687899   -25554.735   -6241.9445   -32349.071    -38073.19   -1493.3936    3088.9768    -31782.12    83.384145 
   19100    873.36763   -117.12867   0.79024138   -116.33843    2783.7178      4.35514      4.35514      4.35514    2783.7178    2429.4342   -6007.4916    11929.211    13105.316    1185.0631    3110.0018    82.605002 
   19200    1146.4057   -117.37425     1.037292   -116.33696   -1860.3246    4.3547664    4.3547664    4.3547664   -1860.3246    -28622.84    11613.321    11428.546    7456.1907   -21916.283    16782.063    82.583749 
   19300    1469.1329   -117.66425    1.3293023   -116.33494   -4382.1011    4.3540309    4.3540309    4.3540309   -4382.1011   -10063.309    2568.4918   -5651.4865    1529.3877   -6359.6823   -22790.261    82.541909 
   19400    1055.2826   -117.29897   0.95484188   -116.34413    14351.254    4.3447692    4.3447692    4.3447692    14351.254    8921.9409    22318.114    11813.706   -3420.1364    5402.1062   -21820.206    82.016294 
   19500    885.84096   -117.15248   0.80152751   -116.35096   -26793.215    4.3672964    4.3672964    4.3672964   -26793.215   -42088.451   -11296.073   -26995.123    22197.924   -16842.208    32361.168    83.298658 
   19600     1192.135   -117.42032    1.0786688   -116.34165   -1929.1327    4.3523495    4.3523495    4.3523495   -1929.1327   -24340.965    24377.526   -5823.9596      3664.76   -2265.8954    6089.5996    82.446322 
   19700     1413.178   -117.61127    1.2786731    -116.3326    5619.6289    4.3427109    4.3427109    4.3427109    5619.6289    3142.9712    7794.6656    5921.2499   -2346.5532    12638.401   -34839.472    81.899781 
   19800    935.15366   -117.18809   0.84614668   -116.34194   -33381.815     4.366621     4.366621     4.366621   -33381.815   -38770.728   -34455.673   -26919.044    15439.087   -16077.196     17325.94    83.260016 
   19900    855.59342   -117.12171   0.77415891   -116.34755   -5078.5218    4.3473176    4.3473176    4.3473176   -5078.5218   -21470.837    5980.6502    254.62118    6397.2401    -10859.52    23051.802    82.160695 
   20000    1380.6834    -117.5917    1.2492714   -116.34243    10978.422    4.3507425    4.3507425    4.3507425    10978.422   -3266.1191    16143.306     20058.08   -2681.0092    11970.346   -11977.306    82.355034 
   20100    1211.2985   -117.43232    1.0960083   -116.33631   -20066.312    4.3677283    4.3677283    4.3677283   -20066.312   -23471.798   -27799.967   -8927.1719    1416.7879   -8962.1507   -5591.2861    83.323373 
   20200    421.20945   -116.71661   0.38111916   -116.33549    9105.5174    4.3501883    4.3501883    4.3501883    9105.5174   -4154.5595    1596.3732    29874.739    8721.1309   -18162.855    18238.707    82.323565 
   20300    1180.2014   -117.40094     1.067871   -116.33307    1452.6512    4.3582959    4.3582959    4.3582959    1452.6512    658.89506   -1933.5025    5632.5609   -7282.4562    13179.332    18.557464    82.784708 
   20400    1582.0918   -117.76257    1.4315099   -116.33106    6321.3875    4.3499328    4.3499328    4.3499328    6321.3875     153.9889    17904.891    905.28294    310.22628    194.83518   -9637.3484    82.309063 
   20500    699.44884    -116.9836   0.63287601   -116.35073     6035.538    4.3439116    4.3439116    4.3439116     6035.538   -4373.7876    17062.962    5417.4402    13806.744   -25488.509    16858.977    81.967733 
   20600    930.61371   -117.19473   0.84203884   -116.35269   -22336.957    4.3626605    4.3626605    4.3626605   -22336.957   -12840.276    -30041.56   -24129.035   -659.06051     5051.921    18595.653    83.033672 
   20700    1584.2801   -117.76856    1.4334899   -116.33507    12217.498    4.3474445    4.3474445    4.3474445    12217.498    18858.357    28571.941   -10777.803   -423.96364    7695.2959   -6675.4243     82.16789 
   20800    946.45065   -117.20263   0.85636844   -116.34626   -16823.671    4.3547988    4.3547988    4.3547988   -16823.671   -14783.609   -10000.655    -25686.75    18240.256   -17634.762     -10610.1    82.585593 
   20900    893.81451    -117.1467   0.80874216   -116.33796   -29506.214    4.3626346    4.3626346    4.3626346   -29506.214   -21270.665   -30196.655   -37051.323    20583.516   -14298.119    30237.255    83.032196 
   21000    1577.0247   -117.74972     1.426925   -116.32279    16270.268     4.339924     4.339924     4.339924    16270.268    31088.426     22772.68   -5050.3016   -8747.9366    7749.8434   -4271.3174    81.742207 
   21100       1097.9   -117.33193   0.99340302   -116.33852   -27515.367    4.3591473    4.3591473    4.3591473   -27515.367   -13439.162    -27319.88   -41787.057   -4097.4155   -7472.3959   -33114.437    82.833236 
   21200    726.82393   -117.00192   0.65764556   -116.34427   -18155.905    4.3534741    4.3534741    4.3534741   -18155.905   -14581.581   -14693.802   -25192.332    23275.039   -24892.761    18788.957    82.510249 
   21300    1352.8184   -117.56109    1.2240585   -116.33703    16215.082     4.340859     4.340859     4.340859    16215.082     37971.15    10400.492    273.60294    6835.2475    9046.1289     9879.363    81.795053 
   21400    1266.6239   -117.47816    1.1460679   -116.33209   -25784.896    4.3710769    4.3710769    4.3710769   -25784.896   -13694.143   -16247.612   -47412.933    2386.6449    8448.2166   -25163.594    83.515162 
   21500    753.78199   -117.01849   0.68203778   -116.33645   -1798.7658    4.3520224    4.3520224    4.3520224   -1798.7658    4434.2692    12827.368   -22657.935    19897.634   -30507.885    -2670.123    82.427736 
   21600    1219.0356   -117.43132     1.103009   -116.32831    18018.151    4.3388867    4.3388867    4.3388867    18018.151    15318.842    30560.039    8175.5724    10711.323    -2744.507    12988.281    81.683611 
   21700    1364.4205   -117.56534    1.2345563   -116.33078   -4054.7696    4.3606938    4.3606938    4.3606938   -4054.7696   -9122.5563    9503.2806   -12545.033   -9808.8473     23339.75   -11957.819    82.921431 
   21800    904.31903   -117.15603   0.81824686   -116.33778    14656.112     4.353257     4.353257     4.353257    14656.112    6125.8738    35829.995    2012.4673    6039.6925   -18074.679   -9539.9161    82.497904 
   21900    960.59622   -117.20861   0.86916765   -116.33944   -8364.5201     4.355176     4.355176     4.355176   -8364.5201   -23772.368   -236.26893   -1084.9233    13144.505   -26753.367    6530.1377    82.607053 
   22000    1425.5922   -117.62303    1.2899058   -116.33312     -2557.88    4.3491283    4.3491283    4.3491283     -2557.88   -14701.813    -5509.874    12538.047   -16637.336     21912.47   -6053.4223    82.263401 
   22100    1045.7864   -117.28306   0.94624952   -116.33681    19249.933    4.3468985    4.3468985    4.3468985    19249.933    19192.765    35231.841    3325.1918    53.701014   -12522.394   -2203.4863    82.136935 
   22200    985.39187    -117.2288   0.89160327   -116.33719   -33246.476    4.3694693    4.3694693    4.3694693   -33246.476   -52231.562   -8244.3435   -39263.523    17914.087    -40263.83   -3334.0626    83.423054 
   22300    1346.7518   -117.54987    1.2185693    -116.3313    2626.9641    4.3439012    4.3439012    4.3439012    2626.9641   -6448.4122   -6149.9833    20479.288   -5435.7316    16464.885    3654.9345    81.967144 
   22400    1057.9703   -117.29093   0.95727379   -116.33366    11962.072    4.3360203    4.3360203    4.3360203    11962.072    4467.9545    26460.113    4958.1471   -16785.727   -9829.6571    -3397.667    81.521831 
   22500    914.61371   -117.16563    0.8275617   -116.33807   -33077.064    4.3694194    4.3694194    4.3694194   -33077.064   -59002.127    17212.951   -57442.014    9409.1194   -48583.936    -1818.028    83.420194 
   22600    1509.8091   -117.69118     1.366107   -116.32507    3016.1687    4.3500383    4.3500383    4.3500383    3016.1687   -7110.0345     2719.869    13438.672    7221.1592    13408.669   -570.23836    82.315051 
   22700    908.93197    -117.1545   0.82242075   -116.33208   -1354.7803    4.3446933    4.3446933    4.3446933   -1354.7803   -24874.189    16547.777    4262.0705   -23810.515   -10372.687    774.86435    82.011993 
   22800    694.91984   -116.97162   0.62877807   -116.34284    -24131.66    4.3614207    4.3614207    4.3614207    -24131.66    -67999.44    43957.791   -48353.331   -3814.8404   -49805.561    7798.5525    82.962901 
   22900    1686.5284   -117.85394    1.5260064   -116.32793    16024.615     4.345923     4.345923     4.345923    16024.615    5823.3437    28615.709    13634.791    9369.5697     5114.584   -12471.779    82.081651 
   23000    1184.1317   -117.41246    1.0714273   -116.34103   -4880.7977    4.3526654    4.3526654    4.3526654   -4880.7977   -36375.595    15961.175    5772.0265   -14539.479   -14843.953   -1964.8935    82.464278 
   23100    527.97856   -116.83154    0.4777261   -116.35382   -21404.699    4.3544514    4.3544514    4.3544514   -21404.699   -75456.154    43046.652   -31804.595   -21432.097   -51952.463   -609.91042    82.565826 
   23200    1408.9377   -117.61658    1.2748364   -116.34174    17745.214    4.3395384    4.3395384    4.3395384    17745.214   -12292.343     43003.73    22524.255    5551.0974    11526.562    1353.7092    81.720423 
   23300    1356.2647   -117.56758    1.2271768    -116.3404   -17582.082    4.3613048    4.3613048    4.3613048   -17582.082   -42641.642    1382.2549   -11486.859    14123.375   -11608.951    8474.1216    82.956287 
   23400    653.16405   -116.93798   0.59099656   -116.34698   -22594.408    4.3565987    4.3565987    4.3565987   -22594.408   -64387.186    37943.334   -41339.374   -19655.805   -52626.941   -6361.6419    82.688037 
   23500    1221.3652    -117.4389    1.1051169   -116.33378    22159.836    4.3359276    4.3359276    4.3359276    22159.836     17749.05    30980.855    17749.605   -17848.529    5273.2806    6458.0329    81.516603 
   23600    1377.6535   -117.58236    1.2465298   -116.33583   -7296.0542    4.3541305    4.3541305    4.3541305   -7296.0542     -13717.7   -5062.4053   -3108.0571    15123.348   -806.84906   -8658.9342    82.547578 
   23700    549.17133   -116.84458   0.49690176   -116.34768   -12403.527    4.3581118    4.3581118    4.3581118   -12403.527   -19808.539    22849.952   -40251.994    8621.4968   -41933.271   -1579.2428    82.774221 
   23800    1095.1954   -117.33216    0.9909558    -116.3412    4802.5986    4.3469194    4.3469194    4.3469194    4802.5986   -3549.6785     22174.22    -4216.746   -33186.191   -15268.628    2914.2486    82.138119 
   23900    1502.2487   -117.69483    1.3592662   -116.33557    14335.983    4.3469028    4.3469028    4.3469028    14335.983    14993.969    11425.012    16588.969   -7432.1327     13069.98    2794.8307    82.137182 
   24000    725.15426   -117.00672   0.65613482   -116.35059   -7249.7058    4.3532957    4.3532957    4.3532957   -7249.7058    -34554.78    44474.321   -31668.658    22455.326   -38998.798   -475.24683    82.500106 
   24100    906.63474   -117.16336   0.82034217   -116.34302   -7379.7853     4.354495     4.354495     4.354495   -7379.7853   -38662.705    25531.492   -9008.1427   -4600.1975   -24692.091   -9222.4652    82.568311 
   24200    1439.6581   -117.63246    1.3026329   -116.32983    5080.2072    4.3560902    4.3560902    4.3560902    5080.2072    10454.092    8146.6405   -3360.1112   -12238.812     19799.62    4448.9087    82.659083 
   24300     709.8169   -116.98257   0.64225725   -116.34031   -9061.8453    4.3537109    4.3537109    4.3537109   -9061.8453    -36703.07    49112.677   -39595.142    8577.7019   -34752.058    3507.5449    82.523714 
   24400    823.29006   -117.08434   0.74493015   -116.33941    11344.161    4.3430927    4.3430927    4.3430927    11344.161   -19659.591    37894.584    15797.489    23149.508   -30998.162    268.74964     81.92139 
   24500    1557.1837   -117.74528    1.4089725   -116.33631    8412.3343    4.3559163    4.3559163    4.3559163    8412.3343    8053.7776    9553.8266    7629.3986     3350.267    15975.913   -4384.1093    82.649184 
   24600    818.40215   -117.08249   0.74050746   -116.34198   -1468.4888    4.3645212    4.3645212    4.3645212   -1468.4888    -21888.08    52856.286   -35373.673    2904.3678   -23851.189    3852.8658    83.139965 
   24700    685.73573   -116.95978    0.6204681   -116.33931    12049.045    4.3472041    4.3472041    4.3472041    12049.045    -20192.01    50320.828    6018.3189    25948.171   -24734.765     1566.955    82.154261 
   24800    1453.0643   -117.64366    1.3147631    -116.3289    18315.377    4.3520846    4.3520846    4.3520846    18315.377    12932.542    14937.019     27076.57    16164.524     12633.01   -5842.6148    82.431269 
   24900     1346.865   -117.55109    1.2186718   -116.33242   -4455.9543    4.3579801    4.3579801    4.3579801   -4455.9543   -36909.613    37828.818   -14287.068   -5747.9892   -30408.337    3686.2474    82.766715 
   25000    738.20407   -117.00897   0.66794255   -116.34103    10882.257    4.3485584    4.3485584    4.3485584    10882.257   -11013.783    42939.028    721.52586    8442.1985   -20860.958    5025.6499    82.231068 
   25100    1339.1716    -117.5482    1.2117106   -116.33649   -3537.3403     4.352302     4.352302     4.352302   -3537.3403   -23832.757    4330.7776    8889.9585    29161.118    13402.851    6901.9103    82.443625 
   25200    1261.9087   -117.47907    1.1418015   -116.33727    11366.644    4.3486719    4.3486719    4.3486719    11366.644   -5613.9561    30155.885    9558.0021   -8416.3821   -18510.197   -9711.8923    82.237507 
   25300    1127.3107   -117.36185    1.0200144   -116.34184    -6338.783    4.3544589    4.3544589    4.3544589    -6338.783   -25630.143     28546.58   -21932.786   -5339.6409   -23171.395    6427.0912    82.566254 
   25400    1109.7731   -117.34088     1.004146   -116.33673   -11349.249    4.3592683    4.3592683    4.3592683   -11349.249   -15835.419   -1848.2422   -16364.086    18843.343    17084.841    11369.236    82.840134 
   25500    1395.9063   -117.59486    1.2630454   -116.33181    9938.5141    4.3366832    4.3366832    4.3366832    9938.5141   -7060.3982    17211.941        19664   -4315.7939    1126.3113   -15698.165    81.559224 
   25600    1075.6033   -117.31768   0.97322848   -116.34446     3820.937    4.3457557    4.3457557    4.3457557     3820.937    8883.7824     8540.016   -5960.9875   -13774.727   -24966.717    2361.7061    82.072173 
   25700    1181.4113   -117.40677    1.0689658    -116.3378   -22811.159    4.3631999    4.3631999    4.3631999   -22811.159   -31244.744   -11536.097   -25652.634    8951.6799    6919.3524    25566.263    83.064474 
   25800    1303.6562   -117.51557    1.1795755   -116.33599     6393.054     4.341404     4.341404     4.341404     6393.054    7220.5025   -8471.0716    20429.731    7689.6152    11495.041   -5254.9713    81.825868 
   25900     1138.538    -117.3706    1.0301731   -116.34043    1050.1383    4.3409818    4.3409818    4.3409818    1050.1383   -619.39883   -4478.8513    8248.6649   -15799.037   -21367.225   -26550.433    81.801995 
   26000    1136.0763   -117.36956    1.0279457   -116.34162   -11308.471    4.3557075    4.3557075    4.3557075   -11308.471   -13297.695   -7308.7255   -13318.994   -4999.2303    510.94977    20154.719    82.637302 
   26100    1282.0081   -117.49785    1.1599879   -116.33786   -2129.6572    4.3516487    4.3516487    4.3516487   -2129.6572    149.10444    -7558.187     1020.111    10248.522    14995.976    14276.661    82.406502 
   26200    1144.0501   -117.37339    1.0351606   -116.33823   -2509.6621    4.3463976    4.3463976    4.3463976   -2509.6621    11358.917   -15840.387   -3047.5163   -12120.554   -10236.382   -48128.534    82.108548 
   26300     1091.629   -117.32838   0.98772889   -116.34065   -505.85118    4.3472607    4.3472607    4.3472607   -505.85118   -4420.6557    12080.792   -9177.6901    -8436.242    1919.3734   -2015.0023    82.157469 
   26400    1359.8388   -117.57066    1.2304108   -116.34025   -5301.4233    4.3487512    4.3487512    4.3487512   -5301.4233    5728.5848   -5074.1211   -16558.734    9131.3926    12988.991    33414.639    82.242005 
   26500    1027.6478   -117.27279   0.92983728   -116.34295   -992.28488    4.3498157    4.3498157    4.3498157   -992.28488    24095.144   -10907.227   -16164.772   -7384.5187    319.88506   -34175.644    82.302415 
   26600    1107.4005   -117.34412    1.0019993   -116.34213   -15609.327    4.3552966    4.3552966    4.3552966   -15609.327   -2053.6281   -35558.533   -9215.8202   -12992.111    2196.3931   -27944.081    82.613914 
   26700    1412.1597   -117.61044    1.2777517   -116.33268    6689.7318    4.3483548    4.3483548    4.3483548    6689.7318    2690.0243    6402.5111     10976.66   -6698.3502   -1526.1574    30667.373    82.219514 
   26800    1096.9563   -117.33129   0.99254912   -116.33874   -6710.6839     4.345077     4.345077     4.345077   -6710.6839    34328.793   -36200.579   -18260.266    62.508277    4647.6135    -27343.54    82.033726 
   26900    790.48786   -117.06296   0.71525003   -116.34771   -13571.814    4.3525096    4.3525096    4.3525096   -13571.814     20953.28   -52609.129   -9059.5931   -8703.8176    900.56873   -48393.912    82.455421 
   27000    1493.3997   -117.68769    1.3512594   -116.33643   -943.06901    4.3513987    4.3513987    4.3513987   -943.06901    -19195.14    -9553.467      25919.4   -16462.095    -7857.121    12417.066    82.392303 
   27100    1063.1943   -117.30293   0.96200058   -116.34093    40.631778    4.3502959    4.3502959    4.3502959    40.631778    32377.388   -21739.472   -10516.021    8702.0908    14428.497   -23343.291    82.329674 
   27200    815.55271   -117.08255   0.73792923   -116.34462   -14099.573    4.3499185    4.3499185    4.3499185   -14099.573     32098.21   -47805.646   -26591.282    -11354.11   -2396.2488   -48216.056    82.308251 
   27300    1249.8983   -117.46875    1.1309343   -116.33781    8258.0165    4.3478722    4.3478722    4.3478722    8258.0165    12172.172   -24420.769    37022.646   -18114.461   -6589.0692    10166.302    82.192145 
   27400    1146.0731   -117.37631     1.036991   -116.33932   -5053.4367    4.3528732    4.3528732    4.3528732   -5053.4367    8754.6182   -38283.877    14368.949    8665.7343    3941.0161   -20854.433    82.476084 
   27500    774.56642   -117.04144   0.70084397    -116.3406    3551.8364     4.353817     4.353817     4.353817    3551.8364    43670.538   -26599.036   -6415.9931    3143.6297   -1005.9774   -47829.673    82.529746 
   27600    1340.3412   -117.54314    1.2127689   -116.33037    -574.6292    4.3505092    4.3505092    4.3505092    -574.6292    3971.2423   -27144.641    21449.511   -12454.418    10039.363    10085.355    82.341786 
   27700    1004.2661   -117.24474   0.90868106   -116.33605    6347.1592     4.348177     4.348177     4.348177    6347.1592    29651.228   -29061.478    18451.728   -867.33323   -11446.189   -3387.5595    82.209432 
   27800    940.29021   -117.19356   0.85079434   -116.34277   -6743.7511    4.3456236    4.3456236    4.3456236   -6743.7511     14491.34   -26081.908   -8640.6859    17126.254   -1977.6178   -43783.858    82.064689 
   27900    1075.2278   -117.31662   0.97288868   -116.34373    1405.1067    4.3532322    4.3532322    4.3532322    1405.1067    7884.6306    8379.3258   -12048.636   -10172.741    25172.752    2843.2313    82.496493 
   28000    1360.2762   -117.56873    1.2308065   -116.33792   -6631.1395     4.353119     4.353119     4.353119   -6631.1395    1504.2239   -15228.796   -6168.8461   -885.25305    -8221.033    11710.092    82.490061 
   28100    808.98321   -117.07102   0.73198501   -116.33903      8601.37    4.3464229    4.3464229    4.3464229      8601.37    37228.831   -3344.5684   -8080.1529    21930.411   -7919.9334   -32265.115    82.109978 
   28200    1044.9257   -117.28341   0.94547076   -116.33794   -17206.483    4.3545513    4.3545513    4.3545513   -17206.483   -14209.971    -2980.425   -34429.052    644.35655    25599.775   -9765.3281     82.57151 
   28300    1287.1542   -117.49616    1.1646441   -116.33152    251.22237    4.3506974    4.3506974    4.3506974    251.22237    823.35873      16821.2   -16890.891    3255.7284     21586.26    11074.604    82.352472 
   28400     1162.626   -117.38986    1.0519685   -116.33789    4096.4509    4.3434598    4.3434598    4.3434598    4096.4509    19063.181    3010.1711   -9783.9992    3743.5238   -19293.642   -13636.813     81.94216 
   28500    495.80092   -116.79956   0.44861109   -116.35095   -15164.273    4.3514018    4.3514018    4.3514018   -15164.273   -5856.7417    2423.3822   -42059.459    17589.507    18337.796   -23424.105    82.392475 
   28600     1172.946   -117.40657    1.0613062   -116.34526   -8357.1512    4.3487379    4.3487379    4.3487379   -8357.1512    -21901.72    20429.181   -23598.915   -1197.3795    39835.269    4627.5369    82.241252 
   28700     1503.197   -117.69721    1.3601242   -116.33708    350.65478    4.3509673    4.3509673    4.3509673    350.65478    8477.2891     4260.267   -11685.592   -7013.2191   -16510.582   -1833.1883      82.3678 
   28800    595.45264   -116.88437   0.53877806   -116.34559   -15237.305    4.3549974    4.3549974    4.3549974   -15237.305   -7304.5089   -3856.5362   -34550.871    21681.621    18157.203   -31125.069     82.59689 
   28900    838.88609   -117.09902   0.75904177   -116.33998    7156.5084    4.3514244    4.3514244    4.3514244    7156.5084   -1961.5056    45152.353   -21721.322   -6907.5951    27374.356    930.61236    82.393764 
   29000    1560.2523    -117.7372     1.411749   -116.32546   -9654.7805    4.3553573    4.3553573    4.3553573   -9654.7805    -8510.269    -9461.713    -10992.36   -3121.4113   -9263.0743   -179.96908    82.617368 
   29100    896.44457   -117.15062   0.81112188    -116.3395    4970.8439    4.3417605    4.3417605    4.3417605    4970.8439    8138.7528     12369.12   -5595.3411    2036.6197     9596.153   -17105.893    81.846024 
   29200    939.43107   -117.19674   0.85001697   -116.34672    109.93387    4.3449912    4.3449912    4.3449912    109.93387   -13888.055    26480.019   -12262.163    8650.1091     33398.16   -15049.657    82.028863 
   29300    1213.7876   -117.43477    1.0982605   -116.33651   -11212.582    4.3632575    4.3632575    4.3632575   -11212.582   -21114.006    1395.7925   -13919.533   -5255.9541    1949.1285    17529.014    83.067765 
   29400     1047.383   -117.28474   0.94769413   -116.33705   -3576.7099    4.3459937    4.3459937    4.3459937   -3576.7099    -194.3021   -17822.666    7286.8385    -22947.89   -1142.5456    13921.351    82.085654 
   29500    715.09594   -116.98775   0.64703383   -116.34072    6253.9328    4.3429845    4.3429845    4.3429845    6253.9328   -18751.146    41885.782   -4372.8375    9604.2212    39277.033   -27300.847    81.915266 
   29600    1393.3771   -117.59526    1.2607569    -116.3345   -17695.774    4.3559559    4.3559559    4.3559559   -17695.774   -33549.874    -3748.077    -15789.37   -6422.1543    11614.101     10876.98    82.651439 
   29700    1148.9898   -117.37623    1.0396301    -116.3366    12863.302    4.3459339    4.3459339    4.3459339    12863.302    10933.198     9600.718    18055.989    -13263.26   -9249.2524    23046.401    82.082267 
   29800     866.9463   -117.12781   0.78443123   -116.34338   -14488.131    4.3521664    4.3521664    4.3521664   -14488.131   -25892.349    10687.995   -28260.039   -2868.9867     37975.63    -20128.89    82.435918 
   29900    1066.8496   -117.30427   0.96530795   -116.33896   -3152.4272    4.3524834    4.3524834    4.3524834   -3152.4272   -28502.566    35141.544    -16096.26    -969.6284    15669.254   -6099.1847    82.453934 
   30000    1465.7958   -117.65829    1.3262828   -116.33201    8785.8593    4.3401413    4.3401413    4.3401413    8785.8593    5144.2678    10419.659    10793.651   -689.78772   -25263.961    5357.5401    81.754487 
   30100    922.80402    -117.1795   0.83497247   -116.34452   -5851.6732     4.352805     4.352805     4.352805   -5851.6732   -27745.364    29513.952   -19323.608   -12113.655    33155.414    1488.3958     82.47221 
   30200     1061.278   -117.30391   0.96026664   -116.34364   -7946.2262    4.3526195    4.3526195    4.3526195   -7946.2262   -31173.577    15441.662   -8106.7643    6879.9338    24544.045   -12155.972    82.461667 
   30300    1200.6882    -117.4266    1.0864079   -116.34019    15679.188    4.3447824    4.3447824    4.3447824    15679.188   -7001.8297     51178.77    2860.6233   -2416.8995   -45831.563   -3545.3598     82.01704 
   30400    1306.9712   -117.52001     1.182575   -116.33744   -5013.5701    4.3548203    4.3548203    4.3548203   -5013.5701   -33810.968    15324.826    3445.4314    885.10293    8382.9772    9481.4377    82.586814 
   30500    1145.1833   -117.37154     1.036186   -116.33535    -2319.372    4.3514603    4.3514603    4.3514603    -2319.372   -30038.289    20860.762    2219.4112   -3044.2799    38743.188   -11295.999    82.395799 
   30600    1001.0251   -117.24535   0.90574855    -116.3396   -4542.4567    4.3478151    4.3478151    4.3478151   -4542.4567   -23227.889    33279.867   -23679.348   -774.44958    -45273.12    2312.7019    82.188908 
   30700     1372.866   -117.57927     1.242198   -116.33708    -10468.98    4.3528812    4.3528812    4.3528812    -10468.98   -27456.459    8376.5825   -12327.065   -2468.2917   -22556.656   -2067.5847    82.476544 
   30800    1546.5684    -117.7367    1.3993675   -116.33733   -1059.9433    4.3485099    4.3485099    4.3485099   -1059.9433    -18685.34    3289.4257    12216.084    -13923.47    38294.045    2039.3621    82.228312 
   30900    899.34369   -117.16066   0.81374507   -116.34692     2099.162    4.3456774    4.3456774    4.3456774     2099.162   -26857.524    37340.694   -4185.6843    5137.6492   -40593.673     1212.517    82.067735 
   31000    1047.0973   -117.29357   0.94743567   -116.34614   -6385.3362    4.3563246    4.3563246    4.3563246   -6385.3362   -28813.955   -4147.6342    13805.581    -2029.071       -33505   -11425.752    82.672431 
   31100    1553.4205   -117.74103    1.4055675   -116.33546    3259.7518    4.3498151    4.3498151    4.3498151    3259.7518    3813.9104   -21276.533    27241.878   -4720.5533    19083.048     12738.05    82.302377 
   31200     1017.549   -117.26148    0.9206997   -116.34078    11838.912    4.3409167    4.3409167    4.3409167    11838.912   -18738.142    26051.737     28203.14   -5376.3567   -35642.055    3501.3983    81.798317 
   31300    1154.5619    -117.3874    1.0446718   -116.34273   -10361.317    4.3561288    4.3561288    4.3561288   -10361.317   -39485.539    16444.017   -8042.4305      2599.08   -38293.114   -6705.2621    82.661285 
   31400    1496.0168   -117.68865    1.3536274   -116.33502    3376.8662    4.3493873    4.3493873    4.3493873    3376.8662    19066.133   -24601.305    15665.771    1533.2266    12040.505    7792.3944      82.2781 
   31500     738.3067   -117.01447   0.66803542   -116.34644   -513.98645    4.3431031    4.3431031    4.3431031   -513.98645   -8491.3955   -2868.5877    9818.0239   -11386.748    -26875.63    4130.3145    81.921977 
   31600    929.74543    -117.1911   0.84125321   -116.34985   -22564.655    4.3550642    4.3550642    4.3550642   -22564.655   -52085.451     13000.85   -28609.364    6209.6741   -43688.701    6658.6466    82.600694 
   31700     1657.537   -117.83774    1.4997743   -116.33797    9517.3143    4.3474629    4.3474629    4.3474629    9517.3143   -1983.7254    11489.812    19045.856   -1665.4372    22949.263   -3498.3578    82.168936 
   31800    1084.2655   -117.32946   0.98106621    -116.3484   -3967.6134    4.3470003    4.3470003    4.3470003   -3967.6134    114.31781   -7952.5312   -4064.6267   -14542.488   -17826.824   -3543.9876    82.142708 
   31900    488.70502   -116.79696   0.44219057   -116.35476   -18716.428    4.3533929    4.3533929    4.3533929   -18716.428   -35937.699    5294.2328   -25505.819   -4506.4594   -54631.809    10703.055    82.505629 
   32000    1434.6192   -117.64334    1.2980736   -116.34527    8760.4279    4.3476172    4.3476172    4.3476172    8760.4279    12879.814   -3714.6308      17116.1     4391.986    12808.136   -2767.6922    82.177685 
   32100    1603.2299   -117.79196    1.4506361   -116.34133    7938.8589     4.348826     4.348826     4.348826    7938.8589    8021.4439    11266.855    4528.2782    2472.2841   -4405.3606   -805.86833     82.24625 
   32200    730.76104   -117.01578   0.66120795   -116.35457   -3142.9558     4.348467     4.348467     4.348467   -3142.9558    -12177.13    5014.6957   -2266.4334   -13013.144    -47283.66    8467.9578    82.225878 
   32300    1015.0976   -117.27009   0.91848168   -116.35161   -3729.8592    4.3466912    4.3466912    4.3466912   -3729.8592     -6849.16   -19033.332    14692.914     10241.68   -8529.7579    9943.8645    82.125185 
   32400    1463.4554   -117.66702    1.3241652   -116.34286    -4180.892    4.3496736    4.3496736    4.3496736    -4180.892    9461.1659   -25627.571    3623.7289    13620.705     5513.652   -4332.7747    82.294348 
   32500    1122.0135   -117.36104    1.0152214   -116.34582   -4960.4376    4.3510391    4.3510391    4.3510391   -4960.4376   -18252.154    19184.871    -15814.03   -11458.126   -32537.001   -15842.869    82.371878 
   32600    1253.7494   -117.47487    1.1344188   -116.34045   -4404.3122    4.3485034    4.3485034    4.3485034   -4404.3122   -12145.784   -443.56519   -623.58707    6306.8522   -24119.462    10782.089    82.227946 
   32700    1256.0696   -117.47705    1.1365182   -116.34054   -4630.8877    4.3483488    4.3483488    4.3483488   -4630.8877    9924.3962   -35785.649    11968.589    19902.581    14272.133    565.51427    82.219174 
   32800    854.75912   -117.12229   0.77340402   -116.34889     -14359.6    4.3510089    4.3510089    4.3510089     -14359.6   -673.57053   -8638.9277   -33766.301    55.158611   -34971.692   -19790.679    82.370163 
   32900    1279.3371   -117.50263    1.1575711   -116.34506   -6537.3366    4.3481976    4.3481976    4.3481976   -6537.3366   -19844.149    14769.622   -14537.483   -5260.4763   -34007.013     4428.257    82.210598 
   33000    1571.4495   -117.76122    1.4218805   -116.33933    775.18561    4.3492683    4.3492683    4.3492683    775.18561   -3015.7238   -14100.759     19442.04    11621.333    25531.428    -1637.614    82.271345 
   33100    978.55506   -117.23464   0.88541718   -116.34922   -7561.4525     4.347396     4.347396     4.347396   -7561.4525    4252.2429   -14894.322   -12042.278    7957.5186   -21869.142   -27472.139    82.165141 
   33200    789.29426   -117.06993   0.71417003   -116.35576    3525.9171    4.3472845    4.3472845    4.3472845    3525.9171   -5201.4884    21203.808   -5424.5687    115.86628   -49447.343   -9211.7766    82.158817 
   33300    1644.7798   -117.83104    1.4882313   -116.34281    933.82952    4.3516137    4.3516137    4.3516137    933.82952   -1635.5593   -4604.3999    9041.4478   -2815.2562    14232.195    4383.2352    82.404514 
   33400    1162.8952   -117.39893     1.052212   -116.34672   -1383.4197    4.3506192    4.3506192    4.3506192   -1383.4197   -1748.1359   -327.18059   -2074.9425    15295.159    -713.3739   -2564.4746    82.348031 
   33500    599.73988   -116.89781   0.54265725   -116.35515   -18768.568    4.3506834    4.3506834    4.3506834   -18768.568   -28104.502    15701.973   -43903.174    7584.4995   -56291.528   -11376.613    82.351678 
   33600    1324.6797   -117.54607    1.1985981   -116.34747    9310.7039    4.3450004    4.3450004    4.3450004    9310.7039     9331.058    22236.009    -3634.955   -17535.812   -9139.0454   -14863.819    82.029389 
   33700    1698.8153   -117.88019    1.5371238   -116.34307   -3447.6131    4.3501303    4.3501303    4.3501303   -3447.6131    -6940.163    9815.4158   -13218.092    5189.5576    7564.5422    5457.6846     82.32027 
   33800    577.00101   -116.87728   0.52208264   -116.35519   -17106.161    4.3564298    4.3564298    4.3564298   -17106.161   -43354.088    44717.017   -52681.413    9821.7201   -50462.141   -9573.6857    82.678419 
   33900    878.76886   -117.14504   0.79512853   -116.34992   -5335.9412    4.3455786    4.3455786    4.3455786   -5335.9412   -4629.4821    10562.303   -21940.645   -2595.0948   -15940.147   -18988.244    82.062136 
   34000    1458.2846    -117.6618    1.3194865   -116.34231    12514.405     4.345754     4.345754     4.345754    12514.405     8743.548    13914.828    14884.841   -14567.433    14307.335    2212.4565    82.072076 
   34100    1325.5806   -117.54282    1.1994132   -116.34341   -10441.202    4.3543675    4.3543675    4.3543675   -10441.202   -28827.567    29803.468   -32299.508     1346.757   -36278.453    5060.4396    82.561054 
   34200    681.62584   -116.96601   0.61674938   -116.34926    114.34852    4.3493353    4.3493353    4.3493353    114.34852   -1276.3264    20970.851   -19351.479    14712.595   -23321.953   -19997.993     82.27515 
   34300    1224.6438   -117.45166    1.1080834   -116.34358   -11492.189    4.3487743    4.3487743    4.3487743   -11492.189    4336.0127   -26764.457   -12048.122   -13694.231    16878.089   -22070.159    82.243314 
   34400    1360.7513   -117.57066    1.2312364   -116.33943   -833.12786    4.3493672    4.3493672    4.3493672   -833.12786   -14986.375    18767.103   -6280.1117   -14386.565   -4860.5627    7550.5934    82.276958 
   34500    1191.9134   -117.42342    1.0784683   -116.34495   -6854.3558    4.3439842    4.3439842    4.3439842   -6854.3558   -2072.1546   -7756.1252   -10734.788    13449.106   -23211.141   -10297.663    81.971844 
   34600    881.26328   -117.14919   0.79738554   -116.35181   -9729.0356    4.3510314    4.3510314    4.3510314   -9729.0356    6143.9766   -27244.434   -8086.6493    12793.061   -3932.7324   -25711.493    82.371439 
   34700    1374.9092   -117.58407    1.2440467   -116.34002   -11246.695    4.3561983    4.3561983    4.3561983   -11246.695   -9812.4634     70.67999   -23998.302   -7235.2691    26272.773   -1008.6722    82.665239 
   34800     1289.864   -117.50257     1.167096   -116.33548    3685.4514    4.3483591    4.3483591    4.3483591    3685.4514   -5262.6035    13780.727    2538.2307    3520.5325    3856.9456   -1228.4309    82.219759 
   34900    992.84339   -117.23783   0.89834556   -116.33948   -2924.4345    4.3495959    4.3495959    4.3495959   -2924.4345    5881.6129   -17131.225    2476.3089    22882.553   -17120.059   -13672.557    82.289935 
   35000    1013.0763   -117.26064   0.91665276   -116.34398    1441.1956    4.3473506    4.3473506    4.3473506    1441.1956    6155.7589    13161.708    -14993.88    3337.2282    29222.586   -13052.687    82.162568 
   35100    1318.7418   -117.53756    1.1932253   -116.34434    18905.757    4.3436342    4.3436342    4.3436342    18905.757    8042.5881    41914.957    6759.7251   -10685.995    27218.706    10534.331    81.952032 
   35200    1371.6567   -117.58415    1.2411038   -116.34305    4106.4283    4.3540837    4.3540837    4.3540837    4106.4283    8884.8969   -6133.2166    9567.6046    16517.849    -13586.09   -4192.9143    82.544915 
   35300    703.52609   -116.98705   0.63656519   -116.35048   -5253.8279    4.3519314    4.3519314    4.3519314   -5253.8279    3620.0063   -2063.4648   -17318.025    15411.427    18426.003   -13717.902    82.422563 
   35400    839.04181   -117.10734   0.75918266   -116.34815     7790.839    4.3443698    4.3443698    4.3443698     7790.839   -13623.519    41896.921   -4900.8857    -2552.239     39816.77      8368.55    81.993675 
   35500    1554.9555   -117.74177    1.4069564   -116.33481    8259.6861    4.3537976    4.3537976    4.3537976    8259.6861    17455.676    4466.3124    2857.0696    6454.3785   -8158.6673    4965.0003    82.528642 
   35600    1080.9815   -117.31849    0.9780948   -116.34039   -10813.783    4.3566159    4.3566159    4.3566159   -10813.783   -24362.166   -13365.134    5285.9493     19265.77    9024.4004   -3434.2916    82.689015 
   35700    655.40327   -116.94203   0.59302265   -116.34901   -2659.1536    4.3427451    4.3427451    4.3427451   -2659.1536   -12376.857    26666.556   -22267.159    4719.8819    51892.996   -9638.2235    81.901722 
   35800    1277.1341   -117.50528    1.1555778    -116.3497    15137.615     4.342499     4.342499     4.342499    15137.615     23612.52     25549.74   -3749.4165   -6886.0416    230.30152    2154.5385    81.887797 
   35900    1413.2023   -117.62442    1.2786951   -116.34573   -5583.4348    4.3603128    4.3603128    4.3603128   -5583.4348   -16486.436   -4165.5282    3901.6593    9438.3926   -8693.8351    7829.9584    82.899696 
   36000    859.02432   -117.12739   0.77726325   -116.35013   -6085.6586     4.352667     4.352667     4.352667   -6085.6586   -27259.082    32887.489   -23885.383    14764.154    49629.005   -4640.0714    82.464365 
   36100    1247.3347   -117.47033    1.1286147   -116.34172    12894.541    4.3414962    4.3414962    4.3414962    12894.541     12923.32    25459.505    300.79796   -6152.6899    17766.236   -397.04467    81.831079 
   36200      1433.84   -117.63649    1.2973685   -116.33912    2314.8597     4.353151     4.353151     4.353151    2314.8597    -11421.17   -19011.173    37376.921    4320.8283   -16563.075    4214.6572    82.491879 
   36300    721.77352   -117.00477   0.65307585   -116.35169   -7107.5056    4.3521605    4.3521605    4.3521605   -7107.5056   -33408.902    13633.437   -1547.0521    14020.378    33175.369    2337.6139    82.435582 
   36400    899.04041   -117.16364   0.81347066   -116.35017   -12299.187    4.3504972    4.3504972    4.3504972   -12299.187   -35162.608    10435.817    -12170.77   -2540.7009    33940.692   -14261.716    82.341103 
   36500     1436.584   -117.64074    1.2998514   -116.34089    931.50089     4.350472     4.350472     4.350472    931.50089    14416.825   -16020.255    4397.9321   -3069.4792   -11796.137   -10818.166    82.339672 
   36600    1196.6113    -117.4266     1.082719   -116.34388    600.25637    4.3459541    4.3459541    4.3459541    600.25637   -4670.8308     20256.13    -13784.53    1707.5062    27625.194    7751.0782    82.083414 
   36700    811.93313   -117.08158   0.73465416   -116.34693   -11407.795    4.3560675    4.3560675    4.3560675   -11407.795   -38067.073    30149.261   -26305.574    2072.2219    42389.222   -4636.5014    82.657795 
   36800     1210.963   -117.43008    1.0957048   -116.33438   -15255.791     4.362472     4.362472     4.362472   -15255.791   -10498.856   -15843.302   -19425.216   -3522.9123    -16354.75   -15275.345     83.02291 
   36900    959.92303   -117.20271   0.86855853   -116.33416     10655.38    4.3407516    4.3407516    4.3407516     10655.38    20218.937    19860.667   -8113.4645   -5335.7263     20052.62   -2593.1265     81.78898 
   37000    830.86379   -117.09597   0.75178302   -116.34419    6014.5316    4.3433769    4.3433769    4.3433769    6014.5316   -11536.648    47543.303    -17963.06    5440.5809     51255.93    8950.1255    81.937472 
   37100    1322.9056   -117.53287    1.1969928   -116.33588   -9157.9677    4.3627616    4.3627616    4.3627616   -9157.9677   -4914.6302   -2576.5026    -19982.77    6861.8744   -10690.313   -1076.6534    83.039449 
   37200    1002.0892   -117.24441   0.90671141    -116.3377    7387.1113    4.3492657    4.3492657    4.3492657    7387.1113    21163.853    7591.9213   -6594.4409   -10002.942    7733.8723   -13459.165    82.271197 
   37300    580.06401   -116.87097    0.5248541   -116.34611    4325.5593    4.3450931    4.3450931    4.3450931    4325.5593    1883.6999    31661.656   -20568.678    3591.6992    41023.839     12788.82    82.034639 
   37400    1300.5393   -117.51905    1.1767553   -116.34229   -4987.7306    4.3519937    4.3519937    4.3519937   -4987.7306   -564.04155    4752.8564   -19152.007    4380.6149    752.06752    25121.928    82.426106 
   37500    1345.7171   -117.55741    1.2176331   -116.33978    9914.7768    4.3510914    4.3510914    4.3510914    9914.7768   -1468.0676    18004.782    13207.616    4299.9112    2361.3728   -6115.0486    82.374845 
   37600    967.91481   -117.22415   0.87578966   -116.34836   -13106.054    4.3526857    4.3526857    4.3526857   -13106.054   -32245.221    32724.686   -39797.626    126.57818    45229.531    3033.7047     82.46543 
   37700    1054.6526    -117.2995   0.95427186   -116.34523    11076.867    4.3454193    4.3454193    4.3454193    11076.867    11841.012     30295.55   -8905.9599    -1447.675    13281.383     16797.07    82.053114 
   37800    1495.3894   -117.69244    1.3530598   -116.33938    6093.3658    4.3498811    4.3498811    4.3498811    6093.3658   -2491.7058      11671.5     9100.303    5812.0346   -14759.535    1805.3005    82.306125 
   37900    952.12964   -117.20621   0.86150691    -116.3447   -11018.776    4.3569447    4.3569447    4.3569447   -11018.776   -46703.636    21161.239   -7513.9309   -6111.1261    37652.495   -2370.8624    82.707741 
   38000    943.67337   -117.19778    0.8538555   -116.34392    12732.212    4.3439916    4.3439916    4.3439916    12732.212   -17007.058    47175.785    8027.9075   -7640.0253    27502.818    4773.6816    81.972261 
   38100    1516.8871   -117.71088    1.3725113   -116.33837    10847.307    4.3487128    4.3487128    4.3487128    10847.307    7849.0413    6884.5887     17808.29   -106.77143   -11549.753    23231.942    82.239826 
   38200     1084.305   -117.32383   0.98110193   -116.34273    -4202.851    4.3576357    4.3576357    4.3576357    -4202.851    -31442.32    14232.675    4601.0913   -5076.4609     27182.71   -8176.3115    82.747096 
   38300    918.38657   -117.17584   0.83097546   -116.34486   -1562.8781    4.3442794    4.3442794    4.3442794   -1562.8781   -35625.771    26489.309    4447.8277   -14163.365    27686.586    2359.8792     81.98856 
   38400    1095.0291   -117.33608   0.99080538   -116.34528    5866.8021    4.3453878    4.3453878    4.3453878    5866.8021    12632.869     8788.913   -3821.3752    4496.7891   -17678.122     25295.58    82.051328 
   38500     1129.084   -117.36659    1.0216189   -116.34498   -14173.755    4.3552731    4.3552731    4.3552731   -14173.755   -6328.8334   -6981.4723   -29210.959    1766.3209    20830.896    5216.3141    82.612577 
   38600    1075.1611   -117.31547   0.97282833   -116.34264   -2919.7012    4.3493886    4.3493886    4.3493886   -2919.7012   -17924.633      10981.3   -1815.7711    -4957.166    42771.714   -4961.2717    82.278174 
   38700    1194.2596   -117.42395    1.0805912   -116.34336   -619.97933    4.3485973    4.3485973    4.3485973   -619.97933    520.44953   -9237.7229    6857.3354    932.65146   -8497.6528    15184.394    82.233273 
   38800    887.32356   -117.15212     0.802869   -116.34925    4527.4958    4.3442696    4.3442696    4.3442696    4527.4958    19456.251   -934.84305   -4938.9201   -1233.2622     2121.419    25101.058    81.988002 
   38900     635.4797   -116.92915   0.57499538   -116.35416       7147.9    4.3507837    4.3507837    4.3507837       7147.9    14350.922    12054.962   -4962.1837    8486.7757    41398.608    -14314.64     82.35737 
   39000    1236.4643   -117.45591    1.1187789   -116.33713   -13487.389    4.3671091    4.3671091    4.3671091   -13487.389    4098.7602   -24661.543   -19899.385   -9311.6308    4999.6491   -13164.836     83.28794 
   39100    1350.7139   -117.55925    1.2221543    -116.3371    11040.566    4.3401187    4.3401187    4.3401187    11040.566    15934.789    11713.948    5472.9609   -6688.6341   -4594.2949    18257.341    81.753212 
   39200     613.6048   -116.90165   0.55520252   -116.34645    18367.718    4.3312296    4.3312296    4.3312296    18367.718    35567.499    36150.898   -16615.244     9631.283    44174.463   -2031.3942    81.251919 
   39300    841.48608   -117.11285   0.76139429   -116.35146   -25333.588    4.3633068    4.3633068    4.3633068   -25333.588    5643.6083   -23980.685   -57663.687   -5061.7084    19047.154   -29075.799    83.070583 
   39400     1508.023   -117.70344    1.3644909   -116.33894     3466.434    4.3498226    4.3498226    4.3498226     3466.434    3386.9967    1607.4596    5404.8457   -46.298126   -14479.678   -10694.307    82.302805 
   39500    1019.9262    -117.2654   0.92285069   -116.34255    15875.885    4.3363573    4.3363573    4.3363573    15875.885    -744.4649    52048.093   -3675.9743    4313.9288    29990.811    9663.4768     81.54084 
   39600    745.80385   -117.02547   0.67481899   -116.35065   -17492.001    4.3540965    4.3540965    4.3540965   -17492.001    4353.8024   -2522.2772   -54307.527    6250.6645    31399.473   -19246.329    82.545643 
   39700    1302.3146   -117.51812    1.1783616   -116.33976   -3695.4063    4.3551613    4.3551613    4.3551613   -3695.4063    12166.916   -7723.6915   -15529.443   -594.35161   -19525.437   -14056.489    82.606216 
   39800    1213.4551   -117.43316    1.0979597    -116.3352    127.19295    4.3516401    4.3516401    4.3516401    127.19295   -35168.872    44122.072   -8571.6217   -9474.1701    10815.513    6085.3561    82.406017 
   39900    996.59319   -117.24323   0.90173847   -116.34149    2707.6163    4.3415479    4.3415479    4.3415479    2707.6163   -8700.6131    28417.798   -11594.336    9666.4459    36491.557   -6589.9816    81.834002 
   40000     981.7604   -117.23644   0.88831744   -116.34812    13811.799    4.3424459    4.3424459    4.3424459    13811.799    16980.934    24989.798    -535.3336    8577.1929    -5461.624   -20209.601    81.884795 
   40100     1197.558   -117.42915    1.0835756   -116.34557   -9887.9525    4.3598287    4.3598287    4.3598287   -9887.9525   -32359.116    22706.941   -20011.683   -1837.4355   -5994.0052   -7432.6649    82.872086 
   40200    1287.8096   -117.50573    1.1652372    -116.3405     9195.185    4.3484864    4.3484864    4.3484864     9195.185   -30045.827    45445.388    12185.994    3372.7474    17541.909     8589.666    82.226982 
   40300    1228.2642   -117.45183    1.1113592   -116.34047       6626.3    4.3407293    4.3407293    4.3407293       6626.3    22148.583   -2737.0701    467.38761    4288.0674    4591.4947   -35289.146    81.787719 
   40400    1055.7912   -117.30053   0.95530209   -116.34523   -13398.933    4.3506441    4.3506441    4.3506441   -13398.933   -5718.5714   -15679.536   -18798.692    344.99381   -7127.1315   -27599.628    82.349447 
   40500    1100.8293   -117.34106   0.99605349   -116.34501    3153.9689    4.3490776    4.3490776    4.3490776    3153.9689   -42427.186    30516.946    21372.147   -4758.8807    5527.3785    20120.551    82.260526 
   40600    1009.3291   -117.25976   0.91326214    -116.3465   -8367.3458    4.3512466    4.3512466    4.3512466   -8367.3458   -11300.561     1182.197   -14983.674   -4803.7219    3509.5203   -29740.938    82.383663 
   40700    965.22641   -117.22135   0.87335714   -116.34799    2612.0274    4.3434722    4.3434722    4.3434722    2612.0274    24549.317    4659.0167   -21372.252     4621.952    95.012615   -49420.526    81.942863 
   40800    1499.5775   -117.69803    1.3568492   -116.34118    15256.101    4.3421375    4.3421375    4.3421375    15256.101   -4566.3876    34724.429     15610.26   -273.47996    3926.9744    13951.629    81.867346 
   40900    885.43065   -117.15142   0.80115626   -116.35027   -15531.565    4.3597157    4.3597157    4.3597157   -15531.565   -22298.788     13066.73   -37362.638   -6202.1211    2010.9618    -10415.36    82.865646 
   41000    600.51581   -116.89624   0.54335932   -116.35288   -16243.054    4.3523043    4.3523043    4.3523043   -16243.054    11174.555   -27525.738    -32377.98    -589.6953   -3798.8732   -59993.451    82.443756 
   41100    1690.2111   -117.86794    1.5293385   -116.33861    17517.209     4.338594     4.338594     4.338594    17517.209    4969.2217    7613.3123    39969.094   -172.97299   -6177.3172   -1485.0209    81.667082 
   41200    1476.6994   -117.68441    1.3361487   -116.34826    14595.051    4.3460968    4.3460968    4.3460968    14595.051    2998.6825    23270.752    17515.718   -3598.8875    4387.6736   -1247.3081    82.091499 
   41300    369.49461   -116.69875   0.33432649   -116.36442   -5848.2389    4.3572352    4.3572352    4.3572352   -5848.2389    9889.1683   -25009.043    -2424.842   -1241.0717    6725.4233   -56455.137    82.724283 
   41400    1023.5986   -117.27411   0.92617349   -116.34794   -7112.8212    4.3591678    4.3591678    4.3591678   -7112.8212   -34739.904     29945.65    -16544.21   -983.41972   -4735.8932   -7327.0087    82.834407 
   41500    1465.7108   -117.65617    1.3262059   -116.32997    15480.301    4.3451021    4.3451021    4.3451021    15480.301   -12965.826    51641.833    7764.8953    1612.1891    -2.683217    12415.983    82.035146 
   41600    730.78229   -117.00415   0.66122717   -116.34293   -4025.4492     4.350064     4.350064     4.350064   -4025.4492    15303.698   -1027.6046   -26352.441   -7975.1398    2082.3875   -60744.926    82.316511 
   41700    868.00832   -117.12597   0.78539217   -116.34058   -19915.577    4.3581561    4.3581561    4.3581561   -19915.577    -41322.83    14987.257   -33411.157   -3421.2849   -1754.3314    -17712.66    82.776746 
   41800    1274.7892   -117.48728     1.153456   -116.33382   -3390.2438    4.3468955    4.3468955    4.3468955   -3390.2438    -39093.82     29343.26   -420.17213    5094.3994    -5685.088    11562.416    82.136768 
   41900    960.78417   -117.20907   0.86933771   -116.33973   -9557.5711    4.3509387    4.3509387    4.3509387   -9557.5711    14103.858   -19662.485   -23114.087    316.59316    230.12558   -48257.898    82.366174 
   42000    1109.9391   -117.33897    1.0042962   -116.33468   -8186.4715     4.355672     4.355672     4.355672   -8186.4715   -11439.259    8305.1678   -21425.323   -2030.0769    8293.3197   -24074.116     82.63528 
   42100    1089.5897   -117.32099    0.9858837   -116.33511    8360.5434    4.3512106    4.3512106    4.3512106    8360.5434   -37089.009    52944.175    9226.4642   -4425.9135    55.161137    15961.176    82.381618 
   42200    710.40886   -116.98668   0.64279286   -116.34389     4277.311    4.3459028    4.3459028    4.3459028     4277.311    4746.2951    10219.921   -2134.2828   -1032.7231   -64.216416   -23127.899    82.080509 
   42300    731.53936    -117.0095   0.66191219   -116.34759    13373.771    4.3470441    4.3470441    4.3470441    13373.771    6395.6301    28023.699    5701.9857   -1975.1936    7107.7859   -30433.359    82.145189 
   42400    1341.5994   -117.55312    1.2139074   -116.33921   -2481.1472    4.3584972    4.3584972    4.3584972   -2481.1472   -39590.417    32065.264    81.710939   -10194.062    3500.7601    13525.305    82.796183 
   42500    997.66015   -117.24603   0.90270387   -116.34333   -1043.7745    4.3517045    4.3517045    4.3517045   -1043.7745   -14105.926    32022.922    -21048.32   -1968.4327    1026.0225   -15917.895    82.409674 
   42600    895.04169   -117.15497   0.80985253   -116.34512     -204.822    4.3404296    4.3404296    4.3404296     -204.822    16893.344   -10843.104   -6664.7061    396.82131    123.15615   -47661.485     81.77078 
   42700    1291.9649   -117.51162     1.168997   -116.34262   -11190.239    4.3534128    4.3534128    4.3534128   -11190.239   -31944.593    4568.9385   -6195.0626   -8180.5822    7845.8954    1838.7698    82.506766 
   42800    1051.7131   -117.29364   0.95161211   -116.34203   -10918.083    4.3578708    4.3578708    4.3578708   -10918.083   -43370.724    32652.269   -22035.793   -3789.1061    8591.8234   -886.80039     82.76049 
   42900    752.43606    -117.0276   0.68081996   -116.34678    902.92579    4.3436044    4.3436044    4.3436044    902.92579     6421.953    1351.5335   -5064.7092    2725.2641    -5446.874   -53222.242    81.950348 
   43000    1224.2554   -117.45331     1.107732   -116.34557    16972.683    4.3450002    4.3450002    4.3450002    16972.683   -6253.9662    29939.442    27232.572   -1368.0329   -1051.9431   -12315.443    82.029377 
   43100    1449.5316   -117.65458    1.3115667   -116.34301    4723.1022    4.3537727    4.3537727    4.3537727    4723.1022   -36610.479    21637.433    29142.352   -3707.0011    6529.5715    12354.023    82.527228 
   43200    502.87682   -116.80939   0.45501352   -116.35438   -9676.2446    4.3523724    4.3523724    4.3523724   -9676.2446   -14767.864     -10007.3   -4253.5696    1726.8479    -1461.421   -51388.571    82.447626 
   43300    898.89095   -117.16498   0.81333542   -116.35165   -8240.6465    4.3442649    4.3442649    4.3442649   -8240.6465   -8839.5446    264.07969   -16146.475    1538.9781   -5850.8945   -27345.196    81.987736 
   43400    1622.6521   -117.81269    1.4682097   -116.34448     6173.364    4.3442513    4.3442513    4.3442513     6173.364   -8522.4631    11391.108    15651.447    1116.1712   -1595.3558    28435.158    81.986969 
   43500    908.42094   -117.17816   0.82195836    -116.3562   -15761.397    4.3539801    4.3539801    4.3539801   -15761.397   -553.91715   -29091.258   -17639.015    -899.6592   -2246.4399   -39521.889    82.539024 
   43600    728.43948   -117.01385   0.65910735   -116.35474   -2535.1496    4.3507795    4.3507795    4.3507795   -2535.1496   -9445.9373    29150.596   -27310.107     5131.451   -10493.737   -39875.403    82.357134 
   43700    1311.0792   -117.52891    1.1862921   -116.34262    13040.546    4.3471312    4.3471312    4.3471312    13040.546   -13260.734    42944.036    9438.3353    6616.9391   -6255.7436    21035.034    82.150125 
   43800    1101.4609   -117.34214   0.99662501   -116.34551    18056.899    4.3433624    4.3433624    4.3433624    18056.899    27719.856    33928.808   -7477.9686   -2039.2848    9.1914778    -5510.131    81.936647 
   43900    864.98829   -117.13368   0.78265958   -116.35102   -6561.7191    4.3518238    4.3518238    4.3518238   -6561.7191    10742.904    -8140.262     -22287.8    1570.6673    -7231.309   -37161.573    82.416451 
   44000     1001.188   -117.25162   0.90589595   -116.34572   -7581.0312    4.3539032    4.3539032    4.3539032   -7581.0312   -25898.321    6654.6168   -3499.3888    5165.5534   -21890.721   -460.36038     82.53465 
   44100    1155.5902   -117.38711    1.0456023   -116.34151    6111.9034    4.3437151    4.3437151    4.3437151    6111.9034   -1544.4823    21320.958   -1440.7651    -300.0469   -1616.1078    4025.1106    81.956615 
   44200    860.76005   -117.12491   0.77883378   -116.34608   -4539.4662    4.3510512    4.3510512    4.3510512   -4539.4662    22473.801   -5123.9605   -30968.239    -7365.336    3525.6084   -34305.358    82.372561 
   44300    896.59558   -117.15394   0.81125852   -116.34268   -7160.0815    4.3585803    4.3585803    4.3585803   -7160.0815   -26156.688    40223.584   -35547.141   -2322.1841   -29888.036   -2388.3616    82.800921 
   44400    1274.0564   -117.48486     1.152793   -116.33207    6459.2047     4.351841     4.351841     4.351841    6459.2047   -14221.619    53700.403    -20101.17    -4353.042   -13769.175    1530.3304     82.41743 
   44500    990.83898   -117.23383   0.89653193    -116.3373    10592.426    4.3451667    4.3451667    4.3451667    10592.426    25114.855    25273.004    -18610.58   -1872.7266    8562.1558    -34485.06    82.038806 
   44600    527.45332   -116.82717   0.47725085   -116.34992   -10902.582    4.3535715    4.3535715    4.3535715   -10902.582    7747.1428    5042.7218    -45497.61   -4293.8614   -34153.995   -9452.1924    82.515789 
   44700    1223.2354   -117.44233    1.1068091   -116.33552   -5864.7819    4.3583603    4.3583603    4.3583603   -5864.7819    9479.4574    8545.3401   -35619.143   -6877.1002   -19154.383    17517.033    82.788378 
   44800     1322.714   -117.52479    1.1968195   -116.32797   -9318.9465    4.3562629    4.3562629    4.3562629   -9318.9465    8971.5708   -13397.461   -23530.949   -2473.8249    16810.733   -27463.327    82.668916 
   44900    631.67836   -116.91072   0.57155585   -116.33916   -8174.8554    4.3433276    4.3433276    4.3433276   -8174.8554    10878.813    -2584.044   -32819.336    493.35024   -26899.816   -19206.018    81.934681 
   45000    774.64023   -117.04669   0.70091076   -116.34578    2943.2065    4.3418482    4.3418482    4.3418482    2943.2065     14124.12     10658.42   -15952.921    -4261.086   -31597.955    16536.476    81.850982 
   45100    1342.1404   -117.55876    1.2143968   -116.34436   -17443.555    4.3606166    4.3606166    4.3606166   -17443.555   -23749.054   -11816.708   -16764.903    -10146.59    23364.553   -4594.4016    82.917026 
   45200     1075.833    -117.3195   0.97343632   -116.34606     8506.999     4.346689     4.346689     4.346689     8506.999    7026.7954    23506.764    -5012.562    2395.7889   -3671.6437   -10939.067    82.125064 
   45300    733.27423   -117.01074   0.66348193   -116.34726     5446.063    4.3406031    4.3406031    4.3406031     5446.063   -7598.2863    18365.274    5571.2016    4839.3172   -48609.883   -1142.9188    81.780589 
   45400    1020.7936   -117.26396   0.92363546   -116.34033   -16089.229    4.3604789    4.3604789    4.3604789   -16089.229   -30736.451    -18110.89     579.6537   -13980.746    6944.8849    6864.0725    82.909169 
   45500    1187.6171   -117.40425    1.0745809   -116.32967   -1726.0761    4.3546503    4.3546503    4.3546503   -1726.0761   -16959.503   -875.91297    12657.188   -2233.4366     5655.043     3335.873    82.577141 
   45600    913.00863   -117.16206    0.8261094   -116.33595    -9764.547    4.3473812    4.3473812    4.3473812    -9764.547   -39204.468     22433.12   -12522.293    3491.1884   -47941.847   -12152.655    82.164305 
   45700    942.58358   -117.19521   0.85286943   -116.34234     1017.884    4.3411303    4.3411303    4.3411303     1017.884   -21860.202    399.98205    24513.872   -18192.618   -15729.323    1666.6347    81.810393 
   45800     1175.691   -117.41038    1.0637899   -116.34659   -1037.4678    4.3471211    4.3471211    4.3471211   -1037.4678   -19695.032   -14154.923    30737.551   -20625.351    9409.8407    6546.1398    82.149558 
   45900    874.18631   -117.13673   0.79098215   -116.34575   -26414.429    4.3665299    4.3665299    4.3665299   -26414.429   -45028.071    7351.0339   -41566.249    5197.4471   -39633.468    546.05318    83.254805 
   46000    1016.9326   -117.26017   0.92014198   -116.34003    1013.3153    4.3447203    4.3447203    4.3447203    1013.3153   -11318.869    14375.107   -16.292414    -6375.934   -23681.063   -6702.8887    82.013521 
   46100    1348.9702   -117.55348    1.2205766    -116.3329    12789.392      4.33462      4.33462      4.33462    12789.392    9739.3408   -14890.502    43519.338   -23685.179    9767.1164   -13408.885    81.442876 
   46200    798.66268   -117.07027   0.72264678   -116.34762   -28051.875    4.3593291    4.3593291    4.3593291   -28051.875     -55138.9   -5297.0294   -23719.697    1722.3667   -40406.897     7912.605    82.843602 
   46300    819.86603   -117.08576   0.74183201   -116.34393    -6697.839    4.3517315    4.3517315    4.3517315    -6697.839   -29382.959     13006.07   -3716.6273    2991.9083   -21552.567    1536.2957    82.411204 
   46400    1290.5633    -117.5036    1.1677288   -116.33587    2092.9095    4.3464599    4.3464599    4.3464599    2092.9095   -3347.7142    -10405.29    20031.733   -9465.3007    23575.598   -22134.891    82.112078 
   46500    1066.0817   -117.30428   0.96461311   -116.33967   -11161.804     4.351253     4.351253     4.351253   -11161.804   -31170.835   -278.03921   -2036.5363   -1737.7193   -30143.678   -2212.5232    82.384025 
   46600    1009.8955   -117.25447   0.91377466   -116.34069    2660.3711    4.3442195    4.3442195    4.3442195    2660.3711   -28693.771    14183.709    22491.176    2850.4858   -32478.779    3436.2596    81.985166 
   46700    1013.8983   -117.26145   0.91739651   -116.34405   -18335.644    4.3545577    4.3545577    4.3545577   -18335.644   -10123.706   -22086.053   -22797.172    3323.3036    38451.753    -15002.52    82.571878 
   46800    971.02041   -117.22501   0.87859967   -116.34641   -6565.7683    4.3461135    4.3461135    4.3461135   -6565.7683     12536.33   -21700.919   -10532.716   -5430.2446    2323.3902   -14147.035    82.092444 
   46900    1348.8247   -117.56134    1.2204449    -116.3409    14314.854     4.343258     4.343258     4.343258    14314.854    21372.963    4469.7402     17101.86    3017.0381   -30221.664    2357.9835    81.930739 
   47000     1050.187   -117.29403   0.95023126    -116.3438   -12294.979    4.3597481    4.3597481    4.3597481   -12294.979   -36.968183   -19967.635   -16880.334    5199.2163    18736.242   -5455.9385    82.867489 
   47100    620.36048   -116.91052    0.5613152   -116.34921    -5147.925    4.3471055    4.3471055    4.3471055    -5147.925    35001.321   -31956.644   -18488.451    3970.6397    25595.131    -15583.28     82.14867 
   47200    1260.0574    -117.4851    1.1401265   -116.34498    7707.0043    4.3458056    4.3458056    4.3458056    7707.0043    30735.802   -19131.509     11516.72   -2448.9409   -12749.453      7042.43    82.074998 
   47300    1623.3591   -117.80681    1.4688494   -116.33796   -1822.6127    4.3522112    4.3522112    4.3522112   -1822.6127   -10264.047   -5572.6292    10368.838   -5372.7723    1104.2148    3750.0158    82.438465 
   47400    734.49788   -117.01537   0.66458911   -116.35078   -3188.0081    4.3503439    4.3503439    4.3503439   -3188.0081    19399.642   -8142.3722   -20821.294    5532.0191    37121.225   -20937.378      82.3324 
   47500    930.20315   -117.19199   0.84166736   -116.35032   -10301.665    4.3524983    4.3524983    4.3524983   -10301.665    32893.471   -36512.874   -27285.592   -3789.2219   -1631.1217    3247.2488    82.454776 
   47600    1541.1503   -117.72974    1.3944652   -116.33528    5228.3383    4.3464528    4.3464528    4.3464528    5228.3383    14001.631   -10845.468    12528.852    948.04087   -6420.0877    16355.583    82.111675 
   47700    1082.7929   -117.32434   0.97973376   -116.34461    2432.5213    4.3474602    4.3474602    4.3474602    2432.5213    5343.7477    5437.3954   -3483.5793    4783.8534    24731.539   -16995.373    82.168781 
   47800    835.49639   -117.10702   0.75597469   -116.35105   -1833.8103    4.3530403    4.3530403    4.3530403   -1833.8103    31982.537   -27629.695   -9854.2736    2538.6639    10570.781   -23073.845    82.485583 
   47900    1537.2584   -117.73167    1.3909437   -116.34072    6914.3323    4.3472614    4.3472614    4.3472614    6914.3323    25702.362    -17787.66    12828.295    2444.2357   -1427.1788    6827.4527     82.15751 
   48000    1192.2789   -117.42472     1.078799   -116.34592    17952.939    4.3441652    4.3441652    4.3441652    17952.939    22460.935    26488.728    4909.1531     -2920.39   -5760.2252     104.6983    81.982094 
   48100    710.62991   -116.99663   0.64299288   -116.35364    -14517.59    4.3579269    4.3579269    4.3579269    -14517.59   -2353.4824   -4630.6538   -36568.634     6891.485    13964.597   -34166.354    82.763688 
   48200    1415.3899   -117.61743    1.2806745   -116.33675   -12697.399    4.3562153    4.3562153    4.3562153   -12697.399    7652.5026   -21223.197   -24521.501    2168.4299    6934.8918   -14917.965    82.666205 
   48300    1526.8987   -117.71235    1.3815701   -116.33078    5331.7672    4.3433772    4.3433772    4.3433772    5331.7672       678.97    21091.935   -5775.6038    1585.2448   -19669.831    7665.8613    81.937485 
   48400     600.2683   -116.89256   0.54313538   -116.34943   -19322.335    4.3484162    4.3484162    4.3484162   -19322.335   -18522.047    19211.881   -58656.839    1457.2594    9823.1122   -28016.614    82.222998 
   48500    762.68458   -117.04413   0.69009304   -116.35404   -13418.564    4.3502545    4.3502545    4.3502545   -13418.564   -8807.9529    538.36266   -31986.103     1953.946    16635.143   -34432.766     82.32732 
   48600    1547.6244   -117.74226     1.400323   -116.34193   -2421.8695    4.3528248    4.3528248    4.3528248   -2421.8695    -10509.77   -6650.9974    9895.1583    820.47025   -10178.037    10959.516    82.473334 
   48700    1078.2464   -117.32429   0.97561998   -116.34867   -10216.327    4.3484188    4.3484188    4.3484188   -10216.327   -17588.356    12908.855    -25969.48   -1884.2295    4883.5413   -1793.7987    82.223148 
   48800    461.23864   -116.77096   0.41733841   -116.35362    8447.6087    4.3375076    4.3375076    4.3375076    8447.6087   -5890.2565    44886.886   -13653.804    6607.0702    19401.098   -39910.635    81.605745 
   48900    1022.4471   -117.27838   0.92513165   -116.35325    -10515.91    4.3562245    4.3562245    4.3562245    -10515.91   -5931.5774   -6194.2395   -19421.914   -6709.7696   -3403.5832    10335.373     82.66673 
   49000    1354.3398   -117.56435    1.2254351   -116.33891   -16006.742    4.3583976    4.3583976    4.3583976   -16006.742   -14087.906   -16762.541    -17169.78   -8984.6619    2824.5412    32264.602    82.790504 
   49100    968.41466   -117.21383   0.87624193   -116.33759    11558.434    4.3361349    4.3361349    4.3361349    11558.434   -2665.9563    33276.352    4064.9073    5164.0456    23029.939   -35560.544    81.528293 
   49200    892.10266    -117.1535   0.80719324   -116.34631   -16390.288     4.346198     4.346198     4.346198   -16390.288   -7993.1931   -10865.941   -30311.731    450.50926     7090.101   -19680.404    82.097234 
   49300    1151.7284   -117.38612    1.0421081   -116.34401   -9399.8023    4.3533552    4.3533552    4.3533552   -9399.8023   -169.26733   -25958.926   -2071.2137   -580.61632   -5190.3012    41218.107     82.50349 
   49400    1242.9851   -117.46625     1.124679   -116.34157    8218.7647    4.3482622    4.3482622    4.3482622    8218.7647    9288.9333    7166.6905    8200.6704    564.51223    3961.4423    -5666.585    82.214264 
   49500    1027.4287   -117.27527   0.92963905   -116.34563   -6049.0624    4.3477574    4.3477574    4.3477574   -6049.0624    119.59035    -9397.973   -8868.8047   -4271.9628    13320.313   -43155.521    82.185634 
   49600    973.68985   -117.22815   0.88101504   -116.34713    11732.775    4.3389976    4.3389976    4.3389976    11732.775     19268.74   -698.49933    16628.084   -5089.7337    7893.6155    21200.389    81.689874 
   49700    1260.9683   -117.48969    1.1409506   -116.34874    3197.5692    4.3504758    4.3504758    4.3504758    3197.5692    19980.028   -6383.4703   -4003.8503   -6540.4985   -14412.379    24258.223    82.339888 
   49800    1097.4333   -117.33964   0.99298073   -116.34666   -7369.2288    4.3549228    4.3549228    4.3549228   -7369.2288    9611.0298   -13775.438   -17943.278    4009.4149     98.63453   -35511.246    82.592649 
   49900    1060.7483   -117.30351   0.95978733   -116.34372    18217.122    4.3361751    4.3361751    4.3361751    18217.122    27155.329    20889.362    6606.6733    1138.7391     25734.49   -8607.6491    81.530564 
   50000     1202.676   -117.43357    1.0882065   -116.34536    179.07068    4.3477869    4.3477869    4.3477869    179.07068    7379.6433    1292.5829   -8135.0142   -5494.8201   -1196.1428    28218.206    82.187305 
   50100    1096.3863   -117.33286   0.99203333   -116.34083   -5854.3582     4.356999     4.356999     4.356999   -5854.3582     3581.124   -18031.931   -3112.2672    5496.4798   -29898.956   -7050.1696    82.710828 
   50200    923.23087   -117.17498   0.83535869   -116.33962    9962.1407    4.3465542    4.3465542    4.3465542    9962.1407    13095.934    11775.367    5015.1214    347.62209    25970.984    -18325.63    82.117418 
   50300    1069.4627    -117.3065   0.96767234   -116.33883    4929.0119    4.3439142    4.3439142    4.3439142    4929.0119   -10951.512    25564.667    173.88029   -6245.0007    42487.325    4825.6477     81.96788 
   50400    1359.4427   -117.56722    1.2300523   -116.33717    5625.0219    4.3471381    4.3471381    4.3471381    5625.0219    2213.5269   -3256.2719    17917.811   -972.22042   -33566.663    7503.3372    82.150517 
   50500    837.28348   -117.10547   0.75759169   -116.34788   -14202.426    4.3533302    4.3533302    4.3533302   -14202.426   -10695.756    652.97166   -32564.495   -3372.0789    1546.2673   -8911.7505    82.502066 
   50600    686.99939   -116.97326   0.62161149   -116.35165    -9469.249    4.3452284    4.3452284    4.3452284    -9469.249   -25458.384    17692.359   -20641.722    -409.6978    61373.836    -17121.62      82.0423 
   50700    1460.7157   -117.66704    1.3216862   -116.34535    11989.325    4.3423417    4.3423417    4.3423417    11989.325    3737.1365   -4439.2494    36670.088   -3650.7334   -5975.4887    3635.0449    81.878897 
   50800    1408.5998   -117.62118    1.2745307   -116.34665   -656.59252     4.350919     4.350919     4.350919   -656.59252   -14268.853   -11185.848    23484.923   -2263.2629   -7327.4871   -806.48233    82.365055 
   50900    440.48718   -116.75808   0.39856205   -116.35952   -11878.389    4.3501061    4.3501061    4.3501061   -11878.389   -41784.504    8091.6766   -1942.3383    289.98286    56675.959     -16183.7      82.3189 
   51000    764.25675    -117.0488   0.69151557   -116.35728   -7629.2569    4.3431137    4.3431137    4.3431137   -7629.2569    1802.9448   -16871.826   -7818.8892   -9816.2595    12270.994    5830.2877    81.922576 
   51100    1393.5101   -117.60852    1.2608772   -116.34764    399.04173    4.3401069    4.3401069    4.3401069    399.04173    15290.527   -25322.431    11229.029   -3610.6521   -11595.326    20125.959    81.752547 
   51200    1095.1313   -117.34174   0.99089784   -116.35084   -14602.875    4.3534055    4.3534055    4.3534055   -14602.875   -24584.294      -4765.7    -14458.63    1872.9101    43913.646   -4898.6724    82.506349 
   51300    831.41918   -117.10206   0.75228555   -116.34978   -10568.274     4.348894     4.348894     4.348894   -10568.274    1494.3634   -26915.635   -6283.5517    -276.1176    25167.376    -10128.83    82.250108 
   51400    726.87749   -117.00619   0.65769403    -116.3485     3869.538    4.3412541    4.3412541    4.3412541     3869.538    30263.168   -39243.358    20588.804   -4599.0371   -12912.624     16966.68    81.817391 
   51500    1024.9769   -117.27508   0.92742066   -116.34766   -3489.5571    4.3503461    4.3503461    4.3503461   -3489.5571    5294.5478   -12592.483    -3170.736   -2878.4336   -11101.713     17189.98    82.332523 
   51600    1297.5127   -117.51604    1.1740168   -116.34203    5674.3734    4.3465817    4.3465817    4.3465817    5674.3734    774.79595   -7049.6942    23298.018    4894.8472    14345.646   -7595.7543    82.118978 
   51700    876.40133   -117.14332   0.79298634   -116.35033   -16932.904    4.3487859    4.3487859    4.3487859   -16932.904    29959.917   -63274.413   -17484.216   -2708.9732    6644.5777    1032.8434    82.243972 
   51800     537.1541   -116.84101   0.48602832   -116.35498    -12273.68    4.3447184    4.3447184    4.3447184    -12273.68    33533.728   -39308.831   -31045.938    2657.7184   -28667.019    16393.874    82.013415 
   51900     1261.814   -117.49027    1.1417158   -116.34856    8080.4261    4.3446617    4.3446617    4.3446617    8080.4261   -12098.318    6466.5476    29873.049    5409.2726   -18008.208    73.196471    82.010207 
   52000    1409.2293   -117.61618    1.2751003   -116.34108    -12787.67    4.3583961    4.3583961    4.3583961    -12787.67    1343.4734   -52457.151    12750.668    547.87057    11684.287   -574.84812    82.790422 
   52100    606.26136   -116.89937   0.54855802   -116.35081    -205.8842    4.3427421    4.3427421    4.3427421    -205.8842    31791.849   -46416.744    14007.243   -872.16517   -9184.0255     11343.82    81.901552 
   52200     808.2694   -117.08394   0.73133914    -116.3526   -383.54066     4.340905     4.340905     4.340905   -383.54066   -3939.6482    876.46715    1912.5591   -902.65776   -27616.534   -3798.8717    81.797654 
   52300    1245.7021   -117.47158    1.1271374   -116.34445   -13249.635     4.353628     4.353628     4.353628   -13249.635    -28070.69   -11596.362   -81.851264    8403.1597    16388.617    -6038.743       82.519 
   52400    1120.6212   -117.36023    1.0139617   -116.34627   -5198.7103    4.3462169    4.3462169    4.3462169   -5198.7103    11765.079   -29467.242    2106.0319    3508.0816    21958.848    15150.353    82.098305 
   52500    1110.0323   -117.34997    1.0043805   -116.34559    346.56012    4.3448602    4.3448602    4.3448602    346.56012    10204.901   -23170.078    14004.857   -1256.9269    -27845.67    3871.0453    82.021444 
   52600    915.36383   -117.17629   0.82824043   -116.34805    3686.4406    4.3438909    4.3438909    4.3438909    3686.4406   -13054.603     7788.922    16325.002    8741.2549    10443.354   -9812.5478    81.966566 
   52700    873.20773   -117.14229   0.79009671   -116.35219   -481.50863    4.3500663    4.3500663    4.3500663   -481.50863   -24628.648   -4176.1858    27360.308    4458.3351    40957.608    3372.0633    82.316638 
   52800    1502.2198   -117.69875    1.3592401   -116.33951   -8932.1963    4.3560948    4.3560948    4.3560948   -8932.1963   -5041.5556   -35947.891    14192.858   -11387.989   -11997.482    10454.131    82.659349 
   52900    1076.9018   -117.31577   0.97440338   -116.34137    1488.9347    4.3429673    4.3429673    4.3429673    1488.9347    2501.0781   -6663.1161     8628.842    191.04362    13471.272   -4551.5634    81.914291 
   53000    750.97448   -117.02883   0.67949749   -116.34933   -8974.8561    4.3456391    4.3456391    4.3456391   -8974.8561   -32326.853    8475.5342   -3073.2493    16096.192    45108.739   -4707.2601    82.065563 
   53100    1353.9256    -117.5712    1.2250603   -116.34614   -7295.4141    4.3522437    4.3522437    4.3522437   -7295.4141   -29773.783   -16662.587    24550.127   -1006.9119   -6397.2782    5700.4863    82.440309 
   53200     1354.336   -117.57313    1.2254317    -116.3477    15737.173    4.3407493    4.3407493    4.3407493    15737.173    16814.858   -11720.662    42117.325   -12336.119   -5387.8671   -1720.3172    81.788851 
   53300    845.52922   -117.12103   0.76505261   -116.35597    5223.3715    4.3460927    4.3460927    4.3460927    5223.3715    6083.4393   -3339.9022    12926.577    8343.8416    40073.845   -6047.0356    82.091264 
   53400     970.6464   -117.22661   0.87826126   -116.34835   -15252.834    4.3581285    4.3581285    4.3581285   -15252.834   -35360.488   -17351.527    6953.5144    15134.473    3776.9136   -672.25125    82.775173 
   53500    1180.9844    -117.4142    1.0685795   -116.34563    2999.2554     4.340697     4.340697     4.340697    2999.2554   -8935.5704   -677.02077    18610.358   -18293.943   -31613.684    4749.8959    81.785896 
   53600    1141.8993   -117.38063    1.0332145   -116.34741    12514.267     4.337366     4.337366     4.337366    12514.267    15463.132    22928.597   -848.92834   -18327.125     9235.336   -11340.133    81.597758 
   53700    1223.2624   -117.45472    1.1068335   -116.34789   -12043.777    4.3539465    4.3539465    4.3539465   -12043.777    -15133.07   -13132.221   -7866.0398    23806.343    21401.452   -6034.7907    82.537111 
   53800      864.042   -117.13218   0.78180336   -116.35037    -1037.509    4.3489806    4.3489806    4.3489806    -1037.509   -17975.998   -1364.1046    16227.575    17766.025   -18332.874    1477.8301    82.255022 
   53900    972.88902   -117.23063   0.88029043   -116.35034    4232.0508    4.3432407    4.3432407    4.3432407    4232.0508   -13548.025    18870.771    7373.4067   -36626.564   -23362.003   -5415.3397    81.929761 
   54000      1498.89   -117.70071    1.3562272   -116.34448    4824.2697    4.3457044    4.3457044    4.3457044    4824.2697    4073.9647    2875.7107    7523.1338   -11555.405    5075.5645   -3134.8017    82.069263 
   54100    1244.5604   -117.47543    1.1261044   -116.34932    12333.271    4.3464016    4.3464016    4.3464016    12333.271    9593.7289    14849.974    12556.112    27390.159   -4434.0796   -1458.7276    82.108771 
   54200    620.81706    -116.9203   0.56172833   -116.35857   -6748.3527    4.3510824    4.3510824    4.3510824   -6748.3527   -38991.657    14639.504    4107.0946   -15703.692   -24665.412    2386.0313    82.374333 
   54300    1029.3525   -117.28427   0.93137978   -116.35289    1611.4866    4.3450822    4.3450822    4.3450822    1611.4866   -15660.925    21076.297     -580.912   -27217.429   -3836.7373   -2804.3388     82.03402 
   54400    1453.8267   -117.65945     1.315453     -116.344    20303.105    4.3396582    4.3396582    4.3396582    20303.105    34585.053    27675.498   -1351.2358    7362.5929    11535.965   -11100.658    81.727194 
   54500      1230.65   -117.46358    1.1135179   -116.35006   -6824.5733    4.3525987    4.3525987    4.3525987   -6824.5733   -18439.407    2120.8566   -4155.1695   -3586.7215    -14843.26    1720.1107    82.460486 
   54600    851.56049   -117.12196   0.77050983   -116.35145     1229.789     4.349116     4.349116     4.349116     1229.789   -21275.243    22128.547    2836.0631   -22959.202   -19692.191    1248.2177    82.262704 
   54700    932.44084   -117.19273   0.84369207   -116.34903     8767.664    4.3392832    4.3392832    4.3392832     8767.664   -3513.7947    30136.213   -319.42634   -361.88699    33694.989   -11975.052    81.706009 
   54800    1174.0005   -117.41193    1.0622603   -116.34967   -3854.4266    4.3481794    4.3481794    4.3481794   -3854.4266   -10034.216    4624.6876   -6153.7519    2619.5684     21991.14   -8886.9115    82.209569 
   54900     1393.214   -117.60422    1.2606093   -116.34361    12072.242    4.3473767    4.3473767    4.3473767    12072.242     1302.376    15787.445    19126.904   -19508.092   -18409.599    4250.3437    82.164047 
   55000    991.55961   -117.24824   0.89718397   -116.35106   -3984.2401    4.3466548    4.3466548    4.3466548   -3984.2401   -35202.571    10889.842    12360.008   -8778.1251    25640.714   -1887.2551    82.123122 
   55100    627.33204   -116.92322   0.56762322    -116.3556   -13735.602    4.3469536    4.3469536    4.3469536   -13735.602    -25180.98    504.72323    -16530.55    7248.9337    36055.274   -23594.734    82.140061 
   55200    1149.9271   -117.39027    1.0404782    -116.3498    6222.8173    4.3383935    4.3383935    4.3383935    6222.8173     16866.95   -4538.0117    6339.5133   -2645.1626   -5973.2369   -4677.5771    81.655759 
   55300     1254.216    -117.4867    1.1348409   -116.35186   -14083.416    4.3508734    4.3508734    4.3508734   -14083.416   -28808.933   -17762.797    4321.4809   -17633.206    4962.4473    20733.113    82.362467 
   55400     771.3762   -117.05231    0.6979574   -116.35435   -22854.964    4.3509959    4.3509959    4.3509959   -22854.964   -35330.141   -10360.752   -22873.999   -6750.4367    37257.011   -19143.899    82.369422 
   55500    962.28114   -117.21797    0.8706922   -116.34727    18.278847    4.3322904    4.3322904    4.3322904    18.278847    20679.983   -6181.5716   -14443.574    6865.1069     6954.341   -32811.839    81.311633 
   55600    1096.8988   -117.34211   0.99249705   -116.34961   -15934.547    4.3514692    4.3514692    4.3514692   -15934.547   -18420.924   -27467.047    -1915.671   -11516.415   -14641.269    16217.532    82.396304 
   55700      993.739   -117.24381   0.89915593   -116.34465   -24129.623    4.3565632    4.3565632    4.3565632   -24129.623   -38496.758   -15359.612     -18532.5   -12206.924    13688.989     12484.44    82.686014 
   55800    826.94942   -117.09378   0.74824121   -116.34554    12174.858    4.3308378    4.3308378    4.3308378    12174.858    28469.792    11915.343   -3860.5603    2718.1904    22501.343   -49568.977    81.229868 
   55900    1127.8073   -117.37169    1.0204637   -116.35123    1582.8408    4.3431604    4.3431604    4.3431604    1582.8408    12134.778   -9360.2437    1973.9882    -351.9156   -3834.0275   -26727.963    81.925221 
   56000    1466.3404    -117.6718    1.3267756   -116.34502   -4246.1546    4.3523591    4.3523591    4.3523591   -4246.1546   -19521.615    3220.2407    3562.9101   -6989.2325   -7090.8819    27893.691    82.446869 
   56100    579.09244   -116.88209   0.52397501   -116.35811    12198.119    4.3389223    4.3389223    4.3389223    12198.119    22932.416    24985.869    -11323.93    -5225.235    9884.6869   -28671.493     81.68562 
   56200    621.49448   -116.92694   0.56234126    -116.3646   -11877.541     4.349713     4.349713     4.349713   -11877.541    17699.233   -19100.391   -34231.466    930.67954     12423.81   -54770.992    82.296582 
   56300    1821.0066   -117.99178     1.647685    -116.3441    3765.1636    4.3465325    4.3465325    4.3465325    3765.1636   -6549.2896    16455.842    1388.9381   -2622.8779    1018.0839    11977.951    82.116193 
   56400    1299.6582   -117.52845    1.1759581   -116.35249    5695.1854    4.3426481    4.3426481    4.3426481    5695.1854    9786.1654    8036.0517   -736.66076    -3147.902   -306.45205   -18203.684    81.896233 
   56500    520.24172   -116.83303   0.47072564   -116.36231    -29685.18    4.3529078    4.3529078    4.3529078    -29685.18    10930.469   -34064.259   -65921.749    2346.0577    23200.306    -57701.25    82.478054 
   56600     1249.705    -117.4816    1.1307593   -116.35084    8453.9691    4.3380439    4.3380439    4.3380439    8453.9691    17922.026     19988.31   -12548.429    3312.8334    13656.676    6596.2618    81.636021 
   56700    1552.2405   -117.75052    1.4044999   -116.34602    3613.2629    4.3463508    4.3463508    4.3463508    3613.2629    23293.079    -8832.023   -3621.2675   -4046.9152   -10094.496    2541.2913    82.105895 
   56800    920.68838   -117.18384    0.8330582   -116.35078   -19581.887    4.3555548    4.3555548    4.3555548   -19581.887    21114.728   -44345.162   -35515.228   -4159.1396     12160.84   -48005.258    82.628611 
   56900    942.31599    -117.1995   0.85262731   -116.34687    17809.938    4.3334876    4.3334876    4.3334876    17809.938    24028.726     15619.12    13781.969    2577.4831    34865.206   -12453.222    81.379064 
   57000    1423.7676   -117.63361    1.2882549   -116.34536    9031.4869    4.3458156    4.3458156    4.3458156    9031.4869    11161.701    889.06689    15043.693   -530.49228   -380.47096    16252.787    82.075568 
   57100    1176.9073   -117.40876    1.0648905   -116.34387   -11929.321     4.357273     4.357273     4.357273   -11929.321    15393.279   -47191.316   -3989.9255   -750.54318   -10422.672   -22906.272    82.726438 
   57200    699.08747   -116.98042   0.63254904   -116.34788    3735.3714    4.3382413    4.3382413    4.3382413    3735.3714    4536.8904    73.281262    6595.9427    1293.5575     42658.02    -25343.04    81.647167 
   57300    1272.5542   -117.49819    1.1514337   -116.34676    1876.6169    4.3438739    4.3438739    4.3438739    1876.6169   -8690.8521    4931.5801    9389.1227    2166.1863    29039.685     4956.362    81.965601 
   57400    1749.1551    -117.9201    1.5826723   -116.33743    688.72282    4.3523311    4.3523311    4.3523311    688.72282    5725.1537   -31142.819    27483.834    2026.4674   -21868.455   -9166.5736    82.445275 
   57500    648.75758   -116.94182   0.58700949   -116.35482   -11126.992    4.3494692    4.3494692    4.3494692   -11126.992   -2709.4762   -17143.743   -13527.755   -361.17469    33690.097   -29049.486    82.282748 
   57600    584.12238    -116.8842    0.5285262   -116.35567    -8023.418    4.3452535    4.3452535    4.3452535    -8023.418    -13227.26    1354.0727   -12197.067    757.54999    42110.547    478.28951    82.043721 
   57700    1674.0004    -117.8534    1.5146707   -116.33873    7686.0156    4.3427894    4.3427894    4.3427894    7686.0156    4721.1742   -12951.405    31288.278    4527.7464   -20442.678    10580.602    81.904228 
   57800    1019.7137   -117.27316   0.92265836    -116.3505   -2399.0763    4.3498906    4.3498906    4.3498906   -2399.0763    10926.445   -9977.4633   -8146.2105   -191.78499    22255.243   -12768.719    82.306666 
   57900    623.83138   -116.92054   0.56445574   -116.35609   -4565.1097      4.34605      4.34605      4.34605   -4565.1097    4371.3884    3605.7953   -21672.513   -497.02572    60023.914   -16761.139     82.08885 
   58000     1370.012   -117.58176    1.2396156   -116.34215    16812.659    4.3444299    4.3444299    4.3444299    16812.659    50563.638   -16708.015    16582.354     5057.478    -8622.024    3376.5624    81.997078 
   58100     1220.391   -117.44732    1.1042354   -116.34309    1739.1632    4.3495904    4.3495904    4.3495904    1739.1632     30599.69   -3205.8729   -22176.328    3454.7089    4762.6762    7417.8268    82.289625 
   58200    371.21024   -116.68957   0.33587883   -116.35369   -6271.6112    4.3472673    4.3472673    4.3472673   -6271.6112    3216.2035    13042.754   -35073.791   -4610.2971    58413.088    -15960.02    82.157845 
   58300    1337.7468   -117.55466    1.2104214   -116.34423   -734.96916    4.3431658    4.3431658    4.3431658   -734.96916    30093.935   -15079.921   -17218.921    1873.2388   -754.87628   -20943.104    81.925523 
   58400    1581.0689   -117.76922    1.4305844   -116.33863    1186.0905    4.3469856    4.3469856    4.3469856    1186.0905    10821.435   -4748.7888   -2514.3746    4085.7222    3555.6005    4941.3256    82.141873 
   58500    722.82538   -117.00333   0.65402759    -116.3493   -9383.1414    4.3498123    4.3498123    4.3498123   -9383.1414   -11872.774    15962.371   -32239.022   -397.12475    53694.111    -4615.589    82.302218 
   58600    936.87592    -117.1933   0.84770502   -116.34559   -1424.9999    4.3476479    4.3476479    4.3476479   -1424.9999    41226.626   -6817.6663   -38683.959    2557.2278   -5252.5964    -27808.76    82.179425 
   58700    1461.4702    -117.6611    1.3223689   -116.33873     5404.676    4.3444621    4.3444621    4.3444621     5404.676    26838.427   -5771.2006   -4853.1981    3378.8437   -17056.722   -2899.5457    81.998904 
   58800    1234.5115   -117.46002     1.117012   -116.34301    10199.878    4.3411306    4.3411306    4.3411306    10199.878    24645.989    18608.773   -12655.128    4705.1187    41331.513    8837.2567    81.810409 
   58900    952.14672   -117.21056   0.86152236   -116.34904   -8396.0993    4.3532943    4.3532943    4.3532943   -8396.0993    31503.903   -17316.944   -39375.256    4339.2424    15683.335   -33723.018    82.500025 
   59000    1097.8604   -117.34071   0.99336714   -116.34735   -8781.6634     4.348559     4.348559     4.348559   -8781.6634    15634.382   -16957.424   -25021.948   -4373.1867   -28071.988   -22086.094    82.231102 
   59100    1378.4328    -117.5887     1.247235   -116.34146    20344.922    4.3308552    4.3308552    4.3308552    20344.922    28211.383    23942.993    8880.3891   -1168.9226    1099.9886    28395.749     81.23085 
   59200    1093.6807   -117.34203   0.98958532   -116.35245   -8451.5585    4.3517883    4.3517883    4.3517883   -8451.5585    14640.701   -19611.208   -20384.169   -179.16549    20532.285   -26711.276    82.414435 
   59300    1104.4077   -117.34396   0.99929134   -116.34467   -17635.328    4.3575597    4.3575597    4.3575597   -17635.328    4720.4917   -32432.534   -25193.942    2835.9413    2670.0588   -52835.095    82.742768 
   59400    1550.0745   -117.73729      1.40254   -116.33475    18060.738    4.3343316    4.3343316    4.3343316    18060.738    15068.144    27052.654    12061.416   -522.61383   -12812.067    27290.831    81.426616 
   59500    1112.1034   -117.35263    1.0062545   -116.34638    1244.4383    4.3399027    4.3399027    4.3399027    1244.4383    21386.392   -10462.819   -7190.2584     2002.835    4677.0169    4594.2464    81.741006 
   59600    845.39598   -117.12164   0.76493204   -116.35671   -11400.812    4.3488772    4.3488772    4.3488772   -11400.812    15805.027   -33396.336   -16611.127    6081.6535    9873.9336   -54076.785    82.249152 
   59700    1534.0096   -117.73768    1.3880041   -116.34968    8462.9067    4.3471441    4.3471441    4.3471441    8462.9067   -2464.1017    14062.472     13790.35   -9227.9756     5.154183   -7788.5407    82.150858 
   59800    1611.6712   -117.80331     1.458274   -116.34504    10069.372    4.3445199    4.3445199    4.3445199    10069.372    5620.0319   -9261.7927    33849.878   -4762.3167   -3482.6109    14404.254    82.002177 
   59900    766.00864   -117.04863   0.69310072   -116.35553   -3925.6673    4.3450463    4.3450463    4.3450463   -3925.6673    35218.507   -30389.373   -16606.136    12831.476    5144.7269     -40185.4    82.031983 
   60000    1109.7749   -117.35108    1.0041477   -116.34693   -11577.676    4.3519937    4.3519937    4.3519937   -11577.676   -9271.3116    2861.7571   -28323.475    1399.6288    15456.855   -16802.604    82.426105 
   60100    1634.5955   -117.81371    1.4790164   -116.33469   -4940.7075    4.3491059    4.3491059    4.3491059   -4940.7075   -18447.449   -6024.1478    9649.4748   -17622.757   -3375.4697    11577.803    82.262127 
   60200    1196.9472   -117.42503     1.083023   -116.34201    1269.2402    4.3390265    4.3390265    4.3390265    1269.2402    31000.453   -17855.418   -9337.3143     4509.909   -2566.5773   -38121.524    81.691508 
   60300    1012.0048   -117.26491   0.91568321   -116.34922   -4482.2113    4.3435276    4.3435276    4.3435276   -4482.2113    264.05135   -1381.9245   -12328.761    12797.693    11388.254   -31986.156    81.945997 
   60400    1386.9232   -117.59881    1.2549172    -116.3439   -6712.0785    4.3542745    4.3542745    4.3542745   -6712.0785   -31533.831    7845.8448     3551.751   -12594.134   -2144.7928     15034.88    82.555764 
   60500    1305.0855   -117.52366    1.1808687   -116.34279    5112.4952    4.3438523    4.3438523    4.3438523    5112.4952      17775.2    5654.5765    -8092.291   -6539.5072   -4791.7364   -16076.131    81.964381 
   60600    861.67599   -117.12787   0.77966254   -116.34821    4013.7992    4.3396834    4.3396834    4.3396834    4013.7992    18795.789   -16947.124    10192.733    17307.672    13134.268   -35395.174    81.728617 
   60700     1204.627   -117.43412    1.0899718   -116.34415   -12513.382    4.3541234    4.3541234    4.3541234   -12513.382   -32104.422    5876.3863   -11312.111     15555.79    17002.854    4908.1206     82.54717 
   60800    1532.2069   -117.72314     1.386373   -116.33677   -2058.0288     4.348008     4.348008     4.348008   -2058.0288   -4734.2493    19103.104   -20542.942   -5117.6937   -5170.8216   -296.00989    82.199846 
   60900    996.42152   -117.24563   0.90158313   -116.34405    2055.1589    4.3379516    4.3379516    4.3379516    2055.1589    23031.159   -13954.329   -2911.3532    8243.7028   -3068.3856   -32911.343    81.630809 
   61000    880.70578   -117.14647    0.7968811   -116.34958   -7675.6629    4.3477414    4.3477414    4.3477414   -7675.6629   -28844.629     12481.07   -6663.4298    21682.783    22499.719    -13029.55    82.184726 
   61100     1339.294   -117.55175    1.2118214   -116.33993   -7798.1295    4.3537366    4.3537366    4.3537366   -7798.1295   -31260.176    24272.182   -16406.395   -4793.1688    5800.9464     9516.446    82.525177 
   61200    1119.0517   -117.35314    1.0125415    -116.3406   -8205.8994    4.3459976    4.3459976    4.3459976   -8205.8994    13225.934    -22270.76   -15572.872   -11764.799   -10840.344    -39945.42    82.085879 
   61300     957.0712   -117.21083   0.86597813   -116.34485    3068.4913    4.3378689    4.3378689    4.3378689    3068.4913     3388.564    5420.6463    396.26357    13881.056    8159.0646   -28336.113    81.626141 
   61400    1279.2316   -117.50121    1.1574757   -116.34373     1831.136    4.3458149    4.3458149    4.3458149     1831.136   -21488.412    16012.439    10969.381    13853.393    28166.423    14227.883    82.075528 
   61500    977.41691   -117.22996   0.88438736   -116.34557    -8434.653    4.3536263    4.3536263    4.3536263    -8434.653    2612.3633   -23051.284   -4865.0381   -14384.576    823.41748   -30019.384    82.518904 
   61600     930.6672   -117.18377   0.84208724   -116.34168    5927.4114    4.3474072    4.3474072    4.3474072    5927.4114     14840.72    4889.9335   -1948.4193   -9642.3745   -12193.634   -35271.761    82.165777 
   61700    1305.5809   -117.51287     1.181317   -116.33155    9134.7717    4.3474077    4.3474077    4.3474077    9134.7717   -8867.7232    16870.851    19401.188    9252.6638    19606.162    10999.483    82.165805 
   61800    973.46134   -117.22041   0.88080827    -116.3396    567.54925    4.3452421    4.3452421    4.3452421    567.54925    13709.729   -1870.7656   -10136.315    2063.5195    15281.184   -20786.718    82.043075 
   61900    853.43983    -117.1183   0.77221029   -116.34608     7555.035    4.3418821    4.3418821    4.3418821     7555.035    31220.654    3030.0715    -11585.62   -11884.002   -12799.856   -42359.127      81.8529 
   62000    1339.4267   -117.55097    1.2119414   -116.33903    2655.9465    4.3513195    4.3513195    4.3513195    2655.9465    5746.4417   -2084.2724    4305.6701    -11353.57    674.03179    3973.6532    82.387805 
   62100    1007.5074   -117.25389   0.91161384   -116.34228    1311.9654    4.3512344    4.3512344    4.3512344    1311.9654     8575.355     14532.36   -19171.819     8748.081    25773.054   -7685.0619     82.38297 
   62200    986.80206   -117.23514   0.89287925   -116.34226    723.55485    4.3404278    4.3404278    4.3404278    723.55485    29888.842   -16742.195   -10975.982    2441.3597    3122.1315   -42572.757    81.770678 
   62300    1396.2016   -117.60396    1.2633126   -116.34065    8266.8702    4.3414096    4.3414096    4.3414096    8266.8702    21469.526   -13878.696    17209.781   -17329.292   -6852.8767    1794.5929    81.826184 
   62400     1203.254   -117.43411    1.0887295   -116.34538   -3422.9317    4.3492148    4.3492148    4.3492148   -3422.9317   -5314.0674    6034.0778   -10988.805   -6034.6309    21572.228    8636.3733    82.268311 
   62500    793.43437   -117.06726   0.71791609   -116.34934   -7274.8946    4.3507364    4.3507364    4.3507364   -7274.8946    7844.3866   -31787.077    2118.0067    11096.479    16065.359   -42281.486    82.354683 
   62600    1424.9625   -117.62788     1.289336   -116.33854   -1142.8575    4.3449933    4.3449933    4.3449933   -1142.8575    11078.528   -29005.033    14497.933    5352.8423   -8316.1582   -14244.361    82.028986 
   62700    1305.9084   -117.51912    1.1816134   -116.33751     4045.113    4.3423692    4.3423692    4.3423692     4045.113   -6761.9618    11893.591    7003.7104   -10954.812    5605.1582     21133.76    81.880454 
   62800    779.28617   -117.05242    0.7051145   -116.34731   -12402.377    4.3505207    4.3505207    4.3505207   -12402.377   -8681.7178   -15521.316   -13004.096   -4902.9536    20015.329   -17946.348     82.34244 
   62900    1176.4911   -117.40928    1.0645139   -116.34477   -3150.6858     4.344132     4.344132     4.344132   -3150.6858   -1997.6094   -17549.075    10094.627    30054.451    1164.5906   -25129.638    81.980215 
   63000    1313.1091   -117.53014    1.1881287   -116.34201     12362.03    4.3386336    4.3386336    4.3386336     12362.03     1977.162    22083.259     13025.67    15474.973   -2357.4397    10000.192    81.669317 
   63100    1130.0883   -117.36822    1.0225277    -116.3457   -6302.0796    4.3506522    4.3506522    4.3506522   -6302.0796    9841.7855   -3814.4414   -24933.583   -15593.123    19237.139    2010.5599    82.349904 
   63200    778.12312   -117.04971   0.70406215   -116.34565    4773.8595    4.3480459    4.3480459    4.3480459    4773.8595    11169.331   -2356.3756    5508.6229    22353.801    5602.5011   -21192.392    82.201995 
   63300    1171.9898   -117.39911     1.060441   -116.33867    5434.0175      4.34518      4.34518      4.34518    5434.0175    8331.8006   -11064.671    19034.923    29893.248   -6390.9409   -164.78466    82.039557 
   63400    1388.2412   -117.59242    1.2561098   -116.33631    1635.1052    4.3460806    4.3460806    4.3460806    1635.1052    23307.853    5571.5964   -23974.133   -6114.2155    16218.703    13293.494    82.090582 
   63500    908.24887   -117.16914   0.82180266   -116.34734    7975.9269    4.3392842    4.3392842    4.3392842    7975.9269    19788.409    11470.487    -7331.116    8913.0827    15647.784   -8598.5016    81.706061 
   63600    642.43538   -116.93824   0.58128903   -116.35695   -5070.5407    4.3453137    4.3453137    4.3453137   -5070.5407   -4422.4982   -36535.955    25746.832    36612.634    1233.8893   -16906.212    82.047132 
   63700    1308.0304   -117.53141    1.1835334   -116.34787   -4135.9818    4.3487779    4.3487779    4.3487779   -4135.9818    1884.6687   -18994.419    4701.8044   -4323.8079   -755.89113    4008.3336    82.243518 
   63800    1429.5678   -117.63528     1.293503   -116.34178    3654.7213    4.3429903    4.3429903    4.3429903    3654.7213    3747.4837    14569.035   -7352.3545   -3908.7271     11272.51   -4914.0345     81.91559 
   63900    577.99498   -116.87564   0.52298201   -116.35266   -5024.5473    4.3429087    4.3429087    4.3429087   -5024.5473   -5148.2358   -29117.147    19191.741    43878.791    5950.3904   -19247.286    81.910976 
   64000     897.3324   -117.16414   0.81192521   -116.35222   -9649.4815    4.3470511    4.3470511    4.3470511   -9649.4815    -15514.31   -33969.925     20535.79   -726.38495   -10390.244   -3725.0183    82.145586 
   64100    1571.9646   -117.75913    1.4223466   -116.33679   -5705.4412    4.3528606    4.3528606    4.3528606   -5705.4412    4196.8721   -10378.811   -10934.384   -28938.007    6057.2708    3855.0069     82.47537 
   64200    1073.8893   -117.31721   0.97167763   -116.34553   -1174.9927    4.3402725    4.3402725    4.3402725   -1174.9927    16329.135   -21749.012    1894.8986    35532.222     8423.239   -10857.456    81.761903 
   64300    697.13361    -116.9844   0.63078114   -116.35362   -52.099375     4.336631     4.336631     4.336631   -52.099375    6207.5385   -20777.154    14413.317      32588.5    -6485.314    -14531.62    81.556278 
   64400    1453.5482   -117.66357     1.315201   -116.34837   -9838.0096    4.3513694    4.3513694    4.3513694   -9838.0096   -9885.3145   -6473.8936   -13154.821   -28374.873   -8908.1659    1019.8859    82.390637 
   64500    1322.0785   -117.54217    1.1962444   -116.34592    1298.6928    4.3466764    4.3466764    4.3466764    1298.6928    12096.406    9650.7351   -17851.063     4605.517   -7004.9319    580.07601    82.124348 
   64600    691.64046   -116.98007   0.62581082   -116.35426   -8212.6132    4.3418143    4.3418143    4.3418143   -8212.6132    12495.119   -25625.321   -11507.638    48076.263    3481.1773    -15862.76    81.849069 
   64700     1232.769    -117.4677    1.1154353   -116.35227   -7772.3087    4.3443118    4.3443118    4.3443118   -7772.3087    2451.5158   -5476.9371   -20291.505    5219.5148   -6287.5751   -7877.0616    81.990392 
   64800    1654.6905   -117.84014    1.4971987   -116.34294    1598.4836    4.3448275    4.3448275    4.3448275    1598.4836    1551.0921     31058.62   -27814.261   -11147.061    -11192.99    4892.3205    82.019597 
   64900    729.80148   -117.01626   0.66033972   -116.35592   -22109.949    4.3507223    4.3507223    4.3507223   -22109.949   -1698.6301   -39658.269   -24972.947    30031.918    5465.6433   -12841.423    82.353882 
   65000    897.10824   -117.16857   0.81172239   -116.35685   -8662.6624    4.3396192    4.3396192    4.3396192   -8662.6624    25708.541   -30708.921   -20987.607    27457.962   -3035.5396   -6110.1929    81.724991 
   65100    1843.2579    -118.0114    1.6678185   -116.34358    13301.386    4.3393862    4.3393862    4.3393862    13301.386    19813.501    28486.127   -8395.4688   -12420.963   -9757.8855    7944.9793    81.711828 
   65200    1026.5721   -117.28212     0.928864   -116.35326   -12029.064    4.3551447    4.3551447    4.3551447   -12029.064   -2790.3933   -24580.689    -8716.109     11674.01    7012.9505   -10974.894    82.605275 
   65300    549.16793   -116.85437   0.49689869   -116.35747   -5156.6908    4.3447873    4.3447873    4.3447873   -5156.6908    25574.226   -30571.373   -10472.925    36348.391    3754.4555   -10702.299    82.017319 
   65400    1622.2883   -117.80988    1.4678805     -116.342    10019.082    4.3389756    4.3389756    4.3389756    10019.082    39865.635    4726.8422    -14535.23   -3554.0636    319.18003    7096.9735    81.688631 
   65500    1433.3132   -117.64125    1.2968919   -116.34436    1702.7267    4.3460236    4.3460236    4.3460236    1702.7267    18024.569   -13964.109    1047.7204   -8683.5364   -99.644527   -1682.2753    82.087351 
   65600    577.56889   -116.88021   0.52259647   -116.35761   -16054.297    4.3482502    4.3482502    4.3482502   -16054.297    -14.28321   -60919.862    12771.253    30064.602     342.6315   -12909.826    82.213584 
   65700    1055.1264   -117.30558   0.95470054   -116.35088   -7740.2466    4.3440679    4.3440679    4.3440679   -7740.2466    17151.089   -15648.239    -24723.59    13418.682   -420.23868   -4772.4822    81.976582 
   65800    1484.4425   -117.68441    1.3431547   -116.34126    5836.7934    4.3392987    4.3392987    4.3392987    5836.7934    24840.472    12357.295   -19687.387   -11271.257   -13685.994    3057.5807    81.706885 
   65900    709.99984   -116.99695   0.64242278   -116.35452   -7497.0232     4.345077     4.345077     4.345077   -7497.0232    22519.514   -51850.295     6839.711    28450.925   -1627.2056   -6962.7681    82.033725 
   66000    817.47555   -117.09431   0.73966906   -116.35464   -4324.1815    4.3462679    4.3462679    4.3462679   -4324.1815    22783.889   -47769.049    12012.616    21858.057    6936.0911   -14606.415    82.101197 
   66100    1491.8242    -117.6921    1.3498339   -116.34226    12122.852    4.3415657    4.3415657    4.3415657    12122.852    51519.176    2124.1234   -17274.745   -14787.957    -14353.12    6414.1166    81.835006 
   66200     950.1096   -117.21288   0.85967913    -116.3532   -10349.131    4.3431795    4.3431795    4.3431795   -10349.131    13674.394   -28932.411   -15789.377    22292.635   -7989.0854    8577.5161    81.926301 
   66300    396.00174   -116.72117    0.3583107   -116.36286   -17103.275    4.3428718    4.3428718    4.3428718   -17103.275   -15775.361   -41189.177    5654.7123    29951.283    5355.9155   -16236.982     81.90889 
   66400    1298.0547   -117.52553    1.1745072   -116.35102   -381.63576    4.3452341    4.3452341    4.3452341   -381.63576    15859.053   -11409.525   -5594.4348   -12019.442    1243.0226   -5196.1893    82.042623 
   66500    1336.2609    -117.5555     1.209077   -116.34643   -7518.9794    4.3492144    4.3492144    4.3492144   -7518.9794    19960.521   -19101.035   -23416.425    1777.0848    663.25996    19201.566    82.268287 
   66600    523.77682   -116.82807   0.47392428   -116.35415    1124.6943    4.3377939    4.3377939    4.3377939    1124.6943    11957.085   -8319.9834   -263.01906    38391.071    193.78126   -2487.6954    81.621907 
   66700    884.73454   -117.15187   0.80052641   -116.35134    2572.6537    4.3461679    4.3461679    4.3461679    2572.6537    23495.616   -3340.3158   -12437.339     7521.616    5128.6364   -16798.771    82.095527 
   66800     1361.886   -117.57247    1.2322631    -116.3402   -3525.0897    4.3505579    4.3505579    4.3505579   -3525.0897    4693.7891    17975.009   -33244.067    -16217.82    7177.5128    12608.485    82.344549 
   66900    788.55764   -117.06264   0.71350352   -116.34914     6975.484    4.3335768    4.3335768    4.3335768     6975.484    33690.124   -13029.949    266.27726     30085.77   -4049.6851    11044.325    81.384087 
   67000    637.35084   -116.93382   0.57668843   -116.35713   -8335.1266    4.3430426    4.3430426    4.3430426   -8335.1266    28334.454   -35897.864    -17441.97    26502.758    4458.2382   -24861.599    81.918554 
   67100    1333.9707   -117.55087    1.2070047   -116.34386   -13784.236    4.3513586    4.3513586    4.3513586   -13784.236   -10269.113    13072.822   -44156.417   -9614.7836    8125.4206   -6089.7672    82.390022 
   67200     1035.296   -117.28344   0.93675757   -116.34668    3154.4069    4.3400862    4.3400862    4.3400862    3154.4069    16680.613    4244.7866   -11462.179    9978.7506   -53.012914    13466.766    81.751373 
   67300    525.67126   -116.83106   0.47563841   -116.35542   -3494.4587    4.3412016    4.3412016    4.3412016   -3494.4587    24279.598   -32830.033    -1932.942    37827.255   -2061.9027   -18132.187    81.814422 
   67400    1190.8897   -117.42548     1.077542   -116.34794   -1737.0024    4.3473776    4.3473776    4.3473776   -1737.0024    11320.472    11748.228   -28279.708    2655.9096   -350.66401   -16055.769    82.164099 
   67500    1411.6022   -117.62129    1.2772473   -116.34404    5729.9372    4.3427745    4.3427745    4.3427745    5729.9372    13421.871    11865.808   -8097.8679   -14756.432    5045.0391    3671.0192    81.903385 
   67600    396.58135   -116.71886   0.35883514   -116.36003   -4246.0716     4.342696     4.342696     4.342696   -4246.0716   -17254.729    -6535.031    11051.546    30893.342   -4229.7212   -7277.7056    81.898942 
   67700    873.02386    -117.1478   0.78993034   -116.35787   -10520.255    4.3459635    4.3459635    4.3459635   -10520.255    3871.0017   -18616.794   -16814.973    26307.699   -8254.6521   -15840.916    82.083944 
   67800    1712.4562   -117.89319    1.5494664   -116.34372    10335.902    4.3408077    4.3408077    4.3408077    10335.902    34288.559    4558.7943   -7839.6487   -16205.148    1372.3006    1040.4907    81.792153 
   67900    994.95419   -117.25627   0.90025546   -116.35601    1027.8451    4.3440317    4.3440317    4.3440317    1027.8451    9162.4506    -22161.82    16082.905    14059.518    442.34979    4207.3417    81.974536 
   68000    667.66229   -116.96234   0.60411487   -116.35822   -12085.659    4.3479622    4.3479622    4.3479622   -12085.659    15461.147   -40132.014    -11586.11    30704.308    1543.7076   -12519.166    82.197247 
   68100    1324.7459   -117.54653    1.1986579   -116.34788    12101.238    4.3395832    4.3395832    4.3395832    12101.238    38457.766     11627.92   -13781.973   -7295.2248   -6878.9653   -8035.6329    81.722952 
   68200    1293.9066     -117.518    1.1707539   -116.34725    5678.9298    4.3416042    4.3416042    4.3416042    5678.9298    19454.942   -3984.0086    1565.8558    12236.553   -3791.0493    4550.8133    81.837187 
   68300     887.3664   -117.15452   0.80290777   -116.35161   -14143.891    4.3508257    4.3508257    4.3508257   -14143.891    7728.9989   -57777.364    7616.6924    33529.595    3044.3949   -3834.7042    82.359759 
   68400    1213.2339   -117.44344    1.0977595   -116.34568     2727.601    4.3416583    4.3416583    4.3416583     2727.601    20328.122    -17674.01    5528.6908   -11530.202   -10135.804   -7596.1713    81.840244 
   68500    1483.2645   -117.68393    1.3420889   -116.34184    6470.1016    4.3397568    4.3397568    4.3397568    6470.1016    19377.883    10168.027   -10135.606     1145.392   -825.98275    4227.5975    81.732761 
   68600    746.27683   -117.02806   0.67524696   -116.35281   -16723.626    4.3509479    4.3509479    4.3509479   -16723.626   -5706.6835   -44825.758    361.56428    32814.838    10690.978    6175.3503    82.366696 
   68700    916.81076   -117.18246   0.82954965   -116.35291   -6783.9249    4.3439616    4.3439616    4.3439616   -6783.9249    5407.5729   -44977.065    19217.718   -7839.7655   -3565.5777   -10837.098    81.970563 
   68800     1743.799   -117.91809     1.577826   -116.34027    9809.9983    4.3393521    4.3393521    4.3393521    9809.9983    35168.559   -4348.7431   -1389.8212    -16396.47   -1719.9251   -1972.2138      81.7099 
   68900    1207.2161   -117.44343    1.0923145   -116.35111   -7112.0164    4.3476386    4.3476386    4.3476386   -7112.0164    21540.787   -28041.486    -14835.35    24582.623    1061.8819    19364.893    82.178899 
   69000    623.81476   -116.92264   0.56444071    -116.3582   -8620.3457    4.3456466    4.3456466    4.3456466   -8620.3457   -3345.6907   -34036.112    11520.765    2151.2966    5281.0419   -2806.0851    82.065989 
   69100    1268.0782   -117.49695    1.1473838   -116.34957   -4983.2894    4.3415519    4.3415519    4.3415519   -4983.2894    2529.2177   -12554.445   -4924.6412    -24222.77    4063.7337   -4713.5481    81.834226 
   69200    1263.7242   -117.48991    1.1434442   -116.34647   -4378.0076     4.344068     4.344068     4.344068   -4378.0076    28778.645   -6002.8121   -35909.855    7256.9195   -14351.743    30541.124    81.976587 
   69300    1110.2789   -117.35322    1.0046036   -116.34861   -5740.5843    4.3444522    4.3444522    4.3444522   -5740.5843    13410.325   -25319.235   -5312.8425    3461.6268     1477.739    9340.7485     81.99834 
   69400    1171.7542   -117.40587    1.0602279   -116.34564   -4066.4888    4.3440522    4.3440522    4.3440522   -4066.4888   -4204.5122   -15680.694    7685.7399   -11793.134    1215.2809   -17896.019    81.975697 
   69500    954.12831   -117.21041   0.86331535   -116.34709   -9266.4278    4.3463674    4.3463674    4.3463674   -9266.4278    13364.427   -746.22466   -40417.486   -2408.6193   -15266.531    28198.146    82.106834 
   69600    871.63576    -117.1361   0.78867435   -116.34743   -10065.435    4.3449625    4.3449625    4.3449625   -10065.435    22405.601   -14870.323   -37731.582    5659.1511   -7064.2486    27654.569    82.027242 
   69700    1262.4269   -117.48456    1.1422703   -116.34229   -844.81217    4.3431823    4.3431823    4.3431823   -844.81217    13943.039   -21580.254    5102.7779   -827.20663    6094.3359   -28920.489    81.926456 
   69800    1049.3877   -117.29573   0.94950805   -116.34622   -550.69124    4.3438293    4.3438293    4.3438293   -550.69124    24993.263   -13744.919   -12900.417   -11394.654     -4646.87    7514.1394    81.963078 
   69900    682.67362   -116.97029   0.61769744    -116.3526   -4150.6732    4.3449567    4.3449567    4.3449567   -4150.6732    27199.685   -15082.041   -24569.664   -749.25516   -17226.464    50594.867    82.026912 
   70000    1128.7149   -117.36743     1.021285   -116.34615   -2501.9095     4.346322     4.346322     4.346322   -2501.9095    16453.117   -16431.054   -7527.7919    1563.6134   -3719.0691   -12652.284    82.104259 
   70100    1176.5267   -117.40748    1.0645461   -116.34293    9927.6004    4.3423871    4.3423871    4.3423871    9927.6004    36379.605   -21997.541    15400.737   -5585.3024    7831.2122   -17463.503    81.881468 
   70200    546.65203   -116.84954   0.49462225   -116.35492    -7617.568    4.3455837    4.3455837    4.3455837    -7617.568    28643.708   -32908.518   -18587.893   -1068.6993   -9635.9739    54599.004    82.062426 
   70300    966.43385    -117.2287   0.87444966   -116.35426   -9201.5219    4.3477692    4.3477692    4.3477692   -9201.5219    1730.3994   -13494.334   -15840.631   -2852.8797   -18766.879    21077.354    82.186303 
   70400    1619.7617   -117.80635    1.4655944   -116.34075    18103.535    4.3404338    4.3404338    4.3404338    18103.535    25121.879   -161.77786    29350.504    50.960891   -4590.4791   -15906.034     81.77102 
   70500    724.73949   -117.01245   0.65575952   -116.35669    1131.1902    4.3467382    4.3467382    4.3467382    1131.1902    31343.897   -26727.475   -1222.8513   -3946.1783    2579.6225     41853.71    82.127849 
   70600    553.63132   -116.85502   0.50093725   -116.35408   -14733.509    4.3535194    4.3535194    4.3535194   -14733.509   -4729.4018   -32975.321   -6495.8033   -4689.5962   -20526.833    26040.829    82.512825 
   70700    1418.2882   -117.62112     1.283297   -116.33783    9993.4018    4.3434968    4.3434968    4.3434968    9993.4018   -1749.3994    8862.8073    22866.798   -44.764484   -22473.446   -20135.203    81.944257 
   70800    1338.4443   -117.55054    1.2110525   -116.33949    7216.2148    4.3415313    4.3415313    4.3415313    7216.2148    28694.853   -9037.2021    1990.9933   -2049.6809    8644.8618    22613.962    81.833062 
   70900    916.45943   -117.17709   0.82923175   -116.34786   -10585.005    4.3482062    4.3482062    4.3482062   -10585.005   -5815.9422   -16443.305   -9495.7688   -1718.6144   -9332.7241    41353.522    82.211087 
   71000     923.6079   -117.18579   0.83569984   -116.35009   -2264.3206    4.3428788    4.3428788    4.3428788   -2264.3206   -18562.871    13476.085   -1706.1757   -10222.245   -24366.774    -11362.96    81.909282 
   71100    1282.2925    -117.5079    1.1602452   -116.34765    5634.9793    4.3411143    4.3411143    4.3411143    5634.9793    20530.533    2460.2591   -6085.8538   -393.42993    3055.5361   -22570.559    81.809487 
   71200    1495.7034   -117.69636    1.3533439   -116.34302   -3164.3544    4.3485425    4.3485425    4.3485425   -3164.3544    14242.462   -16811.807   -6923.7184    4151.2758    2506.2373    22238.956    82.230167 
   71300    892.20198   -117.15452    0.8072831   -116.34724   -4208.4555     4.349329     4.349329     4.349329   -4208.4555   -9135.1586    1641.0874   -5131.2952   -6791.5928   -24881.146     3769.071    82.274788 
   71400    842.16996   -117.11074   0.76201308   -116.34873   -3323.7246     4.344268     4.344268     4.344268   -3323.7246    13149.281   -8944.7311   -14175.724    1892.7823   -13409.661   -36954.086    81.987913 
   71500    1652.3421    -117.8361    1.4950739   -116.34102    8386.7219    4.3407242    4.3407242    4.3407242    8386.7219    26494.575   -7472.8013    6138.3924      1435.98    11258.602   -11544.026    81.787434 
   71600    1566.6517   -117.76367    1.4175394   -116.34613    410.07693    4.3454495    4.3454495    4.3454495    410.07693    -10874.52    135.78945    11968.962   -4604.5392   -12273.074    12310.162    82.054823 
   71700    554.24739   -116.86304   0.50149469   -116.36155   -10895.069    4.3475948    4.3475948    4.3475948   -10895.069   -4963.6254   -15998.286   -11723.297   -1566.0694   -27003.923   -35421.504    82.176411 
   71800    1181.0469   -117.42076     1.068636   -116.35212   -530.24547    4.3441488    4.3441488    4.3441488   -530.24547    15236.433   -18157.679      1330.51    3838.6592    6190.2315   -27395.885    81.981161 
   71900    1796.5759   -117.96228    1.6255797   -116.33671    1159.4309    4.3485268    4.3485268    4.3485268    1159.4309    1944.6788    2299.9148     -766.301    2705.6401    6969.9118     16950.73    82.229275 
   72000    858.98798    -117.1258   0.77723037   -116.34857   -6819.4757    4.3467291    4.3467291    4.3467291   -6819.4757    4504.2155   -8825.8564   -16136.786   -4344.4265   -25273.251   -28719.542    82.127336 
   72100    793.80113   -117.06848   0.71824794   -116.35023    333.33358    4.3433672    4.3433672    4.3433672    333.33358    23254.589   -16524.937   -5729.6518   -852.42172   -12469.497   -42740.725    81.936919 
   72200    1725.6297   -117.90212    1.5613861   -116.34073    2825.1194    4.3450605    4.3450605    4.3450605    2825.1194    8004.9317   -625.23297    1095.6595    7324.5297    6418.0466    21249.656     82.03279 
   72300    1168.8173    -117.4096    1.0575705   -116.35203    9512.0102    4.3400411    4.3400411    4.3400411    9512.0102     24240.35    15021.983   -10726.303   -985.61104   -7656.6972    775.76821    81.748827 
   72400    404.44483   -116.73044   0.36595018   -116.36449   -7562.0126    4.3460948    4.3460948    4.3460948   -7562.0126    24034.016   -7082.0003   -39638.054   -3690.7886   -24052.749   -49452.308    82.091387 
   72500    1210.4907   -117.44585    1.0952774   -116.35057   -11071.013    4.3509258    4.3509258    4.3509258   -11071.013   -9245.0386   -1023.7945   -22944.204    4367.8761   -937.53288   -5242.3729    82.365444 
   72600    1420.3499   -117.62317    1.2851624     -116.338    6202.0901    4.3434358    4.3434358    4.3434358    6202.0901    8043.5205    10211.247     351.5025    5758.1601    11525.221    5146.0203    81.940806 
   72700    600.17926   -116.89083    0.5430548   -116.34778   -13934.941    4.3479319    4.3479319    4.3479319   -13934.941    21525.062    -23565.21   -39764.676    -4145.365   -21928.611   -41700.873    82.195532 
   72800    883.44742   -117.14369   0.79936179   -116.34433   -13742.703    4.3447947    4.3447947    4.3447947   -13742.703   -5507.2333   -6149.6806   -29571.196   -5248.8148   -6719.0413   -13937.644    82.017735 
   72900     1114.363   -117.35027     1.008299   -116.34197    3131.2964    4.3386557    4.3386557    4.3386557    3131.2964   -5405.6166    9220.8205    5578.6852    3728.7522    24501.819    7171.0837    81.670567 
   73000    842.08301   -117.11074   0.76193441   -116.34881   -11533.835    4.3495248    4.3495248    4.3495248   -11533.835    20122.177   -30737.697   -23985.984    9015.4814    8009.7122   -40777.486    82.285902 
   73100    1168.3987    -117.4001    1.0571917   -116.34291   -4142.5326     4.348447     4.348447     4.348447   -4142.5326    16211.911   -11675.971   -16963.538   -1851.9051   -8658.1551   -22560.453    82.224744 
   73200    1167.2177   -117.39765    1.0561231   -116.34153    8598.4814    4.3393289    4.3393289    4.3393289    8598.4814   -226.26215    15927.144    10094.563   -10918.384    11188.097    15566.034    81.708589 
   73300    462.69358   -116.77427   0.41865487   -116.35562   -17020.791    4.3450839    4.3450839    4.3450839   -17020.791    1115.9859   -29992.473   -22185.886    4811.3049    19694.335   -38678.656    82.034114 
   73400    855.60916   -117.13229   0.77417314   -116.35811   -5870.4079    4.3467609    4.3467609    4.3467609   -5870.4079    20058.376    -25571.68   -12097.919    6868.0226   -6039.6989   -40246.462    82.129138 
   73500    1755.3304   -117.92632    1.5882598   -116.33806    7056.2826    4.3475501    4.3475501    4.3475501    7056.2826    5266.7691    4053.3573    11848.721     -3513.88   -3786.3895    12760.382    82.173878 
   73600    668.78462   -116.95673   0.60513038    -116.3516    -14952.27    4.3538073    4.3538073    4.3538073    -14952.27   -7792.6099   -20787.806   -16276.393    -1238.698    19325.004   -33019.446    82.529196 
   73700    507.06786   -116.80867   0.45880565   -116.34986   -4657.2551    4.3491543    4.3491543    4.3491543   -4657.2551    24073.099   -30567.776   -7477.0882    4750.2478    4371.2963   -45867.957    82.264873 
   73800    1698.3388   -117.86742    1.5366927   -116.33073    13489.109    4.3443521    4.3443521    4.3443521    13489.109    22113.195    5694.2583    12659.875    1237.4975    -9697.623    14117.825    81.992674 
   73900    1258.8255   -117.48169    1.1390117   -116.34268    8863.7339    4.3416281    4.3416281    4.3416281    8863.7339    23652.517    2829.0809    109.60425   -7039.7218   -107.49243   -19294.078    81.838537 
   74000    643.59741   -116.93686   0.58234046   -116.35452   -3064.3469    4.3452204    4.3452204    4.3452204   -3064.3469    38099.976   -33810.722   -13482.295     6516.944    15001.122   -49892.517    82.041845 
   74100    1153.0719   -117.39062    1.0433237    -116.3473   -3589.2327    4.3469539    4.3469539    4.3469539   -3589.2327    710.05237   -5059.0909   -6418.6596    2548.0499   -10188.436    6518.0779    82.140074 
   74200    1244.4157   -117.46857    1.1259735   -116.34259    2913.9358    4.3432154    4.3432154    4.3432154    2913.9358    3052.3832    7741.2102    -2051.786   -4609.8355   -20601.472   -1178.1957    81.928333 
   74300    1163.1219   -117.39568    1.0524171   -116.34327   -6601.5138    4.3474767    4.3474767    4.3474767   -6601.5138     35490.29   -30749.678   -24545.153    3840.2518     8986.683   -42375.792    82.169715 
   74400    1366.9938   -117.57661    1.2368848   -116.33972    -7024.665    4.3446434    4.3446434    4.3446434    -7024.665    631.51146   -11914.682   -9790.8242    10435.688   -713.21274   -5203.4111    82.009168 
   74500    982.76804   -117.23653   0.88922917    -116.3473   -3147.5982    4.3386121    4.3386121    4.3386121   -3147.5982   -17664.743    5266.9917    2954.9568     6166.883   -21527.321    5653.3734    81.668104 
   74600     889.6351   -117.15925   0.80496053   -116.35429   -16625.207    4.3480634    4.3480634    4.3480634   -16625.207    21637.001   -26482.291   -45030.332   -11684.246   -11606.769   -44791.726    82.202991 
   74700    1554.7533   -117.74889    1.4067735   -116.34211   -1431.2273     4.350175     4.350175     4.350175   -1431.2273    29066.415    -13196.97   -20163.128    4178.9448    10721.372   -13204.388     82.32281 
   74800    1425.1572   -117.63009    1.2895122   -116.34058    2457.3264    4.3439728    4.3439728    4.3439728    2457.3264    269.86653 -0.095955479    7102.2086    15837.619   -8169.0085    10905.313    81.971199 
   74900    732.07116    -117.0108   0.66239337   -116.34841   -5968.1813    4.3459108    4.3459108    4.3459108   -5968.1813    30619.311   -9628.5589   -38895.296   -667.15031   -19188.517   -36251.444    82.080957 
   75000    1185.6929   -117.41933    1.0728399   -116.34649   -2813.4284    4.3460505    4.3460505    4.3460505   -2813.4284    37884.387   -8345.9421    -37978.73   -3548.1113    11560.105   -26532.956    82.088876 
   75100    1701.8941   -117.88139    1.5399096   -116.34148     11743.18    4.3392663    4.3392663    4.3392663     11743.18    11051.354    16953.902    7224.2839    7699.4185    17942.223    13860.787    81.705052 
   75200    1138.2648     -117.384    1.0299259   -116.35407   -2131.3676    4.3452642    4.3452642    4.3452642   -2131.3676    24331.516   -12257.346   -18468.272    3579.1316   -13338.279   -26132.945    82.044327 
   75300    814.16722   -117.09273   0.73667561   -116.35605   -12954.638    4.3500382    4.3500382    4.3500382   -12954.638    16806.323   -27612.373   -28057.864   -3184.9251   -3829.6489    -42983.48    82.315041 
   75400    1519.5576    -117.7149    1.3749276   -116.33997    3725.7302    4.3479522    4.3479522    4.3479522    3725.7302   -2618.7542    11006.505    2789.4402     1156.909     27004.32    10834.327    82.196684 
   75500    1435.7306   -117.63452    1.2990792   -116.33544   -5114.7317    4.3511256    4.3511256    4.3511256   -5114.7317    16487.033   -13663.678    -18167.55    5859.0684    1241.5509   -18048.362    82.376791 
   75600    795.43536   -117.06324   0.71972663   -116.34351   -8946.7498    4.3453734    4.3453734    4.3453734   -8946.7498    21711.264   -27917.497   -20634.016    3005.3004   -19778.627   -46153.493    82.050513 
   75700     1175.684    -117.4061    1.0637836   -116.34232    4005.5493    4.3387681    4.3387681    4.3387681    4005.5493   -1470.1527    9631.4366     3855.364   -1356.8009    12484.869     1991.158    81.676911 
   75800    1355.1744    -117.5683    1.2261903   -116.34211   -3007.5063    4.3503774    4.3503774    4.3503774   -3007.5063    5313.4545   -8196.8015   -6139.1718   -2426.1841    10292.286   -6728.0887    82.334299 
   75900    1007.8699   -117.25705   0.91194185   -116.34511   -8036.0532    4.3506151    4.3506151    4.3506151   -8036.0532    27847.261   -30828.467   -21126.954    4215.1252    -9938.623   -43784.714    82.347798 
   76000     1163.832   -117.39455    1.0530596   -116.34149    11971.664    4.3394538    4.3394538    4.3394538    11971.664    18930.105     17656.61   -671.72255   -877.28347   -7544.5916   -771.57012    81.715643 
   76100    1227.5763     -117.452    1.1107368   -116.34126    4724.8547    4.3454417    4.3454417    4.3454417    4724.8547    7381.8132    5815.1742    977.57672   -5938.0359    5501.4373    3717.6458    82.054382 
   76200    695.06398    -116.9793   0.62890849   -116.35039   -5517.8191    4.3493909    4.3493909    4.3493909   -5517.8191     23587.59   -28072.977    -12068.07    -6517.156    3774.7327   -51286.668    82.278306 
   76300    1049.9713   -117.29599   0.95003606   -116.34596    7117.5855    4.3455221    4.3455221    4.3455221    7117.5855    19947.188     7162.527   -5756.9586   -958.56995   -6952.8699   -6425.8024    82.058935 
   76400    1421.1583   -117.62341    1.2858939   -116.33752    1693.0695    4.3477368    4.3477368    4.3477368    1693.0695    16092.021    2240.4609   -13253.273   -2696.6883   -5157.7925    26254.649    82.184463 
   76500    784.47449   -117.05551     0.709809    -116.3457   -5906.6187    4.3462831    4.3462831    4.3462831   -5906.6187    35458.483    -33554.43    -19623.91   -6609.3116    3115.3039   -53752.608    82.102058 
   76600    1023.2135   -117.26902   0.92582507   -116.34319   -6622.8999    4.3477047    4.3477047    4.3477047   -6622.8999    16675.376   -19760.279   -16783.797   -5350.3024    668.26531   -31293.591    82.182645 
   76700    1499.1009   -117.69349     1.356418   -116.33708    5492.9942    4.3446995    4.3446995    4.3446995    5492.9942    16661.412    14358.515   -14540.944   -125.98662   -4125.3606    34821.412    82.012343 
   76800    707.29364   -116.98923   0.63997415   -116.34926    13510.002    4.3377647    4.3377647    4.3377647    13510.002    56579.233    16310.418   -32359.646   -1162.8727   -3278.2655   -36231.197    81.620261 
   76900    808.03758   -117.08508   0.73112939   -116.35395   -12127.787    4.3530337    4.3530337    4.3530337   -12127.787    10656.576   -3529.4244   -43510.511   -4448.5585    7760.4798   -48212.604    82.485213 
   77000      1676.15   -117.85445    1.5166157   -116.33783    6342.0452     4.344547     4.344547     4.344547    6342.0452   -7000.7619    34332.292   -8305.3945    -7032.192    9685.9435    20870.037    82.003709 
   77100    1105.0239   -117.34715   0.99984888    -116.3473    1765.4762    4.3364571    4.3364571    4.3364571    1765.4762    45260.195   -11767.939   -28195.828   -1134.1914   -6766.5228   -29511.944    81.546469 
   77200    723.89541   -117.00881   0.65499578   -116.35382   -21244.503     4.347402     4.347402     4.347402   -21244.503    27161.015   -36049.823   -54844.703     2010.573    2937.4848   -49487.929    82.165483 
   77300    1315.4061    -117.5347    1.1902071    -116.3445    1533.5102    4.3471087    4.3471087    4.3471087    1533.5102   -20079.341    43797.727   -19117.855   -3534.7283    20599.695    16592.303    82.148853 
   77400    1268.5802   -117.48801     1.147838   -116.34017    5224.5185    4.3458568    4.3458568    4.3458568    5224.5185    13748.255    20078.918   -18153.617    2386.1707    4067.1039   -22398.272      82.0779 
   77500    995.78901   -117.24374   0.90101082   -116.34273    3051.8678    4.3448901    4.3448901    4.3448901    3051.8678    47050.196   -2212.0119   -35682.581    2427.6785   -3299.0597    -44418.74     82.02314 
   77600    1183.3139   -117.40968    1.0706873   -116.33899    630.08163    4.3459127    4.3459127    4.3459127    630.08163    2599.4095    22984.833   -23693.998   -3441.1152    14155.402    18913.261    82.081065 
   77700    1208.4462   -117.43252    1.0934275   -116.33909   -3961.1907    4.3479938    4.3479938    4.3479938   -3961.1907   -496.84101     4320.552   -15707.283   -3231.9878    1731.0882   -1947.4298    82.199041 
   77800    1427.7406   -117.62697    1.2918497   -116.33512   -2212.5629    4.3477485    4.3477485    4.3477485   -2212.5629    29414.972   -10152.895   -25899.766    1278.7953   -9981.3497   -43003.558     82.18513 
   77900    1272.1792   -117.48799    1.1510945   -116.33689   -5514.0113    4.3473021    4.3473021    4.3473021   -5514.0113    16978.834   -3967.9843   -29552.883    2490.5491    17673.271    12559.115    82.159815 
   78000    907.00021   -117.16528   0.82067285   -116.34461   -4843.0636      4.34712      4.34712      4.34712   -4843.0636    2827.5158    13036.652   -30393.359   -4527.3468    8311.9939    27647.959    82.149491 
   78100     1404.428   -117.61332     1.270756   -116.34256    8304.9283    4.3439265    4.3439265    4.3439265    8304.9283    17566.445    24433.795   -17085.454   -6529.9986    -16656.02   -15161.259    81.968576 
   78200    1555.3664   -117.74724    1.4073282   -116.33991    17727.863    4.3415582    4.3415582    4.3415582    17727.863    32731.243    22138.763    -1686.418    4671.0388    3853.0273    4224.0856    81.834587 
   78300    742.52287   -117.02484   0.67185029   -116.35298   -7878.3749    4.3514088    4.3514088    4.3514088   -7878.3749    10667.657    4640.0196   -38942.801    4919.3963      6092.46    32906.902    82.392873 
   78400     990.0081   -117.24352   0.89578014   -116.34774   -1901.0758    4.3474812    4.3474812    4.3474812   -1901.0758    9344.5603    25000.389   -40048.176   -11274.986    -16775.62    3453.5855    82.169973 
   78500    1604.1501   -117.78609    1.4514687   -116.33462    18168.394    4.3384501    4.3384501    4.3384501    18168.394    28170.108    18797.636    7537.4389    2107.7155   -6978.7999   -5451.2731    81.658958 
   78600    891.00677   -117.15374   0.80620165   -116.34754   -9050.3203    4.3512593    4.3512593    4.3512593   -9050.3203    4442.1785   -14663.276   -16929.864    9919.4307    11635.412    27856.705    82.384384 
   78700    857.13614   -117.12437   0.77555479   -116.34882   -6634.1304    4.3477118    4.3477118    4.3477118   -6634.1304    650.02537    14856.026   -35408.443    1970.3282   -5867.9846    21962.292    82.183049 
   78800    1483.5943   -117.67775    1.3423873   -116.33536    16703.468    4.3400565    4.3400565    4.3400565    16703.468    33618.197    15851.602     640.6066   -3364.0267   -8263.1124   -17584.512    81.749695 
   78900    989.46061   -117.23771   0.89528476   -116.34242   -3383.4396    4.3501891    4.3501891    4.3501891   -3383.4396    17945.856   -23037.807   -5058.3671    7472.1263    5504.5176    63.288004    82.323608 
   79000    892.36594   -117.15082   0.80743146   -116.34339    3038.1803     4.347447     4.347447     4.347447    3038.1803    17742.675    532.92573   -9161.0598    10139.498    7394.2878    27185.297    82.168031 
   79100    1213.4915   -117.43521    1.0979926   -116.33722    15880.802    4.3416356    4.3416356    4.3416356    15880.802    33294.021    13498.814    849.57122   -10562.275    1798.4533   -4639.3373    81.838961 
   79200    980.99462   -117.23256   0.88762454   -116.34493    3691.4663    4.3437167    4.3437167    4.3437167    3691.4663    20088.931   -13825.433    4810.9014   -13090.311   -4294.2924   -24611.699    81.956701 
   79300    1085.3817   -117.32667   0.98207616    -116.3446     10692.05    4.3444562    4.3444562    4.3444562     10692.05    37436.656    -3876.016   -1484.4916    6100.4605    7240.6992     9599.034    81.998567 
   79400    1249.8988   -117.47092    1.1309347   -116.33998     2399.674    4.3494128    4.3494128    4.3494128     2399.674   -989.62189     20933.81   -12745.166   -5423.9536    12912.473    11696.853    82.279544 
   79500    752.51449   -117.02493   0.68089092   -116.34404   -9702.5759    4.3506597    4.3506597    4.3506597   -9702.5759   -5850.5938    -9971.936   -13285.198   -20878.185   -5733.0928   -35263.215    82.350328 
   79600    1056.9141   -117.29653   0.95631808   -116.34022    2575.9007      4.34155      4.34155      4.34155    2575.9007    30622.685    -17510.97   -5384.0126   -7251.3341   -1140.4167   -16359.247    81.834118 
   79700    1539.3654   -117.72851    1.3928501   -116.33566    3712.9085    4.3448605    4.3448605    4.3448605    3712.9085    359.66471    21252.805   -10473.744    10541.026    11619.473     18861.76    82.021466 
   79800    765.93124   -117.04291   0.69303068   -116.34988   -15295.742    4.3501921    4.3501921    4.3501921   -15295.742   -17746.393   -10032.569   -18108.263   -16790.525    5847.8206   -22333.341    82.323779 
   79900    779.24593    -117.0565    0.7050781   -116.35142   -548.07921    4.3420879    4.3420879    4.3420879   -548.07921    14395.398   -9653.0132   -6386.6227   -22166.755   -7617.9829   -44457.121    81.864543 
   80000    1680.3297   -117.85904    1.5203976   -116.33864    9682.0382    4.3472808    4.3472808    4.3472808    9682.0382    4275.3805    30635.642   -5864.9084    11779.564    2544.5342    7170.6385    82.158608 
   80100     1155.235   -117.39219    1.0452809   -116.34691    4838.6904     4.348182     4.348182     4.348182    4838.6904    4976.5971    26186.129   -16646.655    212.82945    9664.9121   -5800.6647    82.209713 
   80200    478.26887   -116.78785   0.43274772    -116.3551   -3.3164129    4.3445968    4.3445968    4.3445968   -3.3164129    22688.049   -3093.3656   -19604.633    -22481.79   -5031.5526   -46739.987    82.006527 
   80300    1486.0387   -117.68608     1.344599   -116.34148    4799.8976    4.3486628    4.3486628    4.3486628    4799.8976    6891.7709    10083.502   -2575.5802   -8185.4261   -4040.6237    4039.6616    82.236991 
   80400    1658.8442   -117.83546    1.5009571    -116.3345    7487.0341    4.3473654    4.3473654    4.3473654    7487.0341     12968.77    17104.245   -7611.9128    10153.025    9614.6577    3701.6099    82.163406 
   80500    656.96236   -116.94378   0.59443335   -116.34935   -19442.585    4.3508046    4.3508046    4.3508046   -19442.585    192.00429    -36359.08   -22160.678   -19502.497    4920.1304   -49878.907     82.35856 
   80600    1059.7189   -117.30804   0.95885592   -116.34919   -4260.8363    4.3412891    4.3412891    4.3412891   -4260.8363   -6456.0191   -11582.051    5255.5614   -28952.388   -580.77476   -9872.6501     81.81937 
   80700    1665.3995   -117.84927    1.5068885   -116.34238    18210.319    4.3367153    4.3367153    4.3367153    18210.319    18180.177    28839.935    7610.8449    6854.2175   -1601.7753    22125.358    81.561037 
   80800    987.01941    -117.2459    0.8930759   -116.35282   -6213.7585     4.351513     4.351513     4.351513   -6213.7585    11823.061   -6922.3977   -23541.939   -6746.4919    -253.1225   -33327.701    82.398794 
   80900    675.72867   -116.96444    0.6114135   -116.35303   -7511.0242    4.3520458    4.3520458    4.3520458   -7511.0242   -19679.847   -6024.1002    3170.8749   -30829.824    8639.9892   -30846.053    82.429064 
   81000    1459.0474   -117.65783    1.3201768   -116.33765    5035.6001    4.3439724    4.3439724    4.3439724    5035.6001    -3721.265    4024.7816    14803.284   -11790.907    -1263.197    17874.711    81.971178 
   81100    1354.7973   -117.56552    1.2258491   -116.33967    7649.4202    4.3382315    4.3382315    4.3382315    7649.4202    34205.043    -9780.564   -1476.2179    6070.9188   -460.19355   -20738.848    81.646613 
   81200    620.40486   -116.91555   0.56135536    -116.3542    -4734.986    4.3473513    4.3473513    4.3473513    -4734.986    16412.495   -47996.332    17378.879   -22546.282    4352.2949   -38672.074    82.162604 
   81300    1074.3619   -117.31859   0.97210522   -116.34648   -9456.2006    4.3530847    4.3530847    4.3530847   -9456.2006    -20631.85   -27997.263    20260.511   -24655.121    -55.28233    8725.5769    82.488107 
   81400    1306.8425   -117.52289    1.1824586   -116.34043    6601.4061    4.3399067    4.3399067    4.3399067    6601.4061    9205.3303   -4020.4368    14619.325    15304.453    -1017.874   -5421.1988     81.74123 
   81500    775.22364   -117.04907   0.70143864   -116.34763    9132.3585    4.3377473    4.3377473    4.3377473    9132.3585    28781.561   -20278.108    18893.622   -9018.2838   -9331.8818   -38294.418    81.619279 
   81600    853.08452   -117.12053   0.77188881   -116.34864   -5033.5056    4.3532468    4.3532468    4.3532468   -5033.5056   -9999.2745   -16640.793     11539.55   -31871.801    5551.1566   -5675.9438    82.497327 
   81700    1163.2279   -117.39231     1.052513    -116.3398     1555.324    4.3485373    4.3485373    4.3485373     1555.324   -10913.963      390.542    15189.393     9150.858    9882.1082    8141.9123     82.22987 
   81800    728.16817   -117.00178   0.65886186   -116.34292    9561.8009    4.3383777    4.3383777    4.3383777    9561.8009    21176.705     3690.728    3817.9695    13362.252   -14088.703    -33858.65    81.654869 
   81900    923.06439   -117.17825   0.83520806   -116.34304   -8157.7888    4.3485206    4.3485206    4.3485206   -8157.7888    646.12372   -20294.726   -4824.7636   -16847.354   -3061.3773   -19017.258    82.228919 
   82000    1248.2631   -117.46585    1.1294547   -116.33639    569.84878    4.3485177    4.3485177    4.3485177    569.84878   -3262.3661   -10863.798    15835.711   -13530.584    14599.658     14353.55    82.228758 
   82100    819.29354   -117.08466   0.74131401   -116.34335   -6650.6647    4.3447681    4.3447681    4.3447681   -6650.6647    3547.8159   -15386.974   -8112.8357    7330.0024   -1174.0419   -26330.114    82.016228 
   82200    786.79977   -117.05987   0.71191297   -116.34796   -10272.035    4.3429445    4.3429445    4.3429445   -10272.035    6129.2638    -18289.92   -18655.449    2838.4822   -16574.964    -43374.01       81.913 
   82300    1320.4671    -117.5377    1.1947864   -116.34291    5126.2845    4.3412873    4.3412873    4.3412873    5126.2845   -6136.5694   -6205.6066    27721.029   -14509.312     5296.531    11928.402    81.819265 
   82400    869.63681   -117.13567   0.78686566    -116.3488   -8279.9153     4.352076     4.352076     4.352076   -8279.9153    1092.7842   -28350.561    2418.0311   -3848.8954    20288.457   -4209.9748    82.430779 
   82500    668.26236   -116.95288   0.60465783   -116.34822   -8066.5254    4.3477617    4.3477617    4.3477617   -8066.5254    18505.244   -29108.364   -13596.456    10525.481   -9516.0378   -45778.398    82.185875 
   82600    1179.3642   -117.40455    1.0671135   -116.33743    10386.851    4.3395028    4.3395028    4.3395028    10386.851    3282.0923   -6239.2155    34117.677    2475.9956   -1057.0169   -743.28629    81.718411 
   82700    1073.1535   -117.31411   0.97101186    -116.3431   -4729.2255    4.3452034    4.3452034    4.3452034   -4729.2255    903.80854   -16440.593    1349.1079   -6787.1843    18776.555    16869.065    82.040882 
   82800    558.20229   -116.85686   0.50507316   -116.35178   -3447.3284    4.3443451    4.3443451    4.3443451   -3447.3284    43276.043   -37701.895   -15916.134   -3148.9132    2383.8829   -33621.131     81.99228 
   82900    959.28065   -117.21585   0.86797729   -116.34787   -6480.0495    4.3485471    4.3485471    4.3485471   -6480.0495    7499.2812   -40573.442    13634.012    20959.619   -1120.5132   -22595.934    82.230424 
   83000    1346.2777   -117.55772    1.2181403   -116.33958   -1377.2868    4.3470959    4.3470959    4.3470959   -1377.2868   -5345.2726   -15431.486    16644.899    10924.599    1873.1468    13950.889    82.148125 
   83100    897.94203   -117.15791   0.81247682   -116.34543   -1265.7998     4.338589     4.338589     4.338589   -1265.7998    38511.414    -28242.86   -14065.954   -8310.0131    15255.458   -29737.876    81.666797 
   83200    749.75604   -117.02795   0.67839502   -116.34955   -11689.414    4.3471725    4.3471725    4.3471725   -11689.414    17731.681   -59528.322    6728.3978    20577.894    309.46686   -28449.083    82.152468 
   83300    1325.7324   -117.53902    1.1995506   -116.33947   -14432.518    4.3503393    4.3503393    4.3503393   -14432.518   -25388.745   -38791.216    20882.406    25884.737   -8324.6847    9051.4827    82.332137 
   83400    1126.2432   -117.35986    1.0190485   -116.34081   -1438.6824    4.3390954    4.3390954    4.3390954   -1438.6824    8676.7868   -9919.7998   -3073.0342   -8377.2022    14994.904   -24019.492    81.695398 
   83500    840.21339   -117.10931   0.76024274   -116.34907   -6971.1356    4.3418726    4.3418726    4.3418726   -6971.1356    22038.124   -29571.211    -13380.32    5067.7684    5562.8466   -37088.527    81.852363 
   83600    1242.1805   -117.46709     1.123951   -116.34314    -9600.885    4.3497196    4.3497196    4.3497196    -9600.885   -3098.0851   -36311.489    10606.919    32910.044   -4252.4104    4700.2123     82.29696 
   83700    1192.9598   -117.42119    1.0794151   -116.34178   -7450.3497    4.3455874    4.3455874    4.3455874   -7450.3497   -5139.9926   -19400.679    2189.6228     -5585.84    464.54135    581.48219    82.062635 
   83800    562.87211   -116.85919   0.50929852    -116.3499   -7251.6385    4.3436502    4.3436502    4.3436502   -7251.6385    17229.165   -9059.1143   -29924.966   -10836.734    12917.196    -37282.96    81.952939 
   83900    1178.8946   -117.41078    1.0666886   -116.34409    1437.4468    4.3448159    4.3448159    4.3448159    1437.4468    9868.5393   -1044.4256   -4511.7734    12610.279    11630.352   -9475.5222    82.018937 
   84000    1408.8281   -117.61414    1.2747373    -116.3394     7536.078    4.3462553    4.3462553    4.3462553     7536.078     12914.24   -220.39036    9914.3849   -351.41446   -7700.5097    12125.003    82.100478 
   84100    364.13218    -116.6856   0.32947445   -116.35613    -17642.74    4.3507057    4.3507057    4.3507057    -17642.74   -957.29435   -17256.358   -34714.568   -17812.149    9862.5265   -27023.908    82.352941 
   84200    612.78235   -116.91193   0.55445835   -116.35748   -2406.5937    4.3414195    4.3414195    4.3414195   -2406.5937   -3523.6411    8319.3094   -12015.449   -14086.152      18074.5   -22937.964    81.826741 
   84300    1623.5877   -117.81099    1.4690563   -116.34193     18809.44    4.3385453    4.3385453    4.3385453     18809.44    16129.055    18339.005    21960.259    7471.8816   -2153.0689    12074.842    81.664333 
   84400    771.89036   -117.05271   0.69842262   -116.35428   -15816.961    4.3569394    4.3569394    4.3569394   -15816.961   -7339.6508   -27311.987   -12799.247   -7622.5486    2662.1474   -1872.2713    82.707437 
   84500    376.67187   -116.69347   0.34082062   -116.35265   -12826.829     4.350188     4.350188     4.350188   -12826.829   -14724.039   -24536.848    780.40013   -16361.306    15220.357    -33502.64    82.323549 
   84600    1255.0951   -117.47246    1.1356364   -116.33682    14015.148     4.337857     4.337857     4.337857    14015.148    6117.2914    7387.3327     28540.82    7630.2689    6405.4168    3595.2643    81.625469 
   84700    1304.2341   -117.51855    1.1800984   -116.33845    1670.9451    4.3449311    4.3449311    4.3449311    1670.9451    15062.446   -18370.033    8320.4221     5796.812   -4097.9319    17846.662    82.025464 
   84800    723.30087   -117.00369   0.65445782   -116.34923   -5738.5825    4.3476941    4.3476941    4.3476941   -5738.5825     15509.63   -26955.008   -5770.3699   -15488.638    10012.848   -31932.259    82.182042 
   84900    900.15561    -117.1622   0.81447971   -116.34772   -11404.608    4.3494208    4.3494208    4.3494208   -11404.608   -13455.558   -24741.762    3983.4961    2053.3946    13917.026   -19432.009    82.279998 
   85000    1355.8384   -117.56765    1.2267911   -116.34086     2633.743    4.3424774    4.3424774    4.3424774     2633.743   -8409.8816   -13057.615    29368.726    23579.216   -6115.8305    16213.674    81.886576 
   85100    1186.0293   -117.41578    1.0731443   -116.34263    8536.8902    4.3364022    4.3364022    4.3364022    8536.8902    37827.318   -14839.641    2622.9935    110.80164   -843.41824   -22101.663    81.543371 
   85200    723.99383   -117.00456   0.65508483   -116.34948   -14587.079    4.3543078    4.3543078    4.3543078   -14587.079   -5605.9127    -23743.06   -14412.263   -2812.0416    14399.389   -28618.855    82.557658 
   85300    1211.4828   -117.43575    1.0961751   -116.33958   -12192.058    4.3530855    4.3530855    4.3530855   -12192.058   -31729.302    -28897.59    24050.718     25037.63    359.14375    8878.0758    82.488154 
   85400    1386.0714   -117.58719    1.2541465   -116.33305    20216.954    4.3319278    4.3319278    4.3319278    20216.954    27817.657    7012.3911    25820.814    10277.836   -5095.2699   -17606.458    81.291216 
   85500    1013.7563   -117.26299     0.917268   -116.34572   -1596.3786    4.3411875    4.3411875    4.3411875   -1596.3786    15221.721   -13497.006   -6513.8497   -8456.2883    12317.828   -34042.915    81.813623 
   85600    800.35784   -117.07378   0.72418059    -116.3496   -12445.907    4.3520326    4.3520326    4.3520326   -12445.907   -29682.745   -28973.777    21318.801    15333.871    14422.678   -190.26881    82.428314 
   85700    1359.0116    -117.5716    1.2296622   -116.34194     3927.976    4.3442532    4.3442532    4.3442532     3927.976    5060.1491   -18425.625    25149.404    16599.829   -3522.2721    14707.697    81.987072 
   85800    1399.8182   -117.60336    1.2665849   -116.33678    5079.7865    4.3445986    4.3445986    4.3445986    5079.7865    19495.119   -484.52588   -3771.2335   -4182.5838   -1457.8244   -19202.354    82.006631 
   85900      919.898   -117.17677   0.83234304   -116.34443   -4913.8555    4.3445658    4.3445658    4.3445658   -4913.8555   -13379.134   -8649.0556    7286.6234    4337.0235     17349.96   -17003.605    82.004773 
   86000    938.18481   -117.19485   0.84888933   -116.34596   -2608.4275    4.3428257    4.3428257    4.3428257   -2608.4275    4612.2326   -27458.841    15021.325     10985.47    7938.8385    23080.541    81.906281 
   86100    1405.8258    -117.6128    1.2720207   -116.34078    -8151.299    4.3471796    4.3471796    4.3471796    -8151.299    17982.355   -29086.377   -13349.874    477.64996    -6161.613     18066.85    82.152869 
   86200      1358.88   -117.57072    1.2295432   -116.34117   -1130.0149    4.3431208    4.3431208    4.3431208   -1130.0149   -9545.4018    11186.855   -5031.4981   -1202.9294    4754.7968   -8822.5192    81.922977 
   86300    843.57333    -117.1117   0.76328288   -116.34842   -4547.7974    4.3409647    4.3409647    4.3409647   -4547.7974   -2436.4955   -23237.962    12031.065    12417.931    7617.6633    7942.4321     81.80103 
   86400    795.81523   -117.06854   0.72007034   -116.34847     -18530.8    4.3504512    4.3504512    4.3504512     -18530.8    17122.413   -56709.662   -16005.152     8386.916   -1014.8885    43588.525    82.338489 
   86500    1366.8769   -117.57423     1.236779   -116.33745   -8329.2785    4.3447432    4.3447432    4.3447432   -8329.2785   -2322.8868    -3435.457   -19229.492   -6185.3469   -7772.8724    5053.8432    82.014821 
   86600    1053.9035   -117.29592   0.95359399   -116.34232    3377.8459    4.3385044    4.3385044    4.3385044    3377.8459   -14868.897     18637.34    6365.0942    5599.0816    5000.8466   -8106.4922    81.662021 
   86700    767.12007   -117.04193   0.69410636   -116.34783   -11867.843     4.346208     4.346208     4.346208   -11867.843    4681.7688   -38222.939   -2062.3596    14955.985    11828.064     42454.06    82.097798 
   86800    1049.7161   -117.29157   0.94980517   -116.34177   -2789.3581    4.3452453    4.3452453    4.3452453   -2789.3581    8880.9834   -11936.772   -5312.2854    722.17492   -13440.829    9619.0669    82.043257 
   86900    916.92205   -117.17233   0.82965034   -116.34268    -8570.062    4.3454641    4.3454641    4.3454641    -8570.062   -23958.948    11646.169   -13397.406   -3971.3019   -755.49344   -22155.029    82.055649 
   87000    753.14433   -117.02669   0.68146081   -116.34523   -1666.9156    4.3443787    4.3443787    4.3443787   -1666.9156   -18960.622    8633.4444    5326.4305    13797.801    21554.079    17273.751     81.99418 
   87100    1283.7412   -117.50017     1.161556   -116.33862     3948.961    4.3407263    4.3407263    4.3407263     3948.961    561.32523   -5273.3193    16558.877    11690.059   -3223.4109    6917.5693    81.787554 
   87200     841.1858   -117.10867   0.76112259   -116.34755   -9150.0707     4.346517     4.346517     4.346517   -9150.0707    -19295.58    13888.115   -22042.747   -8276.4809   -15807.893    -12119.45    82.115313 
   87300     603.2717   -116.89859   0.54585291   -116.35274   -9876.3156     4.343898     4.343898     4.343898   -9876.3156   -30278.032     22811.65   -22162.565    3567.6607    19816.789   -10646.262    81.966964 
   87400    1286.2803   -117.50869    1.1638535   -116.34484    9540.6223    4.3409457    4.3409457    4.3409457    9540.6223     -15502.2     26991.49    17132.577    11849.284    12530.903    4095.9866    81.799955 
   87500    1260.5272   -117.48313    1.1405515   -116.34258   -9880.7018    4.3492525    4.3492525    4.3492525   -9880.7018   -20888.241   -12681.479    3927.6139    -9682.022   -15616.015   -1146.2663    82.270449 
   87600    400.68287   -116.71464   0.36254628    -116.3521    -14106.31    4.3461599    4.3461599    4.3461599    -14106.31   -33872.797    15317.853   -23763.984   -7797.2025    15969.501   -23136.124    82.095074 
   87700    1085.1534   -117.33041    0.9818696   -116.34854    4009.3566    4.3397305    4.3397305    4.3397305    4009.3566   -17804.958    30796.671   -963.64281    5616.1469    19347.203    5091.4642    81.731278 
   87800    1499.3694   -117.69577    1.3566609   -116.33911    4664.5349    4.3439343    4.3439343    4.3439343    4664.5349   -196.55274    1336.8156    12853.342     33.93911   -7001.2069    16413.951    81.969023 
   87900    805.03502   -117.07985    0.7284126   -116.35144   -9001.5997     4.345588     4.345588     4.345588   -9001.5997   -22387.102    4836.4716   -9454.1686   -12455.755    11211.032   -9212.2443    82.062671 
   88000    906.97371   -117.17092   0.82064887   -116.35027   -5010.3936    4.3448965    4.3448965    4.3448965   -5010.3936   -33440.047    31269.341   -12860.475   -1813.6541    20397.997   -14338.408    82.023502 
   88100    1343.9733   -117.55848    1.2160552   -116.34242    582.28395    4.3438392    4.3438392    4.3438392    582.28395    7528.2904   -14227.391    8445.9529    7122.4761   -2293.2814    27077.064    81.963635 
   88200    1236.7929   -117.46359    1.1190762   -116.34451    5382.1937    4.3398533    4.3398533    4.3398533    5382.1937    12080.968   -7812.9379    11878.551   -3812.1685    355.72491    34384.063    81.738217 
   88300     1291.868   -117.51475    1.1689093   -116.34584    3052.3332    4.3430169    4.3430169    4.3430169    3052.3332   -23732.108    19444.699    13444.409   -7583.0506    29139.188   -17431.053    81.917099 
   88400     1130.898   -117.36907    1.0232603   -116.34581   -8053.2023    4.3504006    4.3504006    4.3504006   -8053.2023   -14502.946   -20740.268    11083.607    719.21286    10727.011    14104.122    82.335619 
   88500    1163.0584   -117.39721    1.0523597   -116.34485    379.15081    4.3432059    4.3432059    4.3432059    379.15081    28020.894    -32194.31    5310.8675    9497.3261   -13197.013    49842.964    81.927791 
   88600    1567.3265   -117.75636      1.41815   -116.33821    9656.8189    4.3389083    4.3389083    4.3389083    9656.8189   -5098.9238    5015.5191    29053.861   -10824.617    18682.455   -4792.6258    81.684832 
   88700    1264.3735   -117.48832    1.1440317   -116.34429   -10464.868    4.3481726    4.3481726    4.3481726   -10464.868   -14891.062   -22758.152    6254.6121   -14275.434     17984.61    9243.9977    82.209181 
   88800    914.00042   -117.17632   0.82700679   -116.34932   -9043.3161    4.3445803    4.3445803    4.3445803   -9043.3161    23693.683   -33852.519   -16971.113    7971.4856   -6068.1489     44713.83    82.005595 
   88900    1468.4797   -117.66984    1.3287113   -116.34113    5927.7171    4.3406857    4.3406857    4.3406857    5927.7171    10056.209   -7085.5047    14812.447    1998.4195   -10836.834   -3201.5684    81.785254 
   89000    1300.1338   -117.51818    1.1763884   -116.34179    -8527.043    4.3486576    4.3486576    4.3486576    -8527.043   -15787.216   -16320.378    6526.4646   -16245.253    2566.5191    1891.6927    82.236695 
   89100    885.30871   -117.14718   0.80104592   -116.34613   -4139.3614    4.3439759    4.3439759    4.3439759   -4139.3614    24432.913   -18745.614   -18105.383   -7967.9955    18171.442    52199.444    81.971377 
   89200    1330.2195   -117.54416    1.2036105   -116.34055    9923.1149     4.342961     4.342961     4.342961    9923.1149    17928.665    303.66803    11537.012    8377.9474   -9682.0422    6514.8544    81.913936 
   89300     1388.427   -117.59781    1.2562779   -116.34153   -1119.3329    4.3451741    4.3451741    4.3451741   -1119.3329   -6432.6567    3518.6593   -444.00138   -7826.2361   -21092.732   -14044.093    82.039224 
   89400    639.62091   -116.93367   0.57874244   -116.35492     1409.706    4.3375681    4.3375681    4.3375681     1409.706    21346.714   -6617.0462    -10500.55   -17024.902    5843.3328    44923.905    81.609161 
   89500    1073.1941   -117.32619   0.97104858   -116.35514   -4169.1432    4.3469389    4.3469389    4.3469389   -4169.1432    12960.604   -11599.088   -13868.945   -2113.9715    9259.7343    24873.819    82.139229 
   89600     1579.323   -117.76717    1.4290046   -116.33817   -1075.1675    4.3508753    4.3508753    4.3508753   -1075.1675   -9187.8071      19714.1   -13751.796    3514.8174   -6636.2624   -16725.914    82.362573 
   89700    675.80745   -116.96106   0.61148478   -116.34958    -4834.504    4.3415055    4.3415055    4.3415055    -4834.504    29523.072   -18245.912   -25780.672   -8579.3568   -12052.856    30401.325    81.831607 
   89800    558.58909   -116.85831   0.50542315   -116.35289   -18175.755    4.3439854    4.3439854    4.3439854   -18175.755    6986.8557   -15198.831   -46315.288   -14791.606    18877.981    39809.017    81.971914 
   89900    1415.4589   -117.62435     1.280737   -116.34361     5815.555     4.344059     4.344059     4.344059     5815.555   -5940.3827    35584.443   -12197.396     8088.905    20299.947   -14622.259     81.97608 
   90000    1227.7951    -117.4574    1.1109348   -116.34646    1338.1358    4.3452057    4.3452057    4.3452057    1338.1358    13968.036    1357.8843   -11311.513    1548.8843   -11540.228    17430.879    82.041012 
   90100     476.4134   -116.78707   0.43106886     -116.356   -13579.869    4.3443773    4.3443773    4.3443773   -13579.869    5083.8104   -2847.4179   -42975.999   -18459.901    6953.2355    46065.287      81.9941 
   90200     868.1043    -117.1396   0.78547902   -116.35412   -6780.9836    4.3416281    4.3416281    4.3416281   -6780.9836   -7830.9003     14765.84   -27277.891   -11085.883    24163.291    -2603.051    81.838536 
   90300    1312.4907   -117.53184    1.1875692   -116.34427    656.66423    4.3454727    4.3454727    4.3454727    656.66423    19639.442   -3036.3204   -14633.129    5529.4845    3146.5663    -9751.746    82.056142 
   90400     970.9078   -117.22622   0.87849778   -116.34773   -5741.0368    4.3456558    4.3456558    4.3456558   -5741.0368    26278.125   -21176.786    -22324.45   -2525.1924   -3568.1906    31730.344    82.066511 
   90500    658.25278   -116.94544   0.59560095   -116.34984   -12391.409    4.3461692    4.3461692    4.3461692   -12391.409    4930.3308   -16446.887   -25657.672   -15374.846     24731.48    14564.622    82.095599 
   90600    1001.1276   -117.25327    0.9058413   -116.34743   -5362.0954    4.3398006    4.3398006    4.3398006   -5362.0954    6781.6524   -3511.6129   -19356.326   -1809.7305    15899.077   -20679.948    81.735236 
   90700    1164.8027   -117.40159     1.053938   -116.34765    5118.1727    4.3387161    4.3387161    4.3387161    5118.1727    35664.251   -21482.921    1173.1879    8962.6191    -8786.861   -482.80544    81.673975 
   90800    1012.4055   -117.26506   0.91604574   -116.34901    -13290.75    4.3518438    4.3518438    4.3518438    -13290.75    4492.6928   -26215.912   -18149.032   -11387.016    16982.108    24164.016    82.417588 
   90900    932.41777    -117.1919   0.84367119   -116.34823   -15208.906    4.3458874    4.3458874    4.3458874   -15208.906   -21271.951    -1141.932   -23212.835   -7507.1059    30589.461   -7754.8038    82.079635 
   91000    1026.2386   -117.27331   0.92856225   -116.34474    2574.3918    4.3357914    4.3357914    4.3357914    2574.3918     20938.03    -14724.74    1509.8851    5205.8774   -11798.049    -20325.56     81.50892 
   91100    1034.0721   -117.28192   0.93565017   -116.34627   -2131.9477    4.3452897    4.3452897    4.3452897   -2131.9477    7037.5905   -18898.662    5465.2283    8992.6671   -513.60755    7679.8169    82.045771 
   91200    970.34111   -117.22662   0.87798503   -116.34863   -5523.7834    4.3479402    4.3479402    4.3479402   -5523.7834   -25702.519      14648.8   -5517.6314    346.37133    49273.264    10256.687    82.196002 
   91300    1180.4748   -117.41321    1.0681184   -116.34509    8625.4139    4.3410055    4.3410055    4.3410055    8625.4139    4468.2766    14245.838    7162.1272   -5294.5964    12985.799   -12680.426    81.803334 
   91400    1239.9032   -117.46632    1.1218905   -116.34443    7078.7251    4.3433925    4.3433925    4.3433925    7078.7251    3834.0248   -13349.597    30751.747    7207.8804   -15115.764   -16928.003    81.938354 
   91500     590.3609    -116.8891   0.53417095   -116.35493   -4267.7009    4.3465955    4.3465955    4.3465955   -4267.7009   -28277.325     24520.76   -9046.5374    2843.4478    36169.516    14965.432     82.11976 
   91600    916.28853   -117.18193   0.82907712   -116.35286    1847.8188    4.3451571    4.3451571    4.3451571    1847.8188   -24291.496     37888.39   -8053.4377   -2629.0833    26253.086    15034.794    82.038261 
   91700    1742.7935   -117.91438    1.5769162   -116.33746    7941.0624    4.3447317    4.3447317    4.3447317    7941.0624   -6895.9214   -2673.9427    33393.051    123.51899   -11477.566   -12594.612    82.014167 
   91800    908.07048   -117.17652   0.82164125   -116.35488    1056.0858    4.3439324    4.3439324    4.3439324    1056.0858   -13971.186    19401.645   -2262.2021    1508.1556    35928.731   -3627.5674    81.968915 
   91900    481.86304   -116.79691   0.43599981   -116.36091   -1127.3844      4.34171      4.34171      4.34171   -1127.3844   -21640.816    29577.329   -11318.666    4912.6141     35009.71    19048.714    81.843168 
   92000     1229.721   -117.46278    1.1126774   -116.35011    1929.1061    4.3478169    4.3478169    4.3478169    1929.1061    -7888.752   -6743.3134    20419.384    -6356.033   -17025.978    14708.814    82.189006 
   92100    1320.8592   -117.54103    1.1951411   -116.34589   -444.91728    4.3450065    4.3450065    4.3450065   -444.91728    -25360.16    8351.1346    15674.273   -6732.7008    8065.3059   -6737.5809    82.029731 
   92200    815.02517   -117.08892    0.7374519   -116.35146    4012.4874    4.3385191    4.3385191    4.3385191    4012.4874    -17653.29    20707.062    8983.6904    2728.8673    39222.472    10165.287    81.662849 
   92300     852.1484    -117.1218   0.77104178   -116.35076   -12924.539    4.3483691    4.3483691    4.3483691   -12924.539   -827.89944   -22656.446   -15289.272    5660.9875   -1195.2611    33661.175    82.220325 
   92400    1223.6349   -117.45092    1.1071705   -116.34375   -6776.3526    4.3461256    4.3461256    4.3461256   -6776.3526    -15207.66   -2563.1017   -2558.2965   -6511.2405   -16403.279   -5912.8633    82.093132 
   92500    1122.5356   -117.35907    1.0156938   -116.34338   -6980.4512    4.3426705    4.3426705    4.3426705   -6980.4512    -22742.63    11597.816    -9796.539   -3803.7065    23066.929   -7117.8614    81.897496 
   92600    752.62092   -117.02922   0.68098723   -116.34823   -16772.112    4.3478555    4.3478555    4.3478555   -16772.112    2778.9115   -26461.906   -26633.342    21703.543    13282.553     40806.68      82.1912 
   92700    1068.2273   -117.31353   0.96655448   -116.34697    -3277.985    4.3420224    4.3420224    4.3420224    -3277.985    7770.3559   -17439.001    -165.3095    1938.0017   -7524.9004     7119.464    81.860838 
   92800    1433.8659   -117.64044     1.297392   -116.34305    1682.1398    4.3422523    4.3422523    4.3422523    1682.1398   -9671.4153    11560.505    3157.3299   -15103.197   -3542.9689   -24604.321    81.873839 
   92900    828.09706   -117.10352   0.74927962   -116.35424    -7132.484    4.3437356    4.3437356    4.3437356    -7132.484    12725.769   -12368.908   -21754.313    9464.2483    3088.2258    34314.878    81.957774 
   93000    736.63868    -117.0229   0.66652616   -116.35638    1460.5216    4.3454936    4.3454936    4.3454936    1460.5216    17749.083   -4718.8312   -8648.6867    19700.606    11188.212    32575.794    82.057322 
   93100    1555.0962   -117.74893    1.4070837   -116.34185     3914.604    4.3497232    4.3497232    4.3497232     3914.604   -8078.0957    13870.133    5951.7747    -318.7055   -4338.2844   -17937.561    82.297164 
   93200    1190.8694   -117.42576    1.0775237   -116.34823    12571.149    4.3374143    4.3374143    4.3374143    12571.149    30814.856     17591.84   -10693.248   -7395.4413   -12926.379     13208.79    81.600484 
   93300    559.35072    -116.8654   0.50611228   -116.35928   -5790.7881    4.3414612    4.3414612    4.3414612   -5790.7881    4154.2895   -2330.0547   -19196.599     15037.74    2305.0585    44748.592    81.829098 
   93400    1142.9236   -117.38609    1.0341413   -116.35195   -11373.555    4.3505095    4.3505095    4.3505095   -11373.555    -26251.46    1332.9046    -9202.109    20501.235    18906.059   -968.23621    82.341804 
   93500    1534.7397   -117.73116    1.3886647   -116.34249    4387.2696    4.3409648    4.3409648    4.3409648    4387.2696    12436.634    3373.5911   -2648.4166   -6099.6181    1973.0588    3235.2677    81.801034 
   93600    855.56636   -117.12674   0.77413442    -116.3526   -10430.561    4.3435262    4.3435262    4.3435262   -10430.561    10010.801    -22623.28   -18679.205    1087.6162   -18929.525    40407.612    81.945919 
   93700    763.39562   -117.04515    0.6907364   -116.35441   -10537.107    4.3439383    4.3439383    4.3439383   -10537.107   -12028.246   -9047.1449    -10535.93    16050.567     18698.97    7428.4429    81.969249 
   93800    1174.2008   -117.40836    1.0624416   -116.34592    7630.6986    4.3447903    4.3447903    4.3447903    7630.6986    26229.419   -3865.8821    528.55909     6217.672    20413.529   -5859.6109    82.017486 
   93900    1135.9158   -117.37285    1.0278005   -116.34505   -4719.1132     4.347948     4.347948     4.347948   -4719.1132    32368.947   -40796.921   -5729.3662   -3565.4437   -9616.9773    32044.751    82.196445 
   94000    876.85686   -117.14024   0.79339851   -116.34684    7557.8378    4.3384988    4.3384988    4.3384988    7557.8378    43919.966   -27338.465    6092.0126     7263.665   -2998.5543    20996.112    81.661706 
   94100    1102.4853   -117.34293   0.99755188   -116.34538     1664.618    4.3432118    4.3432118    4.3432118     1664.618    2262.9289   -9279.3322    12010.257    17970.998     14230.72   -9160.0961    81.928125 
   94200    824.67287   -117.09438   0.74618134    -116.3482   -7224.6912    4.3481727    4.3481727    4.3481727   -7224.6912    10448.081   -43653.631    11531.476   -8305.0078    11810.258    15003.828    82.209185 
   94300    693.16388   -116.97706   0.62718925   -116.34988   -740.88282    4.3402516    4.3402516    4.3402516   -740.88282    33569.316   -47257.364      11465.4    -17026.14    -5555.443    25628.308    81.760724 
   94400    1314.2622   -117.53271    1.1891721   -116.34354   -5062.0218     4.344058     4.344058     4.344058   -5062.0218    -710.2952   -20394.343    5918.5727    5618.2695   -5220.2769   -7078.5931    81.976022 
   94500    1123.0714   -117.36303    1.0161786   -116.34685   -7506.7432    4.3452425    4.3452425    4.3452425   -7506.7432    1394.7434   -35587.752    11672.779   -5082.2176    6510.1829    9441.0497    82.043097 
   94600     466.7041   -116.77961   0.42228368   -116.35733   -7738.6315    4.3397989    4.3397989    4.3397989   -7738.6315     25165.21   -62086.952    13705.847   -27196.784    2737.7668    28373.198    81.735139 
   94700    785.34107   -117.06642    0.7105931   -116.35583   -8475.3139    4.3453018    4.3453018    4.3453018   -8475.3139    17446.606   -40227.125   -2645.4217   -5448.1698   -14281.643   -7493.3353    82.046455 
   94800    1170.0273   -117.40582    1.0586653   -116.34716   -1158.9451    4.3447179    4.3447179    4.3447179   -1158.9451    6607.6484   -14049.035    3964.5516    12918.202   -15736.706   -6708.8828    82.013389 
   94900    1006.5246   -117.25931   0.91072465   -116.34859   -1707.6077    4.3403961    4.3403961    4.3403961   -1707.6077    18644.015   -40841.308     17074.47   -7046.7047    6004.8579     27818.22     81.76889 
   95000    806.55406   -117.07888   0.72978706    -116.3491   -6342.4101    4.3469431    4.3469431    4.3469431   -6342.4101    27115.631   -38482.469   -7660.3921    -19072.26    -4054.764    10537.509    82.139463 
   95100    856.51419   -117.12301   0.77499203   -116.34801   -825.73019    4.3447693    4.3447693    4.3447693   -825.73019    2714.5377   -3112.7599   -2078.9684    10266.622   -28202.136   -17304.551    82.016297 
   95200    967.40959   -117.22294   0.87533253   -116.34761    1079.9102    4.3395071    4.3395071    4.3395071    1079.9102    4710.0668   -22053.968    20583.631    22666.926   -5750.6693    9142.4544    81.718656 
   95300    1158.9426   -117.39512    1.0486356   -116.34649   -5396.4041    4.3452361    4.3452361    4.3452361   -5396.4041    23476.563   -36299.117   -3366.6582   -7922.3272    10685.267    24628.541    82.042739 
   95400    959.68791   -117.21662   0.86834579   -116.34827   -1343.0527    4.3455216    4.3455216    4.3455216   -1343.0527    14804.029   -12318.963   -6514.2241   -7459.1172   -17140.877   -1776.8994    82.058907 
   95500    878.08503   -117.14455   0.79450979   -116.35004   -190.96826    4.3426103    4.3426103    4.3426103   -190.96826   -8873.3231   -5190.1021     13490.52    24881.737   -23266.603   -12222.049    81.894093 
   95600    1120.0216   -117.36037    1.0134191   -116.34695   -2916.6338    4.3442534    4.3442534    4.3442534   -2916.6338    17327.066   -22863.652   -3213.3151    8466.9835    9759.4176    11182.233    81.987087 
   95700    1122.9278   -117.36302    1.0160487   -116.34697    1193.9386    4.3423631    4.3423631    4.3423631    1193.9386    19622.812   -9117.7543   -6923.2419   -17406.002    8714.8322    19991.862     81.88011 
   95800    1053.6385    -117.3032   0.95335427   -116.34984    1585.7541    4.3439625    4.3439625    4.3439625    1585.7541   -10773.521    3256.0708    12274.713    6131.1746   -22944.172   -3331.7056    81.970616 
   95900    1187.3651   -117.41994    1.0743529   -116.34559    -45.47466     4.347382     4.347382     4.347382    -45.47466    6159.9718   -3290.3739   -3006.0219    21181.978   -6751.0985   -8636.8539    82.164348 
   96000    1007.6355   -117.25898   0.91172978   -116.34725   -1641.5139    4.3428785    4.3428785    4.3428785   -1641.5139    14693.501    -6107.269   -13510.774   -7538.2889    23647.681    8634.9596    81.909268 
   96100    1078.0014    -117.3253   0.97539835    -116.3499    894.87585    4.3412958    4.3412958    4.3412958    894.87585   -13543.212    6288.0008    9939.8387   -21035.185    3429.0524    17698.655    81.819747 
   96200    1536.6577   -117.73433    1.3904002   -116.34393    6081.2917    4.3446145    4.3446145    4.3446145    6081.2917    -4839.741    18710.666    4372.9503    3220.6728   -15663.005   -9192.5688     82.00753 
   96300     1104.621   -117.35091   0.99948434   -116.35142   -1591.5516    4.3444947    4.3444947    4.3444947   -1591.5516    5391.9508    10725.817   -20892.423    6981.2985    16472.152    -16264.03    82.000748 
   96400    642.33586   -116.93887   0.58119898   -116.35767   -7887.5175      4.34533      4.34533      4.34533   -7887.5175   -16234.085   -179.98305   -7248.4845   -15481.749    27677.371    20043.663    82.048058 
   96500    1479.6987   -117.68605    1.3388625   -116.34719    1167.2723     4.344438     4.344438     4.344438    1167.2723   -12758.007    10186.011    6073.8119   -14802.807   -6402.1606    3542.6122    81.997537 
   96600    1484.7545   -117.68458    1.3434371   -116.34114    4969.8315    4.3451709    4.3451709    4.3451709    4969.8315   -5884.5215    18664.569     2129.447    4270.2024    71.540732   -16406.568    82.039044 
   96700    561.36562   -116.86005   0.50793541   -116.35212   -13909.999    4.3505794    4.3505794    4.3505794   -13909.999   -22987.747    11594.871   -30337.121   -6111.9472    29117.878    10694.243    82.345768 
   96800    927.36813   -117.18445   0.83910217   -116.34535   -7668.7192    4.3480035    4.3480035    4.3480035   -7668.7192   -22834.555     10122.64   -10294.242   -20347.837    4662.2761    13541.133    82.199591 
   96900     1415.018   -117.61894    1.2803381   -116.33861    16653.766    4.3367495    4.3367495    4.3367495    16653.766   -7108.8613    21591.582    35478.578    5996.5548   -10920.296   -2861.9081    81.562968 
   97000    1043.1228   -117.29513   0.94383941   -116.35129    5607.5308     4.338236     4.338236     4.338236    5607.5308   -12618.427    32745.883   -3304.8638    11505.593    22669.737   -1192.5518    81.646869 
   97100    752.21382   -117.03558   0.68061888   -116.35496   -15836.159    4.3512378    4.3512378    4.3512378   -15836.159   -26222.892    5099.8841   -26385.469   -17438.489    27577.786    13737.769    82.383162 
   97200    1119.1643   -117.35809    1.0126434   -116.34545    -5556.316    4.3476028    4.3476028    4.3476028    -5556.316   -29748.349   -8928.5071    22007.909   -695.93992   -20343.646    3535.5916    82.176866 
   97300    921.34592   -117.17715   0.83365315    -116.3435     581.0416    4.3396448    4.3396448    4.3396448     581.0416   -28922.998    24602.802    6063.3207    18884.847    5735.2523   -7425.6021    81.726437 
   97400    826.44627   -117.09597   0.74778595   -116.34818   -8776.2155    4.3431569    4.3431569    4.3431569   -8776.2155   -37831.899     27291.41   -15788.157   -1592.8549    43051.313    6362.1235    81.925018 
   97500    1326.0353   -117.54151    1.1998246   -116.34168   -2226.9397     4.345372     4.345372     4.345372   -2226.9397   -22783.678    317.94606    15784.913   -5645.7524   -4603.2105    13033.086    82.050434 
   97600    1120.6029   -117.36056     1.013945   -116.34661   -9677.5126    4.3452468    4.3452468    4.3452468   -9677.5126   -45184.177     8812.174    7339.4658    10206.217   -4782.5388   -117.63896    82.043343 
   97700    429.63383   -116.74647   0.38874172   -116.35773   -5084.1716    4.3419969    4.3419969    4.3419969   -5084.1716   -57334.413     44584.68   -2502.7815    13706.904    42067.535   -3258.2813    81.859395 
   97800    1050.6599    -117.3047   0.95065918   -116.35404    3512.3858    4.3411997    4.3411997    4.3411997    3512.3858   -16022.612    20896.332    5663.4383   -3132.5038    9613.9174    14756.602    81.814314 
   97900    1514.1861   -117.71573    1.3700674   -116.34566   -1815.1991    4.3447784    4.3447784    4.3447784   -1815.1991   -12117.414   -4868.9595    11540.776   -6716.9448   -8231.5091    10787.356    82.016815 
   98000    940.28192    -117.2041   0.85078684   -116.35332    -10605.12    4.3448073    4.3448073    4.3448073    -10605.12   -54114.081     32175.46   -9876.7374    8801.0133    37748.171   -4421.4448    82.018449 
   98100    717.43642   -117.00311   0.64915155   -116.35396   -6176.9623    4.3418533    4.3418533    4.3418533   -6176.9623   -35451.413    32162.277   -15241.751    2584.3279    18903.952     8340.397    81.851273 
   98200    1126.4361    -117.3686     1.019223   -116.34937   -6310.0033    4.3423923    4.3423923    4.3423923   -6310.0033   -9668.9189   -15590.636    6329.5446    -15894.28   -17840.182    20278.593    81.881761 
   98300    1276.6789    -117.5029    1.1551659   -116.34774   -10244.465    4.3455259    4.3455259    4.3455259   -10244.465   -30176.861     3867.033   -4423.5674   -9026.2888    20267.668   -644.65875    82.059151 
   98400    1303.1204   -117.52484    1.1790908   -116.34575   -3936.1655    4.3422572    4.3422572    4.3422572   -3936.1655   -30206.788    33463.814   -15065.523     8789.971    21843.136   -5556.4777    81.874115 
   98500    849.81133   -117.12158   0.76892715   -116.35265   -6626.0358    4.3421817    4.3421817    4.3421817   -6626.0358   -22654.034   -5294.4029      8070.33   -8130.6337   -20667.158    16586.027    81.869848 
   98600    932.65253   -117.20122   0.84388361   -116.35734   -9620.4914      4.34812      4.34812      4.34812   -9620.4914   -27789.791   -20024.135    18952.452   -28046.663    -4518.164    14429.596    82.206196 
   98700    1831.9914    -118.0028    1.6576243   -116.34518    11345.463    4.3413508    4.3413508    4.3413508    11345.463   -6033.0102    33461.527    6607.8738   -2838.5364    16124.532    -4718.253     81.82286 
   98800    1330.7719   -117.56015    1.2041103   -116.35604    14846.612    4.3386591    4.3386591    4.3386591    14846.612   -10381.122    34973.372    19947.587    3267.2908   -12028.374   -7121.1497     81.67076 
   98900    578.79943   -116.88983   0.52370989   -116.36612   -13499.246    4.3513987    4.3513987    4.3513987   -13499.246   -43020.301   -11950.278    14472.841   -22119.149   -18798.044     15529.61    82.392303 
   99000    1420.6298   -117.63668    1.2854157   -116.35126    3590.6777    4.3467216    4.3467216    4.3467216    3590.6777   -10165.089    12540.551    8396.5717   -10541.662    974.03379    6509.6234    82.126908 
   99100     1824.015   -117.99185    1.6504071   -116.34144    10340.935    4.3377207    4.3377207    4.3377207    10340.935    10534.107    15025.621    5463.0757       4975.6    4547.0817   -18289.948    81.617776 
   99200    1017.7479   -117.27703   0.92087966   -116.35615   -11659.949    4.3444006    4.3444006    4.3444006   -11659.949   -16344.134   -16124.476   -2511.2379   -21010.439   -18193.857   -889.99159    81.995421 
   99300    1006.3336   -117.26509   0.91055177   -116.35454   -7242.2571    4.3450022    4.3450022    4.3450022   -7242.2571   -23366.801   -4231.2998    5871.3294   -19724.339   -9466.2189    14832.085    82.029491 
   99400    1492.7009   -117.69479    1.3506272   -116.34416    -6118.984    4.3497266    4.3497266    4.3497266    -6118.984   -13411.271    6612.5357   -11558.216    12548.401    32010.297   -2872.3688    82.297354 
   99500    1368.9205   -117.58164    1.2386281   -116.34302   -11901.622    4.3467231    4.3467231    4.3467231   -11901.622   -7439.9738   -13893.094   -14371.799   -9572.0819    4207.6079   -17312.337    82.126995 
   99600    1093.6721    -117.3349   0.98957749   -116.34532    10770.956    4.3323086    4.3323086    4.3323086    10770.956    7794.4126   -3329.6347    27848.089   -30839.472    -21757.21      12400.4    81.312657 
   99700    1024.9534   -117.28037   0.92739935   -116.35297   -6565.5504    4.3473132    4.3473132    4.3473132   -6565.5504   -21871.628    3398.7652    -1223.788   -8170.6196    22516.718    10855.446    82.160445 
   99800    1420.3125   -117.63161    1.2851286   -116.34648     -10693.7    4.3507203    4.3507203    4.3507203     -10693.7   -15307.437   -2169.7009   -14603.963    10405.605    30228.004    -8815.027    82.353769 
   99900    1300.4972   -117.52105    1.1767172   -116.34433    12527.673    4.3344342    4.3344342    4.3344342    12527.673    15623.768   -9413.8319    31373.083   -9689.6556   -17449.574    571.29577    81.432403 
  100000    721.17958    -117.0073   0.65253844   -116.35477   -10580.781    4.3448864    4.3448864    4.3448864   -10580.781    -18181.79   -10276.038   -3284.5161   -21473.898   -3128.1774    11180.475    82.022932 
Loop time of 21.6357 on 1 procs for 100000 steps with 8 atoms

Pair  time (%) = 6.66229 (30.7931)
Kspce time (%) = 5.26194 (24.3207)
Neigh time (%) = 0.0311396 (0.143927)
Comm  time (%) = 1.01904 (4.71)
Outpt time (%) = 0.024946 (0.1153)
Other time (%) = 8.63631 (39.917)

Nlocal:    8 ave 8 max 8 min
Histogram: 1 0 0 0 0 0 0 0 0 0
Nghost:    2147 ave 2147 max 2147 min
Histogram: 1 0 0 0 0 0 0 0 0 0
Neighs:    2104 ave 2104 max 2104 min
Histogram: 1 0 0 0 0 0 0 0 0 0

Total # of neighbors = 2104
Ave neighs/atom = 263
Neighbor list builds = 368
Dangerous builds = 0
unfix 20
unfix 21
print "seeds:5918837"
seeds:5918837
