LAMMPS (10 Feb 2015)
# ---- initialize simulations
clear
units metal
dimension 3
boundary p p p
atom_style charge
atom_modify map array
# ---- create atoms
read_data /Users/eugeneragasa/pyflamestk_git/pypospack/tests/tests_integration/workflow/WorkflowLammpsThermalExpansion/param_3101/MgO_NaCl_unit.npt.T900/lammps.structure
  triclinic box = (0 0 0) to (4.2565 4.2565 4.2565) with tilt (0 0 0)
  1 by 1 by 1 MPI processor grid
  reading atoms ...
  8 atoms
# ---- define interatomic potential
include potential.mod
mass 1 24.305
mass 2 15.999

group Mg type 1
4 atoms in group Mg
group O type 2
4 atoms in group O

set group Mg charge 1.61886676565
  4 settings made for charge
set group O charge -1.61886676565
  4 settings made for charge

variable R_cut equal 10.0

pair_style buck/coul/long ${R_cut}
pair_style buck/coul/long 10
pair_coeff 1 1 0.0 0.5 0.0 ${R_cut}
pair_coeff 1 1 0.0 0.5 0.0 10
pair_coeff 1 2 1642.32869573 0.278339228763 0.0 ${R_cut}
pair_coeff 1 2 1642.32869573 0.278339228763 0.0 10
pair_coeff 2 2 10249.6145692 0.172187509684 14.0611166933 ${R_cut}
pair_coeff 2 2 10249.6145692 0.172187509684 14.0611166933 10

kspace_style pppm 1.0e-5

neighbor 1.0 bin
neigh_modify every 1 delay 0 check yes
# ---- define settings
compute eng all pe/atom
compute eatoms all reduce sum c_eng
# ---- run minimization
reset_timestep 0
fix 1 all box/relax iso 0.0 vmax 0.001
thermo 10
thermo_style custom step pe lx ly lz xy xz yz press pxx pyy pzz pxy pxz pyz c_eatoms
min_style cg
minimize 1e-25 1e-25 5000 10000
PPPM initialization ...
  G vector (1/distance) = 0.352512
  grid = 8 8 8
  stencil order = 5
  estimated absolute RMS force accuracy = 3.81673e-05
  estimated relative force accuracy = 2.65057e-06
  using double precision FFTs
  3d grid and FFT values/proc = 3375 512
Neighbor list info ...
  1 neighbor list requests
  update every 1 steps, delay 0 steps, check yes
  master list distance cutoff = 11
Memory usage per processor = 4.06549 Mbytes
Step PotEng Lx Ly Lz Xy Xz Yz Press Pxx Pyy Pzz Pxy Pxz Pyz eatoms 
       0   -105.55076       4.2565       4.2565       4.2565            0            0            0    126453.59    126453.59    126453.59    126453.59 4.0363335e-11 4.044677e-11 1.0723156e-10   -105.55076 
      10   -105.69165     4.299065     4.299065     4.299065            0            0            0    68786.015    68786.015    68786.015    68786.015 -1.0242962e-10 -4.708445e-11 -3.569371e-11   -105.69165 
      20   -105.75532      4.34163      4.34163      4.34163            0            0            0    18126.479    18126.479    18126.479    18126.479 7.5197513e-11 1.703257e-11 -3.0007315e-11   -105.75532 
      27   -105.76066    4.3583247    4.3583247    4.3583247            0            0            0    1.3863117    1.3863117    1.3863117    1.3863117 -6.2572681e-11 -1.3142723e-10 -3.2118437e-11   -105.76066 
Loop time of 0.0137589 on 1 procs for 27 steps with 8 atoms

Minimization stats:
  Stopping criterion = linesearch alpha is zero
  Energy initial, next-to-last, final = 
        -105.550764672     -105.760658065     -105.760658065
  Force two-norm initial, final = 18.26 0.000217628
  Force max component initial, final = 18.26 0.000209876
  Final line search alpha, max atom move = 0.25 5.24691e-05
  Iterations, force evaluations = 27 40

Pair  time (%) = 0.00362968 (26.3806)
Kspce time (%) = 0.00224328 (16.3042)
Neigh time (%) = 0 (0)
Comm  time (%) = 0.000438213 (3.18495)
Outpt time (%) = 3.00407e-05 (0.218337)
Other time (%) = 0.00741768 (53.9119)

Nlocal:    8 ave 8 max 8 min
Histogram: 1 0 0 0 0 0 0 0 0 0
Nghost:    2189 ave 2189 max 2189 min
Histogram: 1 0 0 0 0 0 0 0 0 0
Neighs:    2344 ave 2344 max 2344 min
Histogram: 1 0 0 0 0 0 0 0 0 0

Total # of neighbors = 2344
Ave neighs/atom = 293
Neighbor list builds = 0
Dangerous builds = 0
unfix 1
# ---- define output variables ----
variable natoms equal "count(all)"
variable tot_energy equal "c_eatoms"
variable length_x equal "lx"
variable length_y equal "ly"
variable length_z equal "lz"
variable tilt_xy equal "xy"
variable tilt_xz equal "xz"
variable tilt_yz equal "yz"
variable tot_press equal "press"
variable press_xx equal "pxx"
variable press_yy equal "pyy"
variable press_zz equal "pzz"
variable press_xy equal "pxy"
variable press_xz equal "pxz"
variable press_yz equal "pyz"

# ---- output ----
print "pypospack:output_section:begin"
pypospack:output_section:begin
print "tot_energy = ${tot_energy}"
tot_energy = -105.760658064539
print "num_atoms = ${natoms}"
num_atoms = 8
print "xx = ${length_x}"
xx = 4.35832471527479
print "yy = ${length_y}"
yy = 4.35832471527479
print "zz = ${length_z}"
zz = 4.35832471527479
print "xy = ${tilt_xy}"
xy = 0
print "xz = ${tilt_xz}"
xz = 0
print "yz = ${tilt_yz}"
yz = 0
print "tot_press = ${tot_press}"
tot_press = 1.38631174704167
print "pxx = ${press_xx}"
pxx = 1.38631174709188
print "pyy = ${press_yy}"
pyy = 1.38631174731354
print "pzz = ${press_zz}"
pzz = 1.3863117467196
print "pxy = ${press_xy}"
pxy = -6.25726806975275e-11
print "pxz = ${press_xz}"
pxz = -1.31427228854923e-10
print "pyz = ${press_yz}"
pyz = -3.21184365171528e-11
print "pypospack:output_section:done"
pypospack:output_section:done
print "pypospack:lammps_sim:done"
pypospack:lammps_sim:done
#------------------------------------------------------------------------------
# RUN THERMOSTAT
# running using an NPT Nose-Hoover style thermostat
#------------------------------------------------------------------------------
variable tempdamp equal 0.1
variable pressdamp equal 1.0
# set initial velocities
velocity all create 900 4049093 mom yes dist gaussian loop all
# fix for Nose-Hoover style thermostat
fix 20 all npt temp 900 900 0.1 aniso 0.0 0.0 1.0 drag 1.0 couple xyz
variable boxx equal lx
variable boxy equal ly
variable boxz equal lz
variable boxp equal press
variable boxt equal temp
# calculate averages every 10000 steps
reset_timestep 0
fix 21 all ave/time 10 10 100 v_boxx v_boxy v_boxz v_boxp v_boxt file lattice.out
thermo_style custom step temp pe ke etotal press lx ly lz press pxx pyy pzz pxy pxz pyz vol
thermo_modify flush yes
thermo 100
run 100000
PPPM initialization ...
  G vector (1/distance) = 0.351503
  grid = 8 8 8
  stencil order = 5
  estimated absolute RMS force accuracy = 3.99806e-05
  estimated relative force accuracy = 2.7765e-06
  using double precision FFTs
  3d grid and FFT values/proc = 3375 512
Memory usage per processor = 3.06549 Mbytes
Step Temp PotEng KinEng TotEng Press Lx Ly Lz Press Pxx Pyy Pzz Pxy Pxz Pyz Volume 
       0          900   -105.76067   0.81433891   -104.94633    10505.924    4.3583247    4.3583247    4.3583247    10505.924     10653.85    6381.9998    14481.923   -4845.6643    1935.4736    3400.1684    82.786353 
     100    216.34006   -105.03537   0.19574904   -104.83962    7070.4983     4.391022     4.391022     4.391022    7070.4983   -9447.2742    538.54615    30120.223    607.52086   -5892.5688   -5355.4371    84.663619 
     200    595.63044   -105.15268   0.53893894   -104.61374   -19627.683    4.4130423    4.4130423    4.4130423   -19627.683   -43312.879   -32821.289    17251.119   -3428.6249   -7978.7484    2931.0679    85.943747 
     300    841.58859   -105.18868   0.76148704   -104.42719    24799.153    4.3802152    4.3802152    4.3802152    24799.153    41659.157   -4597.8505    37336.151   -3590.6461   -4735.5686   -2177.1723    84.040059 
     400    846.39647   -105.04956   0.76583731   -104.28373   -5578.6659    4.4001898    4.4001898    4.4001898   -5578.6659   -24913.286   -11532.579    19709.868   -3801.1726   -2282.6902   -3675.7644    85.195026 
     500    680.21229   -104.78706   0.61547038   -104.17159    4701.1079     4.428471     4.428471     4.428471    4701.1079    13722.066    -41143.44    41524.698    564.68213    1051.3664    3941.4041    86.848318 
     600    730.70526   -104.78008   0.66115748   -104.11892      2885.72    4.4029539    4.4029539    4.4029539      2885.72    2642.3882   -28413.572    34428.343   -2896.1649   -12607.775   -13448.589    85.355675 
     700    1128.5495   -105.12391    1.0211353   -104.10277    15379.359    4.3948274    4.3948274    4.3948274    15379.359    44496.695   -3170.6228     4812.006   -3201.8338   -2234.2782    5379.5779    84.883928 
     800    779.02779   -104.81628   0.70488071    -104.1114   -14552.844     4.424051     4.424051     4.424051   -14552.844   -14527.548     -40066.4    10935.415   -1946.5751    9786.6119    3808.1237    86.588531 
     900    734.32182   -104.77532   0.66442981   -104.11089    4736.3977    4.4085151    4.4085151    4.4085151    4736.3977    436.15131   -25459.775    39232.816   -530.35235   -11149.476    340.88114    85.679514 
    1000    1182.4403   -105.17797    1.0698968   -104.10807    7494.6112    4.4002874    4.4002874    4.4002874    7494.6112    -529.1759   -4247.7576    27260.767    5502.7152    2180.9903    7270.5843    85.200693 
    1100    796.18694   -104.83949   0.72040668   -104.11908   -18131.641    4.4170414    4.4170414    4.4170414   -18131.641   -27769.036   -35068.268     8442.381   -7452.3203   -10813.835   -8571.2875    86.177606 
    1200    1012.3043   -105.03116   0.91595416    -104.1152   -5217.1582    4.4135322    4.4135322    4.4135322   -5217.1582   -18359.333   -25298.285    28006.143    8539.0979    2599.8564   -4106.9251     85.97237 
    1300    753.87178   -104.79668   0.68211903   -104.11456    13033.365    4.3991224    4.3991224    4.3991224    13033.365   -14795.511    -9249.032    63144.637   -1339.8081    4842.1606   -7898.4648     85.13304 
    1400    1207.2328   -105.22178    1.0923296   -104.12945   -20808.894    4.4063504    4.4063504    4.4063504   -20808.894   -37635.845   -8058.7857    -16732.05    6798.4852   -4443.3575    3483.8489    85.553366 
    1500    834.49523   -104.88767   0.75506882    -104.1326    916.02931    4.4141891    4.4141891    4.4141891    916.02931    919.92819   -33083.187    34911.347     862.5438    -2394.838    7383.7605    86.010761 
    1600    745.62994   -104.80197   0.67466164   -104.12731     6724.685    4.4086943    4.4086943    4.4086943     6724.685    -34724.74    1102.8501    53795.945    1514.2998   -6911.1721   -7802.4883    85.689962 
    1700    933.17336   -104.96327   0.84435487   -104.11892     8819.103    4.4059536    4.4059536    4.4059536     8819.103    5097.5598     8204.695    13155.054    2420.6625   -5920.9827   -3393.5133    85.530251 
    1800    1142.2981    -105.1512    1.0335754   -104.11763   -16608.693    4.4088282    4.4088282    4.4088282   -16608.693    -15731.04    -17286.31   -16808.729   -2020.5513   -1763.8076    707.62937    85.697774 
    1900     707.7597   -104.75868   0.64039585   -104.11828    15110.092    4.4084589    4.4084589    4.4084589    15110.092    9237.4212    15509.857    20582.998     6402.639   -3308.3387    5244.1293     85.67624 
    2000    641.87988   -104.69376   0.58078641   -104.11297    26422.807    4.4043869    4.4043869    4.4043869    26422.807    8296.9192    2975.8698    67995.632   -1385.6885    3175.2333    11565.555    85.439045 
    2100    973.80783   -104.99344   0.88112179   -104.11232   -10166.904    4.4147055    4.4147055    4.4147055   -10166.904   -9519.3138    -25998.31    5016.9115      590.993   -6480.5485    -373.5261    86.040956 
    2200    1065.9201   -105.07025   0.96446693   -104.10578    7207.7761    4.4115549    4.4115549    4.4115549    7207.7761    4485.1276    16368.555    769.64622   -282.60045    1150.3491   -1248.0994    85.856872 
    2300    947.10448   -104.96542   0.85696004   -104.10846   -15576.801    4.4114491    4.4114491    4.4114491   -15576.801   -33244.838   -11222.325   -2263.2399   -3238.3559   -11200.856   -14185.395    85.850697 
    2400    726.92052   -104.76845   0.65773296   -104.11071    14534.699    4.4090354    4.4090354    4.4090354    14534.699   -11366.288   -26095.464     81065.85   -654.71241   -4808.9848   -2419.8699    85.709853 
    2500    1066.8184   -105.07955   0.96527968   -104.11427   -1380.0288    4.4069789    4.4069789    4.4069789   -1380.0288    8656.9671   -17756.928    4959.8741   -2063.8576    3815.8339   -3090.4818    85.589978 
    2600     1078.025   -105.09558   0.97541972   -104.12016   -28878.008    4.4136882    4.4136882    4.4136882   -28878.008   -34294.385    -38207.91   -14131.729    1610.5379   -9748.5173    5480.1614    85.981489 
    2700    1026.4185   -105.04738   0.92872506   -104.11866    308.83475    4.4061027    4.4061027    4.4061027    308.83475    24167.247   -33620.986    10380.244   -3340.4597    4046.6556    7344.8016    85.538938 
    2800     892.7183   -104.93012   0.80775028   -104.12237    3989.5832    4.4038931    4.4038931    4.4038931    3989.5832   -7696.3766   -17317.108    36982.234   -575.42555    -10024.87   -1025.6958    85.410311 
    2900    520.36206   -104.59032   0.47083452   -104.11949    10849.541    4.4112413    4.4112413    4.4112413    10849.541     33107.01   -36801.976    36243.588    14820.121   -11337.945   -1242.0104    85.838565 
    3000    1092.1944   -105.09953    0.9882404   -104.11129   -15902.898    4.4046575    4.4046575    4.4046575   -15902.898   -19531.242   -27537.225   -640.22681   -6665.6214      2571.87   -2267.6954    85.454793 
    3100    943.04084   -104.97032   0.85328317   -104.11704   -10811.012    4.4038662    4.4038662    4.4038662   -10811.012   -6720.0423   -26814.841     1101.846    4881.8616   -6601.1155    911.34443    85.408745 
    3200    815.34308   -104.85419   0.73773956   -104.11645    1066.1641    4.4080856    4.4080856    4.4080856    1066.1641   -5120.9771   -21546.896    29866.365    10973.006     5174.839    4207.0738    85.654475 
    3300    733.47879   -104.78218   0.66366702   -104.11851   -7557.7807    4.4122034    4.4122034    4.4122034   -7557.7807   -38171.466   -26027.014    41525.137   -1125.4672   -20261.133    4065.9336    85.894744 
    3400    1296.2761   -105.28559    1.1728979   -104.11269   -12984.855    4.4099731    4.4099731    4.4099731   -12984.855    5869.4132   -32547.564   -12276.414    7105.4548   -8570.6294   -2462.4025    85.764552 
    3500    425.13249     -104.509   0.38466881   -104.12433    25357.198    4.4008366    4.4008366    4.4008366    25357.198   -8166.9179    -6699.001    90937.514    5656.8473    14603.778   -9685.7546    85.232602 
    3600    840.38978   -104.88516   0.76040234   -104.12476     4951.416     4.411939     4.411939     4.411939     4951.416   -22843.031   -1628.1449    39325.424    4769.5485    2360.6668   -13941.639    85.879298 
    3700    1028.7779   -105.04669   0.93085988   -104.11583   -6042.6682    4.4189591    4.4189591    4.4189591   -6042.6682   -499.73295   -25317.546    7689.2745    2488.7732    6326.8868     3331.921    86.289895 
    3800    740.29348   -104.78294    0.6698331   -104.11311    10258.107    4.4029961    4.4029961    4.4029961    10258.107   -6147.5311   -275.40874     37197.26    6231.0561   -18672.528    5378.0649     85.35813 
    3900    720.01801   -104.77187   0.65148743   -104.12038     16030.94    4.4105457    4.4105457    4.4105457     16030.94   -13112.962   -409.31604    61615.098   -313.35418   -7423.3138    4304.9678    85.797961 
    4000    989.17836   -105.01036   0.89502936   -104.11533   -18739.121    4.4139228    4.4139228    4.4139228   -18739.121   -20848.923    -29436.55   -5931.8898   -2747.8463    5170.9541   -2006.7716    85.995199 
    4100    883.60695   -104.90918   0.79950613   -104.10968    8611.6825    4.4048542    4.4048542    4.4048542    8611.6825   -22451.372   -16315.116    64601.535    7249.0826    2714.4046   -4117.6518    85.466243 
    4200    539.81874    -104.6049   0.48843934   -104.11646    3259.5843    4.4179387    4.4179387    4.4179387    3259.5843   -54166.142   -4607.0392    68551.934    -1484.524    15203.869   -3274.0789    86.230135 
    4300    1121.0753   -105.12618    1.0143725   -104.11181   -12545.304    4.4058089    4.4058089    4.4058089   -12545.304    -12952.66   -9517.0657   -15166.186   -213.80376   -10073.247    2506.3104    85.521827 
    4400     950.2049    -104.9798   0.85976536   -104.12003   -4904.8349    4.4021045    4.4021045    4.4021045   -4904.8349   -31708.769    5298.0125    11696.251   -4829.0372    1194.3487     311.8172    85.306285 
    4500    628.18385   -104.69456   0.56839395   -104.12617   -951.46469    4.4211699    4.4211699    4.4211699   -951.46469   -47067.461   -12243.427    56456.493   -5167.1999    3197.7197   -17419.606    86.419472 
    4600    960.68255   -104.98773   0.86924576   -104.11849   -209.69745    4.4114396    4.4114396    4.4114396   -209.69745   -14168.194   -14662.754    28201.855    5956.8922   -219.46392   -8196.7125    85.850141 
    4700    765.30875   -104.80712   0.69246744   -104.11465    11510.636    4.4073224    4.4073224    4.4073224    11510.636   -5176.1026    16517.356    23190.653   -3076.5366    14053.299   -4220.9517    85.609995 
    4800    1089.3142   -105.09686   0.98563437   -104.11123   -22561.467    4.4190775    4.4190775    4.4190775   -22561.467   -43090.409   -21117.834    -3476.159   -693.28835   -16920.073    7583.4434    86.296831 
    4900    858.59606   -104.88499   0.77687576   -104.10812     16670.49    4.4033478    4.4033478    4.4033478     16670.49    3211.5714   -17775.461    64575.359   -2383.4927    8391.9091   -2048.6949    85.378589 
    5000    787.95941   -104.82903   0.71296224   -104.11607    9751.9274    4.4113303    4.4113303    4.4113303    9751.9274   -3895.2989    32811.824    339.25684   -8877.7403   -3954.7152   -2260.8026    85.843762 
    5100    1130.9144   -105.13138    1.0232751    -104.1081   -22939.587     4.427834     4.427834     4.427834   -22939.587   -46998.839   -18189.441   -3630.4803   -2417.6786     2958.028    424.20031    86.810848 
    5200    1192.8169   -105.17847    1.0792858   -104.09918   -4544.3167    4.4063731    4.4063731    4.4063731   -4544.3167   -28354.384    18248.081   -3526.6474   -2934.0687    6581.9227   -5821.0133    85.554688 
    5300    577.21008     -104.628   0.52227181   -104.10573    29393.649    4.4047065    4.4047065    4.4047065    29393.649     -5706.44     36187.31    57700.077   -9423.9553   -5092.3141    14588.316    85.457647 
    5400    880.26768   -104.90019   0.79648469    -104.1037   -17996.738    4.4277678    4.4277678    4.4277678   -17996.738   -50996.506    3270.6276   -6264.3346    3903.6515    2676.8833    14561.959    86.806955 
    5500    1122.4939   -105.10981    1.0156561   -104.09416    6815.1122    4.4004901    4.4004901    4.4004901    6815.1122   -7703.6924    5996.7611    22152.268    -528.1061    -7691.184    1156.2603    85.212466 
    5600    843.27175   -104.87415      0.76301   -104.11114   -2877.2536    4.4065572    4.4065572    4.4065572   -2877.2536    -8290.209    4398.0493    -4739.601   -149.42087    2577.5127   -6311.3643    85.565407 
    5700    1075.6521   -105.08139   0.97327262   -104.10811   -17711.516     4.424011     4.424011     4.424011   -17711.516   -30028.241   -6001.5932   -17104.714   -240.76403     7981.907    4865.8483     86.58618 
    5800    693.07265   -104.73072    0.6271067   -104.10361    19910.702    4.4070527    4.4070527    4.4070527    19910.702   -4239.1078     13327.62    50643.594   -7488.7962    1018.3923    1377.0211    85.594276 
    5900    799.72565   -104.83381   0.72360858    -104.1102   -1931.4474     4.413101     4.413101     4.413101   -1931.4474   -18640.896    32105.194    -19258.64   -3668.2163    13569.132    14489.308    85.947177 
    6000    822.01191   -104.85259   0.74377365   -104.10882    4825.1669     4.415547     4.415547     4.415547    4825.1669    -30819.81   -12487.348    57782.659   -1173.2658   -4816.5755   -1772.8045    86.090164 
    6100     789.0609   -104.82484   0.71395889   -104.11088   -14844.727    4.4129134    4.4129134    4.4129134   -14844.727   -37213.016    10892.732   -18213.898     5861.139    9046.6581   -6419.9931    85.936212 
    6200    1034.0731   -105.04468    0.9356511   -104.10903     12245.44    4.4018519    4.4018519    4.4018519     12245.44   -3659.9845   -6041.5267    46437.831    4651.5267    267.29795   -7433.4378    85.291601 
    6300    803.51059   -104.85264   0.72703327    -104.1256   -11913.576    4.4150572    4.4150572    4.4150572   -11913.576     -7345.44   -40159.565    11764.276    5786.7173    7604.5627   -656.84157    86.061517 
    6400    683.27309    -104.7364   0.61823985   -104.11816    5303.5695    4.4144245    4.4144245    4.4144245    5303.5695    7366.0112   -21154.594    29699.292    8289.0093   -5063.9202    8464.1923    86.024524 
    6500    1120.0161   -105.12447    1.0134141   -104.11106    1147.4066    4.4011701    4.4011701    4.4011701    1147.4066    3515.6395   -12797.435    12724.015   -2624.3868     -3385.91   -9440.0876    85.251977 
    6600    835.06453   -104.88135   0.75558393   -104.12576   -12614.898    4.4203204    4.4203204    4.4203204   -12614.898   -12964.721   -19857.669   -5022.3033     3495.358    12996.021     9749.595     86.36967 
    6700    938.40258   -104.96576   0.84908637   -104.11667    8094.2929    4.4092143    4.4092143    4.4092143    8094.2929   -24786.873   -3996.6195    53066.371    -1594.325   -6388.4858   -6692.6154    85.720289 
    6800    913.47521   -104.94868   0.82653157   -104.12215   -11392.779    4.4092249    4.4092249    4.4092249   -11392.779   -23667.191   -5803.1728   -4707.9731    1952.0506    13654.517   -1368.2942    85.720909 
    6900    1123.1334   -105.12748    1.0162347   -104.11124   -7309.0904     4.411552     4.411552     4.411552   -7309.0904    -35571.37   -4155.6126    17799.712    6832.3036    6769.5932   -11265.969    85.856703 
    7000    744.09657   -104.78681   0.67327421   -104.11353   -2515.8595    4.4096059    4.4096059    4.4096059   -2515.8595   -15032.643    2063.8303    5421.2344     55.06176   -6736.3783   -827.81797    85.743127 
    7100    931.82334   -104.96021   0.84313334   -104.11708   -17807.941    4.4134026    4.4134026    4.4134026   -17807.941   -13401.946   -22548.261   -17473.615    5944.5753    20072.294   -6769.5707    85.964794 
    7200    954.31889   -104.97614   0.86348779   -104.11266    21988.656    4.4013245    4.4013245    4.4013245    21988.656    14360.692    27194.138    24411.137    3118.4565    5362.8867   -1069.8339    85.260948 
    7300    465.52353   -104.55179   0.42121547   -104.13058   -4051.6094    4.4194207    4.4194207    4.4194207   -4051.6094     1337.449    -36193.92    22701.643    -1852.366     11824.12    3806.3727     86.31694 
    7400    1137.7754   -105.14749    1.0294831   -104.11801   -7301.1249    4.4117384    4.4117384    4.4117384   -7301.1249    8222.5923   -9592.8435   -20533.124    8603.9006    8241.8727    317.25784    85.867586 
    7500    719.27767   -104.77413   0.65081755   -104.12331    28075.737    4.3976188    4.3976188    4.3976188    28075.737    8910.7505    12480.087    62836.373    5228.4718    8045.7743   -10130.845    85.045777 
    7600    995.96877   -105.02338   0.90117348   -104.12221   -31691.127    4.4282233    4.4282233    4.4282233   -31691.127   -51775.923   -30418.207   -12879.251    881.51168   -4366.0159    6225.6665    86.833746 
    7700    861.38211   -104.89261   0.77939663   -104.11322    19659.034    4.4026592    4.4026592    4.4026592    19659.034   -10260.366    19676.696    49560.773    3334.4253   -1417.8516   -8349.2026    85.338539 
    7800    1022.8641   -105.04623    0.9255089   -104.12072   -4257.8845     4.396821     4.396821     4.396821   -4257.8845    -27393.85    15322.484   -702.28773   -3280.3413    11537.329     4015.207    84.999499 
    7900    997.75808   -105.02041   0.90279248   -104.11762    -10876.38    4.4241768    4.4241768    4.4241768    -10876.38   -25292.681   -32124.229     24787.77   -1402.5124   -7058.7254   -13377.742     86.59592 
    8000    732.83802   -104.77437   0.66308724   -104.11128   -6182.9143    4.4126098    4.4126098    4.4126098   -6182.9143   -23378.603    29276.334   -24446.474    5863.8551    11624.104    945.43347    85.918476 
    8100    1086.4949   -105.08939   0.98308346   -104.10631    7303.5474    4.3965907    4.3965907    4.3965907    7303.5474   -1766.9877   -8892.9123    32570.542    2888.3246   -1776.3642   -4317.3566    84.986144 
    8200    787.45369   -104.83855   0.71250465   -104.12605   -3635.2093    4.4166331    4.4166331    4.4166331   -3635.2093   -29099.886    24307.875   -6113.6169    7803.0733    5853.4225    6194.1494     86.15371 
    8300    583.77293   -104.64202   0.52821001   -104.11381   -7493.7563    4.4225038    4.4225038    4.4225038   -7493.7563   -11072.607   -5583.3365   -5825.3259    3575.6943    17181.377   -1229.8787    86.497719 
    8400    1173.0322   -105.15424    1.0613841   -104.09286    11633.992    4.3923767    4.3923767    4.3923767    11633.992   -219.39351    21828.062    13293.308   -3121.4686   -5274.7571    3994.6677    84.742004 
    8500    845.88505   -104.88293   0.76537457   -104.11756   -14674.993    4.4117909    4.4117909    4.4117909   -14674.993   -25888.766   -3355.3731   -14780.841    2803.7086    11387.087     -3622.46    85.870651 
    8600    926.49487    -104.9519   0.83831203   -104.11359    72.525154    4.4178145    4.4178145    4.4178145    72.525154    9418.0532   -34292.737    25092.259   -10025.875    -3412.725    12247.893     86.22286 
    8700    892.29881    -104.9174   0.80737072   -104.11002    4083.5696    4.4027769    4.4027769    4.4027769    4083.5696   -11755.498    5306.8447    18699.362    4894.2688    8732.3597    343.00025    85.345387 
    8800    942.84672   -104.96371   0.85310752    -104.1106   -369.08198    4.4100709    4.4100709    4.4100709   -369.08198     21115.11   -27354.373    5132.0168   -4039.9062    5158.4682   -7338.0225    85.770257 
    8900    950.36915   -104.96829   0.85991398   -104.10837   -8153.8985    4.4174902    4.4174902    4.4174902   -8153.8985   -27296.143   -906.92754    3741.3749    6475.7997    2758.4547     2277.936    86.203876 
    9000    922.70626   -104.94243   0.83488401   -104.10754   -2409.7156    4.4071423    4.4071423    4.4071423   -2409.7156    9259.9652   -6125.9812   -10363.131    -34.91048    3459.0402   -4394.6022    85.599501 
    9100    912.34435   -104.93486   0.82550834   -104.10935     4048.955    4.4125813    4.4125813    4.4125813     4048.955   -12614.474    -10292.89     35054.23    4351.3721    3061.6655    7310.6746    85.916812 
    9200    770.16924   -104.80948   0.69686532   -104.11262    6356.5692    4.4044456    4.4044456    4.4044456    6356.5692   -26965.764    21659.672      24375.8    -3102.682    6826.1643   -1788.4924    85.442459 
    9300    916.71404   -104.94291   0.82946212   -104.11345    6238.5228    4.4129061    4.4129061    4.4129061    6238.5228    17491.772   -10122.718    11346.515   -5059.5596     -2582.97   -2260.8808    85.935785 
    9400    1033.2079   -105.03929   0.93486821   -104.10443   -26599.126    4.4184432    4.4184432    4.4184432   -26599.126   -35995.983   -26710.462   -17090.935    12581.291    9109.1425    5600.7263    86.259675 
    9500    989.38501   -104.98995   0.89521635   -104.09473    17681.312    4.3944711    4.3944711    4.3944711    17681.312    583.53725    15903.618     36556.78   -9731.9215   -2617.7525   -8185.9859    84.863283 
    9600    789.97354   -104.83068   0.71478466    -104.1159   -11430.619    4.4190935    4.4190935    4.4190935   -11430.619   -22974.844   -32679.679    21362.666   -361.10102    6464.9472    9267.7917    86.297772 
    9700    780.25068   -104.82127   0.70598721   -104.11528   -13114.229    4.4175322    4.4175322    4.4175322   -13114.229   -28641.071   -5086.8148   -5614.8019    8071.2676    5699.2158    4967.1001    86.206335 
    9800    1058.5541   -105.06104   0.95780196   -104.10324    18828.528    4.3889946    4.3889946    4.3889946    18828.528    1090.1085    23959.253    31436.223   -12897.385   -1104.3992    -4558.417    84.546402 
    9900    713.05491   -104.77136   0.64518707   -104.12617   -9700.9235     4.416371     4.416371     4.416371   -9700.9235   -10482.308   -26154.652    7534.1894     15789.17    9127.4973   -952.42226    86.138371 
   10000    957.23661   -104.97223    0.8661278    -104.1061   -16974.621    4.4236098    4.4236098    4.4236098   -16974.621   -32137.144   -18727.299   -59.420987    1993.2524    60.560755   -11853.077    86.562629 
   10100    961.71034   -104.96144   0.87017572   -104.09126    6482.3071    4.3941558    4.3941558    4.3941558    6482.3071    10315.434    2576.8474    6554.6403   -3036.8709    7168.3566     3421.096    84.845021 
   10200    768.44047   -104.80623   0.69530109   -104.11093   -4225.9662    4.4105411    4.4105411    4.4105411   -4225.9662   -6473.3191   -24645.239     18440.66    86.193226    10929.663   -8292.2497    85.797693 
   10300    870.07605   -104.89856   0.78726309    -104.1113   -8893.5352    4.4182192    4.4182192    4.4182192   -8893.5352   -12326.034     16652.47   -31007.042   -7837.8675   -4907.3044   -8345.9569    86.246561 
   10400    997.25448   -105.01041   0.90233681   -104.10807     -9707.57    4.4081615    4.4081615    4.4081615     -9707.57   -9255.3544   -10375.036   -9492.3191    2674.2589    7785.8034   -3960.0999    85.658898 
   10500    584.54826   -104.63352   0.52891155   -104.10461    17416.623     4.402412     4.402412     4.402412    17416.623    81.352481    42594.419    9574.0957    8544.4434   -3836.0179    -17826.75    85.324164 
   10600    1070.1305   -105.07921   0.96827659   -104.11093   -20241.337     4.416769     4.416769     4.416769   -20241.337    -17749.46   -21765.198   -21209.354    7798.1297     8129.944   -487.32921    86.161659 
   10700    743.36208   -104.78339   0.67260963   -104.11078    1511.1125    4.4123475    4.4123475    4.4123475    1511.1125    13355.244   -28811.687     19989.78    16137.813    5068.5065   -11625.377    85.903159 
   10800    786.61779   -104.81849   0.71174831   -104.10674    15092.382    4.3973458    4.3973458    4.3973458    15092.382    7497.2144     25846.66    11933.271   -3787.0479   -641.74729    4300.6426    85.029935 
   10900    1058.6502   -105.07022   0.95788897   -104.11233   -21319.416    4.4196788    4.4196788    4.4196788   -21319.416    4695.1535    -50066.26   -18587.142     5678.727   -395.60247   -8281.4362    86.332062 
   11000    905.85391   -104.92571   0.81963566   -104.10607    3312.2179    4.4045579    4.4045579    4.4045579    3312.2179   -10936.591    3537.7467    17335.497    10233.532    2426.8117   -4568.7429    85.448996 
   11100    880.11072   -104.90798   0.79634267   -104.11164    3447.8033    4.4049465    4.4049465    4.4049465    3447.8033   -7292.5556    1179.8841    16456.082    1285.9907    7386.0183   -2349.1753    85.471619 
   11200    994.86405   -105.00813    0.9001739   -104.10796    -15080.46     4.422346     4.422346     4.422346    -15080.46   -11428.322   -28544.804   -5268.2525   -1494.6099    12246.717   -8683.0624    86.488456 
   11300     898.2595   -104.91816   0.81276407    -104.1054    6008.9295    4.3966304    4.3966304    4.3966304    6008.9295   -27179.424    11040.143     34166.07    10301.896    6407.3008    23.814778    84.988442 
   11400    807.47417   -104.84674    0.7306196   -104.11612    21151.047    4.4004363    4.4004363    4.4004363    21151.047    38799.303    24379.081    274.75735    3794.9881   -8583.2418    -4552.818    85.209344 
   11500     944.5815    -104.9745    0.8546772   -104.11982   -23687.501    4.4248172    4.4248172    4.4248172   -23687.501   -27243.118   -39381.114   -4438.2708    6994.5075     4691.419   -2489.3309    86.633526 
   11600    840.10289   -104.86517   0.76014275   -104.10503    11981.524    4.4090685    4.4090685    4.4090685    11981.524    18639.117    32579.364    -15273.91   -10421.898    2124.8779   -1184.7108    85.711784 
   11700    848.03253   -104.87048   0.76731765   -104.10316   -3023.6679    4.4000961    4.4000961    4.4000961   -3023.6679   -8668.4239   -14954.946    14552.366   -1969.0958    7876.3482    94.305613    85.189581 
   11800    851.57111   -104.88612   0.77051944    -104.1156    5007.2866     4.404189     4.404189     4.404189    5007.2866   -23449.228    18601.328     19869.76    5557.8256     6033.427    6655.4981    85.427527 
   11900    1104.7461   -105.11094   0.99959749   -104.11135   -16231.561    4.4211116    4.4211116    4.4211116   -16231.561   -13320.521   -33542.481   -1831.6812   -5741.7348   -2940.9411   -7794.7865    86.416056 
   12000    615.02306   -104.66355   0.55648579   -104.10706   -7778.8933    4.4113836    4.4113836    4.4113836   -7778.8933   -34670.053   -5275.9357    16609.308    3568.0525    7223.7952    13318.911    85.846872 
   12100    1280.9142   -105.25886    1.1589981   -104.09986    5915.4357    4.3942541    4.3942541    4.3942541    5915.4357   -1343.4796    2956.3635    16133.423   -8676.9832   -5195.7225   -4300.6758    84.850713 
   12200    546.99085   -104.61314   0.49492882   -104.11822    3071.0451    4.4153542    4.4153542    4.4153542    3071.0451   -17920.379   -5768.2768    32901.792    6256.7726    15469.155   -7104.0906    86.078888 
   12300    1060.6338   -105.06836   0.95968374   -104.10868   -24954.829    4.4121626    4.4121626    4.4121626   -24954.829   -22479.583   -31259.564   -21125.342   -4408.1455    6831.2373    3857.9164    85.892358 
   12400    771.83794   -104.80433   0.69837519   -104.10596    33182.518    4.3959039    4.3959039    4.3959039    33182.518    33953.798    26397.887    39195.869   -942.20342   -2325.4704   -2648.8699    84.946321 
   12500    983.73864   -105.00954   0.89010739   -104.11943   -25440.757    4.4163403    4.4163403    4.4163403   -25440.757   -50642.442   -22313.987    -3365.842   -659.91617    5686.7201    5784.9202    86.136575 
   12600    673.37619   -104.72195   0.60928493   -104.11267    19138.016    4.4119647    4.4119647    4.4119647    19138.016     14835.04     6326.129     36252.88   -17784.859   -635.79949   -8005.1402      85.8808 
   12700     1110.403   -105.11464     1.004716   -104.10992   -16034.217    4.3991326    4.3991326    4.3991326   -16034.217    -27683.55    3401.4306   -23820.532    9850.4497    19798.521    -2479.501    85.133631 
   12800    856.77855   -104.89258   0.77523124   -104.11735    8787.1912    4.4079743    4.4079743    4.4079743    8787.1912   -1976.9911    11592.434     16746.13   -16385.291   -2619.3674    611.22195    85.647986 
   12900    709.88857   -104.75559    0.6423221   -104.11327   -6089.2374    4.4223155    4.4223155    4.4223155   -6089.2374   -9989.8437   -19971.701    11693.832   -2058.7015    12194.993   -3969.5159    86.486667 
   13000    1044.9765   -105.05205    0.9455167   -104.10654   -14689.345    4.4030428    4.4030428    4.4030428   -14689.345   -29298.088   -8436.8456   -6333.1007    2611.2552    4059.3308    4976.4089     85.36085 
   13100     1014.096   -105.03156   0.91757534   -104.11399     13853.94    4.3983401    4.3983401    4.3983401     13853.94    24600.171   -14766.618    31728.267   -2913.4761    3513.7195    138.47265    85.087629 
   13200    856.55249   -104.90182    0.7750267    -104.1268   -30109.442    4.4216685    4.4216685    4.4216685   -30109.442   -40741.407   -34858.792   -14728.127     942.8133    12782.232   -2014.0269    86.448714 
   13300    908.32547   -104.93845   0.82187197   -104.11658    2663.7629    4.4117913    4.4117913    4.4117913    2663.7629    -264.8161   -27965.711    36221.816    1768.7758   -10542.712   -11966.016    85.870678 
   13400    765.54535   -104.80645   0.69268152   -104.11376    13201.375    4.3946089    4.3946089    4.3946089    13201.375    14998.718    3037.7289    21567.678   -1938.9432    19867.551     7024.123    84.871271 
   13500    1035.2043   -105.06379   0.93667459   -104.12711   -14651.658    4.4141683    4.4141683    4.4141683   -14651.658   -14491.416   -40282.711    10819.153    3466.8528   -4670.8475   -2289.3996    86.009547 
   13600    982.15301   -105.00445   0.88867268   -104.11578   -18324.987    4.4252704    4.4252704    4.4252704   -18324.987   -15634.082   -33512.409   -5828.4693    1699.0922    22480.762   -158.95333    86.660149 
   13700    556.09103   -104.61016   0.50316285   -104.10699    29992.206    4.3907384    4.3907384    4.3907384    29992.206   -5709.1002    22921.942    72763.777    1005.3735     13832.46   -2116.4017    84.647216 
   13800    1186.5078   -105.19431    1.0735772   -104.12074   -7990.1298     4.408269     4.408269     4.408269   -7990.1298   -16107.041   -8379.9281     516.5799    359.24838   -5165.7894    -3600.933    85.665168 
   13900    783.22696   -104.82452   0.70868021   -104.11584    -19247.72     4.423961     4.423961     4.423961    -19247.72   -36660.488   -24781.981    3699.3094   -3903.0384    20157.403    4571.8836    86.583247 
   14000    594.24826   -104.64346   0.53768831   -104.10577    34143.304    4.3965538    4.3965538    4.3965538    34143.304   -4400.0404    36890.284    69939.669    2779.6097   -4242.6337    -13764.58    84.984002 
   14100    1199.1907   -105.20242    1.0850529   -104.11737   -13283.608    4.4020246    4.4020246    4.4020246   -13283.608   -29197.045   -8885.5468   -1768.2307   -3677.3439    8875.6962   -2822.6754    85.301645 
   14200    747.32391   -104.80364   0.67619438   -104.12744   -8434.8793    4.4202588    4.4202588    4.4202588   -8434.8793   -30655.218   -11517.884    16868.464    6735.8349    390.80311    4584.5751    86.366059 
   14300    983.41745   -105.00489   0.88981678   -104.11508    13236.493    4.4046255    4.4046255    4.4046255    13236.493    -20050.89    2609.7502    57150.619    -853.2015   -12825.678     6805.332     85.45293 
   14400    510.21969   -104.58463    0.4616575   -104.12297    7101.0025    4.4036181    4.4036181    4.4036181    7101.0025   -28716.011   -17687.089    67706.107    4972.2816    15740.525    3402.0502    85.394314 
   14500     1306.384   -105.30429    1.1820437   -104.12224   -17383.521    4.4115502    4.4115502    4.4115502   -17383.521   -23186.087   -30219.435    1254.9594   -849.96128    -8908.834   -7124.7256    85.856596 
   14600    522.89839   -104.60059   0.47312945   -104.12746    7426.7483    4.4091729    4.4091729    4.4091729    7426.7483   -31520.408     3061.533     50739.12    7437.2635    24558.233    12689.562    85.717873 
   14700    1282.9512   -105.27473    1.1608412   -104.11389   -18627.828     4.400858     4.400858     4.400858   -18627.828   -25237.738   -24171.002   -6474.7435   -659.13917   -6347.2362   -2639.0978    85.233841 
   14800    834.77198   -104.87537   0.75531923   -104.12005     3074.279     4.409259     4.409259     4.409259     3074.279   -27611.702    8494.2206    28340.319   -296.36011    7160.6278    6617.8904    85.722895 
   14900    790.51759   -104.83424   0.71527693   -104.11896   -12192.637    4.4105651    4.4105651    4.4105651   -12192.637   -52324.412   -2868.4751    18614.977    8741.1778    7580.6696   -8081.3381    85.799093 
   15000    986.29851   -105.00398   0.89242362   -104.11155    21893.337    4.3930968    4.3930968    4.3930968    21893.337   -6397.2909     54248.02    17829.281    -9648.567    292.99207     5533.434    84.783688 
   15100    754.15479   -104.80803    0.6823751   -104.12565   -22430.542    4.4173633    4.4173633    4.4173633   -22430.542   -64300.508   -9907.2802    6916.1605     6536.346    21072.047    7443.4924    86.196446 
   15200    985.54107   -105.00247   0.89173828   -104.11073    14349.323    4.4084067    4.4084067    4.4084067    14349.323   -10941.405    34481.947    19507.426   -1928.0964   -13205.991    93.069245    85.673192 
   15300    856.57964   -104.88631   0.77505126   -104.11126   -21064.639    4.4080843    4.4080843    4.4080843   -21064.639   -46095.508   -1434.0417   -15664.367    5712.8763    24119.658    2282.2955      85.6544 
   15400    1161.4789   -105.15497    1.0509305   -104.10404   -886.68264     4.401109     4.401109     4.401109   -886.68264    -26551.98    -3032.632    26924.564    6807.3308   -5994.4799   -2894.3561    85.248426 
   15500    756.78168   -104.79998   0.68475196   -104.11523    -11309.18    4.4128481    4.4128481    4.4128481    -11309.18   -39981.367    22536.958   -16483.129   -2633.0726    16595.176    9870.9886    85.932399 
   15600    1019.8378   -105.03257   0.92277067    -104.1098    -655.4299    4.4035944    4.4035944    4.4035944    -655.4299   -16930.813    74.296117    14890.228    5450.2606     11678.75   -12483.954    85.392935 
   15700    784.80709   -104.82656   0.71010994   -104.11645    6502.3555    4.4028934    4.4028934    4.4028934    6502.3555   -28319.512    27468.593    20357.985    2002.0805    1497.2547    4193.4095    85.352162 
   15800     1011.088   -105.03166   0.91485363   -104.11681    -21354.19    4.4101923    4.4101923    4.4101923    -21354.19   -46345.892    8350.4126   -26067.091   -3038.8696    18758.933   -3748.4758    85.777344 
   15900    960.42015   -104.98028   0.86900834   -104.11127    16142.518    4.4020808    4.4020808    4.4020808    16142.518   -6808.6188    15676.105    39560.069    8259.0472   -6554.2912   -4017.7211    85.304908 
   16000    610.35862   -104.67092   0.55226531   -104.11865    822.63444     4.406172     4.406172     4.406172    822.63444   -47176.964     53187.72    -3542.852     5712.541      17128.5   -10005.589    85.542971 
   16100    1169.3028   -105.16533    1.0580097   -104.10732   -1384.5178     4.407633     4.407633     4.407633   -1384.5178   -29656.951    12016.791    13486.607    5026.7152   -6051.0075   -9936.4335    85.628092 
   16200    747.88102   -104.79316   0.67669846   -104.11646   -3647.5101    4.4044761    4.4044761    4.4044761   -3647.5101   -16221.079    6328.3438   -1049.7954    3688.7781    13031.592   -3295.1897    85.444234 
   16300    1005.5494   -105.02627   0.90984225   -104.11642   -3961.7571    4.4054353    4.4054353    4.4054353   -3961.7571   -18385.312    12753.951   -6253.9098   -1022.7873   -8785.1445    1686.9046    85.500071 
   16400    902.78042   -104.93489    0.8168547   -104.11804   -1454.5409    4.4046159    4.4046159    4.4046159   -1454.5409   -30101.378   -6899.8049     32637.56   -2752.6405    9277.8623   -1695.3459    85.452375 
   16500    973.87558   -104.99528   0.88118309    -104.1141   -13131.522    4.4161244    4.4161244    4.4161244   -13131.522   -17302.532    8262.4903   -30354.524   -7380.8884    1156.6076   -3973.9768    86.123943 
   16600    831.91355   -104.86776   0.75273287   -104.11502    17011.809    4.3976545    4.3976545    4.3976545    17011.809   -26785.724    73884.992    3936.1575   -5848.2613    3651.5513    -1911.744    85.047845 
   16700    610.59808   -104.68697   0.55248197   -104.13449    8953.4584    4.4008956    4.4008956    4.4008956    8953.4584   -10493.286    12469.248    24884.413    3358.8555    13066.509    13983.433    85.236029 
   16800    1044.9666   -105.06622   0.94550771   -104.12071   -9306.0339    4.4185553    4.4185553    4.4185553   -9306.0339   -34000.361    27060.552   -20978.292    8234.4622   -2143.9638   -9614.6042    86.266245 
   16900    689.41649   -104.73654   0.62379853   -104.11274   -3420.9622    4.4026404    4.4026404    4.4026404   -3420.9622   -50483.101    48646.683   -8426.4689    3605.3296    15420.408    10164.288    85.337444 
   17000    1255.3987   -105.24988    1.1359111   -104.11397   -1997.0427    4.3974475    4.3974475    4.3974475   -1997.0427   -16317.902    5619.4904     4707.283    6768.5875   -7355.6546   -15835.551    85.035837 
   17100    762.19459   -104.81628   0.68964968   -104.12663   -15264.975    4.4138959    4.4138959    4.4138959   -15264.975   -43073.998    21489.797   -24210.725   -901.69965    21475.253   -561.97376    85.993623 
   17200     1186.357   -105.18678    1.0734408   -104.11334   -8097.4793    4.4145471    4.4145471    4.4145471   -8097.4793   -41307.906    18376.013   -1360.5451    10277.244   -10544.574   -10110.675    86.031692 
   17300    797.52408   -104.82759   0.72161655   -104.10597   -5151.2934    4.4067153    4.4067153    4.4067153   -5151.2934   -41269.541    31097.233   -5281.5717   -2263.9312    22174.322    12786.377    85.574618 
   17400     581.9725   -104.62802   0.52658095   -104.10144    28007.503    4.3979575    4.3979575    4.3979575    28007.503    13446.004    33060.568    37515.938    3277.9276    1206.5101    9165.4282    85.065425 
   17500    1233.6854   -105.22155    1.1162645   -104.10529   -15986.704    4.4127694    4.4127694    4.4127694   -15986.704   -32382.591   -12550.602   -3026.9201    208.99713    18246.684   -1360.9182    85.927802 
   17600    664.79527   -104.70948   0.60152073   -104.10796   -4900.0897    4.4166452    4.4166452    4.4166452   -4900.0897   -9022.3951    7203.5693   -12881.443    476.42748    12487.452    5324.4041    86.154415 
   17700    1096.7105    -105.0935   0.99232673   -104.10117    14668.909    4.3939095    4.3939095    4.3939095    14668.909     7501.279    40011.896   -3506.4474   -1932.3106    2045.4386    8563.3229    84.830751 
   17800    896.23262    -104.9334   0.81093011   -104.12247   -6025.6128     4.407947     4.407947     4.407947   -6025.6128   -4256.1347    4771.9016   -18592.605   -12956.043    11535.969   -2687.0883    85.646394 
   17900    750.56143   -104.79798   0.67912375   -104.11886    17630.059    4.4109078    4.4109078    4.4109078    17630.059    4638.6539    44845.701    3405.8236    12740.286   -13468.404   -2190.8575    85.819094 
   18000    974.50288   -105.00077   0.88175068   -104.11901   -17955.824    4.4006861    4.4006861    4.4006861   -17955.824   -39253.595   -4836.0126   -9777.8637   -7072.9147    22768.631    341.42291    85.223858 
   18100    908.12808   -104.93553   0.82169337   -104.11383    17132.303    4.3995243    4.3995243    4.3995243    17132.303    24024.785    20833.811    6538.3121    7965.2552   -9368.6549   -17979.853    85.156375 
   18200    905.01859   -104.93086   0.81887984   -104.11198   -17800.648    4.4130942    4.4130942    4.4130942   -17800.648   -21092.773   -10006.967   -22302.204    -3085.673    26347.986   -3610.2515    85.946774 
   18300    832.12673   -104.85916   0.75292575   -104.10623    35.830518    4.4047749    4.4047749    4.4047749    35.830518    22271.069    1963.1899   -24126.767    11530.367    3653.6955   -549.43952    85.461624 
   18400      901.353   -104.92557   0.81556314      -104.11    12436.027    4.3943914    4.3943914    4.3943914    12436.027    11680.166     20357.22    5270.6948   -433.59467    3726.2128   -13846.935     84.85867 
   18500    924.84866   -104.95151   0.83682251   -104.11469   -18768.011    4.4127001    4.4127001    4.4127001   -18768.011   -29554.748    13660.644   -40409.929   -694.08507    17353.376    6759.9538    85.923755 
   18600    919.37429   -104.93743   0.83186918   -104.10556    10250.353    4.4020877    4.4020877    4.4020877    10250.353   -5846.4039    41956.604   -5359.1412     12985.45   -7176.0861   -13509.989    85.305309 
   18700    922.62024   -104.94854   0.83480618   -104.11373   -8788.8146    4.4008948    4.4008948    4.4008948   -8788.8146   -8502.2601   -1306.5704   -16557.613     2781.544    24154.485    705.37535    85.235982 
   18800    834.11919   -104.86655   0.75472857   -104.11182    12171.881    4.4076594    4.4076594    4.4076594    12171.881    13961.542     37161.18   -14607.077    1141.4602   -11655.286    6619.5009    85.629634 
   18900     770.9822   -104.81091    0.6976009   -104.11331    -8237.431    4.4018889    4.4018889    4.4018889    -8237.431   -11319.524   -17716.287    4323.5182   -3847.7968     24260.27    -785.5787    85.293756 
   19000    1055.0746   -105.06477   0.95465368   -104.11012    5647.0502    4.4014155    4.4014155    4.4014155    5647.0502    16189.453    8206.2259   -7454.5283    3687.0102    -499.0155    3115.4808    85.266241 
   19100    782.23717   -104.81889   0.70778463    -104.1111    2331.2615     4.401319     4.401319     4.401319    2331.2615   -27864.072    24782.655    10075.201    1156.1383    10548.433    655.24203    85.260631 
   19200    1304.3604   -105.29146    1.1802127   -104.11125   -23124.228    4.4046774    4.4046774    4.4046774   -23124.228   -21595.417   -18032.628   -29744.638   -8864.7095    2688.7801    3094.3701    85.455954 
   19300    672.34864   -104.72094   0.60835518   -104.11259    18309.551    4.3986849    4.3986849    4.3986849    18309.551   -12786.147    52222.146    15492.655     4412.832   -8504.7344    4967.4683    85.107642 
   19400    1189.3406   -105.18731    1.0761403   -104.11117   -21618.023    4.4055023    4.4055023    4.4055023   -21618.023   -24009.043   -14030.071   -26814.954   -9777.5599    18657.624     -3459.28    85.503974 
   19500    881.40205   -104.90069    0.7975111   -104.10318    3045.4513    4.4085401    4.4085401    4.4085401    3045.4513   -17117.368    22118.568    4135.1536      1337.88   -11572.933    2806.5847    85.680974 
   19600    638.12786   -104.67609    0.5773915    -104.0987    22368.138    4.3897146    4.3897146    4.3897146    22368.138    17747.403    34470.232     14886.78    7370.6439    28578.268   -5429.0343    84.588017 
   19700    1023.8846   -105.03044   0.92643233     -104.104   -6607.3687    4.4136825    4.4136825    4.4136825   -6607.3687   -12184.492    13899.782   -21537.397    5700.3016   -6428.5617   -5422.9729    85.981151 
   19800    732.48409   -104.77361     0.662767   -104.11085    2864.5822    4.4021386    4.4021386    4.4021386    2864.5822    10058.115    14345.326   -15809.694    3554.4878    17601.652   -7783.8872    85.308268 
   19900    1145.1087   -105.14177    1.0361184   -104.10565    502.82627    4.3962985    4.3962985    4.3962985    502.82627     27953.29   -7897.6169   -18547.195    4341.8815    275.58296    2105.6199    84.969198 
   20000    755.83959   -104.80268   0.68389955   -104.11878    6695.3796    4.3989138    4.3989138    4.3989138    6695.3796    -2341.966     52253.98   -29825.876    7691.7822    3763.6798   -506.83849    85.120927 
   20100    1112.7742   -105.12837    1.0068615    -104.1215   -6414.8663    4.4073464    4.4073464    4.4073464   -6414.8663    19000.232   -8423.1062   -29821.725   -347.71761    8125.4612    -521.7393    85.611392 
   20200    836.74676   -104.87421   0.75710606    -104.1171    12189.152    4.4028278    4.4028278    4.4028278    12189.152    3215.5375    62147.404   -28795.486    2663.7573   -1928.1848    1135.2085    85.348344 
   20300    682.77478   -104.73755   0.61778897   -104.11976    10006.985    4.3982395    4.3982395    4.3982395    10006.985    22751.886     13289.85   -6020.7819    3041.3538    23808.648   -2327.5123    85.081793 
   20400    1313.2048   -105.30829    1.1882153   -104.12008   -14561.021    4.4090628    4.4090628    4.4090628   -14561.021   -12169.124   -11119.333   -20394.607   -7395.0375   -2054.7657   -3034.1398    85.711453 
   20500    405.64193   -104.49632   0.36703334   -104.12929    13305.647    4.4021184    4.4021184    4.4021184    13305.647    16891.972    27055.573   -4030.6046   -8431.2931     17392.88    14640.506    85.307096 
   20600    1324.3566   -105.31077    1.1983056   -104.11246   -7953.8382    4.4042583    4.4042583    4.4042583   -7953.8382   -18029.418   -15115.225    9283.1289   -5597.6623   -2763.5141    1822.6992    85.431559 
   20700    765.44306   -104.80633   0.69258897   -104.11374   -14708.791    4.4121864    4.4121864    4.4121864   -14708.791   -6981.1536    9323.7992   -46469.017    -9210.534    10630.886     11999.71    85.893749 
   20800    1038.1192   -105.04611   0.93931202    -104.1068    9530.3913    4.4009581    4.4009581    4.4009581    9530.3913    10119.443   -10422.388    28894.119   -1098.0351     958.1296    10357.052    85.239659 
   20900    800.90184   -104.83837   0.72467281    -104.1137    4698.0504    4.4040822    4.4040822    4.4040822    4698.0504    5941.1134    25012.749   -16859.711     2349.797     9686.226     -2567.66    85.421314 
   21000    689.54687   -104.74214    0.6239165   -104.11823   -1474.1009    4.4111234    4.4111234    4.4111234   -1474.1009    9044.3277   -25904.235    12437.604   -2874.9214    14143.968    3899.9488    85.831682 
   21100    1256.4358   -105.24458    1.1368495   -104.10773   -1663.6516      4.40546      4.40546      4.40546   -1663.6516   -14842.955    31533.454   -21681.454    6754.5797   -4364.6063   -3932.1699    85.501508 
   21200    549.73105   -104.61852   0.49740821   -104.12111   -2160.8357    4.4004711    4.4004711    4.4004711   -2160.8357    2519.0821   -26917.753    17916.164   -1706.0276    16331.248    13594.034    85.211367 
   21300      1080.27   -105.09568   0.97745099   -104.11823   -2155.7259    4.4070458    4.4070458    4.4070458   -2155.7259   -14247.019    11437.035    -3657.194    3031.6867   -7970.9103   -5015.4305    85.593873 
   21400    899.09633   -104.92909   0.81352126   -104.11557   -23357.953    4.4132461    4.4132461    4.4132461   -23357.953   -12138.813   -29186.057    -28748.99    4201.5982    16252.817    6744.7566    85.955652 
   21500    741.99216   -104.78272    0.6713701   -104.11135     7504.395     4.396536     4.396536     4.396536     7504.395    11006.044   -698.13599    12205.277   -8310.5401   -194.93753    4227.2852    84.982967 
   21600    1110.6977   -105.12377    1.0049826   -104.11878   -5577.7939     4.400342     4.400342     4.400342   -5577.7939   -7320.0345    10587.326   -20000.673    12848.111    2874.4898   -2366.4614    85.203866 
   21700    664.72682   -104.71947    0.6014588   -104.11801    -11729.96    4.4182897    4.4182897    4.4182897    -11729.96   -16416.044   -17536.738   -1237.0975    4431.4477    3370.3753    12071.592    86.250685 
   21800    1210.8195   -105.19609    1.0955749   -104.10051    2578.9658      4.39602      4.39602      4.39602    2578.9658   -18721.555    17768.837    8689.6158   -162.66939    1244.4254    1379.1607     84.95305 
   21900    637.34619   -104.69475   0.57668422   -104.11807    5758.5973    4.4035107    4.4035107    4.4035107    5758.5973    8682.8462    11095.725   -2502.7791    60.373834    13189.589    4482.8274    85.388065 
   22000    1131.4366   -105.13521    1.0237477   -104.11146   -12686.899    4.4098508    4.4098508    4.4098508   -12686.899   -24144.664   -2722.6634   -11193.369   -18599.591   -9065.3119    11439.639    85.757417 
   22100     833.0118   -104.86007   0.75372658   -104.10634    18771.483    4.3937893    4.3937893    4.3937893    18771.483    31570.318    31798.169   -7054.0384    10321.585     17754.18    545.87618    84.823789 
   22200    840.25713   -104.87048   0.76028231    -104.1102   -15222.596    4.4169874    4.4169874    4.4169874   -15222.596   -25896.963    6813.0533   -26583.879   -13161.028   -3471.2952    4392.6116    86.174444 
   22300     883.7502    -104.9053   0.79963575   -104.10567    9739.0801    4.3994431    4.3994431    4.3994431    9739.0801    28743.367     6592.763   -6118.8896    5577.1116    10017.953     2163.546    85.151661 
   22400    955.26381    -104.9754   0.86434277   -104.11105    4179.6864    4.3953357    4.3953357    4.3953357    4179.6864   -11376.885    35822.099   -11906.156    -4970.431    8915.8538   -3681.7856    84.913383 
   22500    731.59181   -104.77957   0.66195964   -104.11761   -10243.815    4.4138637    4.4138637    4.4138637   -10243.815   -20912.264    9965.2833   -19784.464   -7182.3444   -2818.7061    3301.0594    85.991746 
   22600    1176.4039   -105.18068    1.0644349   -104.11625   -8171.1119     4.402851     4.402851     4.402851   -8171.1119   -9854.9416    6464.3947   -21122.789    4930.4142    12104.997    3850.1009    85.349693 
   22700    568.55729   -104.63449   0.51444258   -104.12005     8710.238    4.4077983    4.4077983    4.4077983     8710.238   -8337.5665    46607.518   -12139.237   -11404.517    -9822.792   -1380.1744     85.63773 
   22800    1010.7257   -105.02905   0.91452584   -104.11452   -9613.1296    4.4015006    4.4015006    4.4015006   -9613.1296   -6539.2235    8187.6222   -30487.787    7133.7204    19238.232    849.39028    85.271187 
   22900    992.24929   -105.01298   0.89780801   -104.11517   -1160.4482     4.409255     4.409255     4.409255   -1160.4482   -474.94031    11026.348   -14032.752   -14718.644   -6396.4316    2604.9847    85.722663 
   23000    818.38796   -104.86327   0.74049462   -104.12278      4365.45     4.403484     4.403484     4.403484      4365.45   -12295.497    59182.647   -33790.801   -8247.9549    12448.249    8114.2517     85.38651 
   23100    914.68614   -104.94982   0.82762724   -104.12219    2858.6677    4.4082688    4.4082688    4.4082688    2858.6677    435.07512    6478.8626    1662.0654   -1476.7717   -1442.5198     8641.791    85.665153 
   23200     758.7183   -104.80153   0.68650426   -104.11503    -3039.902    4.4133573    4.4133573    4.4133573    -3039.902   -16256.397    38568.869   -31432.178     13959.94     4820.068    5670.8623    85.962148 
   23300    1049.9106   -105.05339   0.94998116   -104.10341   -367.45798    4.4030638    4.4030638    4.4030638   -367.45798    7681.7691    1955.8769    -10740.02   -1064.1911    648.07224    14714.145    85.362072 
   23400    777.83679   -104.81007   0.70380307   -104.10626    7963.6822    4.4086232    4.4086232    4.4086232    7963.6822   -288.67883    18677.764    5501.9616    2532.9045   -6688.7368   -10693.478    85.685816 
   23500    795.70531   -104.82536   0.71997088   -104.10539   -7276.9012    4.4166063    4.4166063    4.4166063   -7276.9012   -5879.6392    24532.443   -40483.507   -999.35297    7368.1941    4475.8746    86.152137 
   23600    1030.7367    -105.0371    0.9326322   -104.10446    13504.128    4.3964245    4.3964245    4.3964245    13504.128    893.93031    45826.304    -6207.851    7010.8818   -15563.286    6157.3395    84.976503 
   23700    909.22154    -104.9401   0.82268276   -104.11742    2971.0777    4.4023076    4.4023076    4.4023076    2971.0777   -17181.963    15643.393    10451.803    46.636076    14675.303   -2179.5225    85.318095 
   23800    1106.0685   -105.11267     1.000794   -104.11188   -23683.086    4.4158061    4.4158061    4.4158061   -23683.086   -12913.829   -5604.8146   -52530.615    8086.7915   -8055.7142    5366.8917    86.105322 
   23900    674.47935   -104.71325   0.61028309   -104.10297     23834.74    4.3999487    4.3999487    4.3999487     23834.74    2190.2511     76961.19   -7647.2208   -3448.9445    6407.4529    4257.2395     85.18102 
   24000    930.98091   -104.94719   0.84237109   -104.10482   -14234.687    4.4062488    4.4062488    4.4062488   -14234.687   -27090.291   -3802.1381   -11811.633   -2514.4217   -7732.1968   -2153.2977    85.547444 
   24100     742.8982   -104.77983   0.67218991   -104.10764   -4786.3829    4.4065129    4.4065129    4.4065129   -4786.3829    19711.725    4755.8384   -38826.712   -6296.9892    2230.6164    1545.9682    85.562832 
   24200    966.92584   -104.99193   0.87489482   -104.11704    12223.137    4.3901101    4.3901101    4.3901101    12223.137    12055.621    41766.519   -17152.728    3210.8249    4158.8327   -576.40764    84.610886 
   24300    878.80413   -104.92896   0.79516044    -104.1338   -18184.007    4.4164363    4.4164363    4.4164363   -18184.007   -20152.385    3921.5843   -38321.219   -8640.4058   -7345.4011    4369.4465    86.142188 
   24400    870.88631   -104.90559   0.78799623   -104.11759   -962.77894    4.4076532    4.4076532    4.4076532   -962.77894   -38718.533    54366.382   -18536.186   -1996.7795    13170.155   -2877.2108    85.629274 
   24500    923.39399   -104.94197   0.83550629   -104.10647    1754.5278    4.3882904    4.3882904    4.3882904    1754.5278    18140.473    16028.157   -28905.046   -9748.9194   -18650.802    9567.5922    84.505716 
   24600    871.51912   -104.90201   0.78856882   -104.11344   -11427.469    4.4160294    4.4160294    4.4160294   -11427.469   -46176.558     33168.75   -21274.599   -4697.1461     9826.688   -200.44906    86.118383 
   24700    941.93767   -104.95984     0.852285   -104.10756   -11965.533    4.4056349    4.4056349    4.4056349   -11965.533   -23250.203    6025.6258   -18672.022    582.40495   -8619.5651    -4663.733    85.511694 
   24800    868.75161   -104.89236   0.78606471    -104.1063    5332.8681    4.3981732    4.3981732    4.3981732    5332.8681    -19883.97    56595.718   -20713.144   -3285.3318   -772.96866    4555.8653    85.077946 
   24900    972.12175   -104.98895   0.87959619   -104.10935   -13018.297    4.4104234    4.4104234    4.4104234   -13018.297   -37307.284     3626.813   -5374.4213   -6392.8712    5710.8707   -450.22707    85.790824 
   25000    640.27901   -104.69416    0.5793379   -104.11482    12300.122    4.3971447    4.3971447    4.3971447    12300.122   -22020.543    64167.959   -5247.0502   -2376.0078   -8678.8998    4085.2388    85.018271 
   25100     1278.656   -105.27284    1.1569548   -104.11589   -12585.489    4.3989731    4.3989731    4.3989731   -12585.489   -26785.811    12785.366   -23756.022   -937.81867    7028.9697    3039.6031     85.12437 
   25200    509.45991   -104.58675   0.46097003   -104.12578     12307.31    4.4107901    4.4107901    4.4107901     12307.31   -40035.604    65813.095    11144.439    5168.2713   -7781.3468    777.14732    85.812224 
   25300    982.67819   -105.00571   0.88914788   -104.11656   -3821.5859    4.4061841    4.4061841    4.4061841   -3821.5859   -25891.248    41535.224   -27108.734   -1705.9358    5254.6194    7778.9719    85.543676 
   25400     1241.624   -105.23802    1.1234474   -104.11458   -7854.8581    4.3885729    4.3885729    4.3885729   -7854.8581   -23586.696    10484.478   -10462.356   -621.05435   -11457.486   -1499.2636    84.522035 
   25500    632.54396     -104.714   0.57233907   -104.14166    2581.6507    4.4073729    4.4073729    4.4073729    2581.6507   -41991.163    67195.117   -17459.001   -16531.412    6614.6368    224.84298    85.612936 
   25600    976.75692   -105.01775   0.88379019   -104.13396   -8243.9825    4.4104072    4.4104072    4.4104072   -8243.9825   -14692.253    25061.443   -35101.137    7652.5831     -12929.5   -6251.4506    85.789883 
   25700    782.58123   -104.82783   0.70809594   -104.11973     10206.61    4.3906713    4.3906713    4.3906713     10206.61   -9684.2334    48489.972   -8185.9082    884.71415    5115.5033    2813.5715    84.643336 
   25800    739.15734   -104.79406   0.66880509   -104.12525   -1002.4341    4.4028619    4.4028619    4.4028619   -1002.4341   -36836.678    66380.446   -32551.071   -4438.6072   -6700.0019    9383.4028    85.350325 
   25900    1070.8517    -105.0903   0.96892909   -104.12137   -7999.6252    4.4041048    4.4041048    4.4041048   -7999.6252   -17468.255     16591.01    -23121.63    3848.6977   -7175.5835    2596.5697     85.42263 
   26000     724.8882   -104.77892   0.65589408   -104.12303    12615.801    4.3973258    4.3973258    4.3973258    12615.801   -11709.522    74125.289   -24568.362   -9555.6724     5912.968   -451.27259    85.028779 
   26100    1125.5843   -105.13482    1.0184523   -104.11637   -26952.991    4.4127245    4.4127245    4.4127245   -26952.991   -33104.853    3706.0493   -51460.171    6012.3172   -9548.5309    1602.2498    85.925181 
   26200    815.63973   -104.84938   0.73800797   -104.11137    27606.613    4.3884858    4.3884858    4.3884858    27606.613    6003.4865    71309.735    5506.6159   -5111.0524    2761.5465    3507.7556    84.517006 
   26300    1142.4515   -105.15631    1.0337142    -104.1226   -19567.983    4.4048589    4.4048589    4.4048589   -19567.983   -11598.933   -2333.8626   -44771.154    922.74641   -10569.279    165.63465    85.466519 
   26400    874.10306   -104.90863   0.79090682   -104.11772    2180.1468    4.4089422    4.4089422    4.4089422    2180.1468   -20986.134    63273.208   -35746.634    7995.3802    12344.587   -2383.0211    85.704417 
   26500    651.85987   -104.70104   0.58981651   -104.11122    27923.864    4.3855678    4.3855678    4.3855678    27923.864    57966.589    25186.411    618.59272    749.03076   -21587.231   -4961.8856    84.348524 
   26600      1074.57   -105.08428   0.97229349   -104.11199   -10770.502    4.4051422    4.4051422    4.4051422   -10770.502   -23543.198    18528.927   -27297.236    2224.8969     11478.08   -4824.7257    85.483009 
   26700    1085.6922   -105.09016   0.98235713    -104.1078   -13835.499    4.4040671    4.4040671    4.4040671   -13835.499    7780.2833   -11093.432   -38193.349   -12066.429   -8202.6818   -5543.7404    85.420436 
   26800    703.05861   -104.74395   0.63614221   -104.10781    6006.1944    4.3990871    4.3990871    4.3990871    6006.1944   -3197.5987    28025.382   -6809.1998    821.76696   -4224.2064    1552.4391    85.130989 
   26900    839.16133   -104.86879   0.75929081    -104.1095    8117.1039    4.3932654    4.3932654    4.3932654    8117.1039   -593.52774    42288.085   -17343.245   -1503.0414   -3239.7562   -2923.4054    84.793453 
   27000    1023.9182   -105.04442   0.92646274   -104.11796    -9888.812    4.4014041    4.4014041    4.4014041    -9888.812   -2951.4917    7252.9591   -33967.903   -10723.622    -4237.952   -3517.4032    85.265574 
   27100    1002.8649   -105.02433    0.9074132   -104.11692   -7809.8015    4.4089613    4.4089613    4.4089613   -7809.8015     1085.008    11570.574   -36084.987   -3648.2471    1870.4668   -4535.6445     85.70553 
   27200     833.2523   -104.87193    0.7539442   -104.11798   -2583.3272    4.3972727    4.3972727    4.3972727   -2583.3272   -6672.3886    18360.176   -19437.769   -7370.6303   -12129.795    2568.0569    85.025696 
   27300    868.69089   -104.90461   0.78600977    -104.1186    20611.178    4.3883392    4.3883392    4.3883392    20611.178    17499.129    74149.238   -29814.834    15607.607    5092.1981    636.20372    84.508537 
   27400    1047.7123   -105.06492   0.94799213   -104.11693   -31032.105    4.4177486    4.4177486    4.4177486   -31032.105   -37297.123   -2539.2868   -53259.907    2974.5845   -13104.822   -3578.4805    86.219004 
   27500    800.13533   -104.83979   0.72397926   -104.11581    7334.6443    4.3990399    4.3990399    4.3990399    7334.6443    4856.5835    43000.292   -25852.942   -6550.5445    2730.7114    3312.6963    85.128247 
   27600    839.01992    -104.8846   0.75916285   -104.12544    8754.2673    4.3888706    4.3888706    4.3888706    8754.2673   -3152.7322    59554.152   -30138.618    4288.4744   -7828.0239   -11668.601    84.539236 
   27700    1160.9872   -105.18141    1.0504856   -104.13093   -10269.987    4.4080488    4.4080488    4.4080488   -10269.987   -11668.117    10058.839   -29200.682    2545.4693   -385.09825    2099.5823    85.652331 
   27800    893.92892   -104.93931   0.80884567   -104.13046   -18941.034    4.3994729    4.3994729    4.3994729   -18941.034   -3882.8976   -4329.8814   -48610.324    -2223.149   -2927.8101   -4862.4598     85.15339 
   27900    721.99354   -104.78043   0.65327493   -104.12716    27050.943    4.3924995    4.3924995    4.3924995    27050.943     26063.23     75955.32   -20865.721   -1124.7064   -3106.6883    2320.9464    84.749112 
   28000    921.36346   -104.95655   0.83366902   -104.12288   -6932.3268    4.4107624    4.4107624    4.4107624   -6932.3268   -12519.767    31039.063   -39316.276   -23437.657   -2809.8062   -2101.8468     85.81061 
   28100    801.80946   -104.83942   0.72549405   -104.11392   -8367.9181     4.401722     4.401722     4.401722   -8367.9181    34643.246   -14931.533   -44815.467   -1489.1248   -2578.9232   -5794.9176    85.284051 
   28200    1133.8204   -105.13799    1.0259045   -104.11208    7506.1703    4.3986548    4.3986548    4.3986548    7506.1703   -3695.5545    56167.897   -29953.832    5155.5235    2553.6455    749.88622    85.105896 
   28300    629.68765    -104.6915   0.56975462   -104.12174    10899.812    4.4001755    4.4001755    4.4001755    10899.812    10500.336    60793.109    -38594.01    5917.2832   -9102.6469   -10208.606    85.194192 
   28400    962.42484   -104.99092   0.87082222    -104.1201   -4110.6727    4.3996867    4.3996867    4.3996867   -4110.6727   -25770.591    33801.311   -20362.738   -5363.8981      7694.08    2843.9121    85.165805 
   28500     1112.613   -105.12427    1.0067156   -104.11755   -19617.725    4.4068458    4.4068458    4.4068458   -19617.725   -11423.953   -7438.8738   -39990.347   -8675.3201   -9862.1432   -2350.8064    85.582222 
   28600    790.01525    -104.8316    0.7148224   -104.11678    2816.7881    4.3951838    4.3951838    4.3951838    2816.7881   -16905.523    57553.652   -32197.765    3041.6973    4440.5554    8591.9842    84.904582 
   28700    903.28256    -104.9373   0.81730904   -104.11999    5313.5391    4.4012178    4.4012178    4.4012178    5313.5391   -4746.3314     27757.58   -7070.6308    13789.146   -389.44633   -905.08327     85.25475 
   28800    981.08853   -105.00884   0.88770952   -104.12113   -12333.492    4.4042466    4.4042466    4.4042466   -12333.492   -10778.421    20911.577   -47133.632   -1316.8351    1047.7914   -3933.1717     85.43088 
   28900    1012.6493   -105.02916   0.91626637   -104.11289   -8406.7379     4.400956     4.400956     4.400956   -8406.7379    2088.9886   -2113.2384   -25195.964   -4291.7911    4087.8546     2872.755    85.239536 
   29000    644.44932   -104.69623   0.58311129   -104.11312    18411.753    4.3950718    4.3950718    4.3950718    18411.753   -24256.069    95823.996   -16332.669    597.16069    5861.0713    1165.6076    84.898089 
   29100    916.19266   -104.94794   0.82899037   -104.11895   -12675.203    4.4035415    4.4035415    4.4035415   -12675.203   -11563.699     8160.505   -34622.415   -8960.9272    10268.659    7552.0737    85.389855 
   29200    1117.9213   -105.12364    1.0115187   -104.11212   -20818.882    4.4066216    4.4066216    4.4066216   -20818.882   -40119.272    3347.9798   -25685.355    12698.619   -3090.6887     1218.064    85.569159 
   29300    560.99435   -104.62426   0.50759948   -104.11666    19389.524    4.3918539    4.3918539    4.3918539    19389.524   -19277.821    82398.268   -4951.8742    2698.8371    19259.025   -8292.8559    84.711749 
   29400    975.37107   -105.00544   0.88253624   -104.12291    4036.6815    4.3994973    4.3994973    4.3994973    4036.6815   -12798.029     47274.35   -22366.276    15129.774   -1465.5703   -8275.7443    85.154807 
   29500    1002.9023   -105.02638   0.90744706   -104.11894   -19936.402    4.4157457    4.4157457    4.4157457   -19936.402   -50559.757    29443.905   -38693.354    6393.0642    9147.2666    1819.8505    86.101788 
   29600    888.97368   -104.92205   0.80436206   -104.11769    8751.6242    4.3947906    4.3947906    4.3947906    8751.6242    1333.5065    38843.874   -13922.508    3625.1242    301.54663    5785.3488    84.881797 
   29700    798.70111   -104.85112   0.72268155   -104.12844    13353.925    4.3885705    4.3885705    4.3885705    13353.925   -15623.927    79048.263    -23362.56    2487.1463    13265.252   -1820.0682    84.521898 
   29800    1255.4541   -105.26285    1.1359612   -104.12689   -11643.672     4.411517     4.411517     4.411517   -11643.672   -20810.948     14037.14   -28157.209   -6554.2149   -4749.7259   -1148.0978    85.854662 
   29900    635.28399   -104.70475   0.57481831   -104.12993    2538.0655    4.3957817    4.3957817    4.3957817    2538.0655    -6662.194    41734.313   -27457.922    1315.2999     11737.43    731.34847    84.939234 
   30000    994.00504   -105.02187   0.89939665   -104.12247     17960.41    4.3927102    4.3927102    4.3927102     17960.41   -1606.9078    68046.935   -12558.799   -8548.5927     1965.242    5741.6151    84.761309 
   30100    855.75481   -104.89602   0.77430493   -104.12172    961.90056    4.3978499    4.3978499    4.3978499    961.90056   -12519.809     25156.58   -9751.0695     3168.562    5967.9784    7812.5775    85.059181 
   30200    816.48751   -104.86143   0.73877506   -104.12266   -7481.7378    4.4063445    4.4063445    4.4063445   -7481.7378    -18443.59    19587.751   -23589.375   -9481.6562    6382.8605     -10657.4     85.55302 
   30300    881.85089    -104.9153   0.79791722   -104.11738    12910.391    4.3963866    4.3963866    4.3963866    12910.391   -15218.168     71908.31   -17958.969    9607.5626    8291.0389   -10344.692    84.974308 
   30400    731.72196   -104.78452    0.6620774   -104.12245   -3147.1525    4.3963915    4.3963915    4.3963915   -3147.1525   -18224.286    30710.773   -21927.944    952.12462    5446.6661   -4313.8301    84.974592 
   30500    1027.8438   -105.05158   0.93001467   -104.12157     -19372.4    4.4082821    4.4082821    4.4082821     -19372.4   -22259.219    4571.0466   -40429.027    11798.051    9104.1034    739.68703    85.665928 
   30600    1013.7482   -105.04115   0.91726067   -104.12389    1411.5891    4.3880167    4.3880167    4.3880167    1411.5891   -20646.617    54822.311   -29940.927    1210.4103    12404.308    6169.4019    84.489905 
   30700     790.2866   -104.83908   0.71506792   -104.12401    11110.364    4.3906905    4.3906905    4.3906905    11110.364   -20064.114    72246.551   -18851.346    2040.0428   -1607.2383   -4862.1156     84.64445 
   30800    933.57395   -104.96842   0.84471733    -104.1237   -34773.704    4.4114189    4.4114189    4.4114189   -34773.704   -46497.123    3831.7422   -61655.731    1016.8593    17822.345   -5437.2275     85.84893 
   30900    1272.6357    -105.2637    1.1515076   -104.11219    1843.8706    4.3914524    4.3914524    4.3914524    1843.8706   -21462.612    43985.086   -16990.862   -4402.6921   -6980.2417   -1389.8057    84.688516 
   31000    564.58218   -104.63438   0.51084582   -104.12354   -6198.7641     4.394919     4.394919     4.394919   -6198.7641   -39040.876    46682.787   -26238.203    392.67787    17777.407    2974.5702    84.889236 
   31100     1073.537   -105.08561   0.97135882   -104.11425   -5280.2756    4.4005581    4.4005581    4.4005581   -5280.2756   -18492.746    20265.597   -17613.677   -10880.056   -2662.6488    4433.3135     85.21642 
   31200    1016.8356   -105.02911   0.92005426   -104.10906   -11970.722     4.401462     4.401462     4.401462   -11970.722   -21968.141    10257.949   -24201.973    3998.8033    14492.516    -4867.134    85.268943 
   31300    658.97685   -104.70929    0.5962561   -104.11303    1089.6179    4.3999416    4.3999416    4.3999416    1089.6179   -29794.632    55194.817   -22131.331    1522.5368       2568.5   -7105.3745    85.180608 
   31400    910.18811   -104.93414   0.82355733   -104.11058    23213.893    4.3901123    4.3901123    4.3901123    23213.893     29002.78    49897.735   -9258.8364    11149.004    5998.2672   -6764.6233    84.611014 
   31500    800.24161   -104.84174   0.72407542   -104.11767   -24756.597    4.4094838    4.4094838    4.4094838   -24756.597   -33504.117   -12633.681   -28131.992   -699.93333    7846.0701   -3357.0062    85.736006 
   31600     1108.611   -105.11597    1.0030945   -104.11287   -4751.1345    4.3924252    4.3924252    4.3924252   -4751.1345   -5204.3291    4478.9376   -13528.012    10350.809   -2952.9646    4244.2004    84.744812 
   31700    947.04527    -104.9788   0.85690646   -104.12189    23147.576    4.3787737    4.3787737    4.3787737    23147.576    23762.441     57054.13   -11373.844     -3661.51     11177.82    5191.4672    83.957117 
   31800    806.46782   -104.85846   0.72970903   -104.12875   -2483.6825    4.4091724    4.4091724    4.4091724   -2483.6825   -31030.431    59122.722   -35543.339   -1236.3349   -10629.744   -1457.5916    85.717847 
   31900     981.9417   -105.00655   0.88848149   -104.11807   -7667.6287    4.3979894    4.3979894    4.3979894   -7667.6287    11555.103   -5742.8977   -28815.091    3114.8979    7932.1504    1681.4394    85.067278 
   32000    904.02441   -104.93043   0.81798028   -104.11245    27605.421    4.3819108    4.3819108    4.3819108    27605.421    7679.0329    86442.806   -11305.575   -3283.1093   -10482.296   -9059.1173    84.137692 
   32100    1048.2348   -105.06398   0.94846487   -104.11552    -13162.59    4.4034278    4.4034278    4.4034278    -13162.59   -12338.848     16619.29   -43768.213   -8936.7415    8839.6164    5202.9233     85.38324 
   32200    665.82169   -104.71466   0.60244945   -104.11221    13388.814    4.3923856    4.3923856    4.3923856    13388.814    17330.072    49697.389   -26861.018    8763.9942   -5617.0504    2530.0987    84.742521 
   32300    1234.5348   -105.22905    1.1170331   -104.11202   -7591.9927    4.3936176    4.3936176    4.3936176   -7591.9927   -9612.8973    16563.596   -29726.676   -7344.1171    3054.4871    2381.8819    84.813848 
   32400    748.71664   -104.80313   0.67745455   -104.12568    9598.7275    4.3970371    4.3970371    4.3970371    9598.7275   -4572.5725    69244.396   -35875.641    7440.3743    1987.8726    3549.9425    85.012033 
   32500    942.51759   -104.97532   0.85280972   -104.12251    7234.0098     4.394451     4.394451     4.394451    7234.0098    5968.9785    35896.997   -20163.946   -825.75492   -8835.3641   -9073.7206     84.86212 
   32600    828.61246   -104.87479   0.74974596   -104.12505   -2123.3308    4.3936327    4.3936327    4.3936327   -2123.3308   -10144.116    26719.378   -22945.255    2392.3696    9680.9824    12187.397     84.81472 
   32700    970.11898   -105.00021   0.87778404   -104.12243    6091.2345    4.3946898    4.3946898    4.3946898    6091.2345     8463.464    35266.652   -25456.413    12031.992   -17590.865   -270.73772    84.875954 
   32800    868.64738   -104.90638    0.7859704   -104.12041    5608.3261    4.3996766    4.3996766    4.3996766    5608.3261   -3845.7171    40692.409   -20021.714     210.5288    11308.935    10438.084    85.165219 
   32900    751.65586   -104.80425   0.68011402   -104.12414   -15171.067     4.399463     4.399463     4.399463   -15171.067   -28418.152    11896.984   -28992.035    348.28199   -15886.428    3153.6063    85.152813 
   33000    1008.0276   -105.02786   0.91208451   -104.11577    25625.397    4.3878851    4.3878851    4.3878851    25625.397    37753.014    47110.632   -7987.4562   -1813.7303    5218.9882   -8386.2282      84.4823 
   33100    763.98336    -104.8209    0.6912682   -104.12963   -8369.8137    4.4036378    4.4036378    4.4036378   -8369.8137   -42643.774    54762.693   -37228.361   -1495.3194   -9843.8073    4882.5905     85.39546 
   33200    929.75728   -104.95956   0.84126393    -104.1183    -1408.207    4.4010173    4.4010173    4.4010173    -1408.207    9032.5081    10375.083   -23632.211   -4320.1203   -5587.9933   -6416.5786    85.243096 
   33300    882.13532   -104.91492   0.79817458   -104.11674   -1713.4539    4.3882233    4.3882233    4.3882233   -1713.4539   -4733.1685    16173.595   -16580.788   -7375.3263   -967.85739    6330.4444    84.501836 
   33400     827.7455   -104.87135   0.74896152   -104.12239   -321.41605    4.3951828    4.3951828    4.3951828   -321.41605   -878.57117    39550.649   -39636.326   -10384.267   -16107.007    4758.3298    84.904525 
   33500    1095.0487   -105.10709   0.99082309   -104.11627   -10506.784    4.4005959    4.4005959    4.4005959   -10506.784   -20394.864    25524.243    -36649.73    4403.8496    6186.7955   -6405.0278    85.218613 
   33600     666.8789   -104.72851   0.60340604    -104.1251   -8042.7869    4.3978921    4.3978921    4.3978921   -8042.7869   -11875.928    27474.196   -39726.628   -7428.1323   -16160.136    6003.8755    85.061631 
   33700    1175.2716   -105.18584    1.0634104   -104.12243    1110.9127    4.3901548    4.3901548    4.3901548    1110.9127    154.70567    32394.418   -29216.386     10704.49    5904.5496   -11380.301    84.613471 
   33800    689.03655   -104.75644   0.62345475   -104.13299    5211.8429    4.3969542    4.3969542    4.3969542    5211.8429   -10210.361    68129.898   -42284.009     6754.847   -9286.6178    8918.9223     85.00722 
   33900    1194.5802   -105.20514    1.0808812   -104.12426   -12213.013     4.397451     4.397451     4.397451   -12213.013   -3778.7605   -3987.2276    -28873.05     3606.085    4985.1475    1230.4463    85.036039 
   34000    761.69713   -104.81768   0.68919957   -104.12848   -13209.503    4.3988465    4.3988465    4.3988465   -13209.503   -2775.2244    10241.372   -47094.656    3190.1975   -8249.5727   -7454.4274    85.117019 
   34100    968.55859   -104.99532   0.87637217   -104.11895     22753.45      4.39203      4.39203      4.39203     22753.45   -239.14471    89480.921   -20981.426    9477.1535    2764.7037     633.9196    84.721942 
   34200    937.94555   -104.97238   0.84867284   -104.12371   -23907.475    4.4050329    4.4050329    4.4050329   -23907.475   -12442.807   -11588.915   -47690.703   -8683.0152   -8019.8576   -15083.977    85.476648 
   34300    813.95654   -104.85414   0.73648498   -104.11766    12332.251    4.3946984    4.3946984    4.3946984    12332.251    -4770.195    72766.968   -31000.019    7535.1853   -3762.7184    764.62884    84.876451 
   34400    1032.6942   -105.04994   0.93440339   -104.11554    2884.3519    4.3905997    4.3905997    4.3905997    2884.3519   -888.70417    37977.269   -28435.509   -18029.761   -2423.5878   -13257.762    84.639195 
   34500    780.93378   -104.82776    0.7066053   -104.12115   -13493.567    4.4007568    4.4007568    4.4007568   -13493.567   -24185.259    29631.468   -45926.908    8857.5854   -13606.689   -833.96599    85.227962 
   34600    1059.8803     -105.078   0.95900196     -104.119   -5616.3784    4.3937043    4.3937043    4.3937043   -5616.3784    4770.5875    -4287.527   -17332.196   -5838.9894    3832.4418   -1846.8111    84.818867 
   34700    801.24039   -104.85423   0.72497914   -104.12925   -16402.558    4.3925412    4.3925412    4.3925412   -16402.558   -12880.994    2754.9213   -39081.601    3717.9104   -15332.263   -13115.858    84.751525 
   34800    889.98697   -104.92481   0.80527891   -104.11953    10214.576    4.4022733    4.4022733    4.4022733    10214.576    5548.6173    43402.201   -18307.091   -2644.9358   -3169.9992    289.37654    85.316103 
   34900    861.57184    -104.8995   0.77956831   -104.11993   -16522.764    4.3985293    4.3985293    4.3985293   -16522.764   -4559.0804   -13607.709   -31401.501   -2922.8278   -11445.327   -10346.058    85.098609 
   35000    877.51353   -104.90787   0.79399268   -104.11388    14938.508    4.3958989    4.3958989    4.3958989    14938.508    10287.885    48213.179   -13685.539    5854.7657    -7618.755    4792.7683    84.946032 
   35100    879.05205   -104.90806   0.79538477   -104.11267    4064.7628    4.3993457    4.3993457    4.3993457    4064.7628    7020.9155    28455.147   -23281.774    2656.0702   -4123.5097    3324.8549    85.146005 
   35200    841.76202   -104.87821   0.76164397   -104.11656   -2104.7792    4.3952469    4.3952469    4.3952469   -2104.7792    -16785.99    32293.212   -21821.559    -299.5613   -11075.234    3397.4689     84.90824 
   35300    962.27001   -104.98719   0.87068213    -104.1165    4064.6984    4.3969418    4.3969418    4.3969418    4064.6984    26402.502   -1420.4701   -12787.937    3874.7954    1468.8719    3082.2093    85.006506 
   35400    820.66677    -104.8639   0.74255654   -104.12134   -4422.4994    4.3928529    4.3928529    4.3928529   -4422.4994   -6674.6686    20512.454   -27105.283   -4003.3617   -16769.332   -9455.4684     84.76957 
   35500    1001.8865   -105.02234   0.90652793   -104.11581    3155.1238    4.3987814    4.3987814    4.3987814    3155.1238   -4257.9411    28932.854   -15209.541    2065.9455    2270.5726    5476.2389    85.113242 
   35600    815.10597   -104.85661   0.73752501   -104.11909   -4776.2006    4.3905005    4.3905005    4.3905005   -4776.2006    1459.9379    15549.169   -31337.709   -7969.3831   -17470.706   -2505.8112    84.633461 
   35700    1049.0119   -105.06205     0.949168   -104.11288    5598.5839    4.3901421    4.3901421    4.3901421    5598.5839    -955.2186    24985.991   -7235.0212   -4153.7817   -1532.2652   -3373.3261    84.612738 
   35800    799.22371   -104.84054   0.72315441   -104.11738   -6094.7434    4.4006176    4.4006176    4.4006176   -6094.7434   -18603.296    39385.709   -39066.643   -2689.3953   -11247.752    7949.0567    85.219874 
   35900    757.51099   -104.79933   0.68541187   -104.11392    17226.316    4.3883358    4.3883358    4.3883358    17226.316    32700.759    34183.736   -15205.548   -11065.196   -4277.7246   -12388.393    84.508337 
   36000    1097.4969   -105.10789   0.99303828   -104.11486   -16717.325    4.3959292    4.3959292    4.3959292   -16717.325   -8592.9815   -13388.855   -28170.137    297.83442    -3946.419    8318.4403    84.947784 
   36100    776.92583   -104.81694   0.70297881   -104.11396   -4996.1358    4.4007342    4.4007342    4.4007342   -4996.1358    9928.8959    12377.324   -37294.627   -12380.316   -8623.2506   -5432.7512    85.226647 
   36200    1100.1991   -105.10584    0.9954833   -104.11035    177.44933    4.3901682    4.3901682    4.3901682    177.44933   -3805.7724    19897.868   -15559.748   -9789.2233    6571.0148     4377.714    84.614245 
   36300    734.00223    -104.7855   0.66414065   -104.12136   -3389.3416    4.3928364    4.3928364    4.3928364   -3389.3416    4713.3135     24282.75   -39164.088   -2928.3681   -16154.732    10865.759    84.768617 
   36400    979.79842   -105.00392    0.8865422   -104.11738    1713.8903    4.3945934    4.3945934    4.3945934    1713.8903   -4715.3263    23275.575   -13418.578   -6581.2112    4919.4674   -3584.5703    84.870372 
   36500     903.5576   -104.94294    0.8175579   -104.12539   -5089.0973    4.3912962    4.3912962    4.3912962   -5089.0973   -18643.396    43451.097   -40074.993    846.42537   -14614.104    15036.211    84.679481 
   36600    842.29415   -104.88737   0.76212545   -104.12524    4785.6018    4.3948594    4.3948594    4.3948594    4785.6018    8916.5109     27566.24   -22125.945    10275.435   -624.89871   -6032.7087    84.885782 
   36700    697.96072   -104.75861   0.63152953   -104.12708   -11663.902    4.3932387    4.3932387    4.3932387   -11663.902   -16769.233    4467.6877   -22690.162   -4299.3335   -5415.1664    7537.6803    84.791907 
   36800    1128.2865   -105.14619    1.0208973   -104.12529    -10830.43    4.3889349    4.3889349    4.3889349    -10830.43   -6742.5699    5526.6041   -31275.323    10424.403   -11851.333    10405.352    84.542955 
   36900    1014.9732   -105.04436   0.91836912   -104.12599   -7066.8739    4.3976685    4.3976685    4.3976685   -7066.8739   -9932.7012    4940.8631   -16208.783   -21202.008   -577.37163   -2108.7181    85.048656 
   37000    442.13382    -104.5258   0.40005197   -104.12575    1810.1462    4.3950547    4.3950547    4.3950547    1810.1462   -26574.906     68298.48   -36293.135   -90.550801    -12684.77    13500.402    84.897097 
   37100    1388.8566   -105.36826    1.2566666   -104.11159   -3794.7167    4.3933772    4.3933772    4.3933772   -3794.7167   -792.88702    4644.4249   -15235.688   -7386.9221     2910.931   -13649.963    84.799926 
   37200     610.2012   -104.67324   0.55212287   -104.12112   -2729.2248    4.3942034    4.3942034    4.3942034   -2729.2248   -16165.275    43730.523   -35752.922   -21260.785   -15852.583    10600.417    84.847778 
   37300    1051.8204   -105.06246   0.95170918   -104.11076   -2677.4191    4.3934422    4.3934422    4.3934422   -2677.4191   -11521.862    27279.826    -23790.22    4039.3053   -8.7395421   -534.57204    84.803692 
   37400    776.43902   -104.81966   0.70253834   -104.11712   -4765.2481    4.3972497    4.3972497    4.3972497   -4765.2481   -7250.5414    18332.011   -25377.214   -19116.699   -8929.8209    3833.1716    85.024361 
   37500    1132.1147   -105.14488    1.0243611   -104.12052   -13385.172    4.3924049    4.3924049    4.3924049   -13385.172   -9625.2971    602.54676   -31132.766   -8548.8467    -9422.307    14704.309    84.743637 
   37600     895.0826   -104.93299   0.80988955    -104.1231    4585.6263    4.3964434    4.3964434    4.3964434    4585.6263     2148.129    30802.289   -19193.539    8463.2775    2392.1507   -3937.7161    84.977599 
   37700    507.61838   -104.58935   0.45930378   -104.13005    52.169085    4.3961942    4.3961942    4.3961942    52.169085    1463.9138    36927.817   -38235.223   -2470.7194   -11920.454    9926.7186    84.963152 
   37800    1235.1822   -105.23073    1.1176188   -104.11312    14641.602    4.3911733    4.3911733    4.3911733    14641.602    5005.5141    42997.985   -4078.6943    8432.2299    9658.7971    2231.5399    84.672373 
   37900    684.79763   -104.73838   0.61961929   -104.11876   -8402.3416    4.3938413    4.3938413    4.3938413   -8402.3416   -11898.401    18929.118   -32237.742   -12366.282   -12260.029    5824.7649    84.826801 
   38000    809.09782   -104.84508   0.73208871   -104.11299    13709.254    4.3947561    4.3947561    4.3947561    13709.254    3642.7251    47108.581   -9623.5451    5958.8407    6237.7659      9089.02    84.879798 
   38100    1145.6913   -105.15121    1.0366456   -104.11457   -9744.8213    4.3977402    4.3977402    4.3977402   -9744.8213   -9232.4321      10836.2   -30838.232   -4823.1537   -12148.906   -2928.1353     85.05282 
   38200    754.24406    -104.7991   0.68245588   -104.11664   -122.31301    4.3953194    4.3953194    4.3953194   -122.31301   -16225.518    34501.065   -18642.486    1110.0001   -3415.0077    12662.313    84.912438 
   38300    933.67927   -104.95782   0.84481263     -104.113    14918.248    4.3891114    4.3891114    4.3891114    14918.248     20627.46    39651.909   -15524.626    1285.0125   -8607.1581   -8638.7457    84.553155 
   38400    838.38808   -104.87925   0.75859115   -104.12065   -4878.3873    4.4011025    4.4011025    4.4011025   -4878.3873   -8358.2615    32034.258   -38311.158   -10783.016     -8177.32    4822.8846    85.248046 
   38500     835.5788   -104.87365   0.75604926    -104.1176    3638.5833    4.3966492    4.3966492    4.3966492    3638.5833    2677.3955    29131.066   -20892.711   -7104.2861    1284.5992    6164.6995    84.989536 
   38600    879.62865   -104.91824   0.79590649   -104.12233    9259.7163    4.3844774    4.3844774    4.3844774    9259.7163    4287.5984    45617.103   -22125.552     6114.673   -13071.108    1409.8878    84.285624 
   38700     1065.857   -105.09698    0.9644098   -104.13257   -20887.905    4.4013005    4.4013005    4.4013005   -20887.905    -25019.88   -15835.192   -21808.644    -2988.164    5879.8731    11825.202    85.259553 
   38800    859.62758      -104.91    0.7778091   -104.13219    4208.6185    4.3949179    4.3949179    4.3949179    4208.6185   -8738.2919    50844.048   -29479.901   -9595.2919   -12015.305   -774.65355     84.88917 
   38900    895.92934   -104.93645   0.81065569   -104.12579    13209.495     4.389768     4.389768     4.389768    13209.495      611.177    51975.275   -12957.967   -1650.0379    2804.6244    6695.7982    84.591105 
   39000    863.58159   -104.90315   0.78138677   -104.12176   -15718.673    4.3994897    4.3994897    4.3994897   -15718.673   -13194.141   -7794.1055   -26167.772   -21910.233   -8764.2146   -2965.4435    85.154365 
   39100    852.70711    -104.8894   0.77154731   -104.11785    14236.167    4.3900505    4.3900505    4.3900505    14236.167    22128.644    35603.547   -15023.691    1416.7307   -5033.8388    1697.6719    84.607441 
   39200    942.55564   -104.97168   0.85284415   -104.11884   -6710.0126    4.3925431    4.3925431    4.3925431   -6710.0126   -12531.127    6620.2511   -14219.162   -22531.162   -5958.6427     5175.173    84.751635 
   39300    922.73814   -104.95536   0.83491286   -104.12045   -9513.8415    4.3925503    4.3925503    4.3925503   -9513.8415    3664.6899   -5348.5167   -26857.698   -362.32599   -11661.922   -6109.7637    84.752056 
   39400    975.78115   -105.00337   0.88290729   -104.12047   -1279.3287    4.3927945    4.3927945    4.3927945   -1279.3287   -21067.365    25612.645   -8383.2668   -14870.813    3434.2136    9769.5152     84.76619 
   39500    912.92024   -104.94595   0.82602942   -104.11992   -5205.0916     4.388897     4.388897     4.388897   -5205.0916   -12985.375    20731.948   -23361.848   -5343.7062   -10205.175   -9702.7534    84.540761 
   39600    897.73414   -104.92994   0.81228872   -104.11765    8694.4355    4.3979386    4.3979386    4.3979386    8694.4355   -1492.6533     61114.15    -33538.19    4397.3471    6516.6722    2417.9705    85.064331 
   39700    898.58045   -104.93091   0.81305447   -104.11786   -9906.6748    4.3923991    4.3923991    4.3923991   -9906.6748   -12939.583    7184.4057   -23964.847   -575.00443   -9866.5335    3480.5102    84.743304 
   39800     924.8058   -104.95681   0.83678372   -104.12003    9901.6702    4.3824047    4.3824047    4.3824047    9901.6702    23701.153     31041.23   -25037.373    6793.1001    1240.2504   -2765.2638    84.166146 
   39900    1033.9674    -105.0547   0.93555539   -104.11915   -5249.9392     4.398042     4.398042     4.398042   -5249.9392   -2599.4263    17439.236   -30589.627   -2032.8498   -3253.4989    3435.5385     85.07033 
   40000    672.16593   -104.73903   0.60818986   -104.13084   -10020.085    4.3910662    4.3910662    4.3910662   -10020.085   -15375.884    5195.4297   -19879.799   -11223.238   -6504.7105   -2167.1859     84.66618 
   40100    1074.3863   -105.09393   0.97212727   -104.12181    21923.066    4.3841012    4.3841012    4.3841012    21923.066    13621.286    70725.257   -18577.345   -1857.2678    5887.3253    349.04408    84.263932 
   40200     609.0223   -104.68112   0.55105618   -104.13006    3139.1613    4.3922719    4.3922719    4.3922719    3139.1613   -22779.867    60185.096   -27987.745   -2588.5108   -13524.748   -1458.0522     84.73594 
   40300    1083.9331   -105.10861   0.98076542   -104.12784   -18932.366    4.3956568    4.3956568    4.3956568   -18932.366   -19162.676   -12189.886   -25444.537   -5685.3647    8860.1086   -4322.4161    84.931999 
   40400    1253.8941   -105.26414    1.1345497   -104.12959    3210.3871    4.3796835    4.3796835    4.3796835    3210.3871    7100.4458    15695.026   -13164.311    5843.9725   -10781.988   -1245.4033    84.009456 
   40500    478.59798   -104.57204   0.43304551     -104.139     22865.35    4.3795871    4.3795871    4.3795871     22865.35   -4925.1059    90725.115    -17203.96   -9712.6849    5861.7821   -6102.8145     84.00391 
   40600    1059.5266   -105.08542    0.9586819   -104.12673    -25130.96     4.407594     4.407594     4.407594    -25130.96   -41130.345    -2740.868   -31521.668    13964.054   -2115.9172   -1455.4636    85.625821 
   40700    990.50469   -105.02362   0.89622946   -104.12739    10974.272    4.3772662    4.3772662    4.3772662    10974.272    3756.5047    51325.724   -22159.411    1895.1509    4117.3504    5607.4447     83.87043 
   40800    835.35723   -104.89085   0.75584877     -104.135    6039.3766    4.3766966    4.3766966    4.3766966    6039.3766    2795.3448    35267.338   -19944.552   -7223.3736     3104.912   -7920.1424    83.837696 
   40900    776.84621   -104.83298   0.70290678   -104.13008   -16349.173    4.4069152    4.4069152    4.4069152   -16349.173   -32029.971    19452.863    -36470.41    6019.4967   -86.872199    5544.6954    85.586267 
   41000    868.40198   -104.91098   0.78574836   -104.12523   -2892.4746    4.3905493    4.3905493    4.3905493   -2892.4746    10645.891    17442.094   -36765.409   -8060.4264    10325.826   -9426.6169    84.636282 
   41100     1032.459   -105.04945    0.9341906   -104.11526     6989.641    4.3742318    4.3742318    4.3742318     6989.641    5463.5151    28202.656   -12697.248   -489.77525   -2539.4837    -231.8762    83.696128 
   41200      787.308   -104.83542   0.71237282   -104.12305   -5543.7041    4.3935049    4.3935049    4.3935049   -5543.7041   -7181.8002    29853.475   -39302.787     4999.996    11008.699   -2937.5112    84.807323 
   41300    864.00481   -104.90186   0.78176971   -104.12009   -7540.6823    4.3998919    4.3998919    4.3998919   -7540.6823   -9192.8334    17234.061   -30663.274   -5106.3062   -376.00131   -8604.9102    85.177721 
   41400    1049.1598   -105.06442   0.94930183   -104.11512     4025.666    4.3756894    4.3756894    4.3756894     4025.666    7645.9903    24168.395   -19737.388    9084.1802    9691.8837    2681.0573    83.779827 
   41500    747.38095   -104.79718   0.67624599   -104.12093    6240.7937    4.3826922    4.3826922    4.3826922    6240.7937    2744.8909     29750.59   -13773.099   -5169.7856    -275.0299   -6881.8724    84.182713 
   41600    875.25823   -104.91247   0.79195204   -104.12052   -13327.126    4.4019694    4.4019694    4.4019694   -13327.126    -23092.77    10587.161    -27475.77    15773.478    6861.7736   -333.13586    85.298433 
   41700    1004.8501   -105.02836   0.90920948   -104.11915    8871.3948    4.3842764    4.3842764    4.3842764    8871.3948    10667.232    42091.281   -26144.329   -3080.3942    2803.0523    2817.1214    84.274031 
   41800     877.7801   -104.91756   0.79423388   -104.12332    13961.966    4.3786129    4.3786129    4.3786129    13961.966    4422.6663    35645.596    1817.6374    558.58206    -310.7987   -5001.0571    83.947864 
   41900    812.64252   -104.86739   0.73529603   -104.13209   -6625.9823    4.3995619    4.3995619    4.3995619   -6625.9823   -12938.232    30548.203   -37487.918    11349.343    9393.9207    784.29923    85.158556 
   42000     1190.829   -105.19923    1.0774871   -104.12174    8484.9969    4.3889952    4.3889952    4.3889952    8484.9969    15772.495     28230.62   -18548.124   -5671.1943   -9829.1856    42.700741    84.546437 
   42100    680.41615   -104.73997   0.61565483   -104.12432     5480.456    4.3752034    4.3752034    4.3752034     5480.456     4341.958    18228.655   -6129.2453    2951.8029    12303.266   -1179.2451    83.751915 
   42200    871.67946   -104.91965    0.7887139   -104.13094   -6981.4167    4.3948139    4.3948139    4.3948139   -6981.4167   -15852.186    29230.469   -34322.533   -12196.612   -12141.156    5344.1126    84.883145 
   42300    1075.2612   -105.09093   0.97291895   -104.11801   -2461.4076    4.3956078    4.3956078    4.3956078   -2461.4076   -1768.2445    20230.485   -25846.463    856.98434    4696.6079    -538.2288    84.929157 
   42400    598.85861   -104.66347   0.54185986   -104.12161   -14269.366    4.3784562    4.3784562    4.3784562   -14269.366   -23582.307     8362.364   -27588.156     8129.074   -5020.0448    1183.0805    83.938856 
   42500    1153.8808   -105.16367    1.0440556   -104.11962    11343.042    4.3790251    4.3790251    4.3790251    11343.042    11280.792     32167.95   -9419.6165   -366.38569   -6836.1175    -837.2026    83.971578 
   42600    910.92041    -104.9487   0.82421993   -104.12448   -32540.816     4.403638     4.403638     4.403638   -32540.816   -29503.973   -14575.038   -53543.438    3753.0589    4487.1091    3826.2358    85.395469 
   42700    792.07408   -104.83568   0.71668527     -104.119    7297.0802    4.3795343    4.3795343    4.3795343    7297.0802    4310.0139    32200.409   -14619.182    4320.8546   -17103.596   -1208.1944    84.000875 
   42800    1013.5005   -105.03236   0.91703652   -104.11533    18763.433    4.3747318    4.3747318    4.3747318    18763.433    26666.661    39908.308    -10284.67    3148.3888    13465.202    2122.1184    83.724833 
   42900    677.80723   -104.74309   0.61329422    -104.1298   -11174.359    4.3987879    4.3987879    4.3987879   -11174.359    5752.0382    11489.855   -50764.969    5390.2377   -18186.937    208.30394    85.113623 
   43000    1174.9725   -105.17541    1.0631398   -104.11227    1330.0279    4.3930384    4.3930384    4.3930384    1330.0279    33268.625    -11292.07   -17986.472    5270.0775    3696.1019   -533.31239    84.780312 
   43100    652.88763   -104.70855   0.59074644    -104.1178    2660.9873    4.3738601    4.3738601    4.3738601    2660.9873    10887.863    14194.267   -17099.169    -5485.428    -6123.522    954.41955    83.674795 
   43200    1038.3084   -105.06823   0.93948326   -104.12875    4816.2125    4.3881992    4.3881992    4.3881992    4816.2125    40365.196    996.78214   -26913.341    12893.946    -11228.45   -910.42172    84.500446 
   43300    1112.0519   -105.12648    1.0062079   -104.12027   -7601.6056    4.3978967    4.3978967    4.3978967   -7601.6056    19300.734   -14046.895   -28058.656    1044.5733    4998.6447   -2044.1712    85.061898 
   43400    488.78618   -104.56522     0.442264   -104.12296    13978.386    4.3779665    4.3779665    4.3779665    13978.386    28703.372    30580.439   -17348.654    10133.827    -18464.99    2887.8439    83.910691 
   43500    1211.5659   -105.21671    1.0962503   -104.12046    6914.1191    4.3893526    4.3893526    4.3893526    6914.1191    33202.273    9350.9169   -21810.832   -9361.9031    4718.4438    -1372.236    84.567092 
   43600    869.47278    -104.9131   0.78671724   -104.12638   -2038.3202    4.3900272    4.3900272    4.3900272   -2038.3202    26118.254   -1638.5265   -30594.688   -6368.6805   -13615.541    3415.2404    84.606092 
   43700    627.75723    -104.6971   0.56800793   -104.12909    1301.9697    4.3823163    4.3823163    4.3823163    1301.9697    3871.4272    19218.396   -19183.914    6468.9031   -1148.7721    1102.7605    84.161054 
   43800    1210.3712   -105.22195    1.0951693   -104.12678    935.50928    4.3836053    4.3836053    4.3836053    935.50928    26592.351   -6127.3749   -17658.448    -11695.85   -6149.3718   -849.25132    84.235338 
   43900    782.11814   -104.83582   0.70767693   -104.12814   -15819.987    4.3999134    4.3999134    4.3999134   -15819.987   -1358.4032    411.99438   -46513.553    300.52912   -10061.809    62.991384    85.178973 
   44000    847.14431    -104.8879   0.76651398   -104.12139   -4464.6608    4.3785253    4.3785253    4.3785253   -4464.6608   -12545.427    2472.9983   -3321.5541   -10571.218    8883.0189   -5365.6223    83.942827 
   44100     872.8969   -104.91616   0.78981546   -104.12635    759.64355    4.3836795    4.3836795    4.3836795    759.64355     11572.97    27057.495   -36351.535   -1157.4003   -14650.682    1587.4508    84.239618 
   44200    1034.0109   -105.05874   0.93559479   -104.12314   -22938.673    4.3976606    4.3976606    4.3976606   -22938.673   -13290.223   -20007.625   -35518.171    5084.0398    6508.0054   -1943.3398    85.048202 
   44300    638.27945   -104.69838   0.57752866   -104.12085    3350.5985    4.3891555    4.3891555    4.3891555    3350.5985    7748.5976    13494.752   -11191.554    -12436.76   -3226.0551   -2747.8171    84.555701 
   44400    1145.6465   -105.15535    1.0366051   -104.11874   -4011.4122    4.3829781    4.3829781    4.3829781   -4011.4122    383.89995    17280.273    -29698.41    937.29319   -4679.6828    2295.6383    84.199187 
   44500    790.15027   -104.84631   0.71494457   -104.13136    5636.9789    4.3862207    4.3862207    4.3862207    5636.9789    23882.246    5640.7099   -12612.019    1425.1068    2264.0784     -753.147    84.386204 
   44600    903.52586   -104.94357   0.81752918   -104.12604      1140.53    4.3952452    4.3952452    4.3952452      1140.53   -1491.0415    21776.101   -16863.469   -4077.4359   -6251.8104    4116.5108    84.908139 
   44700    859.43694   -104.90095   0.77763661   -104.12331    3487.6645    4.3849168    4.3849168    4.3849168    3487.6645    31262.308    3173.4186   -23972.733    4863.5908    7011.1757   -1150.7462    84.310965 
   44800    1058.9852    -105.0802   0.95819208     -104.122   -3656.6455    4.3906106    4.3906106    4.3906106   -3656.6455   -9311.8045    5945.2704   -7603.4024   -19589.586   -1421.6914    1585.2138    84.639829 
   44900    878.66517   -104.91468   0.79503471   -104.11965    11757.333    4.3890481    4.3890481    4.3890481    11757.333    50077.416    8966.5515   -23771.968     7185.375    5918.2201    5580.4916    84.549496 
   45000    851.10597   -104.90056   0.77009857   -104.13047   -14499.538    4.3890017    4.3890017    4.3890017   -14499.538   -8037.7183   -21832.643   -13628.252   -15585.463    3617.1343    -3584.566    84.546813 
   45100    1074.6837   -105.09907   0.97239644   -104.12667     19143.53    4.3864133    4.3864133    4.3864133     19143.53    45732.216     27676.55   -15978.175   -6471.3052   -4745.6132      6202.12    84.397317 
   45200    963.14383   -104.99913   0.87147278   -104.12766   -17427.345    4.3934538    4.3934538    4.3934538   -17427.345   -20007.125   -9625.9085   -22649.001   -3688.3285    9008.1315   -1975.9912    84.804362 
   45300    516.46918    -104.5944   0.46731217   -104.12709    16429.334    4.3854165    4.3854165    4.3854165    16429.334    32261.662    23055.921   -6029.5815   -11527.594   -5481.6921   -6332.8844    84.339794 
   45400    1387.0547   -105.37728    1.2550363   -104.12224   -3818.2742    4.3842885    4.3842885    4.3842885   -3818.2742    6013.1811    7434.3677   -24902.371   -60.765532    6547.0072    4225.1469     84.27473 
   45500    525.72944   -104.60689   0.47569105    -104.1312   -8570.2221    4.3946808    4.3946808    4.3946808   -8570.2221   -2873.6926     59.12373   -22896.097   -19747.413    1168.5771     -7312.62    84.875437 
   45600    1087.0041   -105.10513   0.98354417   -104.12158   -5054.0892    4.3878531    4.3878531    4.3878531   -5054.0892     229.8756   -4859.8768   -10532.266    3224.6225   -4943.1969   -2175.8545    84.480454 
   45700    831.23432   -104.87514   0.75211828   -104.12302    8175.9006    4.3853047    4.3853047    4.3853047    8175.9006    48530.816     7439.473   -31442.587   -19472.584    2984.6202    2871.4947    84.333344 
   45800    834.89663   -104.88627   0.75543201   -104.13084   -7947.8428    4.3892008    4.3892008    4.3892008   -7947.8428   -11050.176   -5754.7992   -7038.5529   -9821.4614   -9782.8692   -3582.7012    84.558319 
   45900    1041.2386   -105.06608   0.94213455   -104.12394   -2491.6805    4.3956373    4.3956373    4.3956373   -2491.6805    30237.911   -7565.2193   -30147.733    6076.5722   -1012.0576    2371.9687    84.930868 
   46000    736.57263   -104.79479   0.66646639   -104.12833    4658.6703    4.3777486    4.3777486    4.3777486    4658.6703    16980.494    13210.988   -16215.471   -26216.406   -4353.5203    2854.1736    83.898166 
   46100    968.84566   -105.00827   0.87663191   -104.13164    3505.1528    4.3870894    4.3870894    4.3870894    3505.1528    25447.786   -702.01655   -14230.311    11061.272   -7757.6629   -35.844674    84.436348 
   46200    1002.6676   -105.03046   0.90723475   -104.12322   -14053.166    4.4007054    4.4007054    4.4007054   -14053.166   -8682.1728   -306.51765   -33170.807    -5644.772     64.45987     3326.054    85.224976 
   46300    640.32494   -104.70614   0.57937946   -104.12676    5686.4039    4.3787005    4.3787005    4.3787005    5686.4039    44371.734   -10909.853   -16402.669    -4500.576   -4209.9083    2234.5886    83.952903 
   46400    1075.6602   -105.10237   0.97327998   -104.12909    2379.1605    4.3868228    4.3868228    4.3868228    2379.1605    16614.201    14540.003   -24016.722    12980.109    1879.1903    1667.0295    84.420958 
   46500    947.38668   -104.98644   0.85721538   -104.12922   -11398.135    4.3913436    4.3913436    4.3913436   -11398.135   -2309.9434   -13202.876   -18681.586   -24128.933   -5711.8902   -1634.4802    84.682222 
   46600    667.88249   -104.73324   0.60431411   -104.12893   -7638.5175    4.3890799    4.3890799    4.3890799   -7638.5175   -7160.7762    14528.333   -30283.109     20501.25    11.404496    6583.7692    84.551334 
   46700    1075.7531   -105.09686   0.97336403    -104.1235    4932.9779    4.3818717    4.3818717    4.3818717    4932.9779    34197.176   -4931.9598   -14466.282   -11776.147   -1796.4011   -2213.8007    84.135441 
   46800    907.58816   -104.95098   0.82120484   -104.12977   -12135.396    4.3939396    4.3939396    4.3939396   -12135.396   -28624.954    12196.621   -19977.855   -16882.766   -6693.6628    3136.5441    84.832499 
   46900    740.22446   -104.79645   0.66977065   -104.12668   -1885.9088    4.3863118    4.3863118    4.3863118   -1885.9088    17892.874    5666.0581   -29216.659    14593.835    2191.4604    4071.0619    84.391458 
   47000     869.7097    -104.9155   0.78693161   -104.12857    12844.962    4.3805023    4.3805023    4.3805023    12844.962    6594.4717    36373.409   -4432.9932   -20912.344   -4567.0569   -189.52602    84.056582 
   47100    967.13922    -105.0042   0.87508789   -104.12912   -7780.7916    4.3940625    4.3940625    4.3940625   -7780.7916    8343.4728   -10938.448   -20747.399     7357.369    1332.0809    543.50456    84.839617 
   47200    878.16984   -104.91886   0.79458653   -104.12428   -3067.2794    4.3867298    4.3867298    4.3867298   -3067.2794   -4675.0125    14823.758   -19350.584    4328.9039     1023.938     2094.426    84.415588 
   47300    803.54937   -104.85368   0.72706836   -104.12661    4451.4076     4.385266     4.385266     4.385266    4451.4076    8437.4923    10172.824   -5256.0932   -16964.529   -3656.6382   -2334.0896    84.331113 
   47400    969.14454    -105.0047   0.87690235    -104.1278    15057.401     4.380123     4.380123     4.380123    15057.401    31226.296    23370.049   -9424.1414    25501.926    4551.6903     3912.598    84.034753 
   47500    958.38035   -104.99237   0.86716268    -104.1252   -6898.0137    4.3940899    4.3940899    4.3940899   -6898.0137   -1484.2522   -7463.3036   -11746.485   -19235.483     297.4529   -5129.2941      84.8412 
   47600    736.63085   -104.78922   0.66651908    -104.1227    3598.4627     4.383264     4.383264     4.383264    3598.4627    1442.4624    15360.597   -6007.6714    2316.8568    5419.2538    1218.8532    84.215668 
   47700    1116.9693   -105.13448    1.0106573   -104.12383    6154.5928    4.3808554    4.3808554    4.3808554    6154.5928    28793.969    5594.1905   -15924.381    8108.0839    4495.3805   -924.67951    84.076914 
   47800    950.87482   -104.98428   0.86037152   -104.12391   -6648.8409    4.3933237    4.3933237    4.3933237   -6648.8409    4554.4316   -21264.492   -3236.4625   -20560.273   -350.24877   -6924.6154    84.796827 
   47900    643.16424   -104.70617   0.58194852   -104.12422     6487.217    4.3792777    4.3792777    4.3792777     6487.217    32461.708    7699.1791   -20699.236    13414.627    5431.8954    3612.9564     83.98611 
   48000    1052.7916   -105.07902   0.95258796   -104.12643   -8644.7269    4.3875833    4.3875833    4.3875833   -8644.7269    2238.7873   -12315.447   -15857.521   -3282.8746   -3150.4281   -1867.5162    84.464873 
   48100    1058.6367   -105.08658    0.9578767    -104.1287   -9500.7522    4.3890968    4.3890968    4.3890968   -9500.7522    5605.1999   -16640.417   -17467.039   -5449.2976    1568.1872   -7069.3767    84.552313 
   48200    723.09392   -104.78444   0.65427058   -104.13017   -15779.608    4.3908427    4.3908427    4.3908427   -15779.608   -6713.9186   -9016.9373   -31607.969    18472.424    3740.0754    12852.822    84.653253 
   48300    960.39111   -104.98868   0.86898206    -104.1197    12775.365     4.374152     4.374152     4.374152    12775.365    36730.664    9304.0792   -7708.6489   -8112.6273    3717.1889   -11293.959    83.691548 
   48400    784.58732   -104.84224   0.70991109   -104.13233   -24810.817    4.3951386    4.3951386    4.3951386   -24810.817   -35080.109   -18643.587   -20708.755    16967.862     8554.899    7573.2238    84.901962 
   48500    935.02134   -104.97158   0.84602696   -104.12555   -4998.2499    4.3863186    4.3863186    4.3863186   -4998.2499    7033.9182   -8550.1625   -13478.506    9325.0992    3691.0726    5162.2814    84.391854 
   48600    922.49567   -104.95768   0.83469347   -104.12299    4561.6935    4.3735079    4.3735079    4.3735079    4561.6935    16316.066   -650.61163   -1980.3733   -8550.0158    7861.5035   -10686.058    83.654583 
   48700    561.23025   -104.63798   0.50781292   -104.13017   -24210.811    4.3984641    4.3984641    4.3984641   -24210.811   -30458.914   -18717.842   -23455.676    21942.461    6160.4481     18564.23    85.094824 
   48800    1330.7978    -105.3211    1.2041338   -104.11697     2851.157    4.3836183    4.3836183    4.3836183     2851.157    27314.886   -10951.985   -7809.4294   -10164.715   -1211.1807   -8384.9769    84.236088 
   48900    589.84358    -104.6608   0.53370287    -104.1271   -13271.413    4.3885349    4.3885349    4.3885349   -13271.413   -25097.181    3458.6172   -18175.676    17134.532    10836.299    4966.6532    84.519843 
   49000    862.79168   -104.90381   0.78067204   -104.12313    -6309.031    4.3829222    4.3829222    4.3829222    -6309.031   -5557.8953   -3058.1576    -10311.04    3468.9702   -4684.5563    10973.271    84.195964 
   49100    1131.0825   -105.14575    1.0234272   -104.12232    2627.4822     4.389275     4.389275     4.389275    2627.4822    12966.582    12607.897   -17692.032   -771.05709    7159.9292   -8904.4476    84.562607 
   49200    807.16404   -104.86056   0.73033899   -104.13022   -14210.564    4.3850483    4.3850483    4.3850483   -14210.564    1409.0522   -25361.466   -18679.277    14707.901     892.5023    16494.577    84.318555 
   49300    813.77186   -104.86483   0.73631788   -104.12851    25690.811     4.379536     4.379536     4.379536    25690.811    40447.323    45949.486   -9324.3765     3294.078   -4335.5927   -5741.7011    84.000969 
   49400    1064.0624   -105.09367   0.96278598   -104.13089   -8617.2067    4.3908163    4.3908163    4.3908163   -8617.2067    1740.4183   -5687.9349   -21904.103    6164.2443    5747.5009    8312.4848    84.651721 
   49500    752.39247   -104.81541   0.68078052   -104.13463    11651.522    4.3843138    4.3843138    4.3843138    11651.522    35339.603    14874.389   -15259.427    5334.7432   -2277.5973    9678.3765    84.276191 
   49600    1093.9154   -105.11581   0.98979765   -104.12601   -4547.9652     4.388151     4.388151     4.388151   -4547.9652   -8513.1032    1848.9507    -6979.743    -10416.83    357.30911   -6059.1129    84.497662 
   49700    733.03486   -104.79284   0.66326534   -104.12957    6804.9971    4.3789754    4.3789754    4.3789754    6804.9971    11833.559    16229.346   -7647.9135    15820.687    525.55217    9609.3238    83.968719 
   49800    904.50193   -104.95105   0.81841236   -104.13263   -7092.8107    4.3926325    4.3926325    4.3926325   -7092.8107   -15054.085    159.02015   -6383.3674   -17428.364   -4874.9772   -3339.6496    84.756814 
   49900    1218.1084    -105.2245    1.1021701   -104.12233    9404.6492    4.3794761    4.3794761    4.3794761    9404.6492    27448.422    4781.6815   -4016.1555    6777.9691   -5374.2458   -268.47319    83.997522 
   50000    400.93329   -104.49704   0.36277287   -104.13426   -6892.1661    4.3867376    4.3867376    4.3867376   -6892.1661   -15049.098    1430.9952   -7058.3952   -3018.0544   -8256.6502    6958.1487    84.416037 
   50100    1094.9541   -105.11673   0.99073744   -104.12599    -1960.267    4.3878305    4.3878305    4.3878305    -1960.267    2585.4453    8491.7088   -16957.955   -4133.6113   -5432.3082    513.21111    84.479151 
   50200     1054.277   -105.08036   0.95393201   -104.12643    6665.3618      4.38286      4.38286      4.38286    6665.3618    16616.382    8523.9242   -5144.2207    5926.1259   -5758.8508    4667.9943    84.192383 
   50300    502.45626   -104.58574   0.45463299    -104.1311   -20887.015    4.3924904    4.3924904    4.3924904   -20887.015   -47120.936    6322.4265   -21862.535   -8800.7031   -3894.3497    930.05175    84.748588 
   50400    1099.6388   -105.12402   0.99497632   -104.12904    11358.929    4.3804978    4.3804978    4.3804978    11358.929    41693.483    8796.9402   -16413.635   -7142.3245    8376.5822   -880.26535    84.056328 
   50500    1060.0566   -105.09227    0.9591615   -104.13311   -4226.4221    4.3891198    4.3891198    4.3891198   -4226.4221     8369.579   -2797.4569   -18251.388    8654.7532   -8941.9786     3057.774    84.553641 
   50600    649.08918   -104.71909   0.58730953   -104.13178    -8521.766    4.3841083    4.3841083    4.3841083    -8521.766   -11511.953    9449.2754    -23502.62   -7953.1454     10564.54   -1669.4976     84.26434 
   50700    1052.7875   -105.07532    0.9525843   -104.12274    12113.023    4.3874648    4.3874648    4.3874648    12113.023     40358.55    16498.339    -20517.82    2360.6369    3128.3997    3939.2929    84.458027 
   50800    928.24367   -104.96492   0.83989438   -104.12502    1103.7673    4.3839345    4.3839345    4.3839345    1103.7673    24422.405    1598.2447   -22709.348   -7710.7038    2563.6093    527.41885    84.254317 
   50900     649.9556   -104.71896   0.58809348   -104.13087   -172.89633    4.3794524    4.3794524    4.3794524   -172.89633    180.66386    16147.995   -16847.348   -1191.7045    14375.184    4008.9778    83.996158 
   51000    1237.9185   -105.24594    1.1200947   -104.12585   -2094.9022    4.3905024    4.3905024    4.3905024   -2094.9022    11763.454    2869.4875   -20917.648    2540.1354    469.12339    1314.1731     84.63357 
   51100     839.9364   -104.89246    0.7599921   -104.13247   -18450.309    4.3932872    4.3932872    4.3932872   -18450.309   -17838.728   -2086.1727   -35426.026   -11727.725    7939.6475    4344.9666    84.794714 
   51200    728.91506   -104.78648   0.65953766   -104.12694    1072.0305    4.3844526    4.3844526    4.3844526    1072.0305    4975.2479    15112.856   -16872.012    3879.3102    -1235.716    850.86868    84.284194 
   51300    1078.8742   -105.09995   0.97618802   -104.12376    3244.0574    4.3819281    4.3819281    4.3819281    3244.0574    17980.028    7265.9063   -15513.762   -7951.4167    6776.1284   -38.628795    84.138687 
   51400     613.1139   -104.68646   0.55475834    -104.1317   -16811.438     4.398516     4.398516     4.398516   -16811.438   -21282.732    8356.8195   -37508.403   -5681.6265    2533.3583    7299.8875    85.097837 
   51500    1217.8563   -105.22519     1.101942   -104.12325    3536.5582    4.3807316    4.3807316    4.3807316    3536.5582    28650.583   -6033.8673   -12007.041    11533.718   -2707.1665   -3059.1429    84.069788 
   51600     660.9852   -104.73103    0.5980733   -104.13296    15243.923    4.3797328    4.3797328    4.3797328    15243.923    28684.254    36834.357   -19786.842   -14589.292    8728.5329    6661.3777    84.012296 
   51700    953.84018   -104.99848   0.86305464   -104.13543   -10259.254    4.3939359    4.3939359    4.3939359   -10259.254    8857.6334   -19005.252   -20630.143    8363.5084   -8097.1992    1142.2324     84.83228 
   51800    1070.1062   -105.09026   0.96825462   -104.12201      1960.96    4.3954043    4.3954043    4.3954043      1960.96    6216.4254    28530.855   -28864.401    6407.7855    3015.3169   -3299.7204    84.917361 
   51900    734.99197   -104.78886   0.66503618   -104.12382   -2967.4211    4.3773545    4.3773545    4.3773545   -2967.4211   -2237.6183   -1880.1782   -4784.4669   -8880.0744   -2881.3724    10211.584    83.875507 
   52000    816.06122   -104.87231   0.73838934   -104.13392    18124.374    4.3845497    4.3845497    4.3845497    18124.374    27390.633    35538.617   -8556.1279    7584.3692   -1764.1968   -7832.2288    84.289795 
   52100    1157.4734   -105.16779    1.0473063   -104.12049   -11596.636    4.4024723    4.4024723    4.4024723   -11596.636    24930.255   -27439.916   -32280.248   -13623.503   -1846.7766    5201.8853    85.327674 
   52200    580.83153   -104.65413   0.52554858   -104.12858    5628.6357    4.3747711    4.3747711    4.3747711    5628.6357   -3169.5455    22062.061   -2006.6085   -4757.0322   -4029.3199    2034.9176    83.727093 
   52300     1110.508   -105.14029     1.004811   -104.13548      2066.67    4.3828518    4.3828518    4.3828518      2066.67    27075.862   -12809.643   -8066.2091    15338.403     347.0613   -1644.7945    84.191908 
   52400     946.1501   -104.98562   0.85609649   -104.12952   -10844.818    4.4066951    4.4066951    4.4066951   -10844.818    16598.161   -19000.013   -30132.601   -26133.735   -2117.7765    9296.6919    85.573444 
   52500    650.96584    -104.7167   0.58900757   -104.12769   -5016.7312    4.3785468    4.3785468    4.3785468   -5016.7312   -18752.621    9229.1377   -5526.7105    17622.744   -7056.5801   -6319.4315    83.944063 
   52600     1043.611   -105.06664   0.94428114   -104.12236    3584.6406    4.3797057    4.3797057    4.3797057    3584.6406    6442.5615    4308.2427    3.1174877   -9663.7111   -1595.5326    7853.2745    84.010736 
   52700    966.97127   -104.99567   0.87493593   -104.12073    -14329.45    4.4011859    4.4011859    4.4011859    -14329.45   -26710.689    3924.3463   -20202.006    2306.7846   -13195.876   -2962.9972    85.252893 
   52800    730.04219   -104.78557   0.66055752   -104.12502   -3228.9085    4.3831594    4.3831594    4.3831594   -3228.9085   -3528.1539    7013.8055   -13172.377    13807.052   -2539.0842   -5546.5854    84.209635 
   52900    1045.6242   -105.07071   0.94610273   -104.12461     14816.53    4.3810153    4.3810153    4.3810153     14816.53    20065.107    25241.044   -856.56133   -7869.8657   -8519.6746     5795.727    84.086122 
   53000    761.98688   -104.82216   0.68946174   -104.13269   -15370.402    4.3980355    4.3980355    4.3980355   -15370.402   -4302.9645   -19195.684   -22612.558    19493.118   -3521.3948   -9049.5873    85.069955 
   53100    1030.0451   -105.05379   0.93200648   -104.12178    6927.3641    4.3892622    4.3892622    4.3892622    6927.3641    20370.991    10156.378   -9745.2767    -2822.301   -287.08885    14262.885    84.561868 
   53200    989.30606    -105.0139   0.89514492   -104.11875   -2603.7342    4.3886019    4.3886019    4.3886019   -2603.7342   -5055.1556    9179.1612   -11935.208    7217.0025    132.14369   -3140.5231    84.523713 
   53300    594.11802   -104.66592   0.53757047   -104.12835   -6282.9747     4.390957     4.390957     4.390957   -6282.9747    3726.1018   -5272.9503   -17302.076    3964.4621    3089.3057    3799.0976    84.659859 
   53400    1326.9568   -105.32056    1.2006584    -104.1199    2572.1729    4.3896146    4.3896146    4.3896146    2572.1729    20127.316    2630.4523    -15041.25   -7093.5217    6019.0291    3335.3472    84.582236 
   53500    613.85936   -104.68243   0.55543285     -104.127    4623.3006    4.3816635    4.3816635    4.3816635    4623.3006    22049.276    4267.5416   -12446.916    14764.015    3966.4442   -4500.0606    84.123448 
   53600    864.82189   -104.91265   0.78250902   -104.13015     -17620.5    4.3950297    4.3950297    4.3950297     -17620.5   -12913.488   -7706.1977   -32241.815    1349.2661    3077.8288    10768.341    84.895649 
   53700    1141.2656    -105.1534    1.0326411   -104.12076    1669.8762    4.3917365    4.3917365    4.3917365    1669.8762    32371.619   -2024.4675   -25337.523   -1561.4318    1915.5896   -5370.4605    84.704954 
   53800    747.69156   -104.80211   0.67652703   -104.12559    2291.3786    4.3793708    4.3793708    4.3793708    2291.3786    7601.3579    5746.7868   -6474.0088    29490.677    3883.9519    4459.7834    83.991465 
   53900    757.72457   -104.81561   0.68560511      -104.13     1979.962     4.392582     4.392582     4.392582     1979.962    37211.347    -5043.647   -26227.814   -11446.287   -4436.7037    740.39326    84.753887 
   54000    1007.6346   -105.04198   0.91172898   -104.13026   -19337.677    4.3967791    4.3967791    4.3967791   -19337.677   -4969.5559   -25456.532   -27586.944    19610.508    4700.5064    323.07751    84.997067 
   54100    816.04997   -104.86859   0.73837917   -104.13021    12310.538    4.3705892    4.3705892    4.3705892    12310.538    5641.2048    21775.486    9514.9233   -4027.2085   -1089.9738     9370.845    83.487215 
   54200    963.91097   -105.00534    0.8721669   -104.13318   -4603.2812    4.3879244    4.3879244    4.3879244   -4603.2812   -2796.9676    6712.8457   -17725.722   -11867.513    5448.3801   -377.64276    84.484575 
   54300     642.6059   -104.70809   0.58144333   -104.12665   -16488.846    4.4023802    4.4023802    4.4023802   -16488.846   -17647.281   -3438.4289   -28380.827    16619.575    6620.6919    4573.1616    85.322315 
   54400    1071.2577   -105.08635   0.96929651   -104.11706    15433.598    4.3695688    4.3695688    4.3695688    15433.598    29101.195   -1715.7622    18915.363   -32110.828   -200.39827    4679.4326    83.428752 
   54500    1096.1054    -105.1156   0.99177923   -104.12382    2618.8688     4.384983     4.384983     4.384983    2618.8688    4853.0187    16490.608    -13487.02    10514.315    7982.0292    690.46807    84.314786 
   54600    567.45076   -104.63881   0.51344137   -104.12536   -6196.2837    4.3996067    4.3996067    4.3996067   -6196.2837    16325.529   -20849.147   -14065.233   -9446.5127   -1979.0264     4747.453     85.16116 
   54700    1098.3632   -105.11319   0.99382208   -104.11937   -435.96979    4.3892998    4.3892998    4.3892998   -435.96979    13277.517    1291.4419   -15876.869   -15196.583    5820.5557   -2119.5384    84.564044 
   54800    992.48447   -105.01725    0.8980208   -104.11923    14874.945    4.3738902    4.3738902    4.3738902    14874.945    28613.282    11292.679    4718.8759    15362.818   -3824.5926    3898.8722    83.676524 
   54900    705.98715   -104.76845   0.63879201   -104.12966   -19094.526    4.3958884    4.3958884    4.3958884   -19094.526   -22931.457   -17916.684   -16435.436   -26247.931    736.40012   -3696.1776    84.945422 
   55000    1060.7029   -105.07589   0.95974629   -104.11614   -8616.6278    4.3978666    4.3978666    4.3978666   -8616.6278    7392.0893   -227.92334   -33014.049    14779.975    3550.2885    1466.3602    85.060154 
   55100    896.40088   -104.92927   0.81108236   -104.11819   -2881.8476    4.3802016    4.3802016    4.3802016   -2881.8476    2654.4005   -12054.565    754.62155   -11320.053    620.36829    1524.6984    84.039275 
   55200    874.05478    -104.9117   0.79086314   -104.12083    13806.361     4.378346     4.378346     4.378346    13806.361    27794.558    9673.5188    3951.0073   -12136.465   -240.89515   -7489.0537    83.932515 
   55300    927.53215   -104.96888   0.83925058   -104.12963   -17533.686    4.4017015    4.4017015    4.4017015   -17533.686    -18421.34   -11821.994   -22357.724    4875.9687    3061.2748    1338.6522    85.282862 
   55400    753.55369   -104.81503   0.68183122    -104.1332   -19171.492    4.3958862    4.3958862    4.3958862   -19171.492   -15189.259   -30487.721   -11837.498   -27055.826   -422.19376   -7875.2991    84.945292 
   55500    1263.4185   -105.25289    1.1431676   -104.10972    31370.966     4.354364     4.354364     4.354364    31370.966    31814.475    33354.324    28944.098    7202.6862    -8393.905   -10821.921    82.560859 
   55600    679.01743   -104.74967   0.61438924   -104.13528   -28463.571    4.4038263    4.4038263    4.4038263   -28463.571   -29007.903   -44156.696   -12226.115   -12464.449    2063.9928    6525.5261    85.406424 
   55700     901.7962   -104.94468   0.81596415   -104.12871   -7227.6548    4.3914868    4.3914868    4.3914868   -7227.6548    14689.195   -15264.127   -21108.032   -2346.2957    -10508.36   -17295.564    84.690512 
   55800    1144.1901   -105.14985    1.0352872   -104.11456    18137.703    4.3749533    4.3749533    4.3749533    18137.703    12447.952   -378.04786    42343.205    -7219.389   -5243.0816    7050.0586     83.73755 
   55900    782.21438    -104.8305   0.70776401   -104.12274     -6057.85    4.3862775    4.3862775    4.3862775     -6057.85    9398.1671   -18140.647   -9431.0703   -1087.5957    4412.9101   -5171.0502    84.389481 
   56000     773.3826   -104.82364   0.69977283   -104.12387   -1311.7529    4.3957421    4.3957421    4.3957421   -1311.7529    7855.2102   -11484.663   -305.80613   -5100.3503   -11732.481   -9482.9564    84.936941 
   56100    1049.3366   -105.07124   0.94946182   -104.12178    -5472.483    4.3873798    4.3873798    4.3873798    -5472.483   -16935.909     -15051.4     15569.86    -8949.547    12440.389    7438.1654     84.45312 
   56200    855.41844   -104.89283   0.77400059   -104.11882    20911.391    4.3661424    4.3661424    4.3661424    20911.391    35105.176    -2100.324    29729.319    1338.3728   -4634.6773   -16670.608    83.232645 
   56300    866.58836   -104.91128   0.78410736   -104.12717    -13711.82    4.4052312    4.4052312    4.4052312    -13711.82   -27340.449   -3840.0292   -9954.9836   -8050.5746    3484.5375    10149.993    85.488188 
   56400     946.8039    -104.9834   0.85668807   -104.12671    5415.7397      4.38438      4.38438      4.38438    5415.7397    1326.3105   -20283.301     35204.21   -1685.0819    7062.9257   -11266.726    84.280005 
   56500    873.10263   -104.91174   0.79000161   -104.12174    19812.281    4.3720712    4.3720712    4.3720712    19812.281    20075.817    19188.125    20172.901   -3031.3239   -8870.3406    993.51405    83.572172 
   56600    1051.5493    -105.0684   0.95146387   -104.11693   -11641.127    4.3953705    4.3953705    4.3953705   -11641.127   -8243.3082   -21986.112   -4693.9602   -9523.9437    5135.7908    3102.6531    84.915401 
   56700    690.91588   -104.74546   0.62515521   -104.12031    17081.242    4.3827707    4.3827707    4.3827707    17081.242    21399.144    7557.3939    22287.189    3534.7089   -9906.9678   -12581.388    84.187236 
   56800    1049.7345   -105.06983   0.94982185   -104.12001    -15524.16    4.3864698    4.3864698    4.3864698    -15524.16   -13961.015   -13788.978   -18822.487   -10661.528   -2119.4463    14394.761    84.400581 
   56900    899.86542   -104.93403   0.81421715   -104.11982    24332.383    4.3764095    4.3764095    4.3764095    24332.383    22580.127    31530.677    18886.345    1504.5315   -1340.4407   -9408.9094    83.821198 
   57000    816.58455   -104.86696   0.73886286    -104.1281   -24229.806    4.3990347    4.3990347    4.3990347   -24229.806   -19456.647   -11037.792   -42194.978   -2228.7337   -12658.373    8635.6111     85.12795 
   57100    917.08354   -104.95509   0.82979646   -104.12529    4687.1956    4.3821051    4.3821051    4.3821051    4687.1956   -14546.824    27650.477     957.9342   -2291.1558    9243.6513    4610.4133    84.148884 
   57200     1018.443   -105.04053   0.92150862   -104.11902    18485.048    4.3720007    4.3720007    4.3720007    18485.048    23297.075    23410.412    8747.6565    1421.7113   -11830.578   -3056.3282    83.568128 
   57300    662.48003   -104.72295   0.59942585   -104.12352   -20373.182    4.3975286    4.3975286    4.3975286   -20373.182   -31262.857    2045.5031   -31902.191    4450.9882    1262.8741     9747.236    85.040543 
   57400    1082.4758   -105.09898   0.97944689   -104.11954    8923.4244    4.3784709    4.3784709    4.3784709    8923.4244   -6725.8677    16872.415    16623.726   -999.67123    7540.2402   -262.81854    83.939696 
   57500    966.70504   -104.99642   0.87469504   -104.12173    -417.2484    4.3819275    4.3819275    4.3819275    -417.2484    4319.1881    1772.7804   -7343.7137    6843.9111   -11040.933   -1733.5327    84.138657 
   57600    601.11124   -104.67164   0.54389808   -104.12774   -161.72838    4.3863476    4.3863476    4.3863476   -161.72838   -20330.154    38342.185   -18497.216    1270.6194    19883.282     10557.46    84.393525 
   57700    1258.5496   -105.26389    1.1387621   -104.12513    354.06352    4.3908917    4.3908917    4.3908917    354.06352   -3284.8807   -7645.7653    11992.837    5109.0787   -8064.8092   -10695.435    84.656084 
   57800    698.08121   -104.76565   0.63163854   -104.13401    13631.675    4.3816671    4.3816671    4.3816671    13631.675    -8757.558    39333.452     10319.13   -3115.6886    10275.064    14076.628    84.123657 
   57900    872.63617   -104.93121   0.78957954   -104.14163   -4494.4715    4.3886085    4.3886085    4.3886085   -4494.4715     -13111.9    4100.6971   -4472.2115   -1579.6947     16096.51    -4356.324    84.524093 
   58000    1160.6456   -105.18048    1.0501765   -104.13031    9954.2015    4.3907296    4.3907296    4.3907296    9954.2015   -13979.821   -3053.2121    46895.638   -3000.9358   -2485.9948    1858.1875    84.646706 
   58100    577.21533   -104.66063   0.52227656   -104.13835   -18113.753     4.392814     4.392814     4.392814   -18113.753   -33251.243   -2353.8412   -18736.176   -4622.1975    28491.199     6121.217    84.767316 
   58200     1261.088   -105.26108    1.1410589   -104.12002    5650.2185    4.3806683    4.3806683    4.3806683    5650.2185    -1663.803   -9623.9562    28238.415   -5473.8652    -3268.633   -1541.5587    84.066139 
   58300    605.20277   -104.67826   0.54760018   -104.13066   -8177.2842    4.3924231    4.3924231    4.3924231   -8177.2842   -26255.253    12575.064   -10851.664   -2531.6482    18054.164    7527.3658     84.74469 
   58400    982.73164   -105.01653   0.88919624   -104.12733   -13837.218    4.3876587    4.3876587    4.3876587   -13837.218   -22087.646   -14184.699   -5239.3078   -10124.794    9326.8297    7115.4294    84.469224 
   58500    940.67527   -104.97326   0.85114275   -104.12211    15558.484    4.3855403    4.3855403    4.3855403    15558.484    33.019728    41751.637    4890.7964     228.3322    1696.5645   -1376.6667     84.34694 
   58600     790.8504   -104.84326   0.71557806   -104.12768   -18122.082    4.3874644    4.3874644    4.3874644   -18122.082   -27643.507   -6839.4112   -19883.329   -9049.2573    20687.772    8396.1229    84.458006 
   58700    892.32021   -104.93295   0.80739008   -104.12556    22841.729     4.384984     4.384984     4.384984    22841.729    8409.0288    19292.531    40823.628   -1610.6296   -5015.8626   -7780.7253    84.314842 
   58800    1182.7661   -105.19112    1.0701916   -104.12093   -12084.573    4.3917786    4.3917786    4.3917786   -12084.573   -16273.672   -5738.7245   -14241.324   -3371.5147    15226.854   -2574.5361    84.707393 
   58900    501.74732   -104.57702   0.45399152   -104.12302    17571.373    4.3843959    4.3843959    4.3843959    17571.373   -4253.7177    11993.181    44974.655   -2139.2452     439.2444    9973.8181    84.280922 
   59000    1121.0344   -105.13836    1.0143354   -104.12403    2234.7313    4.3875785    4.3875785    4.3875785    2234.7313   -2677.7571    18692.878   -9310.9274    2543.2621    867.34602   -13917.823    84.464597 
   59100    1038.9438   -105.06686   0.94005818    -104.1268    338.92499    4.3881914    4.3881914    4.3881914    338.92499   -14448.487   -7482.9801    22948.242   -2063.1028    3992.5861     18515.63    84.499998 
   59200    508.19389   -104.59044   0.45982451   -104.13061   -1028.3867    4.3861385    4.3861385    4.3861385   -1028.3867   -9761.3022    25219.978   -18543.836   -877.54475   -12861.053   -8292.9474     84.38146 
   59300    1385.6224    -105.3742    1.2537402   -104.12046   -1756.6563    4.3839265    4.3839265    4.3839265   -1756.6563   -6884.2972   -5652.7231    7267.0513    7229.7036    4278.1196    12117.528    84.253856 
   59400    591.18804    -104.6612   0.53491936   -104.12628   -9409.2515    4.3977114    4.3977114    4.3977114   -9409.2515   -24168.858    116.80437   -4175.7007   -3864.8159   -12542.216    4216.9038    85.051146 
   59500    1049.9204   -105.07119      0.94999    -104.1212   -8797.7475    4.3803027    4.3803027    4.3803027   -8797.7475   -10432.726   -5203.4948   -10757.022    7101.0014   -9894.5883   -11997.935    84.045093 
   59600    959.63688   -104.99585   0.86829962   -104.12755    12624.888    4.3827733    4.3827733    4.3827733    12624.888   -5630.7204    18947.172    24558.213   -6614.7726   -2693.9552    12371.299    84.187383 
   59700    610.61315   -104.68994   0.55249561   -104.13745   -25299.991    4.4015818    4.4015818    4.4015818   -25299.991   -27519.553   -14473.584   -33906.838   -34.353847   -16878.541   -19948.716    85.275907 
   59800    1161.1116   -105.17191    1.0505982   -104.12131    5564.7562     4.379809     4.379809     4.379809    5564.7562    -10620.06    1509.0728    25805.256   -575.67734    1685.0773   -8761.7169    84.016679 
   59900    630.54912    -104.7018    0.5705341   -104.13127   -4990.5115    4.3864264    4.3864264    4.3864264   -4990.5115   -3776.2773    14210.143     -25405.4   -7724.7227   -15054.791    1954.5262    84.398074 
   60000    964.32202    -104.9952   0.87253883   -104.12267    -22554.01    4.3976799    4.3976799    4.3976799    -22554.01   -20815.448   -28586.605   -18259.976     1972.177   -5875.0926   -21182.149    85.049317 
   60100    966.16417    -104.9879   0.87420565    -104.1137    4232.5827    4.3839977    4.3839977    4.3839977    4232.5827   -7303.2416    16820.561    3180.4286   -348.98327   -207.81828    9321.1153    84.257963 
   60200    719.95906   -104.77425   0.65143409   -104.12282   -14416.415     4.386615     4.386615     4.386615   -14416.415   -6041.4021   -17187.613   -20020.229   -2141.9097   -15284.893   -9663.0069    84.408959 
   60300    1069.3344   -105.08587   0.96755621   -104.11832    4130.7381    4.3874602    4.3874602    4.3874602    4130.7381   -5432.4463    3713.7044    14110.956     11599.29    7823.4521   -4020.5916    84.457764 
   60400    872.95172   -104.91169   0.78986507   -104.12182   -14053.629    4.3952523    4.3952523    4.3952523   -14053.629   -23035.105    -15795.11   -3330.6724   -7162.5197   -11179.379    804.21213    84.908549 
   60500    697.20215   -104.75466   0.63084316   -104.12382    1210.2151    4.3858297    4.3858297    4.3858297    1210.2151     6881.034    5379.7461   -8630.1347    10286.437    3301.6703   -21134.561    84.363635 
   60600    1247.6835   -105.25062    1.1289303   -104.12169    3727.2157     4.384842     4.384842     4.384842    3727.2157   -11188.322    1269.6526    21100.317    2892.7597    6443.0189    5602.8862    84.306651 
   60700    604.88849   -104.67326   0.54731582   -104.12594   -16998.019     4.397896     4.397896     4.397896   -16998.019   -6814.4369   -7931.1387   -36248.481    1075.4697   -6065.8157   -26826.407    85.061858 
   60800    842.33815   -104.88578   0.76216526   -104.12361    5583.7026    4.3833716    4.3833716    4.3833716    5583.7026   -12996.059    32371.921   -2624.7543    17523.343    14379.182    3706.8222    84.221868 
   60900    1180.7852   -105.19385    1.0683993   -104.12545   -1381.0698    4.3867909    4.3867909    4.3867909   -1381.0698    12091.602   -4660.9787   -11573.833     1877.904   -3750.4814   -14140.557    84.419115 
   61000    510.50783   -104.59181   0.46191821   -104.12989   -14525.596    4.3971348    4.3971348    4.3971348   -14525.596   -17418.652   -471.94502   -25686.192    12012.882    12324.947   -7315.4606    85.017695 
   61100    1135.7291   -105.14246    1.0276316   -104.11483    4216.9125    4.3872099    4.3872099    4.3872099    4216.9125    7512.5981    7335.1115   -2196.9721   -3228.0552    6897.6072   -5073.8672    84.443308 
   61200    847.70759   -104.88766   0.76702364   -104.12064   -2100.8855    4.3872676    4.3872676    4.3872676   -2100.8855   -4663.4822    6255.6954   -7894.8698    838.09859    1952.4684   -4629.2262     84.44664 
   61300    720.29403    -104.7725   0.65173718   -104.12076   -2889.3415     4.389454     4.389454     4.389454   -2889.3415   -14086.803     15118.09   -9699.3121    10590.484    15632.007   -639.14171    84.572957 
   61400    1177.6999   -105.18099    1.0656076   -104.11538   -6599.6806    4.3941249    4.3941249    4.3941249   -6599.6806   -16746.543    10141.124   -13193.622   -8507.7666   -9206.0988   -2928.7044    84.843229 
   61500    658.69294   -104.72246   0.59599921   -104.12646   -1376.6442    4.3851979    4.3851979    4.3851979   -1376.6442    11001.594    4230.4781   -19362.005    12010.079    12968.494    -3960.411     84.32718 
   61600    1133.4918   -105.14915    1.0256072   -104.12354    13934.519    4.3866974    4.3866974    4.3866974    13934.519   -4928.8569    51069.516   -4337.1026   -4902.8978    -10007.29    3127.2235    84.413716 
   61700    724.30492    -104.7844   0.65536632   -104.12904   -7937.5433    4.3973749    4.3973749    4.3973749   -7937.5433    19399.302   -17452.038   -25759.894    3980.8671    11052.257   -14710.505    85.031622 
   61800    927.62174   -104.96196   0.83933165   -104.12263    18760.647    4.3835381    4.3835381    4.3835381    18760.647   -1809.3834    57271.219    820.10691    5096.7486   -168.72388   -554.76527    84.231464 
   61900    964.08237   -104.99406   0.87232199   -104.12174   -285.00412    4.3926285    4.3926285    4.3926285   -285.00412    28622.511    -10592.07   -18885.454   -4850.2038    671.42589   -13960.406    84.756581 
   62000    675.49904   -104.73664   0.61120572   -104.12543   -2916.5964    4.3887356    4.3887356    4.3887356   -2916.5964   -21950.175    25548.966    -12348.58    6207.2333    13850.962   -12058.863    84.531438 
   62100      1005.77    -105.0284   0.91004187   -104.11836     14548.55    4.3889481    4.3889481    4.3889481     14548.55    21689.888    16778.806    5176.9571   -1568.7217   -7098.4641    2558.7434    84.543718 
   62200    953.38037   -104.98124   0.86263859    -104.1186   -25564.419    4.3960453    4.3960453    4.3960453   -25564.419   -24522.961   -14689.858    -37480.44   -3468.0468    14731.746    -11844.12    84.954515 
   62300    659.64109    -104.7122   0.59685712   -104.11534    11565.438    4.3920115    4.3920115    4.3920115    11565.438   -3604.1385    39451.403   -1150.9512    6087.0422   -3561.6724     9521.146    84.720871 
   62400    1206.0127   -105.20464    1.0912256   -104.11341    -21656.18    4.3910824    4.3910824    4.3910824    -21656.18   -15301.921   -19989.693   -29676.927   -9087.3516    7905.3717   -5902.5967    84.667114 
   62500    601.42896   -104.66226   0.54418556   -104.11808    11323.789    4.3906555    4.3906555    4.3906555    11323.789    4611.3805    47276.225   -17916.239    6017.7828    5758.6859   -577.41445    84.642422 
   62600    1129.7775   -105.13616    1.0222464   -104.11392   -18981.973    4.3927479    4.3927479    4.3927479   -18981.973   -23054.245    -21742.28   -12149.394   -2085.5773    1040.1344    11413.661    84.763489 
   62700    602.09585    -104.6634   0.54478898   -104.11861    19305.683    4.3870196    4.3870196    4.3870196    19305.683    24162.462    41432.773   -7678.1874   -3732.1737    11772.028   -16283.448    84.432321 
   62800    1206.5518   -105.20426    1.0917134   -104.11254   -15146.667     4.395405     4.395405     4.395405   -15146.667   -15821.096   -22600.729   -7018.1755    5995.4208   -2830.1948    21521.303      84.9174 
   62900    599.37373   -104.65957   0.54232595   -104.11725     7596.319    4.3904148    4.3904148    4.3904148     7596.319    19273.085    16325.124   -12809.252   -4639.3423    11439.872   -16262.706    84.628506 
   63000    1103.5513   -105.11565    0.9985164   -104.11713   -2609.6632    4.3902563    4.3902563    4.3902563   -2609.6632   -2133.5364    7146.7281   -12842.181     2506.521    1088.6715    9831.4837    84.619337 
   63100    1010.5028   -105.03477   0.91432421   -104.12045   -6133.3091    4.3932457    4.3932457    4.3932457   -6133.3091    6375.4939   -9444.4836   -15330.938    1776.6647    6577.1281    2771.8214    84.792314 
   63200    668.93148   -104.73459   0.60526326   -104.12933     5753.511     4.391227     4.391227     4.391227     5753.511   -10111.312    52178.585   -24806.741   -3228.3133     12293.49   -11220.995    84.675482 
   63300    1217.3606   -105.22941    1.1014935   -104.12792   -3695.2265    4.3926091    4.3926091    4.3926091   -3695.2265   -8072.2195   -2366.1234   -647.33664    6744.1492   -2100.0993    14403.874    84.755459 
   63400    700.92908    -104.7699   0.63421536   -104.13569    14506.046    4.3883192    4.3883192    4.3883192    14506.046    4509.2926    48106.347   -9097.5024   -3329.5129    12490.259   -12562.946    84.507381 
   63500    986.18821   -105.02047   0.89232382   -104.12815   -11267.098    4.3997702    4.3997702    4.3997702   -11267.098   -26574.982    19112.956   -26339.269    2115.3943    3648.5659    4309.7769    85.170653 
   63600    894.92985   -104.93507   0.80975134   -104.12532    11049.394    4.3845404    4.3845404    4.3845404    11049.394    2924.3083    24576.839    5647.0341   -710.20406    1175.3715    -2714.349    84.289256 
   63700    910.05741   -104.95778   0.82343907   -104.13434   -12158.044    4.3905311    4.3905311    4.3905311   -12158.044   -24495.735    7918.4769   -19896.874   -12903.173    11637.135   -5527.8379    84.635229 
   63800    872.67304   -104.91688   0.78961291   -104.12727    355.70061    4.4025599    4.4025599    4.4025599    355.70061   -11469.338    34182.925   -21646.485    1703.8432   -2472.8734    12760.701    85.332764 
   63900    820.83362   -104.87037   0.74270751   -104.12766   -10897.669     4.384397     4.384397     4.384397   -10897.669    -22831.78   -6394.0183   -3467.2087   -9323.9015     10833.34   -4328.5739     84.28099 
   64000    1056.1112   -105.07931   0.95559157   -104.12372    6068.9816    4.3900879    4.3900879    4.3900879    6068.9816   -2428.3227    24745.934   -4110.6662   -4170.1996    2023.5262   -5457.8539      84.6096 
   64100    768.39635   -104.81745   0.69526117   -104.12219    -9402.259    4.3975941    4.3975941    4.3975941    -9402.259   -21205.148    17560.734   -24562.363   -759.35498    8442.8342    8613.7362    85.044344 
   64200     898.0714   -104.93515   0.81259387   -104.12256    8857.1228    4.3836382    4.3836382    4.3836382    8857.1228   -1395.7782     9601.783    18365.364   -11855.793    1434.7351   -22527.356    84.237234 
   64300     1048.687   -105.06953   0.94887401   -104.12065    2046.0488    4.3962343    4.3962343    4.3962343    2046.0488   -4395.7279    41292.602   -30758.728    2121.6055     3839.854    7508.3603    84.965475 
   64400    568.32393   -104.64628   0.51423143   -104.13205    1518.8586    4.3850829    4.3850829    4.3850829    1518.8586    161.29842    13988.334    -9593.057   -13745.217    5441.6173   -13152.874    84.320549 
   64500    1267.7558   -105.27311    1.1470921   -104.12602    600.48103    4.3891484    4.3891484    4.3891484    600.48103   -4722.2777    13640.708    -7116.987   -13556.464   -5680.1769     2268.093     84.55529 
   64600    761.60029   -104.81719   0.68911195   -104.12808   -2614.2707    4.3945143    4.3945143    4.3945143   -2614.2707    1251.1128    19160.111   -28254.035   -1092.7925    4710.8907   -1548.0446     84.86579 
   64700    790.02876   -104.84041   0.71483462   -104.12557    5887.5574    4.3855264    4.3855264    4.3855264    5887.5574   -2756.4958    22670.116   -2250.9476   -23059.013   -2767.3717   -5007.7801    84.346135 
   64800    1151.8494   -105.15933    1.0422176   -104.11711     4434.269    4.3974734    4.3974734    4.3974734     4434.269   -12384.484    41691.972   -16004.681    6374.6632    599.65025    498.00914    85.037338 
   64900    616.19068    -104.6803   0.55754228   -104.12276     7905.735    4.3873322    4.3873322    4.3873322     7905.735   -2241.8231    33276.671   -7317.6427   -16474.913    2156.5115   -10554.386    84.450369 
   65000    1096.1414   -105.11022   0.99181177   -104.11841    83.093014    4.3882701    4.3882701    4.3882701    83.093014   -19988.304    23202.529   -2964.9462   -31.811544   -5925.2542   -440.12384    84.504545 
   65100    874.43507   -104.91446   0.79120723   -104.12325   -5673.3038    4.3950454    4.3950454    4.3950454   -5673.3038   -7023.3681    13510.134   -23506.678   -4519.9375    8829.7229   -2794.4504    84.896562 
   65200    745.54225    -104.8039    0.6745823   -104.12931   -8994.8154    4.3869565    4.3869565    4.3869565   -8994.8154   -11119.341   -3102.5256    -12762.58   -13198.756     -8866.62    -22129.64    84.428679 
   65300    1226.5463   -105.23263    1.1098049   -104.12283    -8159.392    4.3839026    4.3839026    4.3839026    -8159.392   -8324.1909    687.67181   -16841.657    7908.5448    7290.3344    10199.211    84.252477 
   65400    553.64666   -104.63643   0.50095113   -104.13548   -7863.5833     4.393277     4.393277     4.393277   -7863.5833   -8279.8783    10728.809    -26039.68   -17424.955   -2508.2965   -29493.026    84.794122 
   65500     1172.862   -105.18477    1.0612302   -104.12354    8332.6582    4.3850131    4.3850131    4.3850131    8332.6582   -3856.5923    29601.241   -746.67439   -1012.0346   -587.39707    7387.1026    84.316521 
   65600     883.0003   -104.92513   0.79895722   -104.12617   -5495.2454    4.3946156    4.3946156    4.3946156   -5495.2454   -18257.185    26772.674   -25001.225    394.00267     9255.448   -9599.8583    84.871654 
   65700      578.778   -104.65182    0.5236905   -104.12813     21005.71    4.3893239    4.3893239    4.3893239     21005.71    1199.6469    54574.382     7243.102   -15796.738    -11690.68   -8576.2828    84.565433 
   65800    1400.4784    -105.3936    1.2671823   -104.12642   -15281.536    4.3940417    4.3940417    4.3940417   -15281.536   -20212.506   -859.12922   -24772.973    9482.7242    15135.359    12207.185    84.838408 
   65900    694.43504   -104.76657   0.62833942   -104.13823    5292.8038    4.3889968    4.3889968    4.3889968    5292.8038   -18363.372     38266.33   -4024.5467   -5583.5405    -5797.463   -9000.4561    84.546529 
   66000    880.57213   -104.93153   0.79676017   -104.13477    5038.3031    4.3957111    4.3957111    4.3957111    5038.3031    499.48237    30097.109   -15481.682   -1522.6229    2429.4656   -4250.5331    84.935146 
   66100    1080.7625   -105.10498   0.97789661   -104.12708   -10247.687    4.3950167    4.3950167    4.3950167   -10247.687   -33067.601    12639.963   -10315.425    5874.5546    7352.1263    -1172.797    84.894899 
   66200    706.63293   -104.76968   0.63937632    -104.1303    10590.862    4.3873153    4.3873153    4.3873153    10590.862    192.69721    28385.003    3194.8861   -13202.352   -6568.6006   -20164.694    84.449396 
   66300     1091.719   -105.11364   0.98781025   -104.12583   -10641.429    4.4017665    4.4017665    4.4017665   -10641.429   -16504.202   -3979.0048    -11441.08    4411.8082    12614.656    5035.4662    85.286638 
   66400    809.12556   -104.86384   0.73211381   -104.13173   -13674.775    4.3924212    4.3924212    4.3924212   -13674.775    -29976.92    -18188.46    7141.0557   -10361.904   -7113.4456   -2686.1244    84.744583 
   66500    850.05557   -104.89717   0.76914814   -104.12802    19793.904    4.3947871    4.3947871    4.3947871    19793.904    7218.7272    53753.656     -1590.67   -6082.1223    4676.5664    -4311.533    84.881595 
   66600    1101.2427   -105.12152   0.99642753   -104.12509   -16963.527    4.3994713    4.3994713    4.3994713   -16963.527   -25740.309   -18158.084   -6992.1881    8401.2959   -1689.2893    3350.2461    85.153299 
   66700    626.51373   -104.69486   0.56688279   -104.12798    13413.628    4.3924392    4.3924392    4.3924392    13413.628   -7096.2331    45345.149    1991.9668   -10135.095   -5431.6278   -10306.546     84.74562 
   66800     1035.833   -105.06075   0.93724345   -104.12351     10751.08    4.4028196    4.4028196    4.4028196     10751.08   -5289.1294     53132.08    -15589.71    11594.005   -860.85353    3593.8355    85.347866 
   66900    623.93297   -104.70697   0.56454767   -104.14243   -8090.9124    4.3893751    4.3893751    4.3893751   -8090.9124   -26940.065   -9456.0235    12123.351   -14480.938   -8129.5212   -1734.3368    84.568398 
   67000    1234.6183   -105.26309    1.1171086   -104.14599    119.96793    4.3936446    4.3936446    4.3936446    119.96793    17549.749   -2309.5919   -14880.253   -6930.3422   -5296.4585   -11825.267    84.815414 
   67100    850.46218   -104.91339   0.76951605   -104.14387    64.506451    4.4051206    4.4051206    4.4051206    64.506451   -16141.068    34190.946   -17856.358   -546.03813   -6430.9986    8879.3181    85.481749 
   67200    430.03164   -104.52763   0.38910167   -104.13853    22855.538    4.3877017    4.3877017    4.3877017    22855.538   -1070.1085    47891.079    21745.642   -15522.387   -3081.4336   -20156.739    84.471707 
   67300    1385.0173   -105.38421    1.2531927   -104.13102   -10393.437    4.3982901    4.3982901    4.3982901   -10393.437    2371.9057   -15030.873   -18521.343    8714.3157   -1117.4988    8188.0705    85.084728 
   67400    837.55746   -104.89566   0.75783959   -104.13782   -9511.3781    4.3947722    4.3947722    4.3947722   -9511.3781   -11527.902   -10810.264   -6195.9688   -15290.935    -4869.614   -5342.8224    84.880731 
   67500    726.76987   -104.79154   0.65759666   -104.13394    16029.057    4.3946883    4.3946883    4.3946883    16029.057     5869.662    37254.409    4963.0995   -3972.3823    3583.6967    2367.3397    84.875867 
   67600     1203.413   -105.21104    1.0888734   -104.12217   -11778.375    4.4002725    4.4002725    4.4002725   -11778.375    2575.3993   -5043.2646   -32867.261   -6991.4965   -5678.3307    2126.0067    85.199829 
   67700    637.21357   -104.70396   0.57656423   -104.12739    9977.0343     4.387013     4.387013     4.387013    9977.0343    4620.9836    27718.612    -2408.493   -16082.294    1708.9832   -13768.813    84.431937 
   67800    980.36705   -105.02065   0.88705671   -104.13359    5254.7866    4.4019177    4.4019177    4.4019177    5254.7866     1121.683    39434.356   -24791.679    5498.8555    1519.9454   -1572.1365    85.295427 
   67900     866.6368   -104.92204   0.78415119   -104.13789    292.17608    4.3925027    4.3925027    4.3925027    292.17608   -1079.2298    22865.995   -20910.237   -7953.5233   -5750.3482   -12492.344    84.749301 
   68000    889.53688   -104.94174   0.80487167   -104.13687   -815.10766    4.3866918    4.3866918    4.3866918   -815.10766    8122.3245   -1242.9245    -9324.723   -3362.6829    7299.1596   -1519.6414    84.413392 
   68100    965.99015    -105.0015   0.87404819   -104.12745    6909.1308    4.4024232    4.4024232    4.4024232    6909.1308    -18568.39    69945.645   -30649.862    5273.1948   -473.89915    5185.8138    85.324814 
   68200    638.65401   -104.71902   0.57786757   -104.14116   -6255.6322    4.3906911    4.3906911    4.3906911   -6255.6322    -5161.887    5615.2963   -19220.306   -14713.684    730.60287   -15638.787     84.64448 
   68300    1109.9241   -105.14037    1.0042827   -104.13608     11145.81    4.3858321    4.3858321    4.3858321     11145.81    23639.091    13506.491    -3708.153     6855.424    4525.1487    12577.837    84.363775 
   68400    756.93003   -104.82075   0.68488619   -104.13586   -22640.331    4.4064033    4.4064033    4.4064033   -22640.331   -24932.124    -19413.42   -23575.449   -13118.673    2632.3809   -13675.101    85.556446 
   68500    845.49845   -104.88924   0.76502476   -104.12422      5837.28    4.3849427    4.3849427    4.3849427      5837.28    3042.0924    19524.208   -5054.4608   -2931.5575     2012.403   -5428.8702    84.312459 
   68600    1153.2216   -105.16249    1.0434591   -104.11903   -1321.8686    4.3975647    4.3975647    4.3975647   -1321.8686   -762.87204    11374.225   -14576.959    -756.9137   -579.06532   -1030.9444    85.042635 
   68700    650.58264   -104.71477   0.58866085   -104.12611   -5194.8101    4.3922823    4.3922823    4.3922823   -5194.8101   -29905.667    21977.263   -7656.0262   -17429.795    5442.4025   -11470.555     84.73654 
   68800    944.34933   -104.97802   0.85446712   -104.12355     9766.041    4.3916652    4.3916652    4.3916652     9766.041   -3711.8179    30697.082    2312.8593    6445.3133   -851.88602    3929.0996    84.700833 
   68900    1128.8011   -105.14484     1.021363   -104.12347   -16343.368     4.396161     4.396161     4.396161   -16343.368   -31873.539    6899.6639   -24056.228   -15078.657    1372.9658   -1110.0337    84.961228 
   69000    560.49296   -104.63432   0.50714581   -104.12717    20104.041     4.382799     4.382799     4.382799    20104.041   -15697.904    47187.096    28822.932   -8953.9662    3317.7964   -15983.565    84.188867 
   69100    1321.5497   -105.31813    1.1957659   -104.12236   -12254.509    4.3954525    4.3954525    4.3954525   -12254.509   -17517.067   -9778.0286   -9468.4303    164.64154   -10011.822    15801.914    84.920156 
   69200    548.05447   -104.62589    0.4958912   -104.12999    14309.009    4.3944018    4.3944018    4.3944018    14309.009    -29921.23    59449.648    13398.607    -19034.16    4886.4183   -15200.621    84.859272 
   69300    1262.1197   -105.26203    1.1419924   -104.12003   -1603.1941     4.393573     4.393573     4.393573   -1603.1941   -18419.551   -7582.5153    21192.484   -389.74243   -7258.9534    3633.0113    84.811266 
   69400    618.63441   -104.68467   0.55975342   -104.12492    22744.191    4.3909507    4.3909507    4.3909507    22744.191   -15279.086    84278.514   -766.85475    -13783.65   -219.38812   -779.68318    84.659498 
   69500    1038.8978   -105.06447   0.94001654   -104.12446   -16496.617    4.4007298    4.4007298    4.4007298   -16496.617   -30875.391   -23296.606     4682.147   -8626.7121   -4242.9183   -13834.591    85.226392 
   69600    1149.9771   -105.15849    1.0405235   -104.11797    14855.174    4.3866877    4.3866877    4.3866877    14855.174   -5035.7281    43787.417    5813.8332   -2588.2126    -2423.787     6057.496    84.413158 
   69700    521.99386   -104.60343   0.47231101   -104.13111   -11590.008    4.3952577    4.3952577    4.3952577   -11590.008   -27679.495   -20007.358     12916.83   -16669.331    2744.6048   -19041.641    84.908863 
   69800    1105.2993   -105.11872     1.000098   -104.11863    2728.9427    4.3968317    4.3968317    4.3968317    2728.9427   -11430.166   -909.30807    20526.302    8933.8185   -2241.1815   -9584.0419     85.00012 
   69900    859.40667   -104.90285   0.77760921   -104.12524   -4053.2268    4.3870484    4.3870484    4.3870484   -4053.2268   -19639.887   -7294.7048    14774.911   -22960.288    6756.2205    2856.1689    84.433982 
   70000    847.17108   -104.89073   0.76653819   -104.12419    15308.604    4.3859165    4.3859165    4.3859165    15308.604   -4633.2848    21233.534    29325.561    587.18128    995.26811   -13816.057    84.368644 
   70100    954.47297   -104.98603    0.8636272    -104.1224   -11628.234    4.4006147    4.4006147    4.4006147   -11628.234    -26744.55    -23475.99    15335.839   -14951.005    4736.8202    13723.655    85.219709 
   70200    869.45209   -104.91271   0.78669853   -104.12601   -8743.0617    4.3905706    4.3905706    4.3905706   -8743.0617   -10968.429   -5769.9414   -9490.8148   -8615.2551    2370.3978   -12577.428    84.637511 
   70300    917.71401   -104.95527   0.83036692    -104.1249    12865.641    4.3809186    4.3809186    4.3809186    12865.641   -7534.7477    -3426.801    49558.471   -3127.5369   -968.64253   -538.61924    84.080549 
   70400    755.80635   -104.81751   0.68386947   -104.13364   -24439.283    4.4021999    4.4021999    4.4021999   -24439.283    -24420.03   -44794.917   -4102.9037   -16568.879    4371.2767   -2337.9386    85.311832 
   70500    1115.7913   -105.13308    1.0095914   -104.12349   -14944.444    4.3960344    4.3960344    4.3960344   -14944.444   -13181.546   -23188.908   -8462.8768     6228.737   -4809.1352   -24500.929    84.953886 
   70600    694.90189   -104.75532   0.62876183   -104.12656    18222.139     4.375455     4.375455     4.375455    18222.139   -3431.6145   -7624.7241    65722.756   -17873.861    210.97164    9730.7332    83.766362 
   70700    921.40701   -104.96599   0.83370842   -104.13228   -11725.531    4.3981408    4.3981408    4.3981408   -11725.531   -8736.9619   -33489.002    7049.3694    4688.2333   -3771.8967   -14996.823    85.076062 
   70800    879.42215   -104.91823   0.79571964   -104.12251   -2092.5932    4.4002143    4.4002143    4.4002143   -2092.5932   -26654.501    7158.2515    13218.469    -4935.565    2806.7544    3431.1107    85.196448 
   70900    927.80302   -104.95182   0.83949567   -104.11232    5590.5178    4.3886951    4.3886951    4.3886951    5590.5178    475.25147    -14392.53    30688.831   -4033.2552   -1481.4624    5930.6474    84.529099 
   71000    847.00733   -104.88019   0.76639003    -104.1138    7290.1539    4.3886907    4.3886907    4.3886907    7290.1539   -10519.867    12634.333    19755.996    2974.3738    5402.0557   -7132.9019    84.528842 
   71100    998.99338   -105.01854   0.90391021   -104.11463   -10164.625    4.4015575    4.4015575    4.4015575   -10164.625   -23012.699   -23543.193    16062.018   -5312.0286    2509.9055    9605.7718    85.274493 
   71200    899.45664   -104.92948   0.81384727   -104.11563   -885.13874    4.3909174    4.3909174    4.3909174   -885.13874    -7258.913   -1715.2887    6318.7855    3623.9636    7205.0941    3338.9662    84.657568 
   71300    985.32565   -105.00945   0.89154335    -104.1179   -6378.6731    4.3860318    4.3860318    4.3860318   -6378.6731   -20893.495   -10396.885     12154.36   -1785.4935    788.18676    -3558.192    84.375301 
   71400    717.69353   -104.77421   0.64938419   -104.12482   -685.71066    4.3965759    4.3965759    4.3965759   -685.71066    968.45911   -28023.667    24998.076    2396.2607    1229.1686    24082.202    84.985284 
   71500    1163.1176   -105.17416    1.0524133   -104.12174   -17701.409    4.3921925    4.3921925    4.3921925   -17701.409   -17340.445    -26787.59   -8976.1913    1754.8604    493.39818   -21709.272    84.731345 
   71600    677.89362   -104.73577   0.61337239    -104.1224   -573.27074     4.394849     4.394849     4.394849   -573.27074    1890.2196   -30201.719    26591.687   -2101.2601   -8673.9648    27371.918    84.885178 
   71700    961.40456   -104.98859   0.86989905   -104.11869    -7196.215    4.3924119    4.3924119    4.3924119    -7196.215    -2355.921   -23971.891    4739.1665    4239.8422   -1522.0356   -16128.043    84.744044 
   71800    936.63053   -104.96434   0.84748299   -104.11686   -9778.2725     4.390751     4.390751     4.390751   -9778.2725     -14909.2   -16314.487    1888.8693   -7540.8036   -3729.9652    15451.429    84.647949 
   71900    741.32183   -104.78776   0.67076357     -104.117   -2866.9081    4.3910375    4.3910375    4.3910375   -2866.9081    14947.776   -26324.093    2775.5924    1073.7649   -1148.1559    12467.091    84.664517 
   72000    951.00152   -104.97484   0.86048616   -104.11435   -10239.556    4.3951838    4.3951838    4.3951838   -10239.556   -19869.485   -9768.9599   -1080.2241     1052.247    729.74179   -11193.568    84.904583 
   72100    957.75594   -104.98132   0.86659771   -104.11472   -12833.187    4.3896958    4.3896958    4.3896958   -12833.187    6834.3491   -28059.002   -17274.908   -5407.5389   -2661.9691    37544.088    84.586934 
   72200    735.61905    -104.7867   0.66560358   -104.12109    10025.298     4.387864     4.387864     4.387864    10025.298   -12918.376   -10293.469    53287.739    6930.9045    2777.4131   -22081.076    84.481081 
   72300     928.4882   -104.96972   0.84011564   -104.12961   -21438.404    4.4009533    4.4009533    4.4009533   -21438.404   -11984.788   -37432.175   -14898.248   -656.43199   -4799.5285    28352.437    85.239382 
   72400    959.51907   -104.99279   0.86819302   -104.12459    -1647.173    4.3891257    4.3891257    4.3891257    -1647.173   -6325.5038   -14079.669    15463.654    3357.0497   -8881.5036   -3613.7337    84.553983 
   72500    839.01922   -104.88109   0.75916222   -104.12193    3428.5673    4.3820166    4.3820166    4.3820166    3428.5673   -5451.4852   -19873.207    35610.394    1547.4956   -1713.9209    51.002354    84.143786 
   72600    765.32925   -104.82022   0.69248599   -104.12774    -20475.61    4.4028951    4.4028951    4.4028951    -20475.61    -13085.23   -42728.975   -5612.6232    114.36071   -14159.709    27265.654    85.352258 
   72700    1148.2985   -105.15236    1.0390047   -104.11336     3248.011    4.3914176    4.3914176    4.3914176     3248.011   -6191.4847   -18585.425    34520.943    4141.6058    3308.8738   -16508.796    84.686504 
   72800    545.22146    -104.6137   0.49332783   -104.12037   -4550.1866    4.3892324    4.3892324    4.3892324   -4550.1866    2793.2787   -41649.411    25205.572   -6080.2058   -5194.0872     35752.12    84.560144 
   72900    1310.7337   -105.29795    1.1859794   -104.11197   -9602.1569     4.394405     4.394405     4.394405   -9602.1569   -13112.343   -25373.488    9679.3605    7099.4566    3758.2442    -5750.712    84.859458 
   73000    546.15103   -104.61464   0.49416893   -104.12047    9327.0187    4.3933506    4.3933506    4.3933506    9327.0187    7335.4363   -15109.356    35754.976   -987.29468    3729.5494    15211.476    84.798387 
   73100     1143.213   -105.15061    1.0344031   -104.11621   -15288.412    4.3946766    4.3946766    4.3946766   -15288.412   -6587.8353   -38260.358   -1017.0435   -26.353333    1416.9205    17436.915    84.875191 
   73200    920.18647   -104.95215   0.83260405   -104.11955    21416.024    4.3852115    4.3852115    4.3852115    21416.024   -819.23555    11183.065    53884.242    5548.7403   -162.99655   -1451.6451    84.327965 
   73300    672.34945   -104.74449   0.60835591   -104.13614   -2344.0612    4.3966651    4.3966651    4.3966651   -2344.0612   -1535.0946    -29161.54    23664.451   -1726.6481   -2714.4403    27471.412    84.990453 
   73400    1237.5217   -105.24035    1.1197356   -104.12062    6076.9185    4.3940006    4.3940006    4.3940006    6076.9185   -13657.231    2137.5686    29750.418    5267.4705   -4007.4536   -12723.862    84.836027 
   73500     558.0736   -104.63061   0.50495672   -104.12565      8155.26    4.3806926    4.3806926    4.3806926      8155.26    20417.224   -17475.123    21523.679   -440.79905    648.75876    31212.764     84.06754 
   73600    1120.7034   -105.13443     1.014036    -104.1204   -3507.5257    4.3982095    4.3982095    4.3982095   -3507.5257   -23730.897   -7955.9958    21164.316    2626.6236   -5535.0075   -11084.804    85.080049 
   73700    964.39151   -104.99203    0.8726017   -104.11943    -9556.903    4.3919454    4.3919454    4.3919454    -9556.903    6414.6632   -30026.533   -5058.8396    240.25187    3309.1187    26285.838    84.717047 
   73800    574.45364   -104.64731   0.51977773   -104.12753    661.38246    4.3907793    4.3907793    4.3907793    661.38246   -9078.4721   -15845.931    26908.551   -3018.6459   -5431.3935    1167.5844    84.649581 
   73900    1157.0425   -105.17276    1.0469164   -104.12584    5590.5561    4.3866661    4.3866661    4.3866661    5590.5561   -15043.866   -6133.6951    37949.229   -511.37355    1223.7801    8790.1233    84.411912 
   74000    709.91165    -104.7763   0.64234298   -104.13396   -13497.247     4.392758     4.392758     4.392758   -13497.247    2422.2913   -31561.868   -11352.164   -3353.2203   -664.18246     18035.77    84.764074 
   74100    976.22643   -105.00593   0.88331019   -104.12262    6103.7637    4.3898373    4.3898373    4.3898373    6103.7637   -10139.747   -5692.0075    34143.045   -2386.4568   -4380.9001   -9036.8434    84.595111 
   74200    831.89353   -104.87828   0.75271474   -104.12556     6174.428    4.3857427    4.3857427    4.3857427     6174.428   -6513.2327   -1341.9713    26378.488    4074.9869    3210.5572    19427.853    84.358616 
   74300    1032.7975   -105.05642   0.93449689   -104.12193    1580.5711    4.3913809    4.3913809    4.3913809    1580.5711   -4003.2355   -301.71787    9046.6667   -2310.0831   -4614.0653   -6236.9966    84.684383 
   74400    648.99911   -104.70979   0.58722804   -104.12256    13208.045    4.3890485    4.3890485    4.3890485    13208.045     1429.402   -1755.2446    39949.977    2182.3701     4241.591    6169.8407     84.54952 
   74500    1073.8164   -105.09061   0.97161161     -104.119   -83.942955    4.3863862    4.3863862    4.3863862   -83.942955   -4377.2145    4516.6056   -391.21991    1127.9348   -1639.5538    11143.943    84.395753 
   74600    802.38213   -104.84645   0.72601221   -104.12043    2667.0806    4.3913513    4.3913513    4.3913513    2667.0806    2152.0718   -17798.535    23647.705   -2100.6226    801.39466   -14935.344    84.682673 
   74700    886.00186   -104.92191    0.8016731   -104.12023   -9081.3321    4.3856473    4.3856473    4.3856473   -9081.3321     981.0528   -17985.485   -10239.564    3360.7423    12371.322    23189.333     84.35311 
   74800    865.84784   -104.90535   0.78343733   -104.12191    -8044.072     4.391451     4.391451     4.391451    -8044.072    855.91042    -15593.79   -9394.3362    -2986.054    1465.2535   -21971.722    84.688438 
   74900    957.02034   -104.98381   0.86593211   -104.11788   -10777.606    4.3934413    4.3934413    4.3934413   -10777.606    -20637.37   -19900.228    8204.7782    2085.8072    12368.599    19277.776    84.803638 
   75000    932.31846   -104.96007   0.84358134   -104.11649   -9022.8563    4.3823735    4.3823735    4.3823735   -9022.8563    6825.3153   -21080.091   -12813.793   -3149.2914   -2648.0945   -15586.723    84.164348 
   75100    720.35668   -104.77449   0.65179386    -104.1227    351.30394    4.3896798    4.3896798    4.3896798    351.30394   -16629.301   -5522.3079    23205.521    1371.2278    2088.7067   -11545.351    84.586007 
   75200    1301.1338   -105.29319    1.1772932    -104.1159   -16454.425    4.3938558    4.3938558    4.3938558   -16454.425   -13641.493   -20892.077   -14829.705    352.57907   -2282.6293    2193.8339    84.827644 
   75300    505.05494   -104.58009   0.45698432    -104.1231    2810.1622    4.3857285    4.3857285    4.3857285    2810.1622   -11177.904    -11291.71    30900.101   -2488.2354   -195.37215   -31549.642    84.357797 
   75400    1207.7105   -105.20777    1.0927618     -104.115   -557.99121    4.3836618    4.3836618    4.3836618   -557.99121   -3629.2525    4610.6582   -2655.3793    3046.2609   -598.93478    4736.2156    84.238594 
   75500    758.30322    -104.8121   0.68612869   -104.12597   -15478.497    4.3997819    4.3997819    4.3997819   -15478.497   -21877.854   -22238.994   -2318.6436   -6087.7776     3461.342   -25272.279    85.171336 
   75600    975.68659   -105.00318   0.88282173   -104.12036   -2851.6471    4.3866419    4.3866419    4.3866419   -2851.6471   -17010.313   -11019.198     19474.57    1091.1997    1842.3837   -5893.7971    84.410515 
   75700    1004.2965   -105.02642    0.9087086   -104.11771    4310.6231    4.3796156    4.3796156    4.3796156    4310.6231    8134.3268   -9061.0544    13858.597   -3171.0826    5520.6267   -8066.7387     84.00555 
   75800     711.4173   -104.76934   0.64370532   -104.12564   -1802.4723    4.3958862    4.3958862    4.3958862   -1802.4723   -11236.292   -33823.771    39652.646   -1837.1702    4137.6836   -15131.783    84.945291 
   75900    1118.1306     -105.127     1.011708   -104.11529   -5777.0444    4.3926295    4.3926295    4.3926295   -5777.0444   -11394.274   -6478.8868    542.02712    945.34397    13292.506    2809.6076    84.756636 
   76000    598.07677   -104.65944   0.54115243   -104.11829    7446.1747     4.383404     4.383404     4.383404    7446.1747    17658.211    -41108.95    45789.263   -2700.7898   -2833.9761   -16488.066    84.223735 
   76100    1128.5886   -105.13521    1.0211706   -104.11404   -3967.9719    4.3891565    4.3891565    4.3891565   -3967.9719   -14385.541    10622.202   -8140.5761   -2127.1124    13247.084    5502.0975     84.55576 
   76200    795.49986   -104.83906   0.71978499   -104.11927    -306.7904    4.3931868    4.3931868    4.3931868    -306.7904     12033.97   -25132.325    12177.983   -3309.9681   -3154.7323    -13727.31    84.788901 
   76300    918.65182   -104.94788   0.83121547   -104.11666   -8196.4024    4.3897886    4.3897886    4.3897886   -8196.4024   -10842.432   -17236.466    3489.6904   -5573.6444    610.85695    341.33843    84.592298 
   76400    1009.8885   -105.02873   0.91376833   -104.11496    11872.876    4.3800792    4.3800792    4.3800792    11872.876    22419.517    16673.795   -3474.6824   -2866.2745    4766.0335   -4579.6326    84.032228 
   76500    893.37318   -104.93007   0.80834283   -104.12173   -5248.1971    4.3972666    4.3972666    4.3972666   -5248.1971   -14214.261   -18717.579    17187.249    -9935.649   -9621.9959   -12665.434    85.025345 
   76600    918.98742     -104.947   0.83151913   -104.11548    36.127725    4.3918176    4.3918176    4.3918176    36.127725   -794.37791    8996.2175   -8093.4564    2580.9693     10900.26    5834.5483    84.709648 
   76700    858.13894   -104.89395   0.77646214   -104.11749    7374.4594    4.3818636    4.3818636    4.3818636    7374.4594    13331.818   -3775.4474    12567.007   -6347.6942    1628.5113   -19783.919    84.134976 
   76800    1029.1604   -105.04773   0.93120593   -104.11652    2706.0171    4.3867108    4.3867108    4.3867108    2706.0171    3339.6766    9016.9682   -4238.5934    1484.9817    1319.4843    4944.3665    84.414493 
   76900    730.36828   -104.77835   0.66085257    -104.1175    -9880.357    4.3957195    4.3957195    4.3957195    -9880.357    3606.2711   -23917.455   -9329.8869    2264.6458    10039.007   -4838.5458    84.935629 
   77000    1055.1599   -105.06561   0.95473085   -104.11088    -1833.674    4.3861549    4.3861549    4.3861549    -1833.674    9435.4359   -16319.948    1383.4905   -10297.015   -3220.0846    -10728.09    84.382405 
   77100    794.25964   -104.83551   0.71866281   -104.11685     20388.61    4.3806987    4.3806987    4.3806987     20388.61    41776.789    19805.003   -415.96058    10610.525     10342.39    6500.8146    84.067893 
   77200    966.46347   -104.99387   0.87447646    -104.1194   -19481.452    4.3985017    4.3985017    4.3985017   -19481.452   -14042.766   -33004.361   -11397.228   -7648.2643    4633.5503   -17176.873    85.097006 
   77300    782.51798   -104.82451   0.70803871   -104.11647    21062.508    4.3874814    4.3874814    4.3874814    21062.508    37943.644    24185.259    1058.6201   -3127.8472   -1556.1996    4351.6953    84.458989 
   77400    1121.0732   -105.12969    1.0143706   -104.11532   -3652.4386    4.3841222    4.3841222    4.3841222   -3652.4386   -8436.1484    4092.5722   -6613.7396   -1909.4276    10624.688   -8781.5462    84.265142 
   77500     691.1071   -104.74308   0.62532823   -104.11775    12361.176    4.3882613    4.3882613    4.3882613    12361.176    16075.074    9410.4773    11597.978    -16053.18   -5910.1373   -3867.7236    84.504031 
   77600    1035.5997   -105.05124   0.93703236    -104.1142    -2110.466    4.3929806    4.3929806    4.3929806    -2110.466   -4235.3197    7011.5149   -9107.5933    1657.2344    10077.971    2178.1449    84.776964 
   77700    889.21053   -104.92026   0.80457637   -104.11569    4877.1993    4.3845141    4.3845141    4.3845141    4877.1993    12035.342   -8317.0204    10913.277   -18011.693    1086.6017   -8150.2928    84.287738 
   77800    883.03789   -104.91721   0.79899124   -104.11821    14688.439    4.3809346    4.3809346    4.3809346    14688.439    12723.238    21582.346    9759.7319   -3402.7477    3952.0378    7925.1077    84.081474 
   77900    860.25484   -104.89768   0.77837666    -104.1193   -14366.891    4.3980888    4.3980888    4.3980888   -14366.891   -13880.088   -28094.704   -1125.8802   -8546.3742    15827.242   -6136.3138    85.073044 
   78000    1055.7978   -105.06925   0.95530804   -104.11394    1384.5095    4.3859994    4.3859994    4.3859994    1384.5095    5197.3778    1470.7351   -2514.5843    -16657.23   -6148.1718     5653.762    84.373428 
   78100     778.5487   -104.82094   0.70444722   -104.11649    6413.9632    4.3801583    4.3801583    4.3801583    6413.9632    2788.1327    2763.7684    13689.989    4687.6673     19584.46   -747.56134    84.036784 
   78200    849.97997   -104.89376   0.76907974   -104.12468   -19795.839    4.3920392    4.3920392    4.3920392   -19795.839    -19285.62   -36896.472   -3205.4232   -26406.606   -6333.7164    2217.9236    84.722471 
   78300    1115.3805   -105.12895    1.0092198   -104.11973   -4794.9813     4.390178     4.390178     4.390178   -4794.9813   -11343.026    9860.4015   -12902.319    14072.088    12029.595    1897.3715    84.614813 
   78400    788.50436   -104.83672   0.71345531   -104.12326   -5845.3589    4.3783269    4.3783269    4.3783269   -5845.3589   -7405.7704   -14829.392    4699.0854   -27124.628    483.92028    4215.1205    83.931416 
   78500    894.87498   -104.93319   0.80970168   -104.12349     2831.702    4.3906183    4.3906183    4.3906183     2831.702    -3100.284    9983.5755    1611.8144   -939.60074    -2052.886    -2625.111     84.64027 
   78600    912.81092   -104.94903    0.8259305    -104.1231   -7380.5354    4.3917725    4.3917725    4.3917725   -7380.5354   -1309.2215     4331.284   -25163.669   -11944.928    12426.119    1889.0995    84.707037 
   78700    904.98848   -104.93688   0.81885259   -104.11803    7787.5658    4.3828748    4.3828748    4.3828748    7787.5658    -11347.22    17675.564    17034.353   -20239.463   -7379.5878     627.6416    84.193235 
   78800    905.17783   -104.93384   0.81902392   -104.11481     264.1222    4.3864545    4.3864545    4.3864545     264.1222    9760.2412     11657.83   -20625.705    7334.0647    11975.241   -6156.1613    84.399698 
   78900    775.68725   -104.82052   0.70185812   -104.11866   -4093.5313    4.3898763    4.3898763    4.3898763   -4093.5313   -23325.643   -3307.6893    14352.738   -32739.315     1010.108    5012.9515    84.597366 
   79000    1186.9318   -105.18523    1.0739609   -104.11127     1656.772    4.3874968    4.3874968    4.3874968     1656.772    4311.6383    13639.719   -12981.041    9597.3218    781.27612   -9667.0098    84.459875 
   79100    528.22226    -104.5972    0.4779466   -104.11926    2401.3987    4.3844619    4.3844619    4.3844619    2401.3987   -26047.162    9087.1486    24164.209   -24103.287    11788.062    3988.8318     84.28473 
   79200    1203.0347   -105.20557    1.0885311   -104.11704   -7421.3978    4.3896272    4.3896272    4.3896272   -7421.3978   -18084.405   -7055.0671    2875.2782   -5504.4561   -5687.7408   -7043.1275    84.582968 
   79300    783.83293   -104.82729    0.7092285   -104.11806     10131.97    4.3884787    4.3884787    4.3884787     10131.97    4869.3419    24989.019    537.55071   -4155.3826    17282.417   -726.33635    84.516592 
   79400     901.4266   -104.93182   0.81562974   -104.11619   -8838.7683    4.3825862    4.3825862    4.3825862   -8838.7683   -22936.946   -12467.004    8887.6453   -21199.918   -1541.3066    664.63413    84.176603 
   79500    901.15368   -104.93026   0.81538278   -104.11488    19276.531    4.3859631    4.3859631    4.3859631    19276.531    28176.289    18483.147    11170.155    11861.181    8760.6029   -2578.4352    84.371332 
   79600    917.82458    -104.9502   0.83046697   -104.11973   -15959.494    4.3938944    4.3938944    4.3938944   -15959.494   -35472.652    7088.1528   -19493.983   -29006.987    5961.8896    3992.9716    84.829878 
   79700    925.41547   -104.95139   0.83733536   -104.11406    11670.483    4.3843998    4.3843998    4.3843998    11670.483    13201.115    3648.4184    18161.915    15811.096    377.39504    1011.8649    84.281149 
   79800     797.2945   -104.84179   0.72140882   -104.12038    2918.5497    4.3813946    4.3813946    4.3813946    2918.5497   -16284.209    22704.678    2335.1802   -16543.302    8904.6686    4660.7785    84.107963 
   79900    981.52498   -105.01075   0.88810443   -104.12264   -9589.5416    4.3943764    4.3943764    4.3943764   -9589.5416   -18296.224   -22346.166    11873.766   -2658.4564    308.13611    2190.5252    84.857796 
   80000    1003.1167    -105.0247   0.90764105   -104.11706   -6819.6895    4.3859932    4.3859932    4.3859932   -6819.6895   -10533.932   -5089.4336   -4835.7033    13426.561    7958.7099     8729.902    84.373075 
   80100    706.45963    -104.7585   0.63921952   -104.11928    4027.4474    4.3789859    4.3789859    4.3789859    4027.4474   -27295.499   -669.89321    40047.734   -29154.738    4889.7352   -866.61615    83.969322 
   80200    1244.8655   -105.23927    1.1263804   -104.11289   -8640.3843    4.3936419    4.3936419    4.3936419   -8640.3843   -507.76653   -18873.596   -6539.7906     24148.97    6255.2625    9740.0697    84.815255 
   80300     594.1004   -104.65501   0.53755453   -104.11746    3544.9018    4.3892506    4.3892506    4.3892506    3544.9018   -27892.885    4386.7725    34140.818   -22765.815    7671.5709    230.12134    84.561197 
   80400    1031.8027   -105.04365   0.93359681   -104.11005    3387.1973    4.3836417    4.3836417    4.3836417    3387.1973    14756.024   -7487.3565    2892.9245    1814.0814    7577.0043    3468.1306    84.237436 
   80500    800.43578   -104.83958   0.72425112   -104.11533    7840.5109    4.3881087    4.3881087    4.3881087    7840.5109   -11928.517    11212.854    24237.195    1968.8305    7687.6928   -516.33466    84.495219 
   80600    1000.6022    -105.0205   0.90536586   -104.11513   -15428.019    4.3927803    4.3927803    4.3927803   -15428.019   -21565.005   -13115.548   -11603.504   -25869.941    10120.808    964.46629    84.765366 
   80700    930.89178   -104.95345   0.84229044   -104.11116    10251.568    4.3844781    4.3844781    4.3844781    10251.568    6557.9328    8182.5062    16014.264    16049.453    4332.0151   -490.46095    84.285665 
   80800     712.3114   -104.76712   0.64451432   -104.12261   -10169.119    4.3843614    4.3843614    4.3843614   -10169.119   -32261.138     6160.074   -4406.2921   -28652.402    10623.746   -152.40195    84.278934 
   80900    1248.3438   -105.24411    1.1295277   -104.11458   -3860.7441    4.3946951    4.3946951    4.3946951   -3860.7441   -2564.6298   -12363.232    3345.6293    4500.8281    4785.6714    1495.1948    84.876261 
   81000    596.39544   -104.66071   0.53963113   -104.12108   -2379.4463    4.3833823    4.3833823    4.3833823   -2379.4463   -8452.4891     9906.152   -8592.0017    -14507.79    6734.0915    -7344.369    84.222485 
   81100     825.3501   -104.87487   0.74679412   -104.12807    1222.1057    4.3827143    4.3827143    4.3827143    1222.1057   -22166.943    7209.6164    18623.644   -17111.261    5138.5655    3119.8587    84.183984 
   81200    1277.5415   -105.27881    1.1559464   -104.12286    105.92937    4.3939459    4.3939459    4.3939459    105.92937    8694.8161    5633.4125    -14010.44   -3739.8575    971.11572   -7239.6795    84.832864 
   81300    430.54795   -104.51927   0.38956883    -104.1297   -8655.9412    4.3908829    4.3908829    4.3908829   -8655.9412   -25892.565     1774.538   -1849.7962   -20776.931    6478.6804    3250.0957    84.655576 
   81400    1267.8688   -105.26011    1.1471943   -104.11292    13562.939    4.3779748    4.3779748    4.3779748    13562.939    9201.1271    15890.743    15596.947   -2711.4147   -6580.1793   -1557.5876    83.911167 
   81500    650.31358   -104.71869    0.5884174   -104.13027   -4456.2889    4.3924212    4.3924212    4.3924212   -4456.2889   -3144.7557   -9762.4532   -461.65781   -17318.653    7705.6706   -2426.6345    84.744581 
   81600    1030.4606   -105.04916   0.93238245   -104.11678   -12425.738    4.3967639    4.3967639    4.3967639   -12425.738   -20622.238   -11275.139   -5379.8365   -3462.6914   -7042.1933     -593.282    84.996188 
   81700    894.01007   -104.91957    0.8089191   -104.11065    6554.7428    4.3774955    4.3774955    4.3774955    6554.7428    7933.3969    7144.1312    4586.7004   -8349.5768    3749.4678   -2952.2753    83.883611 
   81800    720.20379   -104.77519   0.65165553   -104.12354    -7922.924    4.3884477    4.3884477    4.3884477    -7922.924     -11274.6   -5368.9119   -7125.2599   -13625.034    3786.6182    3229.0109    84.514801 
   81900    1349.7601   -105.33341    1.2212913   -104.11212   -11569.693     4.394858     4.394858     4.394858   -11569.693   -5880.3609   -13812.598   -15016.121    5022.3869   -4201.4052   -6257.9879    84.885702 
   82000    397.61364   -104.47936   0.35976917   -104.11959    3273.2875    4.3881742    4.3881742    4.3881742    3273.2875   -2649.3501    7071.8863    5397.3263   -19948.765    17094.241    5756.5513       84.499 
   82100    1269.2343   -105.25941    1.1484298   -104.11098    1283.0701    4.3828235    4.3828235    4.3828235    1283.0701    12703.953    2576.2089   -11430.951    4831.9157     -7547.13   -5573.5029    84.190277 
   82200     750.7588   -104.79884   0.67930234   -104.11953     2524.714    4.3913916    4.3913916    4.3913916     2524.714    -4143.954    4874.6891    6843.4069   -11268.579     15584.18    1466.5915       84.685 
   82300    851.76666   -104.88732   0.77069638   -104.11663   -8709.0182    4.3914377    4.3914377    4.3914377   -8709.0182   -2138.3416    525.44221   -24514.155   -7896.0556    4666.2562     -1192.62     84.68767 
   82400    950.94199   -104.97492    0.8604323   -104.11449    2900.9515    4.3842488    4.3842488    4.3842488    2900.9515    4546.4734   -5059.8255    9216.2066    6674.1173    1391.9882   -3049.0229    84.272439 
   82500    753.95035   -104.80823   0.68219012   -104.12604   -6148.2623    4.3880679    4.3880679    4.3880679   -6148.2623   -22001.778    17850.226   -14293.235   -24713.776    14938.812    2895.4817     84.49286 
   82600     1216.301   -105.22025    1.1005347   -104.11972   -14779.148    4.3948092    4.3948092    4.3948092   -14779.148    -5490.871    -22232.46   -16614.113    14000.047   -9476.0957   -2850.3793    84.882873 
   82700    463.98787   -104.54474   0.41982598   -104.12492    13708.815    4.3821046    4.3821046    4.3821046    13708.815   -17517.256    47981.621    10662.082   -13742.101    13169.947    1139.5434    84.148854 
   82800     1249.565   -105.25104    1.1306327   -104.12041   -12516.813    4.3935334    4.3935334    4.3935334   -12516.813   -2029.6737   -8145.0485   -27375.716   -4731.2904    -1872.117   -1768.4612    84.808973 
   82900    801.56089   -104.84832   0.72526914   -104.12306    9386.2246    4.3838022    4.3838022    4.3838022    9386.2246   -14284.334    39135.704    3307.3036    9546.9544    1726.6771   -6452.5103     84.24669 
   83000    771.96288   -104.82449   0.69848824     -104.126   -2706.3976    4.3873475    4.3873475    4.3873475   -2706.3976   -8686.2326    5010.4229   -4443.3831   -17588.722    6887.3021   -1657.7904    84.451253 
   83100    1133.1221   -105.14512    1.0252727   -104.11985   -9688.2235    4.3937276    4.3937276    4.3937276   -9688.2235   -26088.265    14851.951   -17828.356    16712.398   -8337.6929   -11074.695    84.820216 
   83200    801.16055   -104.84754    0.7249069   -104.12264    8548.8399    4.3747042    4.3747042    4.3747042    8548.8399    383.39423    10850.076     14413.05   -11803.775     16148.63    1108.0965    83.723251 
   83300    923.46552   -104.95413   0.83557101   -104.11856   -9627.6632    4.3931126    4.3931126    4.3931126   -9627.6632    -21592.66    12506.619   -19796.949   -3988.0444   -13526.643    -12053.74    84.784605 
   83400    853.44059   -104.89108   0.77221098   -104.11887    2247.1607    4.3834293    4.3834293    4.3834293    2247.1607   -14622.124     20593.35    770.25628    10073.261    11055.151    2757.4751    84.225191 
   83500    1042.9276   -105.06184   0.94366278   -104.11818   -3496.2113    4.3862539    4.3862539    4.3862539   -3496.2113   -1648.2385    4286.9422   -13127.337   -16401.991   -4089.2901    -6467.115    84.388117 
   83600    748.91676   -104.79644   0.67763563   -104.11881    11404.949    4.3830713    4.3830713    4.3830713    11404.949   -2794.3558    38569.001   -1559.7984    9096.2841   -7615.5772    3546.6418    84.204557 
   83700    913.00047   -104.94762   0.82610201   -104.12152   -18994.508    4.3921785    4.3921785    4.3921785   -18994.508   -19987.715   -23273.342   -13722.466   -11757.144    9954.0386   -791.71045    84.730533 
   83800    1022.0762   -105.04386   0.92479604   -104.11906     2788.249    4.3814512    4.3814512    4.3814512     2788.249   -6228.4309    24159.263   -9566.0853   -5618.7904   -21429.109   -3792.7875    84.111218 
   83900    819.57038   -104.86255    0.7415645   -104.12098   -3028.9743    4.3824111    4.3824111    4.3824111   -3028.9743    7571.5722   -14868.382   -1790.1126    1722.1189    10684.884    2537.1979    84.166515 
   84000    741.79465   -104.79225   0.67119139   -104.12106   -19107.381    4.3914459    4.3914459    4.3914459   -19107.381   -41590.881    992.24717   -16723.511   -9903.3768   -15636.098   -7823.8261     84.68814 
   84100    1112.9533   -105.12229    1.0070236   -104.11527    15624.081    4.3749874    4.3749874    4.3749874    15624.081    17746.166    38088.541   -8962.4634    2070.7432   -10961.669    559.32563    83.739511 
   84200     866.6354   -104.90494   0.78414993   -104.12079   -14359.269    4.3929882    4.3929882    4.3929882   -14359.269   -34164.552   -1445.3069   -7467.9493    -3915.686    2949.2098   -6113.4327    84.777405 
   84300    779.30057   -104.82528   0.70512753   -104.12015    166.92863      4.38222      4.38222      4.38222    166.92863   -6007.4686     31324.94   -24816.685   -2486.9341   -28524.844   -521.42138    84.155504 
   84400    1053.5071   -105.07328   0.95323534   -104.12004    16090.609    4.3818399    4.3818399    4.3818399    16090.609    3676.7436    26308.697    18286.387    7385.3255     8095.279   -4050.1524    84.133607 
   84500    803.79251   -104.85674   0.72728836   -104.12945   -17598.895    4.3866457    4.3866457    4.3866457   -17598.895   -43365.669    24841.159   -34272.175    1892.4125   -31059.909    2082.3194    84.410732 
   84600    944.31703   -104.97753    0.8544379   -104.12309    12258.399    4.3918304    4.3918304    4.3918304    12258.399    6955.5004    11937.874    17881.822   -5050.8248    2160.9051    55.097159    84.710392 
   84700    1011.7019   -105.04281   0.91540914   -104.12741   -10986.389     4.383171     4.383171     4.383171   -10986.389   -26034.476    3539.1907   -10463.882    7509.8544    -23978.72    1809.2431    84.210307 
   84800    690.52174   -104.75578   0.62479858   -104.13098    23164.179    4.3793606    4.3793606    4.3793606    23164.179    23223.459      43459.4     2809.677    -7214.937   -11915.196   -3501.6491    83.990879 
   84900    1218.2733   -105.22312    1.1023193    -104.1208   -8051.3593    4.3948408    4.3948408    4.3948408   -8051.3593   -16912.606   -4131.2397   -3110.2326    8521.3923   -173.51507   -1468.1461    84.884703 
   85000    538.91449   -104.61393   0.48762116   -104.12631    10117.753    4.3810203    4.3810203    4.3810203    10117.753   -9440.5702     31316.67      8477.16    141.15801   -29185.409   -4558.4038    84.086406 
   85100    1209.9319    -105.2149    1.0947718   -104.12013   -1713.3242    4.3889303    4.3889303    4.3889303   -1713.3242    4300.2877    2221.0725   -11661.333   -510.55002     15822.53   -7984.4333    84.542689 
   85200     798.3683   -104.84442   0.72238042   -104.12204     15881.23    4.3846793    4.3846793    4.3846793     15881.23   -9948.5925    17448.388    40143.895    259.55327   -28963.457   -5257.9336    84.297266 
   85300    795.99574    -104.8446   0.72023367   -104.12436   -2131.7765    4.3893823    4.3893823    4.3893823   -2131.7765    13801.607   -7460.4596   -12736.477   -1729.5178    5697.0521   -7749.7179    84.568813 
   85400    1036.9226   -105.05544   0.93822938   -104.11721    15720.894     4.385048     4.385048     4.385048    15720.894    9745.6853    1979.4186    35437.578    2610.5596   -4161.2997    445.34676    84.318538 
   85500    840.75462   -104.88314   0.76073245   -104.12241     2201.787    4.3828553    4.3828553    4.3828553     2201.787     8913.675    4207.6794   -6515.9933    2524.9353   -10842.631   -6084.1837    84.192108 
   85600    924.88564   -104.95611   0.83685596   -104.11926    -4189.934    4.3916532    4.3916532    4.3916532    -4189.934   -15213.573   -7445.6611    10089.433   -2226.6925    20636.218    -2873.883    84.700135 
   85700    1012.8067    -105.0317    0.9164088   -104.11529    14948.353    4.3799783    4.3799783    4.3799783    14948.353     49197.92    926.36495   -5279.2265    7040.8336   -17818.521     3174.672    84.026425 
   85800    739.14242   -104.79193   0.66879159   -104.12314   -2790.8881    4.3871514    4.3871514    4.3871514   -2790.8881    -1904.749    1661.7776    -8129.693   -3429.6412    13375.251   -10473.134    84.439929 
   85900    1038.4203   -105.05681    0.9395845   -104.11723    4857.2852    4.3887238    4.3887238    4.3887238    4857.2852    24961.629   -6230.1289    -4159.644    1983.5145   -1596.2801    7813.4426    84.530755 
   86000    852.66849   -104.89041   0.77151237    -104.1189   -2548.1548    4.3890586    4.3890586    4.3890586   -2548.1548   -6672.6959    1496.5846   -2468.3531    219.46635   -7373.8933   -11409.941    84.550101 
   86100    881.86258   -104.91706   0.79792779   -104.11913    7147.0723    4.3833991    4.3833991    4.3833991    7147.0723    35918.461   -2547.9393   -11929.305   -5015.6363    17894.957    2078.5121    84.223452 
   86200    940.83259   -104.97078    0.8512851   -104.11949    11435.681    4.3866987    4.3866987    4.3866987    11435.681    9146.8982    -1646.994    26807.139    2184.0342   -12330.618   -6733.2401    84.413791 
   86300    762.89375   -104.81559   0.69028229   -104.12531   -9860.8165     4.393155     4.393155     4.393155   -9860.8165    7191.4312   -14711.584   -22062.297   -8317.6445    10232.069   -5694.5718    84.787058 
   86400    1081.2996   -105.09437   0.97838258   -104.11599    13395.036    4.3851279    4.3851279    4.3851279    13395.036    17323.802    2984.5157    19876.791    1922.2823    7241.3464   -4152.5187    84.323142 
   86500    755.14478   -104.80583   0.68327087   -104.12256   -9892.7214    4.3907197    4.3907197    4.3907197   -9892.7214     3677.594   -21275.887   -12079.871   -8302.5575   -9354.8887   -10076.699    84.646137 
   86600    854.10693   -104.89749    0.7728139   -104.12467   -1667.9123    4.3837123    4.3837123    4.3837123   -1667.9123   -1425.4609    1418.2009   -4996.4768   -4123.9688    28038.365   -3235.3767    84.241508 
   86700    1100.5808   -105.11893   0.99582867    -104.1231   -3215.7374    4.3904589    4.3904589    4.3904589   -3215.7374    12135.017   -11983.396    -9798.833   -391.28947   -5919.2231   -8165.7114    84.631052 
   86800    734.87316   -104.79051   0.66492868   -104.12559   -12331.954    4.3898216    4.3898216    4.3898216   -12331.954    10753.303   -15529.875    -32219.29   -12110.075    11851.991   -4520.2974    84.594206 
   86900    861.01523   -104.90254   0.77906467   -104.12347    5140.4492    4.3870445    4.3870445    4.3870445    5140.4492    1318.0468    9633.6379    4469.6628    5474.1619    20168.213   -3157.4487    84.433755 
   87000    1124.2072   -105.14177    1.0172063   -104.12457   -7044.0351    4.3823093    4.3823093    4.3823093   -7044.0351    11507.435   -20636.821   -12002.719   -7948.3478   -4057.1842   -3203.2236    84.160648 
   87100    563.65226   -104.64343   0.51000441   -104.13343    6322.4912     4.389683     4.389683     4.389683    6322.4912   -12211.602    11213.601    19965.474   -1443.4343    27728.254   -1619.7454    84.586192 
   87200    1292.0793   -105.28702    1.1691005   -104.11792   -11835.995    4.3929574    4.3929574    4.3929574   -11835.995   -6136.3305   -21051.778   -8319.8761    -5005.038   -10959.025     4029.912    84.775619 
   87300    446.33638   -104.52779   0.40385453   -104.12393    14517.159    4.3781699    4.3781699    4.3781699    14517.159    13077.262    9382.7291    21091.486   -5285.1084    27701.141   -2884.9566     83.92239 
   87400    1303.0308   -105.30001    1.1790097     -104.121   -11606.706    4.3892746    4.3892746    4.3892746   -11606.706   -5263.7472   -11743.763   -17812.606   -5118.3712    6176.9324    12194.645    84.562585 
   87500    765.47524   -104.81516   0.69261809   -104.12254   -2049.6042    4.3915216    4.3915216    4.3915216   -2049.6042   -7388.3202   -11549.817    12789.325    -741.1417    11382.266   -1373.2544    84.692523 
   87600    761.84266   -104.81221   0.68933125   -104.12288   -9082.2135    4.3845883    4.3845883    4.3845883   -9082.2135   -11098.089   -3628.7379   -12519.814   -3941.5379    23504.706    5273.6285    84.292018 
   87700    1180.5227   -105.18264    1.0681617   -104.11448    9921.9825     4.384752     4.384752     4.384752    9921.9825    21273.692   -9812.9874    18305.243   -4620.1279   -9552.2632    4902.2705    84.301461 
   87800    645.27195   -104.70785   0.58385562     -104.124   -12019.969    4.3911535    4.3911535    4.3911535   -12019.969    -14299.98   -5468.2538   -16291.673   -990.18553    35876.276   -4559.9123    84.671226 
   87900    1028.8071   -105.04644   0.93088631   -104.11555   -956.72851    4.3905964    4.3905964    4.3905964   -956.72851   -12423.571   -13070.152    22623.537   -6063.7429    -12091.96    7473.1892    84.639006 
   88000    899.02046    -104.9316   0.81345261   -104.11815    12565.663    4.3803801    4.3803801    4.3803801    12565.663    29316.464    4565.4739     3815.051   -7131.3391    20054.337    -7116.255    84.049548 
   88100    850.97789   -104.89223   0.76998268   -104.12225   -11447.233    4.3929213    4.3929213    4.3929213   -11447.233   -25908.809   -12304.161    3871.2717   -7816.3246    7883.8018    3486.3267    84.773531 
   88200    958.86575   -104.98599   0.86760189   -104.11838   -503.17566    4.3869279    4.3869279    4.3869279   -503.17566   -8034.6862    -2439.518    8964.6772   -1278.3832   -3613.2607    952.09322    84.427025 
   88300    893.14623   -104.93146   0.80813748   -104.12332    3072.4001    4.3793602    4.3793602    4.3793602    3072.4001   -4887.5278     7045.086    7059.6421   -11104.727    27335.758   -518.96019    83.990853 
   88400    962.85755   -104.99179   0.87121374   -104.12058    -2276.066    4.3939733    4.3939733    4.3939733    -2276.066    6381.0234    -18910.29    5701.0686   -1067.7172   -16590.055    6570.5841     84.83445 
   88500    764.85377   -104.81193   0.69205577   -104.11987   -5053.1577    4.3924021    4.3924021    4.3924021   -5053.1577   -9206.9584    4331.9694   -10284.484   -2779.1788    30528.348    2674.5884    84.743473 
   88600    921.47575   -104.95149   0.83377063   -104.11772    4341.4269    4.3847295    4.3847295    4.3847295    4341.4269    150.45216    -9789.366    22663.194   -8423.3373   -1779.7441    7321.2796    84.300167 
   88700    1003.0738   -105.02668   0.90760226   -104.11907    5133.8371    4.3820036    4.3820036    4.3820036    5133.8371    11087.015    4451.8261   -137.32948    2226.8504    7052.1391     8782.492     84.14304 
   88800    739.45553   -104.78944    0.6690749   -104.12037   -13831.915    4.3975309    4.3975309    4.3975309   -13831.915   -32004.055   -19392.322    9900.6328   -10514.293    15076.129     2378.651    85.040676 
   88900    1072.7152   -105.08585   0.97061528   -104.11524   -7480.0199     4.386224     4.386224     4.386224   -7480.0199    4921.5634   -18054.791   -9306.8318    569.78633   -6308.0829    16400.096    84.386393 
   89000    927.47498   -104.95886   0.83919886   -104.11966     11630.56    4.3745519    4.3745519    4.3745519     11630.56   -12348.065    10155.382    37084.362   -5061.2412    11743.406   -3328.4561    83.714503 
   89100    768.66806   -104.81786   0.69550702   -104.12235   -7728.9324    4.3970483    4.3970483    4.3970483   -7728.9324     -10376.9   -38279.839    25469.943   -10009.847   -18.163523    12818.579     85.01268 
   89200    973.10226   -104.99939   0.88048338   -104.11891   -10107.078    4.3931539    4.3931539    4.3931539   -10107.078    -12545.06    -13203.84   -4572.3358     4832.479   -4643.7569   -1074.5381    84.786996 
   89300    950.68917   -104.97324   0.86020354   -104.11303    17960.306    4.3787803    4.3787803    4.3787803    17960.306    9869.8839   -11163.869    55174.903   -15622.607    8544.5052    2156.5192    83.957497 
   89400    859.88454   -104.89929    0.7780416   -104.12125   -8803.5653    4.3858627    4.3858627    4.3858627   -8803.5653    184.55873   -21861.015   -4734.2397    4278.3355   -15703.672    8802.1802    84.365541 
   89500    931.11052   -104.96411   0.84248836   -104.12162    1451.1896     4.397393     4.397393     4.397393    1451.1896   -16198.122   -21762.422    42314.113   -7082.6929    16087.526   -7723.5348    85.032675 
   89600    853.42053   -104.89873   0.77219283   -104.12654   -15810.427    4.3917928    4.3917928    4.3917928   -15810.427     1172.146   -34493.144   -14110.284    -2693.975   -6547.1297    21959.643    84.708217 
   89700    807.85416   -104.85379   0.73096342   -104.12283    14615.344    4.3694764    4.3694764    4.3694764    14615.344   -1294.5546    1087.4386    44053.147    -15.72418   -3764.4963   -4451.0686    83.423459 
   89800    1147.4944   -105.16217     1.038277   -104.12389   -19687.219    4.3983791    4.3983791    4.3983791   -19687.219   -22506.246   -28818.639   -7736.7724    -2515.169     6683.577    13475.916    85.089893 
   89900    498.10836   -104.57661   0.45069891   -104.12591    1165.0262    4.3927223    4.3927223    4.3927223    1165.0262   -13731.784   -20551.791    37778.654    2715.2003   -19494.544    7366.1224    84.762012 
   90000    1291.1506      -105.28    1.1682602   -104.11174    11315.714    4.3729291    4.3729291    4.3729291    11315.714    4217.3628    6522.5967    23207.183   -3229.5387    15879.874   -3606.3371    83.621373 
   90100    555.66302   -104.63237   0.50277558    -104.1296   -7105.3161    4.3916063    4.3916063    4.3916063   -7105.3161   -19161.172   -20367.084    18212.308    5569.4104   -11136.401    14641.615    84.697421 
   90200    1146.6306   -105.15776    1.0374955   -104.12026   -13473.036    4.3980628    4.3980628    4.3980628   -13473.036   -7250.1395   -19332.465   -13836.504   -5438.0942    2261.9908     -9357.72    85.071539 
   90300    894.72316   -104.92649   0.80956432   -104.11693    9724.7445    4.3778603    4.3778603    4.3778603    9724.7445    -7979.707     4111.339    33042.602    6699.5506    2628.5513    13036.301    83.904584 
   90400     570.9122   -104.64583   0.51657336   -104.12926   -10942.219    4.3831159    4.3831159    4.3831159   -10942.219   -7306.2913   -22452.637   -3067.7297   -3118.0959   -11265.422    361.75768    84.207131 
   90500    1361.7205   -105.35095    1.2321133   -104.11884    1248.5821    4.3948479    4.3948479    4.3948479    1248.5821     -15789.9   -6541.5527    26077.199    3506.0435    10305.838    665.11259    84.885115 
   90600    587.24198   -104.66104   0.53134889   -104.12969   -22462.584    4.3894806    4.3894806    4.3894806   -22462.584   -8588.8492   -37365.927   -21432.975    4976.6127   -10053.299     19071.88    84.574493 
   90700    1010.0331    -105.0356   0.91389917    -104.1217    12225.018     4.377269     4.377269     4.377269    12225.018   -7235.6864    1324.0818    42586.657   -1083.4461    3827.1383   -12304.805    83.870594 
   90800    1020.0133   -105.05074   0.92292944   -104.12781   -2436.7179    4.3889682    4.3889682    4.3889682   -2436.7179   -1025.2857   -18210.438     11925.57    5935.1443    1071.9205    22444.843    84.544876 
   90900    789.10563   -104.84326   0.71399935   -104.12927   -22490.152     4.395419     4.395419     4.395419   -22490.152   -18846.379   -23925.963   -24698.115   -1766.7644   -10878.058   -4923.3347    84.918214 
   91000    920.58687   -104.95212   0.83296635   -104.11916    27981.211    4.3735139    4.3735139    4.3735139    27981.211    12035.894    9361.7228    62546.016    4426.2191     17001.09    5150.5593    83.654927 
   91100    873.37441   -104.91919   0.79024752   -104.12894    -9020.904    4.3867881    4.3867881    4.3867881    -9020.904    -1193.177    -10118.34   -15751.195   -438.02177   -13979.807    10764.414    84.418956 
   91200    1025.1566   -105.04459   0.92758326   -104.11701   -10570.679    4.3971674    4.3971674    4.3971674   -10570.679   -16938.688   -19507.863    4734.5133    4681.6384    11583.564   -13529.721    85.019586 
   91300     645.1687   -104.70312    0.5837622   -104.11936    11936.746    4.3744356    4.3744356    4.3744356    11936.746    13185.481    17781.696    4843.0625   -1410.3503    3781.0996    16128.956    83.707832 
   91400    1155.7562   -105.17002    1.0457525   -104.12427   -4912.3457     4.377361     4.377361     4.377361   -4912.3457    -6429.095   -12752.023    4444.0809    3427.9292   -6687.7604   -10189.372    83.875881 
   91500    738.75295   -104.79784   0.66843919    -104.1294    763.41325    4.3992806    4.3992806    4.3992806    763.41325   -7894.5721    3274.2744    6910.5375    1019.6193    21825.502    1020.0378    85.142226 
   91600    1051.3297   -105.07195   0.95126519   -104.12069   -15802.276     4.386332     4.386332     4.386332   -15802.276   -11246.871   -19736.408    -16423.55    643.06412   -14186.206    -1505.971    84.392628 
   91700    720.49017   -104.76678   0.65191465   -104.11486    28904.208    4.3666298    4.3666298    4.3666298    28904.208    4624.9936     21550.27    60537.359    1724.2456    18558.736   -10587.277    83.260519 
   91800    1094.7572   -105.11126   0.99055933    -104.1207   -6839.7872    4.3928291    4.3928291    4.3928291   -6839.7872   -15963.985   -16644.874    12089.497   -2660.1602    3721.5385   -1326.5593    84.768195 
   91900    835.73083   -104.87368   0.75618682    -104.1175    -6563.021    4.3920203    4.3920203    4.3920203    -6563.021   -16768.062   -13681.067    10760.066    3440.0915   -5962.7724   -7569.1445     84.72138 
   92000    676.47752   -104.73307   0.61209108   -104.12098    5661.9666    4.3748845    4.3748845    4.3748845    5661.9666   -19316.719     18249.95    18052.669   -2347.7402    34409.857    -1246.093    83.733601 
   92100    1410.5682   -105.39291    1.2763117    -104.1166    3056.2076     4.384537     4.384537     4.384537    3056.2076    5510.8838   -6617.1836    10274.923   -481.63276   -14296.448   -1003.6506     84.28906 
   92200    329.73779    -104.4291   0.29835368   -104.13074   -26439.442    4.3973272    4.3973272    4.3973272   -26439.442   -46370.123    824.24037   -33772.445    925.39177    32753.918   -5915.6073     85.02886 
   92300    1264.7687   -105.25824    1.1443893   -104.11385     19778.82    4.3781548    4.3781548    4.3781548     19778.82    11528.241    6724.5523    41083.667    1197.2419   -510.16985   -1416.1496    83.921519 
   92400    854.22484   -104.89783   0.77292058   -104.12491   -8646.3866    4.3879514    4.3879514    4.3879514   -8646.3866    -24486.91    7384.3875    -8836.637   -3015.7677    21541.208   -10802.755    84.486133 
   92500    705.89798   -104.76599   0.63871133   -104.12728    16627.822    4.3876697    4.3876697    4.3876697    16627.822   -9515.7277   -2371.6643    61770.858    5015.0123     17131.82   -8619.0561    84.469863 
   92600    1089.4691   -105.10513   0.98577455   -104.11935    3900.4914    4.3882748    4.3882748    4.3882748    3900.4914   -2461.4958    11989.809    2173.1613   -2819.5144    7020.5616   -90.943026    84.504812 
   92700     646.5277   -104.71336   0.58499185   -104.12837    4251.4694     4.377213     4.377213     4.377213    4251.4694   -17404.346    9311.8211    20846.933    3980.9466    32148.782   -11933.112    83.867376 
   92800    1222.0031   -105.22271    1.1056941   -104.11701     4010.002    4.3897941    4.3897941    4.3897941     4010.002    4598.7135     9534.362   -2103.0694   -1144.4921    -8595.907    9829.4565    84.592613 
   92900    577.56565   -104.64631   0.52259354   -104.12371   -17825.276     4.386373     4.386373     4.386373   -17825.276   -37130.033    391.45291   -16737.247    998.45411    38352.773    -2868.225    84.394992 
   93000    1113.2641   -105.12329    1.0073047   -104.11599    5808.0863    4.3818814    4.3818814    4.3818814    5808.0863    1608.3376    8937.0134    6878.9078    2122.9009   -9653.9648    4276.1218       84.136 
   93100    912.01537   -104.94286   0.82521068   -104.11765   -13135.825    4.3885358    4.3885358    4.3885358   -13135.825   -23646.716   -5440.7877   -10319.972   -984.31938    24045.277    13893.085     84.51989 
   93200     775.5299   -104.82021   0.70171575   -104.11849   -3426.3906    4.3851164    4.3851164    4.3851164   -3426.3906   -19814.159    8232.4672    1302.5199   -1398.4946    6994.6568   -4899.3182    84.322483 
   93300     1010.016   -105.03078   0.91388367    -104.1169   -6233.7548    4.3875617    4.3875617    4.3875617   -6233.7548    -9161.751   -5312.4858   -4227.0276   -359.28651     738.6321    19029.896    84.463621 
   93400    815.00714   -104.85745   0.73743559   -104.12001    4735.9126    4.3838254    4.3838254    4.3838254    4735.9126   -16225.992    24500.129    5933.6011   -3374.9874    26040.768   -3738.1578    84.248026 
   93500    1044.3714   -105.05873   0.94496915   -104.11376    -8005.694    4.3862016    4.3862016    4.3862016    -8005.694   -7736.8456   -8507.2942   -7772.9423   -4881.8637   -10411.457     9656.334    84.385097 
   93600    540.29165   -104.60988   0.48886724   -104.12102    4737.0473    4.3836515    4.3836515    4.3836515    4737.0473   -10287.147    34512.363   -10014.074    1259.3099    26099.296     5139.632    84.238002 
   93700    1389.9476   -105.37078    1.2576538   -104.11313   -9262.7346    4.3868803    4.3868803    4.3868803   -9262.7346   -5847.9984   -8579.1804   -13361.025    -9778.546   -1002.1483   -6590.2783     84.42428 
   93800    493.97581   -104.56772   0.44695969   -104.12076    2633.4057    4.3863277    4.3863277    4.3863277    2633.4057    -6542.752    26947.978   -12505.009    4381.4436     13899.23    11065.276    84.392378 
   93900    1064.4838   -105.07854   0.96316732   -104.11537     -8716.97    4.3846863    4.3846863    4.3846863     -8716.97   -11358.909   -4135.0063   -10656.995   -10842.531    11173.726   -5736.3665    84.297671 
   94000    939.47065   -104.96857   0.85005278   -104.11851    4027.1432    4.3855415    4.3855415    4.3855415    4027.1432   -2032.4269    8362.0993    5751.7573    3441.3768    1501.6996    84.062107    84.347004 
   94100    883.97349   -104.91846   0.79983779   -104.11862   -7962.6646    4.3857223    4.3857223    4.3857223   -7962.6646   -13566.655    6285.1456   -16606.484   -7556.7395    20178.003    3967.7468    84.357436 
   94200    883.07637   -104.91274   0.79902606   -104.11371    779.98132    4.3865511    4.3865511    4.3865511    779.98132   -5863.2379   -7672.6373    15875.819    2113.8184   -7840.9004   -10089.914    84.405276 
   94300    943.24732   -104.96992      0.85347   -104.11645   -5832.3421    4.3822734    4.3822734    4.3822734   -5832.3421   -14168.193    12145.581   -15474.415   -4522.4653    19137.632    7023.2512    84.158583 
   94400    961.41247   -104.98362   0.86990621   -104.11371    9352.5385    4.3855461    4.3855461    4.3855461    9352.5385    5844.2826   -1963.3137    24176.646    982.77883   -3421.4838   -7669.2829    84.347271 
   94500      814.857   -104.85274   0.73729974   -104.11544   -11521.647    4.3877921    4.3877921    4.3877921   -11521.647   -21468.279    8839.3472   -21936.009    1246.9691    4804.5035    1484.9364    84.476933 
   94600    920.22249   -104.94852   0.83263665   -104.11588    9723.8361    4.3843781    4.3843781    4.3843781    9723.8361    9696.9834    8323.7528    11150.772   -2171.2782    11262.776   -739.74648    84.279895 
   94700    1080.1937   -105.09426   0.97738197   -104.11688    -1888.459    4.3834094    4.3834094    4.3834094    -1888.459   -6861.7622    7775.6917   -6579.3066    673.98875   -13513.878   -7998.9037    84.224048 
   94800    657.19038   -104.71489   0.59463967   -104.12025   -75.219577    4.3887974    4.3887974    4.3887974   -75.219577    3893.4106    1677.5289   -5796.5983    662.81888    23660.045    11919.783    84.535011 
   94900    1028.6164    -105.0473   0.93071374   -104.11659   -8831.2127    4.3878381    4.3878381    4.3878381   -8831.2127   -11480.992   -10147.766   -4864.8806   -7433.2509   -12364.912   -9710.6245    84.479587 
   95000    934.62891   -104.96308   0.84567188   -104.11741    9541.9242    4.3759404    4.3759404    4.3759404    9541.9242    11514.963    6766.2833    10344.526    5551.2997    12643.595    14301.841    83.794246 
   95100    831.74944   -104.86971   0.75258437   -104.11712   -10536.064    4.3915716    4.3915716    4.3915716   -10536.064   -14690.591   -8083.4204   -8834.1806     -14651.2    7599.9685   -2683.2984    84.695417 
   95200    822.06389   -104.86103   0.74382068   -104.11721   -3402.6854    4.3851339    4.3851339    4.3851339   -3402.6854   -8152.4514   -8070.5819    6014.9772   -332.20966   -4592.9108    8476.2559     84.32349 
   95300    1161.6603   -105.16677    1.0510946   -104.11567    7559.5414    4.3787812    4.3787812    4.3787812    7559.5414    783.21143     23730.36   -1834.9475   -12669.343    20877.353     1675.244    83.957545 
   95400    602.43902   -104.66838   0.54509949   -104.12328    5680.1141    4.3885962    4.3885962    4.3885962    5680.1141   -11292.591    24331.831     4001.103   -14520.234    -10354.56   -2392.8528    84.523383 
   95500    1089.1762    -105.1029   0.98550952   -104.11739   -11518.974    4.3886567    4.3886567    4.3886567   -11518.974   -15305.313      726.487   -19978.097     1315.572    20225.424    7146.2319    84.526879 
   95600    795.16278   -104.83783   0.71947999   -104.11835    19639.184    4.3815864    4.3815864    4.3815864    19639.184    12097.397    35181.129    11639.028   -20335.505   -5909.1882   -11542.539    84.119005 
   95700    1032.4505   -105.05271   0.93418287   -104.11853   -16468.485     4.385518     4.385518     4.385518   -16468.485   -16867.446   -11381.203   -21156.806    5606.6772    12873.997    10390.892    84.345649 
   95800    759.45459   -104.80633   0.68717047   -104.11916    5666.8162    4.3885989    4.3885989    4.3885989    5666.8162    11707.217    7353.7005   -2060.4688   -10467.179    418.86003   -3831.1888    84.523538 
   95900    1007.8995   -105.03111   0.91196863   -104.11914   -11812.072    4.3887966    4.3887966    4.3887966   -11812.072   -21619.262    949.21944   -14766.175   -493.82958   -800.77656    65.265179    84.534964 
   96000    917.25258   -104.94432   0.82994941   -104.11437    11525.682    4.3795958    4.3795958    4.3795958    11525.682    14800.929    19812.466   -36.348684    69.311645    10422.757    10862.206    84.004413 
   96100    700.50149   -104.75638   0.63382847   -104.12255   -533.68299     4.386257     4.386257     4.386257   -533.68299   -25511.322    23087.376    822.89629   -9227.9424   -13793.467    -7810.605    84.388295 
   96200    1027.5589   -105.04468   0.92975687   -104.11492    1577.4421    4.3915043    4.3915043    4.3915043    1577.4421   -12704.531    8777.8135    8659.0441    4527.9507    8686.4698    12078.075    84.691521 
   96300    937.17507   -104.96163    0.8479757   -104.11365    8956.2459    4.3766588    4.3766588    4.3766588    8956.2459    -8871.376    29828.317    5911.7965   -9294.9742    -12254.95   -1093.6367    83.835523 
   96400    724.27244   -104.77571   0.65533693   -104.12037   -1072.1653     4.386687     4.386687     4.386687   -1072.1653   -23532.172    4303.6461     16012.03    359.59063   -3697.2451   -1758.1869    84.413115 
   96500    1094.3746   -105.10524   0.99021314   -104.11502   -4820.2504    4.3919421    4.3919421    4.3919421   -4820.2504   -16564.791    6542.6122    -4438.572    -4611.155   -351.86006    1383.3418    84.716854 
   96600    754.24623   -104.80457   0.68245784   -104.12211   -9412.6669     4.384301     4.384301     4.384301   -9412.6669   -21952.276   -14370.333    8084.6085    -6044.106   -15227.451   -9801.6277    84.275454 
   96700    996.79763   -105.01869   0.90192344   -104.11676    3349.9618    4.3796608    4.3796608    4.3796608    3349.9618   -2735.2036    23414.438   -10629.349    1111.3011    5701.6761    -5467.039    84.008149 
   96800      732.448   -104.79244   0.66273435    -104.1297   -16637.835    4.3893546    4.3893546    4.3893546   -16637.835   -9692.8084   -29967.067   -10253.628   -11614.571   -13189.357   -3097.0264    84.567209 
   96900    1061.5285   -105.08318    0.9604933   -104.12269   -11781.401    4.3916657    4.3916657    4.3916657   -11781.401   -17435.456   -1077.2853   -16831.461    1716.7136   -3739.3626   -17259.438    84.700858 
   97000    870.19475   -104.90358    0.7873705   -104.11621    9840.4965    4.3740142    4.3740142    4.3740142    9840.4965    22105.679    1398.1883    6017.6223   -7791.5985    991.16676    7480.4789    83.683643 
   97100    602.07856   -104.67266   0.54477334   -104.12789   -14059.974    4.3892733    4.3892733    4.3892733   -14059.974   -29759.494   -11593.694   -826.73428   -4236.3734   -18656.657   -19759.962    84.562511 
   97200    1370.2034   -105.35352    1.2397888   -104.11373    5426.9554     4.386528     4.386528     4.386528    5426.9554    15142.085    -8198.587    9337.3681   -851.84151     11535.64    5875.7496     84.40394 
   97300    425.95884   -104.51203   0.38541651   -104.12662    -7429.865    4.3840937    4.3840937    4.3840937    -7429.865   -32485.708   -7595.0676    17791.181   -6113.8496   -17961.599   -7971.6473    84.263496 
   97400    1177.1938   -105.18362    1.0651497   -104.11847   -3524.8893    4.3849413    4.3849413    4.3849413   -3524.8893    4451.2296   -8482.1002   -6543.7972   -1521.7298    4291.9181   -3464.2983    84.312379 
   97500    826.59556   -104.87351   0.74792104   -104.12559   -5452.6052    4.3900968    4.3900968    4.3900968   -5452.6052   -27501.299   -13922.115    25065.598   -2919.7378   -3444.5103    2112.9079    84.610118 
   97600     844.9086   -104.88857   0.76449106   -104.12408   -11350.548    4.3861064    4.3861064    4.3861064   -11350.548   -10233.968   -10527.307   -13290.368   -7430.9048   -10972.414   -5773.8934    84.379605 
   97700    941.12063   -104.96938   0.85154572   -104.11783    2728.3584    4.3863603    4.3863603    4.3863603    2728.3584     3966.611   -7308.5553     11527.02    2921.7037    6998.9924   -1523.6542    84.394258 
   97800    779.97951   -104.82912   0.70574185   -104.12338   -9600.9312    4.3865035    4.3865035    4.3865035   -9600.9312   -14454.621   -13834.287    -513.8853   -11694.572   -16197.526   -1980.4377    84.402525 
   97900    1202.2661   -105.20203    1.0878356   -104.11419    2873.1547     4.385636     4.385636     4.385636    2873.1547    13504.834   -6152.7804    1267.4101    2468.9493    6399.9997   -11963.755    84.352461 
   98000    611.85159   -104.67397   0.55361617   -104.12035   -544.03494    4.3867536    4.3867536    4.3867536   -544.03494   -8542.9203   -12575.375     19486.19   -8352.2795   -10356.131    4288.6673    84.416961 
   98100    1106.1247   -105.11809    1.0008449   -104.11724   -5045.7912    4.3854849    4.3854849    4.3854849   -5045.7912   -5977.8487   -7677.7554   -1481.7694   -4502.3513   -6739.4698   -17553.608    84.343739 
   98200    864.99984   -104.90092   0.78267004   -104.11825    6047.9141    4.3855704    4.3855704    4.3855704    6047.9141   -4632.1419   -5582.1179    28358.002   -1691.8032    6527.8689    3343.0287    84.348673 
   98300    811.49228    -104.8519   0.73425527   -104.11764   -8962.5634    4.3855987    4.3855987    4.3855987   -8962.5634   -17246.608   -13548.227    3907.1452   -12203.192   -16536.247   -6278.7591    84.350305 
   98400     944.0725   -104.96896   0.85421664   -104.11475   -8676.9909     4.391487     4.391487     4.391487   -8676.9909   -14198.649    5679.4982   -17511.822    3196.1531    14098.681   -3233.1849     84.69052 
   98500    948.07497   -104.97365   0.85783815   -104.11581   -2529.3898    4.3835717    4.3835717    4.3835717   -2529.3898   -8383.3222   -21089.883    21885.036   -14467.178   -11122.514    3956.4998      84.2334 
   98600    943.71217   -104.96875    0.8538906   -104.11486        -5572    4.3850619    4.3850619    4.3850619        -5572   -11554.405    14827.229   -19988.824    3540.2244    7934.4443   -3391.3146    84.319335 
   98700     687.7279   -104.74237   0.62227065    -104.1201    669.21305    4.3864805    4.3864805    4.3864805    669.21305   -1310.7757   -13413.381    16731.796   -10172.696    12490.905    6558.6184    84.401195 
   98800    1198.5364   -105.20062    1.0844609   -104.11616    -301.9046    4.3856191    4.3856191    4.3856191    -301.9046   -6081.4083   -447.22971    5622.9242   -1370.6891   -7995.8571   -1014.0124    84.351483 
   98900    725.32502   -104.77893   0.65628932   -104.12264   -2545.5911    4.3877676    4.3877676    4.3877676   -2545.5911   -5482.3279    -5462.905    3308.4595    209.68165    29201.567    4570.4874    84.475515 
   99000    892.57427   -104.92856   0.80761995   -104.12094    11633.435    4.3799927    4.3799927    4.3799927    11633.435     15066.46   -6051.0411    25884.887   -9347.5542   -12730.668    478.01571    84.027255 
   99100    1095.2884   -105.11641   0.99103994   -104.12537   -9623.4902    4.3896634    4.3896634    4.3896634   -9623.4902    -22591.41   -1006.8416   -5272.2189      9012.22     17035.94    1880.0647    84.585061 
   99200      697.717   -104.75873   0.63130901   -104.12742    11440.962    4.3863918    4.3863918    4.3863918    11440.962    28923.319   -20596.762     25996.33   -9349.4602    3562.7318    4039.1059    84.396076 
   99300    1019.8227   -105.04696   0.92275698    -104.1242   -4692.6665    4.3842099    4.3842099    4.3842099   -4692.6665    5404.5451    5136.7651    -24619.31     918.0688   -3416.4989   -2799.2839    84.270197 
   99400    804.68736   -104.85649   0.72809803   -104.12839    2002.6375    4.3844898    4.3844898    4.3844898    2002.6375    1282.7168   -11750.281    16475.476   -5088.9447    20664.629    1024.2813    84.286341 
   99500    982.39113   -105.01249   0.88888814    -104.1236    3736.1445    4.3913061    4.3913061    4.3913061    3736.1445    18959.062   -12585.955    4835.3269    -11467.23   -7451.0778   -4375.9315    84.680053 
   99600    922.03592   -104.95563   0.83427748   -104.12136   -7642.5818    4.3862098    4.3862098    4.3862098   -7642.5818   -18119.326   -1330.6991   -3477.7208    5072.8299    16975.275    -3138.255    84.385573 
   99700    613.53837   -104.67855   0.55514241   -104.12341    10040.033    4.3861769    4.3861769    4.3861769    10040.033    10684.033   -6568.5129    26004.579   -14336.833    3478.0681    1399.0074    84.383672 
   99800    1457.3705   -105.43385    1.3186594   -104.11519    -10914.04    4.3873161    4.3873161    4.3873161    -10914.04   -12851.179   -8526.8871   -11364.055     7299.941    927.80355   -11073.149    84.449439 
   99900    379.48184   -104.46971   0.34336314   -104.12635    3044.3117    4.3878877    4.3878877    4.3878877    3044.3117   -12681.905   -1006.9373    22821.777   -9736.7037    18836.267    3662.1322    84.482454 
  100000    1215.7612   -105.21676    1.1000463   -104.11671   -8676.9123    4.3901018    4.3901018    4.3901018   -8676.9123    8260.0662   -18096.012   -16194.791   -1153.4175   -9364.4385   -10321.158    84.610406 
Loop time of 21.7139 on 1 procs for 100000 steps with 8 atoms

Pair  time (%) = 6.54292 (30.1323)
Kspce time (%) = 5.3496 (24.6367)
Neigh time (%) = 0 (0)
Comm  time (%) = 1.07911 (4.96969)
Outpt time (%) = 0.0254943 (0.11741)
Other time (%) = 8.71681 (40.1438)

Nlocal:    8 ave 8 max 8 min
Histogram: 1 0 0 0 0 0 0 0 0 0
Nghost:    2189 ave 2189 max 2189 min
Histogram: 1 0 0 0 0 0 0 0 0 0
Neighs:    2056 ave 2056 max 2056 min
Histogram: 1 0 0 0 0 0 0 0 0 0

Total # of neighbors = 2056
Ave neighs/atom = 257
Neighbor list builds = 0
Dangerous builds = 0
unfix 20
unfix 21
print "seeds:4049093"
seeds:4049093
