LAMMPS (10 Feb 2015)
# ---- initialize simulations
clear
units metal
dimension 3
boundary p p p
atom_style charge
atom_modify map array
# ---- create atoms
read_data /Users/eugeneragasa/pyflamestk_git/pypospack/tests/tests_integration/workflow/WorkflowLammpsThermalExpansion/param_2632/MgO_NaCl_unit.npt.T1300/lammps.structure
  triclinic box = (0 0 0) to (4.2565 4.2565 4.2565) with tilt (0 0 0)
  1 by 1 by 1 MPI processor grid
  reading atoms ...
  8 atoms
# ---- define interatomic potential
include potential.mod
mass 1 24.305
mass 2 15.999

group Mg type 1
4 atoms in group Mg
group O type 2
4 atoms in group O

set group Mg charge 1.63285961235
  4 settings made for charge
set group O charge -1.63285961235
  4 settings made for charge

variable R_cut equal 10.0

pair_style buck/coul/long ${R_cut}
pair_style buck/coul/long 10
pair_coeff 1 1 0.0 0.5 0.0 ${R_cut}
pair_coeff 1 1 0.0 0.5 0.0 10
pair_coeff 1 2 1437.07173936 0.281984725072 0.0 ${R_cut}
pair_coeff 1 2 1437.07173936 0.281984725072 0.0 10
pair_coeff 2 2 17907.6681412 0.158842179647 12.0518239093 ${R_cut}
pair_coeff 2 2 17907.6681412 0.158842179647 12.0518239093 10

kspace_style pppm 1.0e-5

neighbor 1.0 bin
neigh_modify every 1 delay 0 check yes
# ---- define settings
compute eng all pe/atom
compute eatoms all reduce sum c_eng
# ---- run minimization
reset_timestep 0
fix 1 all box/relax iso 0.0 vmax 0.001
thermo 10
thermo_style custom step pe lx ly lz xy xz yz press pxx pyy pzz pxy pxz pyz c_eatoms
min_style cg
minimize 1e-25 1e-25 5000 10000
PPPM initialization ...
  G vector (1/distance) = 0.352629
  grid = 8 8 8
  stencil order = 5
  estimated absolute RMS force accuracy = 3.86465e-05
  estimated relative force accuracy = 2.68385e-06
  using double precision FFTs
  3d grid and FFT values/proc = 3375 512
Neighbor list info ...
  1 neighbor list requests
  update every 1 steps, delay 0 steps, check yes
  master list distance cutoff = 11
Memory usage per processor = 4.06549 Mbytes
Step PotEng Lx Ly Lz Xy Xz Yz Press Pxx Pyy Pzz Pxy Pxz Pyz eatoms 
       0   -108.26668       4.2565       4.2565       4.2565            0            0            0     68174.25     68174.25     68174.25     68174.25 -1.8708973e-11 1.9918278e-11 -1.4539535e-10   -108.26668 
      10   -108.32672     4.299065     4.299065     4.299065            0            0            0    15974.818    15974.818    15974.818    15974.818 2.7247293e-10 7.4247233e-11 1.7340321e-10   -108.32672 
      14   -108.33064    4.3118345    4.3118345    4.3118345            0            0            0    1605.1095    1605.1095    1605.1095    1605.1095 -5.9694499e-11 -6.7982128e-11 4.9253128e-12   -108.33064 
Loop time of 0.0157962 on 1 procs for 14 steps with 8 atoms

Minimization stats:
  Stopping criterion = linesearch alpha is zero
  Energy initial, next-to-last, final = 
        -108.266678614      -108.33063925      -108.33063925
  Force two-norm initial, final = 9.8444 0.23785
  Force max component initial, final = 9.8444 0.237844
  Final line search alpha, max atom move = 1.28309e-07 3.05176e-08
  Iterations, force evaluations = 14 44

Pair  time (%) = 0.00426602 (27.0067)
Kspce time (%) = 0.00259328 (16.4171)
Neigh time (%) = 0 (0)
Comm  time (%) = 0.000494957 (3.1334)
Outpt time (%) = 1.09673e-05 (0.0694298)
Other time (%) = 0.00843096 (53.3734)

Nlocal:    8 ave 8 max 8 min
Histogram: 1 0 0 0 0 0 0 0 0 0
Nghost:    2189 ave 2189 max 2189 min
Histogram: 1 0 0 0 0 0 0 0 0 0
Neighs:    2344 ave 2344 max 2344 min
Histogram: 1 0 0 0 0 0 0 0 0 0

Total # of neighbors = 2344
Ave neighs/atom = 293
Neighbor list builds = 0
Dangerous builds = 0
unfix 1
# ---- define output variables ----
variable natoms equal "count(all)"
variable tot_energy equal "c_eatoms"
variable length_x equal "lx"
variable length_y equal "ly"
variable length_z equal "lz"
variable tilt_xy equal "xy"
variable tilt_xz equal "xz"
variable tilt_yz equal "yz"
variable tot_press equal "press"
variable press_xx equal "pxx"
variable press_yy equal "pyy"
variable press_zz equal "pzz"
variable press_xy equal "pxy"
variable press_xz equal "pxz"
variable press_yz equal "pyz"

# ---- output ----
print "pypospack:output_section:begin"
pypospack:output_section:begin
print "tot_energy = ${tot_energy}"
tot_energy = -108.330639250266
print "num_atoms = ${natoms}"
num_atoms = 8
print "xx = ${length_x}"
xx = 4.3118345
print "yy = ${length_y}"
yy = 4.3118345
print "zz = ${length_z}"
zz = 4.3118345
print "xy = ${tilt_xy}"
xy = 0
print "xz = ${tilt_xz}"
xz = 0
print "yz = ${tilt_yz}"
yz = 0
print "tot_press = ${tot_press}"
tot_press = 1605.10951764203
print "pxx = ${press_xx}"
pxx = 1605.10951764176
print "pyy = ${press_yy}"
pyy = 1605.10951764198
print "pzz = ${press_zz}"
pzz = 1605.10951764233
print "pxy = ${press_xy}"
pxy = -5.96944985898881e-11
print "pxz = ${press_xz}"
pxz = -6.79821282837662e-11
print "pyz = ${press_yz}"
pyz = 4.92531279854496e-12
print "pypospack:output_section:done"
pypospack:output_section:done
print "pypospack:lammps_sim:done"
pypospack:lammps_sim:done
#------------------------------------------------------------------------------
# RUN THERMOSTAT
# running using an NPT Nose-Hoover style thermostat
#------------------------------------------------------------------------------
variable tempdamp equal 0.1
variable pressdamp equal 1.0
# set initial velocities
velocity all create 1300 9282435 mom yes dist gaussian loop all
# fix for Nose-Hoover style thermostat
fix 20 all npt temp 1300 1300 0.1 aniso 0.0 0.0 1.0 drag 1.0 couple xyz
variable boxx equal lx
variable boxy equal ly
variable boxz equal lz
variable boxp equal press
variable boxt equal temp
# calculate averages every 10000 steps
reset_timestep 0
fix 21 all ave/time 10 10 100 v_boxx v_boxy v_boxz v_boxp v_boxt file lattice.out
thermo_style custom step temp pe ke etotal press lx ly lz press pxx pyy pzz pxy pxz pyz vol
thermo_modify flush yes
thermo 100
run 100000
PPPM initialization ...
  G vector (1/distance) = 0.352078
  grid = 8 8 8
  stencil order = 5
  estimated absolute RMS force accuracy = 3.96373e-05
  estimated relative force accuracy = 2.75266e-06
  using double precision FFTs
  3d grid and FFT values/proc = 3375 512
Memory usage per processor = 3.06549 Mbytes
Step Temp PotEng KinEng TotEng Press Lx Ly Lz Press Pxx Pyy Pzz Pxy Pxz Pyz Volume 
       0         1300   -108.33065    1.1762673   -107.15438    17276.077    4.3118345    4.3118345    4.3118345    17276.077    23396.204    14242.712    14189.316   -3898.9268   -9005.5047    6748.6834    80.165268 
     100     351.9224   -107.33033   0.31842679    -107.0119    3300.0465    4.3451015    4.3451015    4.3451015    3300.0465    17098.729   -595.57622   -6603.0135      4489.19    14818.731   -11652.983    82.035112 
     200    821.21163   -107.41564   0.74304954   -106.67259   -20787.331    4.3777334    4.3777334    4.3777334   -20787.331   -2076.5734   -25842.556   -34442.863    11492.801   -4817.2357    1165.5635    83.897288 
     300    1333.3212   -107.60702     1.206417   -106.40061   -9486.3428    4.3737451    4.3737451    4.3737451   -9486.3428   -36359.349    40818.381   -32918.061    6857.3738    6879.7484    11289.677    83.668196 
     400     569.6201   -106.70239   0.51540423   -106.18699    11323.088    4.3653806    4.3653806    4.3653806    11323.088    12579.913    26906.388   -5517.0377    14522.417    15316.845   -2412.7739    83.189084 
     500     1261.095   -107.18384    1.1410653   -106.04277    32731.325    4.3757996    4.3757996    4.3757996    32731.325     57269.82    35076.274    5847.8814     12827.51   -9585.3054    19218.305    83.786157 
     600    904.27972    -106.7922   0.81821129   -105.97399   -24065.832    4.4010041    4.4010041    4.4010041   -24065.832   -73018.215    4614.1009   -3793.3829    16276.394    10069.233    13955.379    85.242329 
     700    1099.6052   -106.91006   0.99494587   -105.91511    9054.3346    4.3887349    4.3887349    4.3887349    9054.3346   -3351.0511   -34365.147    64879.202     157.4767    15252.244    7156.7818    84.531395 
     800    1431.4612   -107.19737    1.2952162   -105.90215    9798.0128     4.380535     4.380535     4.380535    9798.0128   -25272.601   -7455.2559    62121.895    10487.505   -3577.5786    5232.2618    84.058465 
     900    480.05839   -106.36129   0.43436692   -105.92692    13016.107     4.395553     4.395553     4.395553    13016.107    9301.3268   -11354.279    41101.273    20952.049    1071.3103    3205.5357    84.925979 
    1000    1662.9898   -107.41438    1.5047081   -105.90967   -8441.2215     4.391188     4.391188     4.391188   -8441.2215   -3600.5095   -44003.543    22280.388   -1260.9731    -24288.77    7201.1183    84.673221 
    1100    844.97073   -106.68595   0.76454727    -105.9214   -5260.3874    4.3901117    4.3901117    4.3901117   -5260.3874    11149.705   -22521.645   -4409.2221    6514.1972    25361.564    3189.0205    84.610977 
    1200    1163.5139   -106.96501    1.0527718   -105.91224    15060.027    4.3835141    4.3835141    4.3835141    15060.027    9736.1885    13462.522    21981.371   -4697.7692    -250.8525    1969.0363    84.230079 
    1300    964.68158   -106.79194   0.87286416   -105.91907    32614.845    4.3741342    4.3741342    4.3741342    32614.845     40023.87     47568.31    10252.356    20484.461   -15681.549    12975.113     83.69053 
    1400    1202.1529   -107.02841    1.0877332   -105.94067   -13059.437    4.3922707    4.3922707    4.3922707   -13059.437   -52137.345    42081.931   -29122.899     18634.83    12272.455    10157.588    84.735868 
    1500    1215.7192   -107.03107    1.1000083   -105.93106    11176.785    4.3888968    4.3888968    4.3888968    11176.785    42936.048    15950.369   -25356.061   -5507.0819    5634.4728   -169.00321    84.540753 
    1600    923.20686    -106.7733   0.83533697   -105.93797    25018.948    4.3746096    4.3746096    4.3746096    25018.948   -4859.3533    67048.621    12867.575    29464.946    18401.525    12863.227    83.717819 
    1700    1391.8174   -107.19847    1.2593456   -105.93912   -1116.6209    4.3816292    4.3816292    4.3816292   -1116.6209    2321.3652    16078.768   -21749.995    6243.6378   -2349.8937    -15547.14     84.12147 
    1800    1533.4666   -107.31937    1.3875128   -105.93186   -20004.458    4.3802995    4.3802995    4.3802995   -20004.458   -19540.387   -2401.6653   -38071.321    10683.017    12204.847    11762.293    84.044913 
    1900    1373.4413   -107.18098    1.2427186   -105.93826   -12112.075    4.3887854    4.3887854    4.3887854   -12112.075   -16297.945    516.85923   -20555.141    16927.167    2466.1736   -16823.845    84.534312 
    2000    1332.9918   -107.14937     1.206119   -105.94326   -13625.083    4.3861278    4.3861278    4.3861278   -13625.083   -28047.188    38827.182   -51655.244    2992.9346    14059.105   -6254.4609    84.380838 
    2100    1176.6945    -107.0137    1.0646979     -105.949    6651.4406    4.3671554    4.3671554    4.3671554    6651.4406   -12112.352    41754.935   -9688.2609    3879.4329     -4324.02    7848.0233    83.290592 
    2200    1139.0694   -106.98385    1.0306539    -105.9532    32626.072    4.3597656    4.3597656    4.3597656    32626.072   -13912.854    115115.66   -3324.5916    -4789.048    11829.485   -1710.4037    82.868487 
    2300    1633.5935   -107.45094    1.4781097   -105.97283   -30846.944    4.3918647    4.3918647    4.3918647   -30846.944   -19712.009   -19292.897   -53535.926   -4198.1644    12252.908   -4510.8421    84.712372 
    2400    1294.8606   -107.11779    1.1716171   -105.94617   -11275.965    4.3951806    4.3951806    4.3951806   -11275.965   -56010.126    61617.052    -39434.82    2266.2046   -4335.0695    6113.8979    84.904395 
    2500     1218.118   -107.03076    1.1021788   -105.92858    14719.246    4.3653018    4.3653018    4.3653018    14719.246   -31890.629    34055.771    41992.596   -4545.7844    20706.047   -15287.205    83.184579 
    2600      1490.78   -107.28611    1.3488891   -105.93722    20344.571    4.3601509    4.3601509    4.3601509    20344.571    18853.525    35836.591    6343.5959   -3856.2939   -12384.275    10288.036    82.890461 
    2700    1260.8352    -107.1029    1.1408302   -105.96207   -26503.279    4.3839012    4.3839012    4.3839012   -26503.279    -32081.75    -24148.39   -23279.696   -1710.9127    13985.249   -7172.8211      84.2524 
    2800    1375.1724   -107.18806    1.2442849   -105.94377   -16856.344    4.3852591    4.3852591    4.3852591   -16856.344   -36342.596   -30852.259    16625.824    -11049.01   -4044.5034    10829.887    84.330712 
    2900    1379.2173   -107.17896    1.2479448   -105.93101    8610.8332    4.3686432    4.3686432    4.3686432    8610.8332   -33543.556    37212.874    22163.181    6100.0622    2566.0954    12462.944    83.375743 
    3000    1329.5274   -107.14361    1.2029843   -105.94062    4030.5219    4.3773339    4.3773339    4.3773339    4030.5219   -31378.412    51199.927   -7729.9497   -10290.962   -6030.8245   -12206.722    83.874321 
    3100    1223.7024    -107.0456    1.1072316   -105.93837   -19079.465    4.3846008    4.3846008    4.3846008   -19079.465   -64002.052    13053.615    -6289.957   -5775.1869     2330.071   -1580.5101    84.292743 
    3200    1226.7319   -107.04791    1.1099728   -105.93794     7963.141    4.3681249    4.3681249    4.3681249     7963.141   -7120.6179    11920.079    19089.961   -8015.1826    13388.155   -17771.534    83.346073 
    3300    1612.5286   -107.39485    1.4590498    -105.9358    3586.9915    4.3650394    4.3650394    4.3650394    3586.9915    23830.715   -25083.036    12013.296   -953.51728   -7333.5215   -12813.285    83.169581 
    3400     1167.329   -106.99712    1.0562238   -105.94089   -23911.847    4.3920824    4.3920824    4.3920824   -23911.847   -69721.925     -45913.2    43899.583    1802.1445    9018.2529    5090.7226    84.724972 
    3500    1506.0713   -107.29105    1.3627249   -105.92833   -23302.596    4.3794849    4.3794849    4.3794849   -23302.596   -10181.978    -42121.91   -17603.899   -1806.4446   -4807.8198   -11141.172    83.998032 
    3600    1304.2849   -107.10291    1.1801444   -105.92276    25174.333    4.3543136    4.3543136    4.3543136    25174.333    40443.083    -2425.517    37505.433   -2814.3143    4820.8545    5218.4474    82.557992 
    3700    1453.0675   -107.25995     1.314766   -105.94518   -8018.0972     4.385831     4.385831     4.385831   -8018.0972   -43340.628    1782.3902    17503.947   -1043.3647    13362.606   -412.69082    84.363712 
    3800    1040.3331   -106.87512   0.94131528    -105.9338   -15160.571    4.3879052    4.3879052    4.3879052   -15160.571    -27729.42   -36329.525    18577.232   -2030.1315   -4181.4791   -18085.919    84.483461 
    3900    1290.8316   -107.08166    1.1679715   -105.91369    24170.283    4.3622396    4.3622396    4.3622396    24170.283    7867.2468   -7450.8019    72094.404   -1521.1656    10206.199   -5163.4939    83.009646 
    4000    1656.1752   -107.43029    1.4985421   -105.93175    822.36495    4.3669979    4.3669979    4.3669979    822.36495   -7743.6856    378.70756    9832.0729    2133.3718   -4169.6083   -26095.973    83.281578 
    4100      1190.38   -107.02762    1.0770809   -105.95054   -29821.095     4.381207     4.381207     4.381207   -29821.095   -53129.646   -55302.498     18968.86    6102.3014   -3509.4486   -23327.868    84.097158 
    4200    1403.6728   -107.21092    1.2700727   -105.94085    2003.3217    4.3791502    4.3791502    4.3791502    2003.3217   -18503.397   -31095.148     55608.51   -9095.2105     16152.24    16003.152    83.978771 
    4300    1021.2697   -106.86201    0.9240663   -105.93795   -5108.3266      4.38517      4.38517      4.38517   -5108.3266    -14415.72    -44082.83     43173.57    2141.4756   -5899.3962   -9567.6548    84.325571 
    4400    1088.5919   -106.91083   0.98498084   -105.92584    9298.4449    4.3688714    4.3688714    4.3688714    9298.4449   -21124.472    26569.306    22450.501    2863.0444    34879.028    10891.182     83.38881 
    4500    1438.8365   -107.22303    1.3018895   -105.92114    1104.2028    4.3631106    4.3631106    4.3631106    1104.2028   -43835.913    3277.4032    43871.118   -9464.7095   -3379.4573    16301.846    83.059376 
    4600    1305.7369   -107.11558    1.1814582   -105.93412   -33952.657    4.3876834    4.3876834    4.3876834   -33952.657   -69692.661    18766.928   -50932.239    1682.4163    1990.5363   -6842.2175    84.470654 
    4700     1444.214   -107.23097    1.3067551   -105.92422   -33265.577    4.3852229    4.3852229    4.3852229   -33265.577   -56256.426     -26565.2   -16975.106    -2460.361    20310.919    7386.4343    84.328628 
    4800    1327.0897   -107.11943    1.2007787   -105.91865    12774.045    4.3532837    4.3532837    4.3532837    12774.045   -8099.7077    2056.1358    44365.706    11501.786   -8482.6566   -17330.375    82.499421 
    4900    744.06653   -106.60905   0.67324703    -105.9358    44345.206    4.3482811    4.3482811    4.3482811    44345.206   -6593.3845    57090.044    82538.958   -7155.5436   -9944.7451   -5287.1802    82.215334 
    5000    1304.9976   -107.14157    1.1807893   -105.96078   -25253.105    4.3823597    4.3823597    4.3823597   -25253.105   -42486.862   -60140.813    26868.359   -3716.4835   -1422.9831     6954.383    84.163552 
    5100    1664.4301   -107.43859    1.5060113   -105.93257   -25612.343    4.3831047    4.3831047    4.3831047   -25612.343    -45418.34   -19761.141   -11657.547    9412.6151   -10996.507    10624.195    84.206486 
    5200    1074.9514    -106.8914   0.97263865   -105.91876    2131.9541    4.3445068    4.3445068    4.3445068    2131.9541   -46115.415     43936.05    8575.2268   -13119.782    8042.9452   -1137.6956    82.001435 
    5300    1528.5778    -107.3184    1.3830893   -105.93531    10899.728    4.3495424    4.3495424    4.3495424    10899.728    -936.9967   -16891.839    50528.019     651.2636    1574.2728    20343.165    82.286902 
    5400    999.80809   -106.85242   0.90464737   -105.94777   -6880.2874     4.372284     4.372284     4.372284   -6880.2874   -35523.873     29074.16   -14191.149   -4697.7401    19321.379    5349.7805    83.584373 
    5500    1230.6938   -107.05452    1.1135576   -105.94096    8007.3796    4.3801825    4.3801825    4.3801825    8007.3796   -56143.557   -6178.0372    86343.733   -6470.1537   -2654.7862   -4027.5334    84.038177 
    5600    1650.9072   -107.42684    1.4937755   -105.93307   -13480.751      4.36809      4.36809      4.36809   -13480.751    -46111.16   -5494.0491    11162.957   -300.41248    10526.049   -1961.1937    83.344077 
    5700    670.60185   -106.54378   0.60677464   -105.93701    49822.304    4.3402453    4.3402453    4.3402453    49822.304   -10300.808    67780.817    91986.903     -6318.89    1348.6089   -12803.486    81.760366 
    5800    2048.9547   -107.79921    1.8539373   -105.94527    258.49966    4.3640009    4.3640009    4.3640009    258.49966   -10709.152    -31033.49    42518.142   -3859.1978     269.8193   -7895.0198    83.110232 
    5900    977.49124   -106.83715   0.88445462   -105.95269   -6038.0146    4.3678318    4.3678318    4.3678318   -6038.0146   -52488.842   -25188.053    59562.851   -20103.224    18146.943    7739.8323    83.329295 
    6000    1493.7147   -107.29364    1.3515445    -105.9421     9078.902    4.3586423    4.3586423    4.3586423     9078.902   -33412.628    21139.786    39509.549    10442.143   -3325.9016   -4531.3483    82.804452 
    6100    1314.6721   -107.13863    1.1895429   -105.94909   -403.23206    4.3622705    4.3622705    4.3622705   -403.23206   -17411.764    -25060.47    41262.538   -24393.913    6676.4786   -6628.7108    83.011406 
    6200    1180.6368   -107.01938     1.068265   -105.95111    5740.1641    4.3620961    4.3620961    4.3620961    5740.1641   -40191.734   -1641.1679    59053.394    157.79388    13995.732    168.19903    83.001452 
    6300    1543.8294   -107.34571    1.3968893   -105.94882     -3597.87    4.3580054    4.3580054    4.3580054     -3597.87   -42433.391    23506.954    8132.8274   -2697.0621   -17564.649   -10300.424    82.768159 
    6400    1105.7294   -106.95659    1.0004872    -105.9561    22946.609    4.3509635    4.3509635    4.3509635    22946.609    3470.6371     6241.149    59128.039   -15771.066     18162.35    6187.7899    82.367581 
    6500    1493.9016   -107.30822    1.3517135    -105.9565   -3943.2487    4.3724227    4.3724227    4.3724227   -3943.2487   -19044.655    14000.705   -6785.7965    5579.6171   -6200.8427   -8923.8111    83.592331 
    6600    1436.3028   -107.23556    1.2995969   -105.93596    8354.1937    4.3627904    4.3627904    4.3627904    8354.1937   -15327.277     22937.72    17452.137   -15888.306     -2851.81    970.06081    83.041093 
    6700    900.19679   -106.75188   0.81451697   -105.93737    29492.704    4.3513198    4.3513198    4.3513198    29492.704    17915.218    10983.163    59579.732    5787.4898    40114.626   -702.68646    82.387821 
    6800    1866.6032   -107.61943    1.6889418   -105.93048   -3126.4356    4.3668346    4.3668346    4.3668346   -3126.4356   -15112.169    4822.9014    909.96059   -8172.4939   -7772.1756    10778.749    83.272237 
    6900    1087.4421   -106.92771   0.98394047   -105.94377    13228.249    4.3559548    4.3559548    4.3559548    13228.249   -5865.4378    26445.212    19104.973   -15262.213    32595.871    7779.5165    82.651379 
    7000    1592.5219   -107.37707    1.4409473   -105.93612    20163.561     4.363187     4.363187     4.363187    20163.561    30229.354    14145.882    16115.448    4382.1176    11641.275    556.89173    83.063738 
    7100    1183.5066   -107.01133    1.0708616   -105.94047   -5752.7738    4.3725372    4.3725372    4.3725372   -5752.7738   -12399.219    5281.3139   -10140.417     -14956.9    7405.1928    8986.1623    83.598898 
    7200    1045.4388   -106.89014   0.94593502    -105.9442    13228.279    4.3616683    4.3616683    4.3616683    13228.279    21572.992   -1339.7439    19451.588     9433.873    41015.717    14416.304    82.977033 
    7300    1947.3121   -107.70275    1.7619689   -105.94078    9881.2174    4.3608654    4.3608654    4.3608654    9881.2174   -9485.3562    10594.723    28534.285      12403.9   -18882.302    500.53336    82.931216 
    7400    885.02681   -106.75107   0.80079086   -105.95028    17659.014    4.3492991    4.3492991    4.3492991    17659.014   -10959.169    44546.782     19389.43   -12872.857    40059.395    2876.2167    82.273092 
    7500    1320.1005   -107.14807    1.1944547   -105.95362    14240.862    4.3754251    4.3754251    4.3754251    14240.862    3762.6604   -7107.7261     46067.65    8312.0889   -601.66962   -654.18605     83.76465 
    7600    1146.2625   -106.97256    1.0371624   -105.93539   -40085.794    4.3838025    4.3838025    4.3838025   -40085.794   -48086.587    3391.5463   -75562.342   -8097.6796    34855.842    124.64747    84.246709 
    7700    1386.3921   -107.15932    1.2544367   -105.90488    23553.836    4.3351034    4.3351034    4.3351034    23553.836   -7101.5402    46514.434    31248.615    -10686.79    17934.744   -826.04405    81.470122 
    7800    1396.6927   -107.19307    1.2637569   -105.92932    4456.6662    4.3477014    4.3477014    4.3477014    4456.6662    7042.8764    19398.273   -13071.151    7022.5726    1211.2264   -7907.1181    82.182456 
    7900    682.90289   -106.55694   0.61790489   -105.93904    -29646.35     4.382791     4.382791     4.382791    -29646.35   -50201.573    9351.4765   -48088.954   -6546.5815    43917.556    6009.1617    84.188407 
    8000    2055.3929   -107.76968    1.8597627   -105.90992   -6987.9244    4.3722791    4.3722791    4.3722791   -6987.9244    8858.7395    -18498.35   -11324.163   -3473.0271   -14244.241   -2605.4167    83.584091 
    8100    860.54523   -106.71314   0.77863941    -105.9345   -26661.456    4.3581279    4.3581279    4.3581279   -26661.456   -61701.663    6512.7291   -24795.433   -317.52689    47518.145   -5808.4565    82.775141 
    8200    1440.9586   -107.24068    1.3038096   -105.93687    23402.438    4.3402099    4.3402099    4.3402099    23402.438   -2174.6782    32884.979    39497.014   -15479.666   -4384.4657   -19032.163    81.758363 
    8300    1119.7702    -106.9715    1.0131916   -105.95831   -6583.9685     4.367407     4.367407     4.367407   -6583.9685   -18367.946    26402.275   -27786.234   -6165.4859    36198.208    2217.4157    83.304984 
    8400    1462.1458   -107.25899    1.3229803   -105.93601   -32481.804    4.3774117    4.3774117    4.3774117   -32481.804   -52043.788    840.97237   -46242.598     -9588.67    14015.645   -3076.2848    83.878798 
    8500    1278.0895    -107.0749    1.1564422   -105.91846    41654.269    4.3545958    4.3545958    4.3545958    41654.269    68127.867    47401.999    9432.9409   -10595.417   -1221.0765    6542.2033     82.57404 
    8600    976.94038   -106.82377   0.88395619   -105.93981   -6216.1061     4.354241     4.354241     4.354241   -6216.1061   -38844.803    49804.852   -29608.367    14852.369    26049.343    -5155.337    82.553861 
    8700    1310.1771   -107.12813    1.1854758   -105.94265    19955.537    4.3602226    4.3602226    4.3602226    19955.537    14571.902    38387.242    6907.4663   -21198.561   -18293.667    5368.4121    82.894552 
    8800    1360.5252   -107.17741    1.2310318   -105.94638   -10572.565    4.3730101    4.3730101    4.3730101   -10572.565   -21723.759    32468.181   -42462.118   -410.43631    24203.246    5751.3586    83.626023 
    8900     1464.199   -107.25562     1.324838   -105.93078   -14227.253    4.3658254    4.3658254    4.3658254   -14227.253   -21626.545    450.56502   -21505.778    4358.2448   -3589.4379   -11581.545    83.214514 
    9000    1044.3785    -106.8706   0.94497559   -105.92562    37233.912    4.3463662    4.3463662    4.3463662    37233.912    52449.301    43851.337    15401.099   -23643.904     10003.57    8471.4534    82.106763 
    9100    1352.6563    -107.1755    1.2239119   -105.95159   -9022.7584     4.356946     4.356946     4.356946   -9022.7584   -2511.4489    17557.681   -42114.508    7512.2527    28666.903   -7896.3987    82.707814 
    9200    1396.8169   -107.21529    1.2638693   -105.95142    17041.897    4.3676305    4.3676305    4.3676305    17041.897    56624.352   -9786.6677    4288.0064   -1066.9242    -20853.64   -2703.1266    83.317778 
    9300    1240.3461   -107.06926    1.1222913   -105.94697    1875.8071    4.3663726    4.3663726    4.3663726    1875.8071   -35107.733    58227.023   -17491.869   -7700.2073    40758.554    14399.666    83.245812 
    9400    1356.4902   -107.16327    1.2273809   -105.93589   -10611.564    4.3708632    4.3708632    4.3708632   -10611.564   -6241.7858    96.939904   -25689.845    5785.3449   -8963.6373   -10175.794    83.502915 
    9500    1441.1492   -107.23861    1.3039821   -105.93462     6405.259     4.360842     4.360842     4.360842     6405.259   -6657.8013     30275.26   -4401.6814    11276.531    19091.545    5604.7433    82.929881 
    9600    1481.6071   -107.28509    1.3405893    -105.9445   -3715.8128    4.3652423    4.3652423    4.3652423   -3715.8128    12059.213    12011.922   -35218.573    10034.194    12403.464   -3935.9627    83.181179 
    9700    1485.7747   -107.27975    1.3443601   -105.93539   -10031.967    4.3698819    4.3698819    4.3698819   -10031.967     12247.94    -8562.959   -33780.881    6291.8384   -371.73154    1621.1248    83.446689 
    9800    948.78989   -106.79092   0.85848503   -105.93244   -1161.4221    4.3677431    4.3677431    4.3677431   -1161.4221    6988.0544    19988.779   -30461.099    6949.2365    31289.008    13840.796    83.324223 
    9900    1552.7987   -107.32788    1.4050049   -105.92287   -10274.477     4.373035     4.373035     4.373035   -10274.477    20465.231   -19016.062   -32272.601   -10098.801   -17285.556   -13807.872    83.627453 
   10000    1417.0964   -107.20473    1.2822186   -105.92252   -18952.035    4.3695323    4.3695323    4.3695323   -18952.035    9070.8511   -16854.108   -49072.848   -6114.9448    32261.384    20755.773    83.426663 
   10100    1420.3945   -107.21531    1.2852028    -105.9301   -10828.494    4.3725478    4.3725478    4.3725478   -10828.494   -445.04533    5215.0589   -37255.494    8318.4726   -618.97154   -8039.0954    83.599502 
   10200    1145.5115   -106.97391    1.0364829   -105.93743    23549.878    4.3602109    4.3602109    4.3602109    23549.878    78558.142    3294.9744   -11203.482   -13808.532    14752.417     5087.629    82.893886 
   10300     1193.222   -107.03222    1.0796523   -105.95257    10397.068    4.3578696    4.3578696    4.3578696    10397.068   -77.903197    36182.026    -4912.919   -356.25781    32156.624    1976.3436    82.760422 
   10400     1747.144   -107.53589    1.5808526   -105.95504   -6933.6067    4.3766877    4.3766877    4.3766877   -6933.6067    10248.363     5377.515   -36426.698     16149.96   -12396.036   -11118.437    83.837183 
   10500    892.88733   -106.76775   0.80790322   -105.95985   -9105.0456    4.3724209    4.3724209    4.3724209   -9105.0456   -16410.509     29042.45   -39947.079    12067.048     37676.17    24332.678    83.592223 
   10600    1442.1769   -107.23734     1.304912   -105.93243    19064.641    4.3512733    4.3512733    4.3512733    19064.641      18122.9    23709.866    15361.156    12149.794   -17951.532    -20890.03    82.385176 
   10700    919.36324   -106.78341   0.83185918   -105.95155    32986.732    4.3587269    4.3587269    4.3587269    32986.732    98909.315    28535.228   -28484.348    20092.572    11804.604    17157.682    82.809274 
   10800    1375.4034   -107.20193    1.2444939   -105.95743   -7714.6073    4.3808045    4.3808045    4.3808045   -7714.6073    28615.729    9532.3961   -61291.947   -791.45412    2856.6692   -8288.1922    84.073983 
   10900    1186.4867   -107.01507    1.0735581   -105.94151   -7808.6364    4.3797029    4.3797029    4.3797029   -7808.6364    23649.413    8826.2334   -55901.555    2007.2634    13902.305   -23857.626    84.010575 
   11000    1190.6897    -106.9992    1.0773611   -105.92184    1333.2043    4.3579416    4.3579416    4.3579416    1333.2043   -7062.2811    38040.535   -26978.641    8315.4391    21459.649     14485.13    82.764524 
   11100    1512.7297       -107.3    1.3687497   -105.93125   -13800.775    4.3681545    4.3681545    4.3681545   -13800.775    11480.928   -19646.067   -33237.186   -13072.664   -10675.599   -24901.787     83.34777 
   11200    1028.0947   -106.86642    0.9302417   -105.93618    -22874.17    4.3824179    4.3824179    4.3824179    -22874.17   -23284.727    13285.808   -58623.593    174.40671    35137.471    4469.5953    84.166904 
   11300    1647.5992   -107.40567    1.4907824   -105.91489    349.88852    4.3769767    4.3769767    4.3769767    349.88852    34496.142   -2771.2967    -30675.18   -9581.4682    9693.4941   -2632.6279    83.853789 
   11400    1516.1703   -107.29125    1.3718628   -105.91939    -24348.67    4.3764817    4.3764817    4.3764817    -24348.67   -9116.6505   -34095.665   -29833.693   -18648.582    23396.298    -6453.866    83.825346 
   11500    1412.9698   -107.19916    1.2784848   -105.92067   -12805.466    4.3843433    4.3843433    4.3843433   -12805.466    11306.506   -17458.644   -32264.258    3595.6716    18502.566    2969.8819    84.277892 
   11600    1526.5101   -107.28991    1.3812184   -105.90869    5753.8823    4.3766195    4.3766195    4.3766195    5753.8823    3827.6675    29389.366   -15955.386    1459.5476    8268.8977   -13882.519    83.833263 
   11700    1327.5186   -107.11785    1.2011667   -105.91669   -9704.6769    4.3710186    4.3710186    4.3710186   -9704.6769    24531.014   -17134.099   -36510.946   -11721.044    41282.049    5282.6437    83.511825 
   11800    1339.1903   -107.12976    1.2117275   -105.91803    9049.1942    4.3736803    4.3736803    4.3736803    9049.1942   -27628.561    62354.369   -7578.2258    1491.3222   -3563.1289   -11302.803    83.664477 
   11900    938.23444     -106.779   0.84893424   -105.93006    8098.3778    4.3723756    4.3723756    4.3723756    8098.3778    14377.392    47661.793   -37744.051    15224.431    35512.429   -8784.3636    83.589628 
   12000     1542.022   -107.31518    1.3952539   -105.91993    13955.244    4.3738007    4.3738007    4.3738007    13955.244    35430.246    35800.487   -29364.999   -7030.3182   -3024.3715    1224.2313    83.671385 
   12100    949.81493   -106.78393   0.85941251   -105.92452    509.35647    4.3760958    4.3760958    4.3760958    509.35647   -19813.839    48629.799   -27287.891    3622.9875     24033.36   -16786.643     83.80317 
   12200    1465.2535   -107.24958    1.3257922   -105.92379   -15171.694     4.371537     4.371537     4.371537   -15171.694   -12885.998    7907.8425   -40536.928    1013.6392    25531.562    9826.4662    83.541539 
   12300     1725.161   -107.48755    1.5609619   -105.92659    3907.1691    4.3608795    4.3608795    4.3608795    3907.1691    31367.357     2841.068   -22486.918   -7545.7859   -7694.4533   -18175.713    82.932021 
   12400    927.77937   -106.79355   0.83947427   -105.95407   -2251.3666    4.3733059    4.3733059    4.3733059   -2251.3666    10335.955    30246.759   -47336.814   -101.16149    35393.709   -726.85768    83.642992 
   12500    1734.8017   -107.50196     1.569685   -105.93228   -28293.285    4.3845974    4.3845974    4.3845974   -28293.285    -7349.519   -25173.159   -52357.177    3866.0682   -19098.176   -3677.2824    84.292546 
   12600    1096.7367   -106.91403    0.9923504   -105.92168   -33792.806    4.3779982    4.3779982    4.3779982   -33792.806    -48662.42    882.65237   -53598.652   -10199.677    35147.037   -7925.8459    83.912516 
   12700    1474.6636   -107.24667    1.3343066   -105.91236    2462.8488    4.3662185    4.3662185    4.3662185    2462.8488   -3406.0946    25878.909   -15084.268    4403.6899    10528.885   -1517.1301    83.236997 
   12800    1439.8976   -107.22935    1.3028496    -105.9265   -18631.983    4.3742783    4.3742783    4.3742783   -18631.983   -27137.292   -13118.752   -15639.903    -72.42026    5863.0994   -10250.104    83.698798 
   12900    1163.0611   -106.98185    1.0523621   -105.92949   -26814.891    4.3867527    4.3867527    4.3867527   -26814.891   -47339.147    20501.086   -53606.611     -6923.46    30810.666   -7178.3089     84.41691 
   13000    1544.2469    -107.3068     1.397267   -105.90953   -5387.7419    4.3819148    4.3819148    4.3819148   -5387.7419   -19547.784   -13350.195    16734.754    13910.722   -15740.325    2688.0452    84.137921 
   13100    1309.6834   -107.09973    1.1850291   -105.91471   -25364.998    4.3660415    4.3660415    4.3660415   -25364.998   -32051.677   -23546.371   -20496.945   -20345.021      26535.8   -3044.1741    83.226874 
   13200    1807.5442   -107.56148     1.635504   -105.92598    3364.2623    4.3647218    4.3647218    4.3647218    3364.2623      4162.02    5094.0106    836.75631    2066.3072   -2620.1654   -10511.485    83.151424 
   13300    896.92015   -106.75481    0.8115522   -105.94326   -17497.185    4.3932727    4.3932727    4.3932727   -17497.185    15799.191   -48039.471   -20251.276   -3129.3522     1497.294    2709.3504    84.793877 
   13400    1470.4425   -107.25178    1.3304873   -105.92129   -31546.883    4.3860303    4.3860303    4.3860303   -31546.883   -30558.894    -45452.16   -18629.594   -24015.317    8020.2302   -10902.024    84.375211 
   13500    1536.0728   -107.28785    1.3898709   -105.89798    40807.438    4.3453007    4.3453007    4.3453007    40807.438    54673.331   -10771.801    78520.783    10890.331   -6712.2527    2585.5355    82.046396 
   13600    899.41997   -106.76423   0.81381409   -105.95042   -11746.833    4.3720582    4.3720582    4.3720582   -11746.833   -22179.802   -42489.582    29428.884   -12535.877    33910.179    5385.4404    83.571426 
   13700    1307.5596   -107.11544    1.1831074   -105.93233     -22803.8    4.3900706    4.3900706    4.3900706     -22803.8   -17076.203   -46550.491   -4784.7041    6453.4319    5406.7219   -2584.5665    84.608603 
   13800    1311.6407   -107.10153    1.1868001   -105.91473    42931.837    4.3522425    4.3522425    4.3522425    42931.837    84705.509    2224.2975    41865.705    541.16436    29535.991     5155.338    82.440242 
   13900    917.33173   -106.78645   0.83002103   -105.95642      2413.73    4.3675808    4.3675808    4.3675808      2413.73      32560.1   -29659.553     4340.643   -5637.9262    30519.555   -14803.543    83.314933 
   14000    1669.1628   -107.44425    1.5102936   -105.93396   -6930.4153    4.3899355    4.3899355    4.3899355   -6930.4153   -10621.421   -13233.933    3064.1077    18009.813   -5294.3571    3799.1896    84.600791 
   14100    868.08844   -106.70564   0.78546466   -105.92018    6759.7622    4.3811239    4.3811239    4.3811239    6759.7622   -28902.205    4748.1168    44433.375   -6967.4255    35833.293    2710.8651    84.092373 
   14200    1614.4753   -107.36254    1.4608112   -105.90173    1320.2864    4.3676933    4.3676933    4.3676933    1320.2864   -7151.9195   -24945.889    36058.667     10951.28    11054.159   -8009.5339    83.321368 
   14300    1326.4514   -107.12269    1.2002011   -105.92249    16918.756    4.3743146    4.3743146    4.3743146    16918.756    17851.676    12808.814    20095.779   -8930.2013    5737.9705   -11226.456    83.700884 
   14400    1190.5432   -107.00058    1.0772285   -105.92336    -27510.46    4.3917338    4.3917338    4.3917338    -27510.46   -12797.988   -4233.4088   -65499.983   -2483.4317    19882.568   -9258.9794    84.704801 
   14500    1541.9845   -107.30381      1.39522   -105.90859   -1557.6224     4.378214     4.378214     4.378214   -1557.6224    1289.6887   -30079.983    24117.427    6966.1581   -18732.331    -7503.112    83.924925 
   14600    1224.7372   -107.02819     1.108168   -105.92002   -4938.6133    4.3684237    4.3684237    4.3684237   -4938.6133   -17037.391   -11884.329     14105.88   -16061.598   -711.89219   -13251.309     83.36318 
   14700    1185.8714   -107.00724    1.0730014   -105.93423   -7995.0745    4.3690552    4.3690552    4.3690552   -7995.0745   -32553.709   -42074.787    50643.272    9799.2753    1593.5251   -12670.624    83.399337 
   14800    1330.0625   -107.14607    1.2034685    -105.9426   -2733.1019     4.361922     4.361922     4.361922   -2733.1019   -49648.943   -39891.553     81341.19   -30421.304   -474.42312    2505.4336    82.991512 
   14900    1506.6812   -107.31979    1.3632768   -105.95652   -23704.714    4.3667445    4.3667445    4.3667445   -23704.714   -31067.075   -9396.4241   -30650.642    12379.327    32134.429   -19345.724     83.26708 
   15000    1306.6246   -107.13966    1.1822614    -105.9574   -25063.003    4.3701836    4.3701836    4.3701836   -25063.003   -48756.661    -55521.97    29089.623   -16094.297     10959.86   -209.92456    83.463972 
   15100    1383.2832   -107.19902    1.2516237   -105.94739    12293.582    4.3622868    4.3622868    4.3622868    12293.582   -18625.789   -23323.974    78830.508   -21644.579   -2505.0501   -4100.9147    83.012336 
   15200    849.50204   -106.72115    0.7686473    -105.9525    21285.764    4.3600247    4.3600247    4.3600247    21285.764    19235.177    1895.9239    42726.192    377.30403    7324.9572   -4328.7089    82.883263 
   15300    1146.2169   -106.99035    1.0371212   -105.95323   -2152.2107     4.375713     4.375713     4.375713   -2152.2107    10577.732   -51794.393     34760.03   -26621.739   -12649.125   -2428.0094    83.781183 
   15400    1595.7355   -107.37696     1.443855    -105.9331    4256.9788    4.3763122    4.3763122    4.3763122    4256.9788    22788.679   -19482.572    9464.8292   -575.05692    6158.2968   -261.26553    83.815606 
   15500    1071.8785   -106.90885   0.96985819   -105.93899   -3526.7187      4.36305      4.36305      4.36305   -3526.7187    -29731.89    1810.6915    17341.042   -29809.399    13180.416   -14083.719    83.055914 
   15600    1534.7285   -107.33052    1.3886546   -105.94186   -11275.928    4.3675239    4.3675239    4.3675239   -11275.928   -31571.693   -24209.722     21953.63   -14526.547    3351.1468    10096.284    83.311677 
   15700     1327.973   -107.15212    1.2015779   -105.95054    -2615.923    4.3646573    4.3646573    4.3646573    -2615.923    5720.9354    17589.817   -31158.521   -314.92142    24120.244   -12039.417    83.147741 
   15800    1313.2656   -107.14163    1.1882703   -105.95336    3186.4482    4.3586195    4.3586195    4.3586195    3186.4482    23573.366    -16449.88    2435.8581   -24864.261    5735.3813     834.2629    82.803153 
   15900    1101.6592   -106.94873   0.99680437   -105.95192    14050.921    4.3750844    4.3750844    4.3750844    14050.921    40831.392   -12677.605    13998.976    6989.6211    -1851.902    6061.7789    83.745078 
   16000     1232.143   -107.05649    1.1148689   -105.94162   -6067.2095     4.368411     4.368411     4.368411   -6067.2095    4368.9543    480.38294   -23050.966   -15131.123    22035.335    -9723.348    83.362451 
   16100    1216.3602   -107.03542    1.1005882   -105.93483     16116.52    4.3520055    4.3520055    4.3520055     16116.52    7885.9936    44827.803    -4364.236   -10777.259   -17779.418    10369.223    82.426775 
   16200    1577.6325   -107.37375     1.427475   -105.94627   -23631.798    4.3626532    4.3626532    4.3626532   -23631.798    -21524.23   -1559.7776   -47811.385    2371.1596   -6510.0858   -8798.2109    83.033259 
   16300    1053.2515   -106.90576   0.95300405   -105.95276    16206.101    4.3598962    4.3598962    4.3598962    16206.101    39052.614     10795.03   -1229.3406   -16488.297    14474.302   -961.13112    82.875936 
   16400    1362.1784   -107.19245    1.2325277   -105.95992   -16848.679    4.3631328    4.3631328    4.3631328   -16848.679   -5604.9223   -1979.9714   -42961.142    931.94463   -25567.211     9640.346    83.060645 
   16500    1315.5265   -107.14591     1.190316   -105.95559     4652.208    4.3639511    4.3639511    4.3639511     4652.208      50164.1    1140.7705   -37348.247   -17025.383    5455.4753   -10222.786    83.107387 
   16600    1287.8921   -107.11854    1.1653119   -105.95323   -9366.9338    4.3635762    4.3635762    4.3635762   -9366.9338    5891.1634   -3848.9621   -30143.003   -11592.638    2687.7582    10257.717     83.08597 
   16700    1127.1045    -106.9753    1.0198278   -105.95547    10294.459     4.353769     4.353769     4.353769    10294.459    47597.435    15591.415   -32305.473    22397.991   -33603.463   -4296.4515    82.527016 
   16800     1342.876   -107.17318    1.2150624   -105.95811    13911.066    4.3546041    4.3546041    4.3546041    13911.066    8401.8271    36012.788   -2681.4171    9474.1369    17499.302    1844.4823    82.574514 
   16900    1206.3165   -107.05399    1.0915005   -105.96249   -17939.916    4.3698307    4.3698307    4.3698307   -17939.916   -10934.824   -6413.4819   -36471.443   -4668.4779   -14427.076    6046.4557    83.443753 
   17000    1187.9871    -107.0245    1.0749157   -105.94958    9154.4438    4.3700133    4.3700133    4.3700133    9154.4438    4020.0833    35991.321   -12548.073    2313.8151   -23569.578    -4642.347    83.454218 
   17100    1756.6789   -107.52689      1.58948   -105.93741     5225.087    4.3585788    4.3585788    4.3585788     5225.087    19439.375   -8976.1425    5212.0283   -1782.1572    12572.397    12808.472    82.800832 
   17200    805.55434   -106.68383    0.7288825   -105.95495      -3558.1    4.3575258    4.3575258    4.3575258      -3558.1    1450.5351    25260.569   -37385.404   -24854.968   -33844.596    5981.4935    82.740834 
   17300    1659.9326   -107.45577    1.5019419   -105.95383    4449.6684    4.3550087    4.3550087    4.3550087    4449.6684    29430.344   -1135.1953   -14946.144    12614.102   -644.57557    11439.954    82.597534 
   17400    1325.5514   -107.16518    1.1993868   -105.96579   -7554.0149    4.3710161    4.3710161    4.3710161   -7554.0149    5968.1978    3536.3419   -32166.584   -12514.287    6323.9884    5367.6722    83.511681 
   17500    1282.6455   -107.10357    1.1605646     -105.943   -23151.734    4.3885705    4.3885705    4.3885705   -23151.734   -30397.956   -12572.267   -26484.979     916.4241   -9500.3443    14218.011    84.521897 
   17600    1500.3359   -107.26745    1.3575354   -105.90991    11480.483    4.3794623    4.3794623    4.3794623    11480.483    22951.498    24247.845   -12757.894    8573.0446    18510.335   -6812.3681    83.996727 
   17700    1107.5923   -106.91577    1.0021728   -105.91359   -17758.166    4.3655294    4.3655294    4.3655294   -17758.166   -19474.058    15899.856   -49700.297   -6273.6374    -16481.61    17216.897     83.19759 
   17800    1542.9026   -107.31934    1.3960507   -105.92328    11145.143    4.3598163    4.3598163    4.3598163    11145.143    -6400.542    9679.4362    30156.534    18718.721    1810.4428    8001.8403    82.871382 
   17900    1243.5856   -107.07091    1.1252223   -105.94569    16092.475    4.3716006    4.3716006    4.3716006    16092.475    5335.5871    14889.865    28051.971   -9107.5004   -23678.898    11812.488    83.545184 
   18000    1170.9296   -107.00155    1.0594818   -105.94207   -25291.143    4.3874027    4.3874027    4.3874027   -25291.143   -43954.587   -19211.629   -12707.214    -1899.197   -26068.841    8995.0001    84.454439 
   18100    1736.2953   -107.49561    1.5710364   -105.92457    1515.8533    4.3677345    4.3677345    4.3677345    1515.8533   -18024.864   -3069.4156     25641.84    7195.3591    8240.2754   -16208.233    83.323729 
   18200    914.63589   -106.75477   0.82758177   -105.92719    30801.307    4.3471565    4.3471565    4.3471565    30801.307    12106.542     52970.28      27327.1   -15733.821    -28192.45    624.69896    82.151562 
   18300    1304.0034   -107.13052    1.1798897   -105.95063    -8583.825    4.3755298    4.3755298    4.3755298    -8583.825   -25413.887    30642.206   -30979.794    17995.264     2000.295   -2869.2042    83.770658 
   18400    1104.1792   -106.93764   0.99908455   -105.93855    6557.0402    4.3747249    4.3747249    4.3747249    6557.0402   -36281.751    88898.374   -32945.503   -2667.7133   -15192.582   -16901.921    83.724437 
   18500    1237.0193   -107.05867     1.119281   -105.93939   -12750.243    4.3536735    4.3536735    4.3536735   -12750.243    4042.9836   -9549.2454   -32744.468   -10476.219   -387.71391    23863.929    82.521589 
   18600    1605.9564   -107.39712    1.4531031   -105.94402   -16981.744    4.3567356    4.3567356    4.3567356   -16981.744   -20060.737   -9140.8112   -21743.682    28854.243   -5668.4527    23595.713     82.69583 
   18700      1167.72   -107.00992    1.0565776   -105.95335   -14356.536    4.3722285    4.3722285    4.3722285   -14356.536   -57097.607     34665.21   -20637.212    -22348.76   -16682.746     544.1462    83.581188 
   18800    1029.0458    -106.8765    0.9311023    -105.9454   -9609.5361    4.3730101    4.3730101    4.3730101   -9609.5361     -31880.6    32276.145   -29224.153   -12394.856     6814.263     20631.65    83.626021 
   18900    1368.0096   -107.17401    1.2378039    -105.9362    9937.0209    4.3637762    4.3637762    4.3637762    9937.0209   -33906.465    90230.209   -26512.681    12365.774   -17992.923   -16450.778    83.097393 
   19000    1602.9026   -107.39548      1.45034   -105.94514   -13231.486    4.3685954    4.3685954    4.3685954   -13231.486   -10959.882   -29276.481    541.90419   -17135.486    9002.9192    2529.1881    83.373011 
   19100    1270.7204   -107.09875    1.1497745   -105.94898   -16506.044    4.3721634    4.3721634    4.3721634   -16506.044   -28308.237    30188.111   -51398.007    8778.6069   -20324.707    17928.449     83.57746 
   19200    1430.9768   -107.23903    1.2947779   -105.94425    10327.005    4.3572918    4.3572918    4.3572918    10327.005   -296.34095    42130.297    -10852.94     3247.509   -6763.6866   -13620.004    82.727508 
   19300    1008.7823    -106.8586   0.91276739   -105.94584    31002.749    4.3417337    4.3417337    4.3417337    31002.749     13846.64    69112.602    10049.004   -21731.617   -1882.7714    25773.605    81.844511 
   19400    1311.5764   -107.14699    1.1867419   -105.96024   -19800.461    4.3677143    4.3677143    4.3677143   -19800.461   -17119.562    -22398.22     -19883.6    15610.607   -28000.325    16066.985    83.322573 
   19500    1334.7843   -107.15518    1.2077409   -105.94744    5029.6477    4.3622404    4.3622404    4.3622404    5029.6477   -16063.683    18360.187     12792.44   -5832.4654    25709.911    -6175.061    83.009691 
   19600    1255.5846   -107.07775    1.1360793   -105.94167   -13745.169    4.3583813    4.3583813    4.3583813   -13745.169   -10724.698   -32684.435    2173.6255   -7241.8063   -28292.688    26007.622    82.789578 
   19700    1432.2886   -107.22844    1.2959648   -105.93247   -985.66098    4.3608584    4.3608584    4.3608584   -985.66098   -22362.317    11349.274      8056.06    5228.6419    8716.0265   -13175.764    82.930822 
   19800     1339.768   -107.14797    1.2122503   -105.93572    6689.5498    4.3518531    4.3518531    4.3518531    6689.5498    6415.3682   -14820.815    28474.096   -8673.9786    11106.354      8418.28    82.418117 
   19900    1403.7247   -107.21875    1.2701196   -105.94863   -15036.313    4.3690536    4.3690536    4.3690536   -15036.313   -35928.948    5130.5117   -14310.502     4390.848   -10532.627    7388.3893    83.399245 
   20000    1204.2151   -107.02991    1.0895991   -105.94031   -3818.9933    4.3641487    4.3641487    4.3641487   -3818.9933   -31530.572    2320.2102    17753.382     6859.522    30811.834    9334.7701    83.118674 
   20100    1202.5963   -107.03021    1.0881344   -105.94208   -935.70831    4.3591157    4.3591157    4.3591157   -935.70831   -17945.496    8417.0894    6721.2816    1526.8721   -14686.011    22056.202    82.831437 
   20200    1157.8647    -106.9917    1.0476603   -105.94404   -6464.0285     4.356916     4.356916     4.356916   -6464.0285   -59689.102    59797.034   -19500.018    4951.2323    32289.806    3328.8829    82.706103 
   20300     1165.982   -107.00136     1.055005   -105.94635    26058.938    4.3576549    4.3576549    4.3576549    26058.938   -16842.219    76343.425    18675.609   -6045.4467   -1396.6583    7575.7424    82.748191 
   20400    1052.2446   -106.90497   0.95209305   -105.95288   -26092.725    4.3751091    4.3751091    4.3751091   -26092.725   -48011.515    31632.934   -61899.594    2210.2845    3960.5563    13256.095      83.7465 
   20500      1466.62   -107.26105    1.3270286   -105.93402   -6701.0259    4.3551194    4.3551194    4.3551194   -6701.0259   -50498.431    57982.015   -27586.662    2827.1634    20637.975   -9961.1095    82.603831 
   20600    1775.6296   -107.54425     1.606627   -105.93762   -8365.0024    4.3534205    4.3534205    4.3534205   -8365.0024   -24657.249   -9391.9514    8954.1926    1262.6594    4841.5795    10942.608    82.507202 
   20700    711.49369   -106.60381   0.64377444   -105.96003   -32327.509    4.3681813    4.3681813    4.3681813   -32327.509   -60326.539    42730.256   -79386.246    6929.6186    29262.364    12153.095      83.3493 
   20800    1537.0584   -107.32671    1.3907628   -105.93594    12287.386    4.3656462    4.3656462    4.3656462    12287.386   -32523.247    82035.597   -12650.191    3525.4004   -21009.407   -8252.3203    83.204271 
   20900    776.01695   -106.64457   0.70215644   -105.94242   -1163.3807    4.3735608    4.3735608    4.3735608   -1163.3807   -66376.492    98125.755   -35239.405   -1757.8321    42167.567      21969.8     83.65762 
   21000    1131.9447   -106.95608    1.0242074   -105.93187   -6918.0548    4.3574442    4.3574442    4.3574442   -6918.0548    -19589.43    53276.351   -54441.085    4398.3158    -15150.48   -599.73952    82.736186 
   21100    1392.5772   -107.19601    1.2600332   -105.93597   -1173.9247    4.3511502    4.3511502    4.3511502   -1173.9247   -7372.5124    15264.601   -11413.862    1603.0892    22754.477   -11150.307    82.378184 
   21200    1596.9105   -107.38419    1.4449182   -105.93928   -25829.943    4.3749401    4.3749401    4.3749401   -25829.943   -27915.334     -10117.1   -39457.395    1304.4132    10457.771    10250.732    83.736797 
   21300    1267.6428   -107.08633    1.1469899   -105.93934   -24627.132    4.3672612    4.3672612    4.3672612   -24627.132    1288.0135   -12712.703   -62456.707    4403.0535   -1666.1068   -26010.012    83.296644 
   21400    1429.3668   -107.22085    1.2933211   -105.92752     24089.98    4.3511749    4.3511749    4.3511749     24089.98    25188.404    50279.002   -3197.4657    6832.9182    4842.5117   -5917.6994    82.379589 
   21500    1161.7665   -106.98352    1.0511907   -105.93233   -7217.5889    4.3653579    4.3653579    4.3653579   -7217.5889   -8888.6626    31827.669   -44591.773    627.35096   -16494.138   -3639.6905    83.187789 
   21600    1097.4203   -106.92421   0.99296893   -105.93124    9124.4018    4.3652805    4.3652805    4.3652805    9124.4018    26067.422    6033.8448   -4728.0615   -3514.9506    8879.5112   -21250.711    83.183362 
   21700    1360.8116   -107.15612     1.231291   -105.92483   -4464.8971    4.3687248    4.3687248    4.3687248   -4464.8971   -15209.691    26984.544   -25169.544   -1660.8237    1747.1967    523.10322     83.38042 
   21800    880.22992    -106.7383   0.79645053   -105.94185   -16402.426     4.358877     4.358877     4.358877   -16402.426    33164.732   -41318.146   -41053.864    -8542.075   -6858.8976   -34346.603    82.817827 
   21900    2000.1016    -107.7416    1.8097339   -105.93186    20611.156    4.3372031    4.3372031    4.3372031    20611.156    37599.871   -5795.5701    30029.168   -5010.5913    7389.7319    12.295034    81.588564 
   22000    902.33825   -106.78548   0.81645461   -105.96902   -10873.606    4.3675679    4.3675679    4.3675679   -10873.606    48780.311    -38160.09   -43241.039    257.73726   -8067.3619   -15150.882    83.314194 
   22100    1029.7976   -106.86748   0.93178247    -105.9357   -29103.583    4.3851787    4.3851787    4.3851787   -29103.583    24759.927   -63894.275   -48176.401   -5688.9806     3100.713   -17414.796    84.326072 
   22200    1881.0167   -107.61159    1.7019834   -105.90961   -4525.0484    4.3542247    4.3542247    4.3542247   -4525.0484   -6872.3372    1292.4846   -7995.2928   -11633.217   -4116.9097    6672.4375    82.552936 
   22300    883.30536   -106.72749   0.79923325   -105.92826   -176.81584    4.3429597    4.3429597    4.3429597   -176.81584    67767.302   -44551.291   -23746.458     3665.086    -746.7837   -21684.852    81.913862 
   22400    1781.1889   -107.55657    1.6116572   -105.94491    1718.6217    4.3655322    4.3655322    4.3655322    1718.6217    33559.907   -7971.0118    -20433.03    12357.442    15003.403    11767.358    83.197752 
   22500    1208.9849   -107.03233     1.093915   -105.93841   -49426.723    4.3954065    4.3954065    4.3954065   -49426.723   -19191.277   -48968.848   -80120.044    9724.4671   -7472.7935   -13887.262    84.917486 
   22600    1634.9239   -107.38087    1.4793135   -105.90156   -24334.734     4.379872     4.379872     4.379872   -24334.734   -11022.148   -36563.025   -25419.029    7844.0382    6290.2855     4082.558    84.020305 
   22700    1680.4515   -107.41762    1.5205079   -105.89711    299.09714    4.3429966    4.3429966    4.3429966    299.09714    1056.5779    1879.3248   -2038.6113    10712.057    4596.2177   -6827.4005    81.915949 
   22800    1264.0528   -107.07902    1.1437415   -105.93528    6322.6758    4.3464165    4.3464165    4.3464165    6322.6758    65888.985   -8633.1173    -38287.84   -1300.7504   -2424.7861   -16036.294    82.109614 
   22900    1754.3799   -107.52998    1.5873998   -105.94258   -17571.099    4.3821912    4.3821912    4.3821912   -17571.099    16750.321   -29173.013   -40290.605    9208.7526    9051.6213    12241.131    84.153847 
   23000     859.3305   -106.71867    0.7775403   -105.94113   -25498.244    4.3797991    4.3797991    4.3797991   -25498.244    11677.415   -25221.226   -62950.921   -689.18122    899.61409   -13418.367     84.01611 
   23100    1842.9041   -107.56859    1.6674984   -105.90109    19927.539    4.3635071    4.3635071    4.3635071    19927.539    53624.729    2835.0758    3322.8134   -8406.6867    5843.8558    12509.732    83.082025 
   23200     1118.227    -106.9273    1.0117953   -105.91551   -26547.251    4.3679692    4.3679692    4.3679692   -26547.251    -12393.96    -4464.148   -62783.645    4586.1013   -13421.662   -8979.0687    83.337158 
   23300    1438.5382   -107.22783    1.3016196   -105.92621   -9054.9415    4.3694493    4.3694493    4.3694493   -9054.9415   -27833.219   -5669.1538     6337.548   -1919.1178   -185.81073   -3180.3679    83.421906 
   23400    1582.2019   -107.36002    1.4316095   -105.92841    5280.0889    4.3715078    4.3715078    4.3715078    5280.0889    12290.028   -3234.9765    6785.2154   -6081.0301    -9004.612   -7846.3079    83.539863 
   23500    794.57429    -106.6599   0.71894752   -105.94096    13380.538    4.3632529    4.3632529    4.3632529    13380.538   -20211.353    10169.644    50183.323    2881.0682   -19002.714   -30253.661    83.067502 
   23600    1656.1417    -107.4304    1.4985118   -105.93189    16855.192    4.3592199    4.3592199    4.3592199    16855.192    4354.5316    15985.372    30225.672    -19860.07    2601.2437    2245.1435    82.837374 
   23700    1026.9228    -106.8728   0.92918135   -105.94361    13380.922    4.3670583    4.3670583    4.3670583    13380.922    34318.311    16342.174    -10517.72    2446.5437   -7898.5292   -27231.872    83.285032 
   23800    1127.5969    -106.9553    1.0202734   -105.93503    17704.324    4.3777728    4.3777728    4.3777728    17704.324   -21852.024    53324.551    21640.443    -8962.383   -3895.1369   -12696.406    83.899556 
   23900    1277.6015   -107.08382    1.1560007   -105.92782   -11442.335    4.3734589    4.3734589    4.3734589   -11442.335   -26971.948    8087.0431   -15442.101    -20127.57    -7016.139   -18435.959    83.651775 
   24000    1012.6319   -106.84205   0.91625065    -105.9258    8305.5325    4.3509752    4.3509752    4.3509752    8305.5325   -2327.4476    41798.626   -14554.581    9875.3807   -7016.1296    -23208.94    82.368246 
   24100    1722.4493   -107.49145    1.5585083   -105.93294    11192.516    4.3587551    4.3587551    4.3587551    11192.516   -14117.141   -18441.314    66136.004   -23860.182    4945.8487    3929.6812    82.810883 
   24200    1143.4189   -106.98269    1.0345894    -105.9481   -26300.858    4.3802265    4.3802265    4.3802265   -26300.858   -24538.675   -17385.687   -36978.211    9171.5038   -5620.1402   -16862.503     84.04071 
   24300    1719.9125   -107.48874     1.556213   -105.93253   -21019.168    4.3782187    4.3782187    4.3782187   -21019.168   -25388.358   -36860.932   -808.21571   -9565.4614    3207.9016    7558.4821    83.925195 
   24400    1355.4196   -107.16767    1.2264122   -105.94126   -10081.396    4.3607247    4.3607247    4.3607247   -10081.396   -15994.016   -19130.297    4880.1242   -4390.4945   -459.04007   -12345.019    82.923193 
   24500    1032.1105   -106.88309   0.93387526   -105.94921      8842.64    4.3428778    4.3428778    4.3428778      8842.64    523.96345   -3478.7145    29482.671    10511.413   -8927.4368   -20528.233    81.909225 
   24600    2002.0296   -107.75932    1.8114785   -105.94784    -18973.77    4.3774647    4.3774647    4.3774647    -18973.77   -40985.133   -9848.4489    -6087.729    1045.3481   -1730.4247    8108.3888    83.881839 
   24700    573.16613   -106.45716   0.51861276   -105.93855    -31352.33    4.3894827    4.3894827    4.3894827    -31352.33   -47038.903    -18632.49   -28385.597    5143.8098   -6778.0507   -30348.426    84.574614 
   24800    1745.2985   -107.49776    1.5791828   -105.91858    3424.6502    4.3488625    4.3488625    4.3488625    3424.6502    4949.9572    11759.341   -6435.3478    15751.991     5251.723   -8156.3098    82.248317 
   24900    954.46255   -106.79377   0.86361777   -105.93015    29697.675    4.3370764    4.3370764    4.3370764    29697.675    3212.4442    73012.732    12867.849    4114.3889   -16419.775   -1355.9196    81.581411 
   25000    1324.0073   -107.16265    1.1979896   -105.96466   -25547.798    4.3663726    4.3663726    4.3663726   -25547.798   -30810.907   -1904.5635   -43927.925    10660.083    4601.7438   -35687.137    83.245809 
   25100    1229.1468   -107.05027    1.1121579   -105.93812    -13319.11    4.3878326    4.3878326    4.3878326    -13319.11   -50188.203   -15208.457    25439.331    17076.818   -7941.4363    3643.6269     84.47927 
   25200    1071.7948   -106.89996   0.96978242   -105.93017   -23694.345    4.3675523    4.3675523    4.3675523   -23694.345   -33752.256     9045.183   -46375.963   -2125.4091    20356.785   -17607.759      83.3133 
   25300    1680.7355   -107.44016    1.5207648    -105.9194    24215.124    4.3381118    4.3381118    4.3381118    24215.124    -3208.169    19193.642    56659.898    24587.955   -1037.0177    3156.8757    81.639855 
   25400    1201.7622   -107.04632    1.0873797   -105.95894   -24057.135    4.3605591    4.3605591    4.3605591   -24057.135   -37280.039   -26035.994   -8855.3717    3324.0407   -6027.8849    10187.644    82.913745 
   25500    1662.1404   -107.44378    1.5039396   -105.93984   -30177.696    4.3846714    4.3846714    4.3846714   -30177.696   -35340.026   -23707.926   -31485.135    13758.423    12006.037   -6172.8309    84.296814 
   25600    1173.1724    -106.9964    1.0615111   -105.93488   -24919.608     4.375544     4.375544     4.375544   -24919.608   -35530.072   -23266.686   -15962.065    13782.927   -15871.878    15135.751    83.771476 
   25700    1438.5622   -107.22714    1.3016413    -105.9255   -16975.138    4.3490183    4.3490183    4.3490183   -16975.138   -21315.445    2918.1434   -32528.111    3942.4381    14368.066   -123.03655    82.257159 
   25800    1679.9143   -107.44681    1.5200218   -105.92679    20155.351    4.3492101    4.3492101    4.3492101    20155.351   -1694.9696    11824.736    50336.287    7113.7664   -8935.2546   -5915.2973    82.268044 
   25900    1065.8651   -106.91514   0.96441717   -105.95072   -42353.321    4.3769097    4.3769097    4.3769097   -42353.321   -56900.589   -23707.415    -46451.96    13801.964    1574.6854    21673.964    83.849944 
   26000    1683.7485   -107.45494     1.523491   -105.93145   -18635.988    4.3716107    4.3716107    4.3716107   -18635.988   -32253.161     -26880.7     3225.897   -273.43316    24355.761   -6658.7712    83.545765 
   26100    1542.6008   -107.32614    1.3957777   -105.93036    9666.8391    4.3527821    4.3527821    4.3527821    9666.8391    5963.2895    -6108.751    29145.979    10977.889   -3554.1373    20016.706    82.470906 
   26200    1292.5818   -107.11661    1.1695551   -105.94705   -17698.263       4.3614       4.3614       4.3614   -17698.263   -6664.0098   -29217.938    -17212.84    791.80165    3479.0604   -5577.1527    82.961723 
   26300    1341.7848   -107.15899    1.2140751   -105.94492    13699.967    4.3635701    4.3635701    4.3635701    13699.967    44981.022   -37942.929     34061.81   -6241.5529    7766.5161    834.22784    83.085624 
   26400    1394.2801   -107.20878     1.261574   -105.94721    9302.6952    4.3551665    4.3551665    4.3551665    9302.6952    29581.806   -27113.405    25439.684    4910.4148   -21690.814    14395.554    82.606511 
   26500    1223.3495   -107.06094    1.1069123   -105.95402    5442.3975    4.3591651    4.3591651    4.3591651    5442.3975    55279.321   -26794.797   -12157.332   -15397.975   -92.908617   -21729.034    82.834254 
   26600    1175.4971   -107.01223    1.0636144   -105.94862    20024.344    4.3590834    4.3590834    4.3590834    20024.344    10798.528   -51808.078    101082.58    1961.1587    1473.6487    5781.2554    82.829593 
   26700    1479.6385    -107.2882     1.338808   -105.94939   -19253.226     4.363337     4.363337     4.363337   -19253.226    16096.137   -54821.252   -19034.564    780.49394   -7060.9109   -3029.8869    83.072309 
   26800     1552.002   -107.34704     1.404284   -105.94276    -3792.337    4.3627128    4.3627128    4.3627128    -3792.337   -4197.3098   -52026.186    44846.485   -16834.575    16361.522   -8127.5276    83.036662 
   26900    1289.8369   -107.11773    1.1670715   -105.95066   -13615.552     4.359517     4.359517     4.359517   -13615.552   -6218.0573   -52012.228    17383.629    9701.2952   -9633.9811     3218.001    82.854313 
   27000    1199.8511    -107.0479    1.0856505   -105.96225   -8635.3706    4.3582366    4.3582366    4.3582366   -8635.3706    20353.185   -36002.732   -10256.564   -3650.4029   -4219.5793   -3914.0638    82.781332 
   27100    1781.2018   -107.56915    1.6116688   -105.95748    7272.0278    4.3589009    4.3589009    4.3589009    7272.0278    15573.651   -29006.732    35249.164    1603.9575    5576.7211    10409.196    82.819192 
   27200    842.44661   -106.73202   0.76226339   -105.96975   -36253.138    4.3655655    4.3655655    4.3655655   -36253.138     16010.82   -85510.034   -39260.201    6895.6064    968.03834   -21799.756    83.199654 
   27300     1345.144    -107.1655    1.2171145   -105.94839    28185.835     4.351385     4.351385     4.351385    28185.835    85122.678   -12763.821    12198.647   -8492.9154    1601.3561    1635.0856    82.391525 
   27400    1512.7163   -107.31904    1.3687375   -105.95031    5096.7226    4.3582249    4.3582249    4.3582249    5096.7226    41195.272   -34944.146    9039.0422    2457.4269    1799.9807   -998.19347    82.780667 
   27500    785.21707   -106.66596    0.7104809   -105.95548   -29176.656    4.3691091    4.3691091    4.3691091   -29176.656    46129.843   -79412.132   -54247.679    1696.5365   -4298.6286   -22436.302    83.402422 
   27600    1791.5119    -107.5534    1.6209976   -105.93241    24537.191    4.3453935    4.3453935    4.3453935    24537.191    62075.317   -12547.969    24084.224   -15084.827    -5677.727    4643.7548    82.051654 
   27700    1065.7504   -106.92475   0.96431337   -105.96044   -4436.2119    4.3536278    4.3536278    4.3536278   -4436.2119    61918.955   -44560.116   -30667.475     5740.763    4356.0816   -23300.198    82.518986 
   27800    1594.5041   -107.38128    1.4427408   -105.93854   -6899.5755    4.3747284    4.3747284    4.3747284   -6899.5755    31593.096   -38553.787   -13738.036   -3608.8741   -23040.702    3834.1207    83.724637 
   27900    1241.5992   -107.05548     1.123425   -105.93206   -13133.854    4.3670486    4.3670486    4.3670486   -13133.854    31471.591   -61381.577   -9491.5775    -887.0658    5741.4504   -22081.889     83.28448 
   28000    1131.9375   -106.95264    1.0242009   -105.92844    32495.166    4.3551895    4.3551895    4.3551895    32495.166    113530.01    -17703.28    1658.7723    13856.047   -7967.4565    3079.1687    82.607819 
   28100    1532.9604   -107.31812    1.3870548   -105.93107    628.90208     4.361622     4.361622     4.361622    628.90208    15524.412   -16021.022    2383.3167   -18033.273   -5051.9284   -13511.981    82.974392 
   28200    806.83104   -106.67596   0.73003768   -105.94592   -88.293596    4.3628289    4.3628289    4.3628289   -88.293596    64440.048   -70560.898    5855.9686   -1289.7399    2439.6946   -10901.217     83.04329 
   28300      1881.85    -107.6382    1.7027374   -105.93547   -6392.5954    4.3668796    4.3668796    4.3668796   -6392.5954    6284.0138   -28645.387    3183.5874    10995.636    1226.0647    5649.2823    83.274811 
   28400    1186.4041     -107.013    1.0734834   -105.93952    -25317.55    4.3729572    4.3729572    4.3729572    -25317.55   -3019.6918   -46213.874   -26719.085   -22610.944    5567.2136   -24092.969    83.622985 
   28500    1347.1139   -107.14456     1.218897   -105.92566   -259.25181    4.3642592    4.3642592    4.3642592   -259.25181    21784.885   -46719.612    24156.971    4140.3152    9184.6286    20365.097    83.124988 
   28600    1564.3499   -107.35008    1.4154567   -105.93462    -4514.898     4.361948     4.361948     4.361948    -4514.898     30180.78    -30971.57   -12753.904   -3631.8983    1972.2699   -15786.131    82.992998 
   28700    1253.5906   -107.08619    1.1342751   -105.95191    2131.9361    4.3519695    4.3519695    4.3519695    2131.9361    47431.622   -23120.966   -17914.847    4446.6804   -1217.6467    12835.967    82.424727 
   28800    1156.8112   -107.00775    1.0467071   -105.96105    18345.842    4.3571114    4.3571114    4.3571114    18345.842    62817.453   -35721.866    27941.938    28211.096    9268.3061    7596.1516    82.717233 
   28900     1439.895   -107.25328    1.3028472   -105.95044   -20655.178    4.3797889    4.3797889    4.3797889   -20655.178    4003.2299   -39535.159   -26433.604   -943.65472   -12705.913    2267.1736    84.015521 
   29000    1125.2381   -106.95971    1.0181391   -105.94157    9756.3199    4.3537729    4.3537729    4.3537729    9756.3199    69981.858   -25885.313   -14827.586    22918.572    17801.578    16888.608    82.527239 
   29100    1366.8301   -107.17561    1.2367366   -105.93887    20105.067     4.346139     4.346139     4.346139    20105.067   -2571.9074    3871.4251    59015.683    6589.1868   -10750.972   -12204.447    82.093893 
   29200    1068.9081   -106.91909   0.96717048   -105.95192   -16337.293    4.3701107    4.3701107    4.3701107   -16337.293    10991.165   -23158.316   -36844.728   -3463.2964    4483.8587    18012.996    83.459793 
   29300    1388.9577    -107.1959    1.2567581   -105.93914      11771.3    4.3684493    4.3684493    4.3684493      11771.3    1273.4457    -1399.035    35439.488    22869.965    6645.9381   -2039.0252    83.364643 
   29400     1098.311   -106.93278   0.99377483   -105.93901   -30644.699    4.3669242    4.3669242    4.3669242   -30644.699    -45438.46   -44509.825   -1985.8134   -23946.385   -6650.3876    3333.2196    83.277363 
   29500    1012.9344   -106.85679   0.91652437   -105.94027    4473.2108    4.3438986    4.3438986    4.3438986    4473.2108    24343.595   -2025.9824   -8897.9804    1080.0233    15824.758    21901.857       81.967 
   29600    1820.6396   -107.59697    1.6473529   -105.94962    10622.192    4.3520178    4.3520178    4.3520178    10622.192   -2595.2671   -13745.988    48207.832   -8477.7287   -12639.973   -7747.5915    82.427472 
   29700    550.09775   -106.46743   0.49774001   -105.96969   -20497.596    4.3700127    4.3700127    4.3700127   -20497.596   -28212.723   -57898.028    24617.964   -21317.545    230.04841    30001.761    83.454183 
   29800    1705.8815   -107.48727    1.5435174   -105.94375    8727.9712    4.3599414    4.3599414    4.3599414    8727.9712   -842.33924   -14611.697     41637.95    7921.1956   -9274.3792     322.4178    82.878513 
   29900    1276.8837   -107.09757    1.1553512   -105.94222    663.12552    4.3579701    4.3579701    4.3579701    663.12552   -16438.659   -29851.597    48279.632    -15685.92    7362.3131    13655.513    82.766146 
   30000    771.60853   -106.65453   0.69816762   -105.95636   -8429.7828    4.3501643    4.3501643    4.3501643   -8429.7828   -18761.216   -42371.513    35843.381   -8104.3689    6736.4607     18565.82    82.322201 
   30100    1874.8444   -107.64872    1.6963986   -105.95232    20346.326    4.3501866    4.3501866    4.3501866    20346.326    18019.517    11035.664    31983.797    14554.913   -4548.2682    -9704.507    82.323467 
   30200    918.35212   -106.79754   0.83094429    -105.9666   -10575.046     4.367533     4.367533     4.367533   -10575.046   -5883.3824   -20478.248   -5363.5075   -15309.022   -7621.5037    22134.692    83.312199 
   30300    1450.2718   -107.26064    1.3122364    -105.9484   -20636.671    4.3588214    4.3588214    4.3588214   -20636.671   -8527.9931   -26851.422   -26530.596    6566.8926    17810.675    3048.0936    82.814661 
   30400    1243.4165   -107.06502    1.1250694   -105.93995    28447.115    4.3498271    4.3498271    4.3498271    28447.115    44249.866   -18420.436    59511.915    16316.611   -23081.786    7154.4579    82.303058 
   30500    1286.5378   -107.12192    1.1640864   -105.95784   -21051.443    4.3586894    4.3586894    4.3586894   -21051.443   -11768.079   -18378.697   -33007.553   -6535.2584    7554.6826    30297.604    82.807139 
   30600    1259.4654   -107.09913    1.1395908   -105.95954    16728.312     4.350139     4.350139     4.350139    16728.312     42340.03   -18097.633    25942.538    23242.272    12123.662   -9106.7833    82.320763 
   30700    1294.5294   -107.13423    1.1713174   -105.96291    1314.6173    4.3656838    4.3656838    4.3656838    1314.6173    22545.617   -9882.6307    -8719.134    5296.1032   -6796.7796    30992.686     83.20642 
   30800    1205.5361   -107.03932    1.0907944   -105.94853   -15364.963    4.3723499    4.3723499    4.3723499   -15364.963   -33124.312   -16555.649    3585.0716    16202.844    11035.401    4302.2175    83.588156 
   30900    1119.2126   -106.94693    1.0126871   -105.93424    18273.888      4.35218      4.35218      4.35218    18273.888    47799.417   -23156.499    30178.747    10709.169    6587.2063    10771.163    82.436692 
   31000    1525.5325   -107.31996    1.3803339   -105.93962   -1490.8361    4.3542076    4.3542076    4.3542076   -1490.8361    32662.114   -13256.147   -23878.475     5950.016    932.56985    25121.132    82.551964 
   31100    1064.1068   -106.91293   0.96282617   -105.95011    7235.5645    4.3552586    4.3552586    4.3552586    7235.5645    32651.137   -13026.496    2082.0524    20426.794    -1068.783   -13449.923    82.611754 
   31200    1201.0995   -107.04589      1.08678   -105.95911   -8850.8902     4.365828     4.365828     4.365828   -8850.8902    13680.913   -15159.971   -25073.613    1784.8903    10115.368    16407.479    83.214665 
   31300     1790.323   -107.55964    1.6199219   -105.93971   -21750.909    4.3709273    4.3709273    4.3709273   -21750.909   -12112.584    -41511.72   -11628.425    -901.6307    9297.4987   -6445.8369    83.506588 
   31400    1032.6651   -106.86592   0.93437712   -105.93155   -4086.1269    4.3570538    4.3570538    4.3570538   -4086.1269   -10111.355   -5963.5548    3816.5295    26038.416    5208.3103    2594.4894    82.713953 
   31500    1725.3054   -107.48216    1.5610926   -105.92107   -1963.0314    4.3580012    4.3580012    4.3580012   -1963.0314   -12965.598   -7406.6576    14483.161   -12718.225    22498.279    4472.5485    82.767917 
   31600    1128.3098   -106.94996    1.0209184   -105.92904    -24583.08    4.3728116    4.3728116    4.3728116    -24583.08   -31662.733   -58059.765    15973.257    28534.862    3855.9398   -20052.895    83.614637 
   31700     1777.908   -107.51898    1.6086885    -105.9103   -17438.038    4.3700764    4.3700764    4.3700764   -17438.038   -29679.326    -10203.44   -12431.348   -3135.5784    10828.986    15119.271    83.457827 
   31800    1234.5161    -107.0304    1.1170161   -105.91339    2849.1461    4.3582101    4.3582101    4.3582101    2849.1461   -20127.717   -3377.1292    32052.285    11603.012    3847.9818   -16072.944    82.779821 
   31900    1375.4152    -107.1708    1.2445045    -105.9263   -19940.818    4.3630293    4.3630293    4.3630293   -19940.818   -29475.236   -36963.459    6616.2409    7909.6037    831.41936   -754.55636    83.054734 
   32000    1842.1852   -107.59257    1.6668479   -105.92572   -4551.9545    4.3650967    4.3650967    4.3650967   -4551.9545    -12418.29    9689.5632   -10927.137    -11881.29    3220.2567    1992.2303    83.172852 
   32100    1023.3829   -106.86821   0.92597837   -105.94223   -18897.942    4.3587137    4.3587137    4.3587137   -18897.942   -19338.869   -28242.567   -9112.3907    31508.771    -8953.806   -31129.551    82.808521 
   32200    1462.9552    -107.2646    1.3237126   -105.94089    25382.496    4.3594041    4.3594041    4.3594041    25382.496    31130.194     13968.62    31048.675   -8665.3891    2831.9209    12287.239    82.847877 
   32300    1384.0261   -107.19841    1.2522959   -105.94611   -15090.791    4.3673017    4.3673017    4.3673017   -15090.791   -8160.4547   -953.65129   -36158.267    26963.411   -5501.2305   -14560.978    83.298961 
   32400    996.17298   -106.84832   0.90135824   -105.94696    4481.5001    4.3563419    4.3563419    4.3563419    4481.5001    36424.789   -37149.445    14169.157    19085.368    3542.6272    2032.7448    82.673412 
   32500    1673.0014   -107.44149    1.5137668   -105.92773    16138.922    4.3609156    4.3609156    4.3609156    16138.922     13727.95    10763.266    23925.549   -7070.5811   -4243.0394    1720.1582    82.934082 
   32600    571.44617   -106.46705   0.51705651   -105.94999   -20268.252    4.3616634    4.3616634    4.3616634   -20268.252    2832.1295   -59068.903   -4567.9835    32825.607   -22211.475   -11004.859    82.976752 
   32700    1635.5966   -107.41436    1.4799222   -105.93443    22842.637    4.3580016    4.3580016    4.3580016    22842.637    55647.934    15450.592    -2570.614    -19724.42   -7435.2067    669.46828    82.767942 
   32800    1021.1171   -106.86891   0.92392822   -105.94498   -15887.065    4.3770958    4.3770958    4.3770958   -15887.065    -21015.07   -11631.773   -15014.352    9050.8523   -2849.0036   -15823.121    83.860636 
   32900    827.19739   -106.68635   0.74846558   -105.93789   -12065.942    4.3688166    4.3688166    4.3688166   -12065.942   -25358.373   -12054.991    1215.5388    20033.252   -17472.155   -19341.679    83.385676 
   33000    1547.2152   -107.31756    1.3999528   -105.91761    30956.698    4.3540405    4.3540405    4.3540405    30956.698    11118.151    52987.524    28764.417    -28389.26   -1743.1414   -9812.0083    82.542456 
   33100    664.38794   -106.54735   0.60115217    -105.9462    -2962.804    4.3702572    4.3702572    4.3702572    -2962.804   -24816.944   -22205.901    38134.432    28445.639     -18225.6   -22505.674    83.468192 
   33200    1418.8173   -107.20379    1.2837758   -105.92002    5307.7511    4.3748533    4.3748533    4.3748533    5307.7511   -3299.5187    17737.015    1485.7574   -14811.377   -8981.8259   -15228.376    83.731812 
   33300     881.0323   -106.71879   0.79717654   -105.92162    3408.6671    4.3664412    4.3664412    4.3664412    3408.6671    4893.3082    8368.7703   -3036.0774   -1756.6618    53.140944    3531.9289    83.249731 
   33400    1318.3671   -107.10826    1.1928863   -105.91537    14264.798    4.3508107    4.3508107    4.3508107    14264.798    27723.128   -29227.347    44298.613    26401.783   -17316.334   -16290.385    82.358907 
   33500     1093.242   -106.92016   0.98918835   -105.93097    36082.959    4.3550309    4.3550309    4.3550309    36082.959    23208.284    55549.769    29490.824   -35668.928   -618.06246   -2602.2934    82.598798 
   33600     1016.496    -106.8553    0.9197469   -105.93555    -5528.236    4.3794637    4.3794637    4.3794637    -5528.236   -15843.603   -14470.398    13729.293    21417.753   -11808.949   -19839.086    83.996811 
   33700    1388.2703   -107.17397    1.2561361   -105.91784    6908.4115    4.3656346    4.3656346    4.3656346    6908.4115   -20003.983    22470.501    18258.717   -17848.642    3371.5475   -8306.8811    83.203606 
   33800    971.71146   -106.80758   0.87922495   -105.92835    21235.166      4.34806      4.34806      4.34806    21235.166    20500.234    40055.977    3149.2882   -26412.585   -5821.9436    6977.6096    82.202794 
   33900     1833.134   -107.59213    1.6586582   -105.93347    9282.4837    4.3565127    4.3565127    4.3565127    9282.4837   -9084.9039   -4730.7021    41663.057    9385.3362    -11650.64   -12043.951    82.683139 
   34000    622.24252   -106.51552   0.56301811    -105.9525    10991.156    4.3681671    4.3681671    4.3681671    10991.156    2485.3745    16791.355    13696.739   -26916.386    18772.709    4429.5137    83.348488 
   34100    1550.7137   -107.33574    1.4031184   -105.93262    -9236.651    4.3705914    4.3705914    4.3705914    -9236.651   -10491.918   -16102.872    -1115.163    8055.8027   -7963.1651    2936.4333    83.487338 
   34200    1420.4064   -107.21664    1.2852135   -105.93142    18803.812    4.3495559    4.3495559    4.3495559    18803.812   -21662.992    30734.358    47340.071   -19577.765    10908.587    5416.6745    82.287665 
   34300     1066.879   -106.91635   0.96533457   -105.95101     1996.471    4.3525938    4.3525938    4.3525938     1996.471   -10166.318    26296.859   -10141.128   -7798.0135    6748.0541    2209.1443    82.460208 
   34400      1886.93   -107.64121     1.707334   -105.93387   -16027.646     4.371976     4.371976     4.371976   -16027.646   -38238.177    640.51301   -10485.273    203.56381    -510.3655    7892.4374     83.56671 
   34500     838.0989   -106.70754    0.7583295   -105.94921   -27756.576     4.359823     4.359823     4.359823   -27756.576   -58015.817    9027.4323   -34281.344   -29675.629    24222.991    3034.1706    82.871762 
   34600    1826.6698   -107.58334    1.6528092   -105.93053    5768.1777    4.3382512    4.3382512    4.3382512    5768.1777    18370.542    8736.0861   -9802.0951    319.03476   -10035.193    11716.171    81.647726 
   34700    993.02007   -106.85306   0.89850543   -105.95455   -798.72868    4.3533692    4.3533692    4.3533692   -798.72868   -26415.162    18369.625    5649.3507    13514.437    9169.6069   -5940.2584    82.504284 
   34800     1264.305   -107.09889    1.1439697   -105.95492   -38096.277    4.3714985    4.3714985    4.3714985   -38096.277   -36931.028   -31169.036   -46188.768   -29784.805    10922.029    781.68601     83.53933 
   34900    1588.7455   -107.37025    1.4375303   -105.93272   -6503.9845    4.3620084    4.3620084    4.3620084   -6503.9845   -4436.6499   -14252.106   -823.19812    44193.449   -2366.1906    6810.5115    82.996448 
   35000     990.5868   -106.83391   0.89630375   -105.93761    1224.1771    4.3437931    4.3437931    4.3437931    1224.1771   -14709.601    531.55553    17850.576   -10989.414    4773.5626   -781.85561    81.961026 
   35100    1442.7004   -107.23891    1.3053856   -105.93352    11942.007    4.3545768    4.3545768    4.3545768    11942.007    18906.506    -5139.978    22059.493    3364.1846   -7849.9793   -3674.9652    82.572962 
   35200     1201.083   -107.01655    1.0867651   -105.92979   -24656.018    4.3741463    4.3741463    4.3741463   -24656.018   -52475.409   -36362.096    14869.452    26483.986    3403.8192    4408.3465    83.691225 
   35300    1479.9593   -107.25359    1.3390983    -105.9145   -2464.5512    4.3677359    4.3677359    4.3677359   -2464.5512   -2864.8257    16440.222   -20969.049   -20720.659    10190.825     1063.883    83.323808 
   35400    1434.6166   -107.20917    1.2980713    -105.9111    12108.547    4.3513579    4.3513579    4.3513579    12108.547   -2228.1882    31238.789    7315.0391    38998.882   -8519.3264   -1698.4151    82.389984 
   35500     1364.424    -107.1591    1.2345595   -105.92454   -4311.6723    4.3487156    4.3487156    4.3487156   -4311.6723   -4359.8252   -431.64113   -8143.5507   -25021.261     13991.53    4520.4773    82.239985 
   35600    1439.5757   -107.23235    1.3025584   -105.92979   -11921.398    4.3695916    4.3695916    4.3695916   -11921.398    -33550.02    11980.619   -14194.793    22859.675   -4895.6035   -1693.2313    83.430059 
   35700    1625.1508   -107.39015    1.4704706   -105.91968   -16933.337     4.369672     4.369672     4.369672   -16933.337   -17944.154   -15566.906   -17288.952    14554.438    -3154.699    4006.0177    83.434664 
   35800    1438.8285   -107.21323    1.3018823   -105.91135    12871.522    4.3539663    4.3539663    4.3539663    12871.522    8211.3672    41795.252   -11392.052   -22627.285    11944.468    2682.5432     82.53824 
   35900    1407.3161   -107.18763    1.2733692   -105.91426    711.33541    4.3539265    4.3539265    4.3539265    711.33541   -37276.676    44478.671   -5067.9887    26023.175    -21925.18   -709.98285    82.535977 
   36000    1274.0074    -107.0768    1.1527486   -105.92405    19459.614    4.3534529    4.3534529    4.3534529    19459.614    38661.577     18912.87    804.39462   -23712.682     22020.35    2985.2595    82.509044 
   36100    1495.3565   -107.28695      1.35303   -105.93392   -10414.161     4.366515     4.366515     4.366515   -10414.161    -35110.48    28505.948    -24637.95    15316.562   -23031.386    9447.2418    83.253952 
   36200    1363.0449   -107.16531    1.2333117     -105.932   -4392.3249      4.36174      4.36174      4.36174   -4392.3249    17068.969   -16495.862   -13750.082   -6097.6387    5285.5304    4665.8661    82.981129 
   36300    1131.5067   -106.96532     1.023811   -105.94151   -7913.9843     4.348367     4.348367     4.348367   -7913.9843   -30210.636    10572.044    -4103.361   -21585.075    7106.9233    11457.615    82.220208 
   36400    1392.2022   -107.19888    1.2596938   -105.93919    15323.694    4.3489275    4.3489275    4.3489275    15323.694    21448.812    25705.335   -1183.0645    24601.301   -25021.245   -2838.9851    82.252007 
   36500    1423.7402   -107.22842    1.2882301   -105.94019   -18927.477    4.3638105    4.3638105    4.3638105   -18927.477   -22062.932   -38594.208    3874.7084   -30182.013    28303.973    2066.7291    83.099357 
   36600      1085.76   -106.92174   0.98241851   -105.93932   -7836.5694    4.3701525    4.3701525    4.3701525   -7836.5694   -46654.508     34492.82    -11348.02    12347.718   -19119.632   -3460.3248    83.462189 
   36700    1577.4932   -107.35974     1.427349   -105.93239   -2337.8976     4.349313     4.349313     4.349313   -2337.8976   -14675.146    402.54291      7258.91   -22360.565    5466.2483   -965.92599    82.273883 
   36800    906.78176   -106.76586   0.82047519   -105.94539     10396.47    4.3387039    4.3387039    4.3387039     10396.47    19052.401    11981.391    155.61885   -24856.704    800.58673   -3000.9218    81.673287 
   36900    1458.3872   -107.27331    1.3195794   -105.95373    1778.3864    4.3677865    4.3677865    4.3677865    1778.3864    3843.5209    11191.569   -9699.9309   -494.55271   -18171.195   -7407.3084    83.326706 
   37000    879.62653   -106.73593   0.79590457   -105.94003   -21083.514    4.3789363    4.3789363    4.3789363   -21083.514   -16841.076   -48521.754    2112.2879   -46486.675     2573.377   -3268.8021    83.966465 
   37100    1303.5325   -107.10013    1.1794636   -105.92067    7616.7615    4.3487022    4.3487022    4.3487022    7616.7615    -29366.93    41866.536    10350.679    11372.058     235.8512   -1566.6333    82.239223 
   37200    1285.5607   -107.08141    1.1632023    -105.9182    17757.036    4.3437814    4.3437814    4.3437814    17757.036   -3100.6475   -6261.3839    62633.138   -35654.337   -7973.6959   -20454.677    81.960365 
   37300    985.19031   -106.82113    0.8914209   -105.92971   -17183.929    4.3616507    4.3616507    4.3616507   -17183.929   -50153.293    9372.4552   -10770.949   -14105.413    5663.6541   -6404.7375    82.976027 
   37400     1265.926   -107.06798    1.1454364   -105.92255    -11965.14    4.3689493    4.3689493    4.3689493    -11965.14   -57020.948    13325.248    7800.2815    4375.0061   -7194.3259   -7430.0196    83.393275 
   37500    1352.5894   -107.14732    1.2238513   -105.92346   -9577.5582    4.3583628    4.3583628    4.3583628   -9577.5582   -26561.615   -19406.542    17235.482   -29898.553    3250.5985   -3640.1825    82.788525 
   37600    1376.8651   -107.16915    1.2458165   -105.92333     10001.12    4.3340306    4.3340306    4.3340306     10001.12   -4047.1024    45553.996   -11503.535    3338.4615   -6693.0364   -15017.312    81.409654 
   37700    1142.2813   -106.97692    1.0335601   -105.94336    19978.997    4.3430782    4.3430782    4.3430782    19978.997   -31930.188    33892.689     57974.49   -13166.925   -11052.145    2720.9986    81.920565 
   37800    1234.8328   -107.05706    1.1173027   -105.93975   -15230.438    4.3723364    4.3723364    4.3723364   -15230.438    11925.463   -10836.184   -46780.593    -7820.939   -6123.8308   -15591.104    83.587378 
   37900    1547.5535   -107.34049     1.400259   -105.94023   -3587.1298    4.3552818    4.3552818    4.3552818   -3587.1298   -29812.385    4897.7864    14153.209   -2642.9077   -7156.2347   -2477.7176    82.613075 
   38000    1246.7076   -107.06117    1.1280472   -105.93312    41523.052    4.3251807    4.3251807    4.3251807    41523.052    39207.212    53972.723    31389.222   -11749.508    2930.8496   -5912.6646    80.911971 
   38100    1204.2144   -107.03808    1.0895985   -105.94848   -938.04467    4.3518119    4.3518119    4.3518119   -938.04467   -39309.968    10648.827    25847.008    7499.8811   -13446.859   -3038.4513    82.415773 
   38200    1437.3121   -107.23558    1.3005102   -105.93507    -31237.24    4.3638901    4.3638901    4.3638901    -31237.24   -54894.353   -36899.883   -1917.4825   -15012.035    9530.7858    3330.7936    83.103904 
   38300    1181.3931   -106.99674    1.0689493   -105.92779     30116.91    4.3428226    4.3428226    4.3428226     30116.91    9930.0431     45096.07    35324.616   -1035.9039   -5875.4793    5449.2983    81.906102 
   38400    1485.6265   -107.27359    1.3442261   -105.92937   -16182.733    4.3478612    4.3478612    4.3478612   -16182.733   -33418.843   -27471.532    12342.176    18423.814   -283.84995    8206.5346    82.191518 
   38500    1056.5362   -106.89499   0.95597617   -105.93901   -14629.013    4.3461104    4.3461104    4.3461104   -14629.013   -48379.014   -23595.284    28087.258   -26956.424   -2007.6562   -1515.0161     82.09227 
   38600    1448.6404   -107.25032    1.3107603   -105.93956    3921.9445    4.3535781    4.3535781    4.3535781    3921.9445   -11175.768    19161.866    3779.7361    19061.934   -13734.555    13878.433    82.516162 
   38700    1185.4395   -107.01915    1.0726106   -105.94654   -32973.966    4.3611092    4.3611092    4.3611092   -32973.966   -48961.381    -68578.82    18618.304    1902.6377   -496.57921   -6189.6916    82.945129 
   38800    1417.8259   -107.21663    1.2828787   -105.93375    14508.282    4.3314425    4.3314425    4.3314425    14508.282   -22127.258    37609.011    28043.092   -13522.025   -12482.359    11154.931    81.263902 
   38900    1294.3965    -107.1188    1.1711971    -105.9476   -7903.5995    4.3449083    4.3449083    4.3449083   -7903.5995   -38633.114   -4185.0668    19107.382    22182.103   -7048.9939   -11562.199    82.024173 
   39000    851.06705   -106.72223   0.77006335   -105.95216   -26302.353    4.3640543    4.3640543    4.3640543   -26302.353   -69130.294   -26692.873    16916.109   -11274.029    4475.2375    4877.3183    83.113282 
   39100    2029.7905   -107.77019    1.8365971   -105.93359   -5679.2759    4.3477597    4.3477597    4.3477597   -5679.2759   -18000.797    19782.975   -18820.005    4957.3518   -7681.1735   -9665.1876    82.185762 
   39200    763.20957   -106.64469   0.69056806   -105.95412   -20012.284    4.3439127    4.3439127    4.3439127   -20012.284   -67657.916   -37024.513    44645.577    13946.596    2542.6827    2018.3319    81.967797 
   39300    1283.3549   -107.10825    1.1612065   -105.94705   -4888.2756    4.3423363    4.3423363    4.3423363   -4888.2756   -37141.605    16833.631    5643.1468   -15722.724    16400.118   -10718.197    81.878591 
   39400    1546.9642    -107.3478    1.3997257   -105.94807   -12801.303    4.3597295    4.3597295    4.3597295   -12801.303   -33289.926    917.09262   -6031.0766    21144.268   -6707.8621   -2067.6602    82.866431 
   39500    680.57819   -106.57144   0.61580145   -105.95564   -18092.488    4.3582657    4.3582657    4.3582657   -18092.488   -56517.708   -22407.974    24648.218   -6516.4002    13051.444    1962.6479    82.782989 
   39600    2020.6504   -107.74838     1.828327   -105.92006    11866.429    4.3384766    4.3384766    4.3384766    11866.429    9658.2471    31060.041   -5119.0022   -4900.3511    11546.165   -12142.934    81.660451 
   39700    546.80701   -106.44099   0.49476247   -105.94623   -15574.436    4.3526496    4.3526496    4.3526496   -15574.436   -34235.383   -46356.164    33868.238    12544.284   -1519.5179     8854.161    82.463376 
   39800    1732.2604   -107.50033    1.5673856   -105.93294   -8446.0239    4.3442885    4.3442885    4.3442885   -8446.0239   -36505.346     -13546.6    24713.874   -15875.874    18477.702    -13250.89    81.989072 
   39900    1134.0193   -106.96829    1.0260845    -105.9422     3225.421    4.3507158    4.3507158    4.3507158     3225.421    9724.3273   -8476.2764     8428.212     10563.08   -4554.7067    15109.339    82.353517 
   40000    1067.0114   -106.91165   0.96545433    -105.9462   -36638.779     4.359044     4.359044     4.359044   -36638.779   -69348.444   -54236.027    13668.135   -2810.3892    8046.1282    79.625107    82.827347 
   40100    1567.3115   -107.34495    1.4181363   -105.92681    24822.025    4.3406139    4.3406139    4.3406139    24822.025    6539.6457    21096.739    46829.689   -514.54652    3944.9856    12704.804    81.781199 
   40200    874.36406    -106.7422   0.79114297   -105.95106   -38448.767    4.3564898    4.3564898    4.3564898   -38448.767   -39767.869   -63191.309   -12387.124     1783.364    1396.0388    11860.067    82.681836 
   40300    1735.6105   -107.49937    1.5704169   -105.92896    13014.583     4.349735     4.349735     4.349735    13014.583   -23709.967   -4107.4029     66861.12   -3457.8125    6083.4714   -6975.8254    82.297834 
   40400    1129.8792   -106.96547    1.0223384   -105.94313   -18849.926    4.3460739    4.3460739    4.3460739   -18849.926    2120.8173     -40955.8   -17714.794    988.49048   -9965.9447    24706.006    82.090202 
   40500    1335.6259   -107.14886    1.2085024   -105.94035   -5795.3196    4.3557892    4.3557892    4.3557892   -5795.3196   -33566.375   -37939.087    54119.503    9033.8758    3422.0606   -5520.7867     82.64195 
   40600         1484   -107.27869    1.3427544   -105.93594   -16296.334    4.3497516    4.3497516    4.3497516   -16296.334   -15138.615   -12111.957   -21638.429   -2771.4878   -2201.4013    10308.572    82.298777 
   40700    1086.0478   -106.93146   0.98267888   -105.94878   -22630.915    4.3516261    4.3516261    4.3516261   -22630.915   -10327.113   -58076.911    511.27807    19334.937    2316.4674    7544.0648    82.405219 
   40800     1495.205   -107.28795    1.3528929   -105.93506    23516.425     4.355242     4.355242     4.355242    23516.425    -18007.92    24064.779    64492.416   -8053.5217    18490.628     3931.408    82.610809 
   40900    888.33846   -106.75478   0.80378731   -105.95099   -32756.356    4.3597047    4.3597047    4.3597047   -32756.356   -17771.205   -49682.225   -30815.638    8034.3051   -4877.8096    12430.554    82.865016 
   41000    1551.6282   -107.33658    1.4039458   -105.93263    20281.487    4.3408847    4.3408847    4.3408847    20281.487    11318.494    16502.292    33023.675    15288.085    2418.1232    8451.0666    81.796506 
   41100    1118.4928   -106.96109    1.0120358   -105.94905   -2178.3926    4.3464223    4.3464223    4.3464223   -2178.3926    16546.694    1179.3693   -24261.241   -20936.973     26135.75     74.40528    82.109945 
   41200    1392.0095    -107.1995    1.2595194   -105.93998   -34106.167     4.366111     4.366111     4.366111   -34106.167   -5716.3013   -42184.914   -54417.284    16997.985   -7942.9163    16979.969    83.230846 
   41300    1348.0593   -107.15215    1.2197524    -105.9324    27626.971    4.3408512    4.3408512    4.3408512    27626.971    28019.338    50822.215    4039.3586   -589.13938     19764.62   -6465.8342     81.79461 
   41400    1229.4512   -107.05753    1.1124333    -105.9451   -16504.567    4.3433531    4.3433531    4.3433531   -16504.567   -3268.9708   -33544.648   -12700.081   -9543.1535    2591.7674     14350.47    81.936125 
   41500     1587.991   -107.37447    1.4368477   -105.93762   -2473.7513    4.3583701    4.3583701    4.3583701   -2473.7513    8821.7055     11663.46    -27906.42    4363.8891    9334.4749    8674.0734    82.788942 
   41600    961.72668   -106.81411   0.87019051   -105.94392    16840.703    4.3479827    4.3479827    4.3479827    16840.703    45709.961    3372.2471    1439.9015   -5196.7945    16944.185    3444.7245    82.198412 
   41700    1318.9023   -107.13577    1.1933705    -105.9424    -5011.934       4.3579       4.3579       4.3579    -5011.934   -5641.1218   -28841.661    19446.981   -13695.965   -6614.8208    26036.104    82.762155 
   41800    1466.5786   -107.26721    1.3269912   -105.94022    8683.8516    4.3432548    4.3432548    4.3432548    8683.8516   -8280.7643      49900.5   -15568.181    3334.9725    30381.783   -10848.304    81.930562 
   41900     1219.078   -107.04991    1.1030474   -105.94686    22956.299    4.3409912    4.3409912    4.3409912    22956.299    63735.167   -15166.426    20300.155   -5835.8594   -7243.6811    15991.821    81.802525 
   42000    1313.9826   -107.13237    1.1889191   -105.94345   -28292.286    4.3662845    4.3662845    4.3662845   -28292.286   -42348.332   -1020.8961    -41507.63   -4336.5478    21059.449    5792.5728    83.240772 
   42100    1300.7702   -107.11244    1.1769642   -105.93548    6259.8019    4.3453021    4.3453021    4.3453021    6259.8019   -7675.1407    31003.693    -4549.147    5469.2417     26224.03    -11292.16    82.046478 
   42200    1491.8769   -107.28647    1.3498816   -105.93659   -18199.874     4.349686     4.349686     4.349686   -18199.874    9623.1869   -33209.101   -31013.708    -6449.623   -13835.498    20761.386    82.295053 
   42300    1181.8959   -107.00651    1.0694043    -105.9371   -20279.106    4.3567712    4.3567712    4.3567712   -20279.106   -57212.321    26367.413   -29992.411    8860.6912     49625.85    -4406.642    82.697858 
   42400      1653.62   -107.42372    1.4962301   -105.92749    19489.788    4.3446013    4.3446013    4.3446013    19489.788     25437.83    3867.1436    29164.391   -8323.2605   -18610.759    6133.6303    82.006784 
   42500    935.25306   -106.79922   0.84623663   -105.95298   -22616.185    4.3558463    4.3558463    4.3558463   -22616.185   -33723.622   -4417.8645   -29707.067     4720.672    38175.996    13063.382    82.645204 
   42600    1495.0677   -107.29191    1.3527687   -105.93914   -3228.4887    4.3598654    4.3598654    4.3598654   -3228.4887   -47877.322    8697.5978    29494.258    7527.0553    20041.952   -4264.3921    82.874182 
   42700    1443.3348   -107.24144    1.3059596   -105.93548   -6564.0268     4.356807     4.356807     4.356807   -6564.0268    11981.454    -1103.114    -30570.42   -11035.037   -3410.2947     16133.12    82.699897 
   42800    943.29711   -106.79005   0.85351505   -105.93654   -11576.753    4.3543361    4.3543361    4.3543361   -11576.753   -24985.385    7858.8558   -17603.731    5038.0873    54757.523    10810.805    82.559269 
   42900    1943.8543   -107.68381    1.7588402   -105.92497    2773.1419    4.3480749    4.3480749    4.3480749    2773.1419   -14822.159    1655.2327    21486.352    4893.2228    -27286.04   -6690.7047    82.203638 
   43000    701.91949   -106.58149   0.63511151   -105.94638   -1268.8976    4.3548785    4.3548785    4.3548785   -1268.8976   -14689.692      19083.9   -8200.9002   -11840.315    47254.446    21635.153    82.590124 
   43100    1747.4407   -107.51713     1.581121   -105.93601   -7811.0856    4.3611947    4.3611947    4.3611947   -7811.0856    11091.095   -34957.222    432.87008    4658.7236   -5589.5084   -4764.1044    82.950006 
   43200    1177.1514   -107.00378    1.0651113   -105.93866   -7269.5003     4.356971     4.356971     4.356971   -7269.5003   -18170.521   -440.50284   -3197.4765   -3760.6112    23436.541   -20503.955    82.709236 
   43300    1340.3419   -107.14831    1.2127695   -105.93554   -5431.2901    4.3491239    4.3491239    4.3491239   -5431.2901   -20291.709    9629.8327   -5631.9945   -4398.4768    38314.934    11058.009    82.263149 
   43400    1583.9373   -107.36857    1.4331798   -105.93539   -3873.0219    4.3527467    4.3527467    4.3527467   -3873.0219    12898.945   -25722.053    1204.0421    3562.5055   -9737.2071   -20187.788    82.468898 
   43500    987.59292   -106.84172   0.89359483   -105.94812   -14692.997    4.3519138    4.3519138    4.3519138   -14692.997   -26784.629    24437.946   -41732.306    2696.2925    54312.797   -6879.6452    82.421564 
   43600    1839.4723   -107.59754    1.6643932   -105.93315    11722.431    4.3587175    4.3587175    4.3587175    11722.431    12882.622   -14552.786    36837.457   -1306.6769   -17132.472    7847.2216    82.808739 
   43700    801.76141   -106.67482   0.72545057   -105.94936   -31277.839     4.359111     4.359111     4.359111   -31277.839   -61518.938    5796.7237   -38111.302    5448.5988    50692.452   -25761.885    82.831165 
   43800    1427.5232   -107.23172     1.291653   -105.94007    17781.724    4.3424637    4.3424637    4.3424637    17781.724   -10125.172    27527.195    35943.148    1895.6809    16263.283    8945.2689      81.8858 
   43900    1661.1929   -107.44516    1.5030823   -105.94208    160.43337    4.3564629    4.3564629    4.3564629    160.43337    13315.663   -18719.165     5884.803    783.90841    18825.848    2220.6602    82.680302 
   44000    948.21717   -106.79988   0.85796683   -105.94192   -36002.733    4.3672519    4.3672519    4.3672519   -36002.733   -51962.465   -21021.989   -35023.744   -4348.0638    56925.939   -8479.2864    83.296113 
   44100    2088.0571   -107.80059     1.889318   -105.91127    -860.3477    4.3597936    4.3597936    4.3597936    -860.3477   -8726.2594    2563.2963      3581.92    3800.4709   -13960.849    14338.529    82.870087 
   44200    866.45648   -106.71171   0.78398804   -105.92772   -13383.486    4.3588617    4.3588617    4.3588617   -13383.486    -22433.49    37121.736   -54838.705   -4155.0108    60128.719   -1453.3027    82.816956 
   44300    1791.1247    -107.5389    1.6206472   -105.91826    7029.1537     4.353083     4.353083     4.353083    7029.1537    9771.5288   -3225.8231    14541.755   -2971.9425   -10426.925   -1268.8619    82.488015 
   44400    1213.8618   -107.03008    1.0983277   -105.93175   -31276.312    4.3602245    4.3602245    4.3602245   -31276.312   -53748.071     9459.482   -49540.346    2536.5729    52498.783    7047.0502    82.894657 
   44500    1196.9575   -107.01352    1.0830323   -105.93049   -12574.764    4.3561758    4.3561758    4.3561758   -12574.764    -7974.921    8847.8363   -38597.208   -14001.764    6488.9231   -20185.818    82.663957 
   44600    1344.6214   -107.14522    1.2166417   -105.92858    5986.6936    4.3558222    4.3558222    4.3558222    5986.6936   -25492.119    56557.143   -13104.943   -5966.4816    17507.178   -9772.2344    82.643829 
   44700     998.5909    -106.8419   0.90354603   -105.93835    596.69321    4.3580152    4.3580152    4.3580152    596.69321   -38630.924    60270.506   -19849.502   -511.17067     39648.04   -15327.979    82.768715 
   44800    1133.6372   -106.95847    1.0257388   -105.93273     23400.81     4.355571     4.355571     4.355571     23400.81     8079.883    51156.667    10965.881   -5368.9665   -6532.3891   -40440.935    82.629532 
   44900    1108.0132   -106.94365    1.0025536   -105.94109    1998.4597    4.3659502    4.3659502    4.3659502    1998.4597   -36231.281    47239.212   -5012.5522    9966.3888    41547.244   -5403.6155     83.22165 
   45000    1618.7815   -107.38384    1.4647075   -105.91914    11073.878    4.3702183    4.3702183    4.3702183    11073.878   -8180.9036    7984.1611    33418.377    1132.0115   -5908.3977   -26757.887    83.465959 
   45100     944.3581   -106.77826   0.85447505   -105.92378   -12542.519    4.3648116    4.3648116    4.3648116   -12542.519   -42581.686     24462.96    -19508.83    2742.7146    49643.967   -9253.3581    83.156558 
   45200    1423.0438   -107.19957    1.2875999   -105.91197    7823.8959    4.3541643    4.3541643    4.3541643    7823.8959    -15032.09    26219.525    12284.253    8713.8147    3582.9817    1332.9343    82.549499 
   45300    1415.1679   -107.21054    1.2804737   -105.93007   -8668.5297    4.3527026    4.3527026    4.3527026   -8668.5297    -22059.51    24750.842   -28696.921   -5012.4292    23816.332   -4241.8098    82.466391 
   45400    915.44994   -106.77943   0.82831835   -105.95111   -14033.137    4.3582681    4.3582681    4.3582681   -14033.137   -56475.983    13459.402    917.17017    8631.2716    36880.151    10952.434    82.783129 
   45500    1827.3496   -107.58797    1.6534243   -105.93455    958.38483    4.3639733    4.3639733    4.3639733    958.38483   -5491.4792   -9045.8151    17412.449    4911.8895   -17734.841    12080.569    83.108656 
   45600    495.07942   -106.39425   0.44795826   -105.94629   -29172.659    4.3727899    4.3727899    4.3727899   -29172.659     -64935.6    5356.9535    -27939.33    3567.3639     52632.53   -1321.4339    83.613388 
   45700    1524.8217   -107.30438    1.3796907   -105.92469    13132.118    4.3485009    4.3485009    4.3485009    13132.118    22331.215   -808.91509    17874.054    16326.454   -13395.792    9189.4703    82.227802 
   45800    1327.6403   -107.13967    1.2012769   -105.93839   -9168.2596    4.3464499    4.3464499    4.3464499   -9168.2596   -41211.459    37079.531   -23372.852   -2934.8743      46455.5    3426.5093     82.11151 
   45900     1016.495   -106.87108   0.91974602   -105.95133    -16408.18    4.3524397    4.3524397    4.3524397    -16408.18   -34841.729    4795.5306   -19178.343    2286.7366     37130.42   -15956.471     82.45145 
   46000    1441.6362   -107.25067    1.3044227   -105.94624    5965.4806    4.3561459    4.3561459    4.3561459    5965.4806    16913.164   -15388.274    16371.552    6172.6663   -7291.6019    12695.344    82.662256 
   46100    1039.4356   -106.88956   0.94050322   -105.94906   -33581.629    4.3647018    4.3647018    4.3647018   -33581.629   -54546.517    13564.975   -59763.344   -6096.8318    50899.627   -10584.424    83.150284 
   46200    1512.3518    -107.2983    1.3684077    -105.9299    20213.159    4.3411479    4.3411479    4.3411479    20213.159    48945.546   -9032.8536    20726.786    5570.8211    -8388.124   -1524.8703    81.811383 
   46300    1138.9613   -106.97751    1.0305562   -105.94696   -11517.544    4.3487065    4.3487065    4.3487065   -11517.544   -12850.649    3244.9802   -24946.965    2860.1829    42126.579    11490.787    82.239468 
   46400    1393.1789   -107.20381    1.2605775   -105.94324    -30776.32    4.3660749    4.3660749    4.3660749    -30776.32   -37880.193   -19970.751   -34478.016    4046.6564    9975.4255    -6673.371     83.22878 
   46500    1586.0848   -107.36993    1.4351229   -105.93481   -3321.1466    4.3512095    4.3512095    4.3512095   -3321.1466    7104.0573   -10643.356   -6424.1414    11614.324    3399.5127     4153.424    82.381552 
   46600    902.18197   -106.76388   0.81631321   -105.94756   -15953.939    4.3496263    4.3496263    4.3496263   -15953.939   -6761.6284    6794.3873   -47894.575   -8563.1765    39867.678    15944.176    82.291663 
   46700     1848.932   -107.61373    1.6729525   -105.94078   -5621.9556    4.3497426    4.3497426    4.3497426   -5621.9556   -9454.3953   -3840.4821   -3570.9894    13408.908   -27671.509   -6305.0631    82.298261 
   46800    886.31878   -106.75971   0.80195986   -105.95775   -14248.999    4.3606252    4.3606252    4.3606252   -14248.999     33887.08   -20580.035   -56054.043    1133.3382    49187.541    15685.641    82.917516 
   46900    1465.2178     -107.273    1.3257599   -105.94724    -9161.471    4.3558202    4.3558202    4.3558202    -9161.471   -5199.0221   -12262.359   -10023.032     4425.992   -1902.6902    6549.7053    82.643714 
   47000    1429.5436   -107.23943    1.2934811   -105.94595    4920.0775    4.3540327    4.3540327    4.3540327    4920.0775    17648.024    5045.2124   -7933.0034    17216.364    5317.3376    1193.6359    82.542015 
   47100    877.76125   -106.74365   0.79421682   -105.94943     -10978.5    4.3613926    4.3613926    4.3613926     -10978.5   -8590.4706     18638.93   -42983.958    396.45061    34914.299    23101.162      82.9613 
   47200    1588.8094   -107.37316    1.4375881   -105.93557   -6987.8986    4.3573459    4.3573459    4.3573459   -6987.8986   -19244.898     -4727.91    3009.1122    5020.0253   -18081.107   -2870.4513    82.730587 
   47300    909.00066   -106.77595    0.8224829   -105.95347   -1109.2263    4.3484235    4.3484235    4.3484235   -1109.2263    22683.106    24266.193   -50276.978    2386.4584    56144.109    1524.8911    82.223412 
   47400    1467.2404   -107.27169      1.32759    -105.9441    6404.4612    4.3450431    4.3450431    4.3450431    6404.4612    7392.2453    23292.485   -11471.347   -5265.2248    6793.8579    12896.522    82.031803 
   47500    1271.5425   -107.09662    1.1505184    -105.9461    8042.3758    4.3638602    4.3638602    4.3638602    8042.3758    42734.566    12536.404   -31143.842    1941.7595    13244.528   -7347.9476    83.102196 
   47600    979.93654   -106.83469   0.88666718   -105.94802    -28073.36    4.3637058    4.3637058    4.3637058    -28073.36   -47171.695    16559.915   -53608.301   -2428.5361    34527.509    13681.321    83.093373 
   47700    1553.3673   -107.32906    1.4055194   -105.92354    24770.277    4.3497054    4.3497054    4.3497054    24770.277    39048.579    11909.098    23353.155   -1491.0904    -5570.248    4879.8693    82.296151 
   47800    1132.2153   -106.96104    1.0244522   -105.93659   -22906.206    4.3590468    4.3590468    4.3590468   -22906.206   -43483.948    17570.025   -42804.696    10869.351      37874.3    7423.0433    82.827511 
   47900    1124.0866    -106.9512    1.0170972    -105.9341    2500.1805    4.3591711    4.3591711    4.3591711    2500.1805     35536.52   -13606.578   -14429.401    3883.9441   -10262.804    12191.362    82.834593 
   48000    1494.9111   -107.27979    1.3526269   -105.92716   -14046.997    4.3619192    4.3619192    4.3619192   -14046.997   -28799.079    625.53458   -13967.446    5231.1757    14093.763   -2580.0183    82.991353 
   48100    922.54546   -106.76758   0.83473852   -105.93285   -2469.7102    4.3639187    4.3639187    4.3639187   -2469.7102    35691.627    -6253.713   -36847.045    16158.058    13068.575    17694.961    83.105538 
   48200    1616.0623   -107.38483    1.4622472   -105.92258   -3857.6084    4.3502862    4.3502862    4.3502862   -3857.6084    13241.148     -5697.91   -19116.063    8469.0774    -14696.31   -7498.5352    82.329123 
   48300    1076.8934   -106.91269   0.97439574    -105.9383    12751.936    4.3555242    4.3555242    4.3555242    12751.936     1282.212    35861.762    1111.8329    1396.4867    27737.383    10001.641    82.626867 
   48400    1149.5703   -106.96761    1.0401554   -105.92745     -11732.2    4.3695976    4.3695976    4.3695976     -11732.2    43150.761   -37154.146   -41193.216    12595.746   -3241.3693    17154.368    83.430401 
   48500     1444.478   -107.23074     1.306994   -105.92374   -18678.296    4.3529187    4.3529187    4.3529187   -18678.296   -26553.181    7128.1192   -36609.825   -163.64275    8557.9562   -17636.397    82.478672 
   48600    1196.4547   -107.01242    1.0825774   -105.92985     15428.77    4.3450663    4.3450663    4.3450663     15428.77    47039.827    11225.435    -11978.95    228.00477    17070.601    29401.651    82.033116 
   48700    1445.9217   -107.24792    1.3083004   -105.93962   -20509.072    4.3519099    4.3519099    4.3519099   -20509.072     10379.06   -25610.363   -46295.915    12839.901   -11712.191   -6295.1185    82.421341 
   48800    1072.4093   -106.91505   0.97033844   -105.94471    1553.1931    4.3522755    4.3522755    4.3522755    1553.1931   -13732.135    27697.137   -9305.4225   -13128.321    33849.404   -201.94278    82.442116 
   48900    1221.1238   -107.05711    1.1048985   -105.95221   -14341.793    4.3572754    4.3572754    4.3572754   -14341.793    39477.742   -35493.396   -47009.725    6690.9538   -5745.8535    28391.513    82.726572 
   49000    1502.9165   -107.30685    1.3598705   -105.94698    6352.9202    4.3460929    4.3460929    4.3460929    6352.9202    40018.274    2208.2583   -23167.772   -2473.4254    13891.694   -26627.568    82.091275 
   49100    1127.8349   -106.97587    1.0204887   -105.95538    14639.017    4.3403305    4.3403305    4.3403305    14639.017    41006.105    23406.042   -20495.095   -9176.6132    25667.781    35736.082    81.765178 
   49200    1428.9491   -107.24829    1.2929432   -105.95534   -19158.185    4.3592436    4.3592436    4.3592436   -19158.185    31919.745   -46538.559    -42855.74    -11434.26   -5601.9628    3424.1571    82.838724 
   49300    1308.4683   -107.12974    1.1839296   -105.94581   -2539.1791     4.352346     4.352346     4.352346   -2539.1791   -23328.985    43158.474   -27447.026    60.265457    27868.589   -7523.8099    82.446121 
   49400    1145.8615   -106.98504    1.0367995   -105.94824    4994.3337    4.3466911    4.3466911    4.3466911    4994.3337    28032.851    10571.704   -23621.554   -21478.217    -333.4928     48166.57    82.125182 
   49500     1867.897   -107.62208    1.6901124   -105.93197    2553.4197    4.3568225    4.3568225    4.3568225    2553.4197    11739.037     17734.47   -21813.249   -5643.2459    11733.176   -30983.525    82.700781 
   49600     899.8292   -106.76255   0.81418437   -105.94837   -7481.6613    4.3473556    4.3473556    4.3473556   -7481.6613   -3848.2339    20155.844   -38752.594   -3151.2261    15281.794    46289.028     82.16285 
   49700    1330.4782   -107.15495    1.2038447    -105.9511    18027.109     4.348698     4.348698     4.348698    18027.109    19694.141    21109.942    13277.244   -12070.177   -3792.8663    7289.1439    82.238983 
   49800    1595.6891   -107.38959    1.4438131   -105.94577   -8140.1061    4.3549233    4.3549233    4.3549233   -8140.1061    4230.0343    3015.3992   -31665.752    14376.825    8885.2952     12861.76    82.592675 
   49900    867.06074   -106.74349   0.78453478   -105.95896   -7929.8207    4.3472091    4.3472091    4.3472091   -7929.8207    25909.258   -8769.0551   -40929.665   -13257.395    6339.5192    43900.537    82.154542 
   50000    1641.5654   -107.43585    1.4853229   -105.95053   -6080.1457     4.352229     4.352229     4.352229   -6080.1457   -17543.969   -4204.3982    3507.9298    11110.857   -13356.175   -20982.169    82.439476 
   50100    1078.4627    -106.9282    0.9758157   -105.95238   -16746.464    4.3518914    4.3518914    4.3518914   -16746.464    -4523.555    9620.3708   -55336.209   -4404.8951      21878.7    50570.041    82.420289 
   50200    1255.7201   -107.09036    1.1362019   -105.95416   -1739.5767    4.3487522    4.3487522    4.3487522   -1739.5767   -21116.197    13149.913    2747.5542   -10335.216   -7270.1465    1983.2463    82.242063 
   50300    1270.7342   -107.10038     1.149787    -105.9506   -4859.6504    4.3547957    4.3547957    4.3547957   -4859.6504     4875.876   -5576.0629   -13878.764    2652.8578   -1717.8194    4307.3135    82.585415 
   50400    1142.3267   -106.98562    1.0336012   -105.95202   -32884.012    4.3575607    4.3575607    4.3575607   -32884.012   -16414.974   -25301.878   -56935.183   -1448.7107    24805.989    44580.694    82.742821 
   50500     1568.143   -107.35956    1.4188888   -105.94067    9944.7469    4.3471586    4.3471586    4.3471586    9944.7469   -9390.6122   -3982.0467      43206.9   -22167.083   -7777.0208   -6270.0807    82.151684 
   50600    1050.5562   -106.90274   0.95056529   -105.95217     9519.846    4.3458375    4.3458375    4.3458375     9519.846    22557.997     31925.18   -25923.639    8356.5884    12705.865    25308.947    82.076805 
   50700    1533.1581   -107.34375    1.3872337   -105.95652   -27260.624    4.3586227    4.3586227    4.3586227   -27260.624   -40526.255   -19113.132   -22142.484    -17184.59    15029.868    22925.178    82.803334 
   50800    1277.7198   -107.10451    1.1561077    -105.9484    11138.242    4.3589303    4.3589303    4.3589303    11138.242   -12529.925    17154.947    28789.703   -2271.0421   -6455.4339   -8576.5927    82.820868 
   50900    1253.5164   -107.07364     1.134208   -105.93944   -14463.627    4.3615421    4.3615421    4.3615421   -14463.627   -16430.013   -1717.7548   -25243.112    5130.6983    17529.957    12879.528    82.969833 
   51000    1426.7728   -107.22713     1.290974   -105.93616    2590.2802    4.3497047    4.3497047    4.3497047    2590.2802   -44565.604    50728.777     1607.667   -17024.801   -11603.599   -3206.1093    82.296115 
   51100    1335.0605   -107.15687    1.2079908   -105.94888    7611.5822    4.3441415    4.3441415    4.3441415    7611.5822    11240.205   -4581.9975    16176.539    18931.849    9271.4561   -4284.4147     81.98075 
   51200    981.23098    -106.8453   0.88783841   -105.95746   -8727.7517    4.3611874    4.3611874    4.3611874   -8727.7517   -21827.591    21506.182   -25861.846    2470.7239   -4547.8682    13125.855    82.949592 
   51300    1524.8942   -107.32472    1.3797564   -105.94496   -24369.332    4.3558803    4.3558803    4.3558803   -24369.332   -49957.011   -15753.804   -7397.1804   -1616.9043   -13012.479    -17279.22    82.647135 
   51400    1175.1541   -107.01065    1.0633041   -105.94734    4094.2015    4.3545668    4.3545668    4.3545668    4094.2015   -7808.9049     10654.45    9437.0597    15357.865    12940.076    11180.705    82.572391 
   51500      1395.24   -107.21292    1.2624425   -105.95047   -23165.512    4.3517671    4.3517671    4.3517671   -23165.512   -39426.865    11012.753   -41082.425   -9127.2952   -21017.009   -6768.5582    82.413229 
   51600     1231.048     -107.065    1.1138781   -105.95113    12906.285     4.349183     4.349183     4.349183    12906.285   -29527.636     37070.95     31175.54    12484.242    2637.7125    1849.4519    82.266502 
   51700    1315.0037   -107.14102     1.189843   -105.95118    -34152.47     4.365234     4.365234     4.365234    -34152.47   -45371.858   -20063.401   -37022.152    14510.251    -10519.44     20434.26    83.180703 
   51800    1267.7048   -107.09217     1.147046   -105.94513    7526.1401    4.3504866    4.3504866    4.3504866    7526.1401   -32777.045    77870.498   -22515.033   -225.83222   -17776.436   -15869.627    82.340504 
   51900    1591.4858   -107.38487    1.4400098   -105.94486    -6731.256    4.3491406    4.3491406    4.3491406    -6731.256   -14253.308   -22169.446    16228.987    13971.535    6583.4979    14091.737    82.264101 
   52000    726.96318    -106.6207   0.65777156   -105.96293   -34038.409    4.3601378    4.3601378    4.3601378   -34038.409   -45276.416    6178.3798   -63017.191    5007.7033   -36942.525    6760.5197    82.889715 
   52100    1797.2457   -107.56258    1.6261857    -105.9364    4203.7622    4.3567117    4.3567117    4.3567117    4203.7622    10699.732    4677.6286   -2766.0736    889.45959    10477.167    958.05761    82.694468 
   52200    1095.4913   -106.93024   0.99122351   -105.93902   -45202.959    4.3712728    4.3712728    4.3712728   -45202.959   -53081.147   -30614.257   -51913.473   -217.31004   -19833.089    3597.4651    83.526392 
   52300    1137.7896   -106.97365     1.029496   -105.94415   -10086.018      4.35004      4.35004      4.35004   -10086.018    -166.7992   -24.108319   -30067.148   -1607.7603   -11780.435    1774.8757    82.315144 
   52400    1716.9956   -107.49253    1.5535737   -105.93896    41820.646    4.3311985    4.3311985    4.3311985    41820.646    62255.067    44629.452    18577.419    419.61917   -294.57901    4296.8052    81.250167 
   52500    961.49364   -106.84171   0.86997965   -105.97173   -14370.845     4.362864     4.362864     4.362864   -14370.845   -19636.563    18515.894   -41991.865    9156.1308   -40840.621    6474.4866    83.045293 
   52600    1410.6261   -107.21437    1.2763642     -105.938    704.62505    4.3815532    4.3815532    4.3815532    704.62505    9874.4334    15173.847   -22934.405   -8472.7234    2258.8116    3607.2594    84.117097 
   52700    1194.4408   -107.00078    1.0807552   -105.92003   -13521.648    4.3678433    4.3678433    4.3678433   -13521.648   -6407.5174    14191.688   -48349.114   -54.691805   -26460.768    18086.528    83.329957 
   52800    1490.9672    -107.2592    1.3490585   -105.91014    7189.5078    4.3435761    4.3435761    4.3435761    7189.5078   -1464.1474    31276.985   -8244.3144   -14439.608    -28325.99    641.18649    81.948745 
   52900    1441.6767   -107.23525    1.3044594   -105.93079    17463.942    4.3569524    4.3569524    4.3569524    17463.942    40154.693    14660.032      -2422.9   -13889.125    10286.952    12446.396    82.708174 
   53000    730.17838   -106.60786   0.66068074   -105.94718   -6556.7307    4.3734742    4.3734742    4.3734742   -6556.7307    9402.0227   -3902.3988   -25169.816   -11537.226   -33814.599    13594.462    83.652653 
   53100    1685.5109   -107.45638    1.5250857   -105.93129    178.78617    4.3617254    4.3617254    4.3617254    178.78617    5411.6292   -26587.348    21712.077   -20555.181    14383.209   -5346.5627    82.980294 
   53200    1113.0728   -106.94504    1.0071317   -105.93791    13154.417    4.3378677    4.3378677    4.3378677    13154.417    49379.617   -8122.0049   -1794.3603    228.91371   -16667.892    10627.142    81.626074 
   53300    1567.4248   -107.37408    1.4182389   -105.95584     584.8406    4.3613344    4.3613344    4.3613344     584.8406    14265.912   -5726.9219    -6784.468     2939.018   -20940.339   -987.57061    82.957979 
   53400     1222.609   -107.04112    1.1062423   -105.93488   -18515.025     4.387199     4.387199     4.387199   -18515.025   -10746.793   -12286.459   -32511.824   -7181.3576   -2855.0598    17376.527    84.442681 
   53500     979.6742   -106.81357    0.8864298   -105.92714    10162.554    4.3630351    4.3630351    4.3630351    10162.554    44585.862     570.0619   -14668.263     19733.65   -41855.936   -1241.5146    83.055064 
   53600    1427.3714   -107.20814    1.2915156   -105.91662    42040.528    4.3399244    4.3399244    4.3399244    42040.528    74206.704   -501.57845    52416.459     10666.44    365.52122    5498.9557    81.742232 
   53700    1022.4756     -106.881   0.92515741   -105.95584    8798.0645    4.3533762    4.3533762    4.3533762    8798.0645    20847.035    4537.8959    1009.2624   -5254.5043   -39029.734    8378.2303    82.504681 
   53800    1301.9164   -107.11768    1.1780013   -105.93968   -25801.447    4.3881924    4.3881924    4.3881924   -25801.447   -39175.491    -32268.02   -5960.8308    24340.247   -4799.9627   -937.94351    84.500051 
   53900    1425.4526   -107.22506    1.2897795   -105.93528   -20761.006    4.3628931    4.3628931    4.3628931   -20761.006   -2571.5006   -39705.301   -20006.216   -9109.2627    9599.0217    26134.826    83.046956 
   54000    1178.0638   -106.98929    1.0659368   -105.92335    38014.042    4.3145529    4.3145529    4.3145529    38014.042    29125.181    36810.036    48106.911    6235.0606   -14781.825   -7925.6016    80.316982 
   54100       1291.1   -107.13774    1.1682144   -105.96952   -6183.2981    4.3428505    4.3428505    4.3428505   -6183.2981    11075.397   -28048.318   -1576.9727    32580.024   -134.61594    19722.774    81.907681 
   54200    1482.5104   -107.28569    1.3414065   -105.94429   -19048.078    4.3798869    4.3798869    4.3798869   -19048.078    18787.491   -26837.843   -49093.883   -22638.601   -7786.0822    4807.9589    84.021165 
   54300    712.02913   -106.58874   0.64425892   -105.94448    7221.1178    4.3613065    4.3613065    4.3613065    7221.1178   -19872.369    31826.371    9709.3511    37297.022   -10961.653   -5013.8517    82.956386 
   54400    1741.0364   -107.49874    1.5753263   -105.92341    9801.1084    4.3328467    4.3328467    4.3328467    9801.1084    9720.1799    7059.3261    12623.819    9605.7012   -7137.9814    25138.881    81.342958 
   54500    1516.1063   -107.31589    1.3718048   -105.94409    3638.2999    4.3429139    4.3429139    4.3429139    3638.2999    3279.6108    10052.836   -2417.5469    3164.5383   -8509.5289   -15981.695    81.911272 
   54600     806.1419     -106.687   0.72941413   -105.95758   -11705.556    4.3664901    4.3664901    4.3664901   -11705.556   -58524.981    22850.762    557.55035    33889.333   -25630.016    6380.8942     83.25253 
   54700    1555.1913   -107.34347    1.4071698    -105.9363   -3743.6196    4.3673508    4.3673508    4.3673508   -3743.6196    25710.294   -26278.348   -10662.805   -10566.883    5490.3666     9665.923    83.301773 
   54800    1075.6319   -106.91792   0.97325438   -105.94467   -18267.143    4.3433292    4.3433292    4.3433292   -18267.143   -38491.844    -26833.25    10523.665    52157.905   -9257.1645   -5562.1774     81.93477 
   54900    1399.3429   -107.21074    1.2661548   -105.94458    24156.993    4.3351656    4.3351656    4.3351656    24156.993    20834.051    38194.881    13442.048   -11020.193   -15641.708    3427.2335    81.473632 
   55000    1196.4979   -107.03418    1.0826165   -105.95157   -25677.691     4.366822     4.366822     4.366822   -25677.691   -31233.415   -48798.657    2998.9985    37915.702    18182.996   -3349.5553    83.271513 
   55100    1164.1111   -106.99798    1.0533122   -105.94466   -34491.169    4.3615547    4.3615547    4.3615547   -34491.169   -57674.497   -40197.103   -5601.9077    24522.481   -23476.359    5927.2444    82.970551 
   55200    1454.3071   -107.24915    1.3158876   -105.93326    6598.3815    4.3457158    4.3457158    4.3457158    6598.3815   -7796.5266    29186.284   -1594.6127   -4923.4208    6757.6363   -10679.841    82.069909 
   55300    1123.4085   -106.96484    1.0164836   -105.94835    -13031.93    4.3418462    4.3418462    4.3418462    -13031.93   -47127.534   -22413.366    30445.109    53199.364    4082.0148    8007.3401     81.85087 
   55400    1337.4043   -107.16143    1.2101115   -105.95131   -2416.5542    4.3500414    4.3500414    4.3500414   -2416.5542   -677.03824    16204.255   -22776.879   -20882.878   -25253.622   -3228.5236    82.315227 
   55500    1258.4338   -107.08423    1.1386574   -105.94557   -34613.589    4.3692215    4.3692215    4.3692215   -34613.589   -70313.996    -3959.867   -29566.903    30151.326    31917.002   -1429.7738    83.408863 
   55600    1018.3849   -106.86845   0.92145602   -105.94699    -6196.642    4.3413174    4.3413174    4.3413174    -6196.642   -35839.759    12297.215    4952.6173    17240.935   -24424.844    4601.4167    81.820966 
   55700    1565.7096   -107.36184     1.416687   -105.94515    7521.4328    4.3308753    4.3308753    4.3308753    7521.4328   -5451.0562    53108.406   -25093.051   -5670.2285    8307.0945   -598.49984    81.231982 
   55800    1124.3306   -106.97372    1.0173179    -105.9564     -18184.1    4.3546621    4.3546621    4.3546621     -18184.1   -70738.888    35245.788   -19059.201    26976.485    28992.836    -4922.847    82.577815 
   55900    1353.6429   -107.17169    1.2248046   -105.94689   -19847.174    4.3531716    4.3531716    4.3531716   -19847.174   -37211.003   -12495.735   -9834.7831    3149.2385   -31181.723    4356.6219     82.49305 
   56000     1261.994   -107.08612    1.1418787   -105.94424   -24060.195    4.3620435    4.3620435    4.3620435   -24060.195   -45295.068    24240.971   -51126.487    -5934.845    49788.909   -14295.157     82.99845 
   56100    1260.8384   -107.07386    1.1408331   -105.93303   -9872.4691    4.3529983    4.3529983    4.3529983   -9872.4691   -52949.279    11136.375    12195.497    19910.626   -11112.802   -1039.8375    82.483197 
   56200    1276.4465   -107.08369    1.1549556   -105.92874    1285.7025    4.3343134    4.3343134    4.3343134    1285.7025   -11339.114     541.8833    14654.338    -12883.94    5015.0765   -904.36111    81.425591 
   56300    1120.6705   -106.96075    1.0140062   -105.94674   -3245.3897    4.3543617    4.3543617    4.3543617   -3245.3897   -36916.405    15821.227    11359.009    7929.4279     27295.18     -19211.2    82.560728 
   56400    1308.0773    -107.1224    1.1835758   -105.93882   -5085.6318    4.3618223    4.3618223    4.3618223   -5085.6318   -52791.299    11592.143    25942.261   -685.01595   -30374.778    7457.4697    82.985825 
   56500    1234.7773   -107.06135    1.1172524    -105.9441   -20480.846    4.3486112    4.3486112    4.3486112   -20480.846   -15245.005   -782.64361   -45414.891   -13646.441      42221.8   -19164.942     82.23406 
   56600    1551.6849   -107.34708    1.4039971   -105.94308    11910.121    4.3403092    4.3403092    4.3403092    11910.121   -6084.5643    31350.185    10464.741    2469.5357   -16409.081    2678.6668    81.763976 
   56700    1094.2604    -106.9473    0.9901098   -105.95719    6937.3732    4.3532034    4.3532034    4.3532034    6937.3732   -47864.653      54659.3    14017.472   -1148.8805    8909.8728    7919.1051    82.494859 
   56800    1225.9448   -107.05393    1.1092607   -105.94467   -3995.1704    4.3666866    4.3666866    4.3666866   -3995.1704   -21057.612   -4633.1839    13705.285   -6034.9563    28642.699   -533.25893    83.263769 
   56900    1143.5967   -106.96596    1.0347503   -105.93121    18531.013    4.3612228    4.3612228    4.3612228    18531.013   -40168.627    37206.254    58555.413    6005.2285   -20886.303    19045.306    82.951609 
   57000    941.13667    -106.7915   0.85156024   -105.93994   -11811.827    4.3480017    4.3480017    4.3480017   -11811.827   -73675.877    35556.774    2683.6236    3431.2409    59362.865    10720.788    82.199488 
   57100    1748.8548   -107.51299    1.5824006   -105.93059    39892.739    4.3331578    4.3331578    4.3331578    39892.739   -2903.0706    58851.685    63729.602   -16572.714   -15056.824    1994.9768    81.360482 
   57200    914.64005   -106.79881   0.82758554   -105.97123   -18307.087    4.3589574    4.3589574    4.3589574   -18307.087   -82174.672    61395.794   -34142.383    11600.157    41988.987   -3380.0084    82.822415 
   57300    1604.6539   -107.38581    1.4519246   -105.93389   -30920.153    4.3710209    4.3710209    4.3710209   -30920.153   -64000.362   -15054.305   -13705.792   -14368.699    6553.0469    8244.3739    83.511954 
   57400    1363.6039   -107.15721    1.2338174    -105.9234    19688.953    4.3424761    4.3424761    4.3424761    19688.953   -15425.391     71043.19    3449.0595   -12200.864     26666.42   -8102.7058      81.8865 
   57500     1104.802    -106.9382   0.99964805   -105.93855     3165.297    4.3385204    4.3385204    4.3385204     3165.297   -25012.741    35892.417   -1383.7858   -6297.9707    22491.682    9978.4883    81.662923 
   57600    1562.7377   -107.35686    1.4139979   -105.94286    4982.9118    4.3525016    4.3525016    4.3525016    4982.9118   -12598.739    13980.103    13567.371   -19000.644   -8945.6368    -9252.524    82.454964 
   57700    1238.5036   -107.06427    1.1206241   -105.94365    9730.3258    4.3604188    4.3604188    4.3604188    9730.3258   -11963.505    41821.344   -666.86218    2738.4067    44529.986    1480.9604    82.905743 
   57800    1217.7788   -107.04328    1.1018718   -105.94141     10800.31    4.3488088    4.3488088    4.3488088     10800.31   -5541.8352    25090.472    12852.292    754.22313   -27692.964    5591.2709    82.245271 
   57900     1245.694   -107.06811    1.1271301   -105.94098    19687.257    4.3343438    4.3343438    4.3343438    19687.257    -272.4768     53580.07    5754.1762   -17202.244    30649.226    4469.2111    81.427306 
   58000    1534.3444   -107.33195    1.3883071   -105.94364    19653.007     4.346899     4.346899     4.346899    19653.007     11483.76    40005.838     7469.423    12769.851   -1548.9168    5505.5276    82.136966 
   58100    979.42505   -106.84148   0.88620437   -105.95527   -15210.068    4.3581398    4.3581398    4.3581398   -15210.068    -36940.76   -4245.7084   -4443.7361   -18542.865   -5875.2067    10489.951    82.775817 
   58200     1865.311    -107.6263    1.6877726   -105.93853   -1201.0473    4.3489294    4.3489294    4.3489294   -1201.0473   -7674.7578    10014.441   -5942.8247   -6629.7531     15790.91    -8470.852    82.252114 
   58300    743.89822     -106.623   0.67309474    -105.9499     9399.908    4.3410103    4.3410103    4.3410103     9399.908   -9017.1149    32920.154    4296.6846    11662.409   -15429.017    14366.441    81.803606 
   58400    1519.7755   -107.32689    1.3751248   -105.95176   -7295.8296    4.3465607    4.3465607    4.3465607   -7295.8296   -33281.611   -4691.9826    16086.105   -23144.421    6312.1774    1354.5705     82.11779 
   58500    1518.4347   -107.32238    1.3739116   -105.94847   -490.18854    4.3536524    4.3536524    4.3536524   -490.18854   -16092.051    20329.359   -5707.8737    23451.311   -7651.6758   -8647.1211    82.520389 
   58600    797.78372   -106.68057   0.72185148   -105.95872   -38062.072    4.3565145    4.3565145    4.3565145   -38062.072   -44926.883   -54436.902   -14822.429   -2462.7019   -14883.605     16252.11    82.683239 
   58700    1866.7315    -107.6201    1.6890579   -105.93104    36628.116    4.3326012    4.3326012    4.3326012    36628.116    18582.019    50430.566    40871.763   -5629.6112    14960.851   -16297.447    81.329135 
   58800    859.26589   -106.73081   0.77748183   -105.95332   -8292.4979    4.3453439    4.3453439    4.3453439   -8292.4979   -18601.694   -3357.3966   -2918.4031     25304.63   -11905.306    11727.126    82.048843 
   58900    1598.7822   -107.38769    1.4466117   -105.94108    2072.4683     4.356909     4.356909     4.356909    2072.4683   -23581.453    43968.696   -14169.838   -7986.1793    3484.0861    1304.5872    82.705704 
   59000    1174.4075   -107.01255    1.0626286   -105.94992    6939.3884    4.3447805    4.3447805    4.3447805    6939.3884   -5731.8159     1868.812    24681.169     11666.51     19243.26    2467.6037    82.016934 
   59100    1180.3318   -107.02191     1.067989   -105.95392   -25768.406    4.3483994    4.3483994    4.3483994   -25768.406   -19731.222   -41106.044   -16467.951    20273.142    -6397.025   -3707.5253    82.222045 
   59200     1467.867   -107.26823    1.3281569   -105.94008    27068.174    4.3367053    4.3367053    4.3367053    27068.174    7725.4359    31825.769    41653.318   -1787.7004     25508.62    2828.8743    81.560471 
   59300    1146.5974   -106.99415    1.0374655   -105.95668   -17477.026    4.3539804    4.3539804    4.3539804   -17477.026   -24522.521   -33454.128    5545.5704    19930.785   -758.76846   -7880.9663    82.539041 
   59400    1442.8332   -107.24406    1.3055058   -105.93855   -6891.9622    4.3584769    4.3584769    4.3584769   -6891.9622   -18290.416    -504.6463    -1880.824    9768.5998    10164.371     -5044.23    82.795027 
   59500    1180.8698   -107.00367    1.0684758   -105.93519    19118.544     4.328413     4.328413     4.328413    19118.544   -21085.461    58236.731    20204.362   -11454.539    16839.465    212.90195    81.093508 
   59600    1184.8021   -107.01817    1.0720338   -105.94614    10131.153    4.3443249    4.3443249    4.3443249    10131.153    17811.073    1385.5354    11196.852    27787.925   -5620.9819   -9249.7422    81.991135 
   59700    1289.9703   -107.10641    1.1671922   -105.93922   -21395.066     4.360875     4.360875     4.360875   -21395.066   -61248.273    30052.591   -32989.517   -16536.113    26427.465    11093.029    82.931766 
   59800    1278.1983   -107.09121    1.1565407   -105.93467   -3131.9088    4.3508026    4.3508026    4.3508026   -3131.9088   -17334.529   -23459.161    31397.964    -5307.568    644.00263    2637.7879    82.358447 
   59900    1527.7889   -107.30856    1.3823755   -105.92618    -3059.892    4.3459295    4.3459295    4.3459295    -3059.892   -2785.2765    12982.851   -19377.251    11611.091    2913.8993    11220.623    82.082019 
   60000    711.04826    -106.5849   0.64337141   -105.94153    -3147.386    4.3425727    4.3425727    4.3425727    -3147.386   -39308.138   -11640.107    41506.087   -32439.572    21333.988    3934.3049    81.891968 
   60100    1863.4201   -107.61818    1.6860617   -105.93212    9068.7348    4.3497861    4.3497861    4.3497861    9068.7348    23439.603   -1371.6277    5138.2288    7880.8513   -6448.3781    7963.6702    82.300734 
   60200    944.40604    -106.7994   0.85451843   -105.94488   -14360.144    4.3580895    4.3580895    4.3580895   -14360.144   -61908.305     -2024.39    20852.263   -24508.018    6679.3499    3714.2453    82.772953 
   60300    1397.8492   -107.20856    1.2648034   -105.94376   -163.12208    4.3423832    4.3423832    4.3423832   -163.12208   -3393.6947   -14571.488    17475.817   -17553.186    6827.8051    5131.4722    81.881246 
   60400    1308.5455   -107.13214    1.1839994   -105.94814    10114.767     4.336466     4.336466     4.336466    10114.767    5714.4609   -5100.3573    29730.197    16117.921   -8795.5046    -13202.38    81.546972 
   60500    1251.5344   -107.08834    1.1324146   -105.95592   -5321.8912    4.3473749    4.3473749    4.3473749   -5321.8912   -28815.484   -1081.4798     13931.29   -29844.773    9565.3454    3693.9661    82.163945 
   60600    1360.0299   -107.17973    1.2305836   -105.94915    -15381.07    4.3589613    4.3589613    4.3589613    -15381.07   -21026.422    -47315.79    22199.002    26100.411    196.62247   -10227.405    82.822635 
   60700    1087.8459   -106.93419   0.98430582   -105.94989   -13770.302    4.3500748    4.3500748    4.3500748   -13770.302    3311.1691   -34619.549   -10002.527    1283.2662   -235.96434    3016.9788     82.31712 
   60800    1839.7581    -107.5968    1.6646518   -105.93214    19653.959    4.3311691    4.3311691    4.3311691    19653.959    13507.075   -5218.7733    50673.575    426.28923    22503.822   -8906.4853    81.248511 
   60900    472.56054   -106.39764   0.42758271   -105.97005   -15876.017    4.3449176    4.3449176    4.3449176   -15876.017    11388.895   -73125.766    14108.819    39758.486    -10989.01    2029.9388    82.024698 
   61000    1863.3835   -107.63758    1.6860286   -105.95156   -14963.645    4.3550701    4.3550701    4.3550701   -14963.645   -10029.084   -21635.306   -13226.545   -5575.7837    15574.182   -1909.1637    82.601027 
   61100    1073.3887   -106.92601   0.97122464   -105.95478    21704.851    4.3455409    4.3455409    4.3455409    21704.851    15317.248   -26951.858    76749.165    15319.531    3941.6359   -2907.8474    82.060004 
   61200    1118.9224   -106.96764    1.0124245   -105.95521    -27588.43    4.3477633    4.3477633    4.3477633    -27588.43    -9199.785   -46039.618   -27525.887    21154.661   -5115.3733    110.00389    82.185971 
   61300    1381.4057   -107.19271    1.2499249   -105.94279    32291.082    4.3448072    4.3448072    4.3448072    32291.082    30346.073    9025.3391    57501.835   -32311.869    3142.3232    1072.1682    82.018443 
   61400    1328.0038   -107.15676    1.2016058   -105.95515   -16598.045    4.3515439    4.3515439    4.3515439   -16598.045   -8183.0628   -41899.122     288.0493    18639.111   -9735.1704   -11246.574    82.400549 
   61500     1143.898   -106.98584     1.035023   -105.95082    3953.0124    4.3459186    4.3459186    4.3459186    3953.0124    12369.792   -4878.5424    4367.7874   -16160.681   -12118.401     2404.549    82.081401 
   61600    1300.7774   -107.12211    1.1769707   -105.94514    17516.146    4.3412553    4.3412553    4.3412553    17516.146    24630.918   -23863.869    51781.388   -34314.374   -11340.142   -5374.4094    81.817458 
   61700    1483.0695   -107.28644    1.3419124   -105.94453   -14102.171    4.3597588    4.3597588    4.3597588   -14102.171   -5889.7241    -40591.19    4174.4004    15767.993    7041.7988     3789.184      82.8681 
   61800    991.79315   -106.84834   0.89739529   -105.95095   -11255.711    4.3475533    4.3475533    4.3475533   -11255.711   -27918.139   -48341.951    42492.957   -59466.538   -18396.207    1685.0191    82.174061 
   61900    1921.2975   -107.66973    1.7384304    -105.9313    26655.806    4.3385525    4.3385525    4.3385525    26655.806    55958.563   -10996.721    35005.577    11312.994    12185.724    6950.6071    81.664739 
   62000     571.0767   -106.47883    0.5167222    -105.9621   -33124.716    4.3568906    4.3568906    4.3568906   -33124.716   -51232.249   -91708.711    43566.812   -66077.136   -17.421709    1438.1859    82.704655 
   62100    1698.6337   -107.48058    1.5369595   -105.94362   -5328.6467    4.3476028    4.3476028    4.3476028   -5328.6467    207.45842   -28124.119    11930.721   -3839.0692   -1746.9054    10480.073    82.176865 
   62200    1503.5447    -107.2993    1.3604388   -105.93886    4171.4866    4.3504369    4.3504369    4.3504369    4171.4866   -14581.977   -21991.776    49088.213   -26471.958   -1196.8239   -7123.6369    82.337677 
   62300    691.10203   -106.57211   0.62532364   -105.94679   -16009.059    4.3531786    4.3531786    4.3531786   -16009.059   -35180.117   -45985.433    33138.372   -56822.301   -556.99102    2181.1375    82.493446 
   62400    1671.1603   -107.44659    1.5121009   -105.93449     5695.088    4.3371166    4.3371166    4.3371166     5695.088   -987.77492    19434.185   -1361.1465    31531.499   -8344.9131    8432.9671    81.583682 
   62500    1307.0296   -107.13377    1.1826279   -105.95114   -2385.1893    4.3515326    4.3515326    4.3515326   -2385.1893    -32728.57   -16347.864    41920.866   -45019.947    3164.5723   -4855.4039    82.399905 
   62600    1171.5094    -107.0016    1.0600063    -105.9416   -3786.4811    4.3600676    4.3600676    4.3600676   -3786.4811   -4782.7355     -14136.1    7559.3926    4751.9625    120.75541    2372.2108    82.885713 
   62700    1403.2978   -107.20016    1.2697333   -105.93043    7136.9599    4.3473353    4.3473353    4.3473353    7136.9599   -17449.707    20893.536     17967.05    13906.108   -5183.5633   -2248.2401    82.161699 
   62800    1592.9162   -107.37593    1.4413041   -105.93462   -10131.535    4.3483892    4.3483892    4.3483892   -10131.535   -8155.5566   -18424.155   -3814.8933   -27733.062   -6371.4001   -744.04588    82.221465 
   62900    949.66054   -106.80407   0.85927282   -105.94479    16053.829    4.3428384    4.3428384    4.3428384    16053.829    5967.5591    29444.991    12748.936     39389.02   -1669.5026   -8711.8154    81.906999 
   63000    1652.2531   -107.43677    1.4949934   -105.94178    2394.7762    4.3554211    4.3554211    4.3554211    2394.7762   -12163.547    4561.8777    14785.998    1999.5011   -5963.7886    5943.3561    82.621002 
   63100    1128.3752   -106.96417    1.0209776   -105.94319   -35137.872    4.3627065    4.3627065    4.3627065   -35137.872   -26876.422   -50091.838   -28445.355    6306.7713   -5374.4191   -12746.971    83.036299 
   63200    1151.3678   -106.98629    1.0417817   -105.94451     6320.476    4.3306364    4.3306364    4.3306364     6320.476   -22708.745    10932.767    30737.406    49731.918   -14920.225     3599.352     81.21854 
   63300    1978.5174   -107.73172    1.7902041   -105.94152    29616.222    4.3357085    4.3357085    4.3357085    29616.222    11710.064     31329.57    45809.033    -19749.34     9523.475   -7352.5887    81.504246 
   63400    646.38294   -106.55133   0.58486087   -105.96647   -20836.818    4.3532127    4.3532127    4.3532127   -20836.818   -40109.074   -60217.744    37816.363    49444.174   -1861.3823   -13458.163    82.495388 
   63500    1607.6058   -107.39482    1.4545955   -105.94022    3331.3407    4.3669303    4.3669303    4.3669303    3331.3407    -9397.505   -13109.615    32501.142   -12547.557   -3788.2644   -3348.3143     83.27771 
   63600    1126.2603   -106.96643     1.019064   -105.94737   -32233.167    4.3621132    4.3621132    4.3621132   -32233.167   -43959.394   -64435.476    11695.369    22542.712    9669.6957   -10375.404    83.002427 
   63700     1139.579   -106.96828    1.0311151   -105.93716    24593.752    4.3112524    4.3112524    4.3112524    24593.752    29024.191    5659.6717    39097.395    33713.119   -1194.8872   -17099.048    80.132805 
   63800    1416.5629   -107.24114    1.2817359   -105.95941    13419.795    4.3314615    4.3314615    4.3314615    13419.795    6827.7556   -13476.085    46907.715   -43116.675     -1151.67    294.56676    81.264969 
   63900    1023.9405   -106.86089   0.92648293   -105.93441   -35240.479    4.3726881    4.3726881    4.3726881   -35240.479   -42555.025   -70464.308    7297.8966    46777.557    9407.7178   -8030.1983    83.607551 
   64000    1333.8715   -107.12438     1.206915   -105.91746    3081.2402    4.3518563    4.3518563    4.3518563    3081.2402    18174.359   -28314.576    19383.937    -28431.94   -440.95547   -15914.093    82.418297 
   64100    1265.2665   -107.06646    1.1448397   -105.92162   -9038.0691    4.3441458    4.3441458    4.3441458   -9038.0691   -27318.663   -39548.633    39753.089   -1223.5787    6694.8621    3085.5974    81.980995 
   64200    1264.0343   -107.07731    1.1437248   -105.93359    9185.0051      4.32991      4.32991      4.32991    9185.0051    6436.2763    569.03871      20549.7    34614.425    7068.7614   -17783.137    81.177675 
   64300    1151.1831   -107.00585    1.0416147   -105.96424   -6006.3614      4.34779      4.34779      4.34779   -6006.3614   -6068.2657   -24215.241    12264.422   -49357.226    3392.6545   -2387.8586    82.187482 
   64400    1422.4208   -107.23698    1.2870363   -105.94995   -26249.535    4.3619393    4.3619393    4.3619393   -26249.535   -41725.227    -39725.48    2702.1033    27996.588   -2994.5877    5429.9534    82.992499 
   64500    1189.2406    -107.0166    1.0760499   -105.94055    29979.213    4.3236376    4.3236376    4.3236376    29979.213    35287.552    17827.092    36822.995   -2526.5201    11635.754   -25187.113      80.8254 
   64600    1291.5877   -107.12557    1.1686557   -105.95691   -12479.674    4.3437129    4.3437129    4.3437129   -12479.674    -33493.19   -28935.755    24989.923   -28788.176   -610.53073    7770.0026    81.956487 
   64700    1645.2761   -107.41994    1.4886804   -105.93126    -4216.928    4.3557168    4.3557168    4.3557168    -4216.928    15954.172    -17076.11   -11528.846    21035.873   -3341.1908   -9642.8074    82.637829 
   64800    913.99865   -106.76802   0.82700518   -105.94102    12434.442    4.3407114    4.3407114    4.3407114    12434.442    17755.747    9304.7106    10242.867   -23111.527    13314.996   -20807.841    81.786712 
   64900    1542.2701   -107.34313    1.3954784   -105.94765   -23769.555    4.3493442    4.3493442    4.3493442   -23769.555   -35193.418   -4397.5436   -31717.702   -2929.6124   -13735.124    8259.7345    82.275651 
   65000    1535.0395   -107.33846     1.388936   -105.94953    28196.381    4.3278126    4.3278126    4.3278126    28196.381    58532.807    43860.302   -17803.966    2015.1311   -148.57873   -27861.082    81.059766 
   65100     963.3855   -106.84468   0.87169144   -105.97299   -9497.1087    4.3427125    4.3427125    4.3427125   -9497.1087    -20713.65    7608.2322   -15385.909   -41637.455    2229.3561    1158.1444    81.899873 
   65200    1447.6864   -107.26062    1.3098971   -105.95072   -23630.306    4.3576756    4.3576756    4.3576756   -23630.306   -13237.335   -987.72951   -56665.854    5371.9881   -9188.1365   -12873.771     82.74937 
   65300    1204.3919   -107.03312    1.0897591   -105.94336    25845.822    4.3351991    4.3351991    4.3351991    25845.822    29224.407    58581.793   -10268.734   -12524.254    7033.3532   -24338.768     81.47552 
   65400    1188.5976    -107.0248    1.0754681   -105.94934   -349.07695    4.3423618    4.3423618    4.3423618   -349.07695    5724.2489    25913.802   -32685.281   -32386.376   -3996.3947    9150.7591    81.880036 
   65500    1321.9721   -107.14298    1.1961481   -105.94684    6524.3704    4.3450013    4.3450013    4.3450013    6524.3704    27104.958     12899.35   -20431.196    23943.956     673.7722   -14758.098     82.02944 
   65600    1118.7764   -106.96537    1.0122924   -105.95308   -4302.0887    4.3510907    4.3510907    4.3510907   -4302.0887   -30102.695    920.05459    16276.374   -6246.7949   -1601.2998   -4069.5367    82.374809 
   65700    1448.3595   -107.25682    1.3105061   -105.94632   -10382.395    4.3471917    4.3471917    4.3471917   -10382.395   -21863.292    11150.283   -20434.175   -12105.201   -2025.7739    19705.672    82.153555 
   65800    1440.2338   -107.24737    1.3031538   -105.94422    16754.729    4.3299829    4.3299829    4.3299829    16754.729    18856.472   -1349.7812    32757.497    41176.555   -9004.7235   -4286.8708    81.181778 
   65900    1164.2423   -107.00403    1.0534309    -105.9506   -1936.8868    4.3455071    4.3455071    4.3455071   -1936.8868    353.78237   -158.78254   -6005.6604   -16521.775   -7241.0789    3654.2574    82.058088 
   66000    1071.6284   -106.91901   0.96963187   -105.94938   -10614.698    4.3516408    4.3516408    4.3516408   -10614.698    10969.193   -41661.251   -1152.0372    19628.567   -7042.6599    17803.345    82.406056 
   66100    1353.8877   -107.17208    1.2250261   -105.94706    8963.8243     4.343145     4.343145     4.343145    8963.8243    22085.937   -24364.623    29170.159     38963.65   -3972.8518   -5224.0786    81.924349 
   66200    1654.8784   -107.44035    1.4973688   -105.94298    9780.1711    4.3396443    4.3396443    4.3396443    9780.1711    33454.161   -13346.261    9232.6133   -20109.825    53.584947    19219.853    81.726408 
   66300    543.45968    -106.4552   0.49173374   -105.96347   -1937.7901    4.3486288    4.3486288    4.3486288   -1937.7901    12852.584   -65102.379    46436.425     70814.18    7186.2827   -1756.9847     82.23506 
   66400    1951.4255   -107.69593    1.7656908   -105.93024    2527.7321    4.3559862    4.3559862    4.3559862    2527.7321    34416.328   -30410.121    3576.9894   -20717.824    4304.6597    8184.5376    82.653164 
   66500    843.54695   -106.70762   0.76325901   -105.94436    3112.4137    4.3462743    4.3462743    4.3462743    3112.4137     46065.65   -53936.849     17208.44     53483.42    8379.7386    16239.876    82.101557 
   66600    1410.7997   -107.22223    1.2765212   -105.94571   -7394.1026    4.3362882    4.3362882    4.3362882   -7394.1026   -26066.444   -16146.989    20031.125    18150.169    9660.6779   -1505.8455    81.536942 
   66700    1254.4923   -107.08753     1.135091   -105.95244    1194.1382     4.340416     4.340416     4.340416    1194.1382    35568.837   -23532.602   -8453.8204   -9395.6121   -5931.1811    11728.102    81.770014 
   66800    1303.8175   -107.13768    1.1797215   -105.95796   -10435.223    4.3498402    4.3498402    4.3498402   -10435.223   -600.48253   -41543.707    10838.522    56202.518    4428.6751    4312.8245    82.303807 
   66900    1206.4168   -107.04117    1.0915913   -105.94957   -2351.4043    4.3531505    4.3531505    4.3531505   -2351.4043    16571.002    3030.2607   -26655.476   -30005.169    161.79191    1836.6366    82.491852 
   67000    1395.4231    -107.2085    1.2626081   -105.94589   -19811.011    4.3411457    4.3411457    4.3411457   -19811.011   -13930.033   -44558.608   -944.39065     19342.56    -4356.134    15161.934    81.811261 
   67100    1427.5548   -107.23402    1.2916816   -105.94233    13215.595    4.3354925    4.3354925    4.3354925    13215.595    53970.571   -6663.8032   -7659.9816    6725.4885    10230.147   -14444.523    81.492067 
   67200    951.04669   -106.82206   0.86052703   -105.96154   -11267.105    4.3408537    4.3408537    4.3408537   -11267.105   -11241.773   -10297.859   -12261.683   -27590.496    4828.5401    2130.9868    81.794753 
   67300    1894.5782   -107.65898    1.7142542   -105.94472    8220.2071    4.3564678    4.3564678    4.3564678    8220.2071    56569.055   -12796.396   -19112.038    8985.7215   -3725.9148    802.28404     82.68058 
   67400    892.25768   -106.76759    0.8073335   -105.96026   -39115.197    4.3566941    4.3566941    4.3566941   -39115.197   -38080.928    -28177.94   -51086.724   -12562.621    21348.697   -16513.988    82.693468 
   67500    1299.9914   -107.12419    1.1762595   -105.94793    20073.759    4.3279097    4.3279097    4.3279097    20073.759    27637.514    13254.905    19328.857   -25483.802    -6672.112     14172.72    81.065222 
   67600    1610.2094   -107.40421    1.4569513   -105.94726    25482.374    4.3270402    4.3270402    4.3270402    25482.374    79211.406   -3378.6027     614.3178    19143.703   -3484.6475   -22467.009    81.016371 
   67700     1266.435   -107.10974     1.145897   -105.96384    2774.0964    4.3473803    4.3473803    4.3473803    2774.0964    20502.104   -9104.6493   -3075.1658   -31724.885   -541.31313    11508.643    82.164249 
   67800    1243.1737   -107.07106    1.1248497   -105.94621   -6503.9066    4.3636256    4.3636256    4.3636256   -6503.9066    31226.612   -45140.351   -5597.9811     15851.71   -7311.4746   -13448.902    83.088789 
   67900    1169.0551   -107.00028    1.0577857   -105.94249   -13919.315    4.3441156    4.3441156    4.3441156   -13919.315   -7261.5474   -55297.553    20801.155    4347.0916   -7396.8534   -20391.317    81.979286 
   68000    1668.8412   -107.43631    1.5100026   -105.92631    27068.246    4.3219448    4.3219448    4.3219448    27068.246    31925.963    4955.2303    44323.544   -20768.764    2452.4238    17211.397    80.730504 
   68100     802.4784   -106.68634   0.72609932   -105.96024   -1707.3482    4.3426416    4.3426416    4.3426416   -1707.3482    14766.569   -57492.885    37604.272    41712.453    3645.9485   -33009.598    81.895861 
   68200    1900.9249   -107.65457    1.7199968   -105.93457   -19072.772    4.3626858    4.3626858    4.3626858   -19072.772   -5625.9356   -45136.326   -6456.0547    -17885.81    4005.9123     6796.992    83.035117 
   68300    994.96955   -106.84019   0.90026936   -105.93992   -9563.5958    4.3507997    4.3507997    4.3507997   -9563.5958    1493.4135   -47339.889    17155.688    29814.809    17127.246   -11896.373     82.35828 
   68400    985.80319   -106.84036   0.89197544   -105.94838    4581.0154    4.3298008    4.3298008    4.3298008    4581.0154    19347.059   -22874.341    17270.328    17698.664    -5403.151    -29549.24    81.171536 
   68500    2110.7064   -107.85468    1.9098115   -105.94487    22379.182     4.326899     4.326899     4.326899    22379.182    35110.639    13838.767     18188.14    846.43135    8918.0119    4682.2179    81.008438 
   68600    791.74459   -106.69229   0.71638714    -105.9759   -24032.973    4.3518735    4.3518735    4.3518735   -24032.973   -30202.113   -29128.479   -12768.328     45484.55    12851.814   -26680.489    82.419275 
   68700     1356.087   -107.18406    1.2270161   -105.95705   -11788.707     4.355251     4.355251     4.355251   -11788.707   -9920.1277    1847.9714   -27293.964   -7775.3899   -8247.2895   -20013.565    82.611324 
   68800    1351.4051   -107.17502    1.2227797   -105.95224    22964.037    4.3297528    4.3297528    4.3297528    22964.037   -6085.3371    13454.177    61523.272    9686.4568    13463.668    15885.715    81.168835 
   68900    902.85465   -106.78745   0.81692186   -105.97053    3206.3548    4.3313114    4.3313114    4.3313114    3206.3548   -12115.477    4731.6474    17002.894    25854.102    4476.6633   -42566.819     81.25652 
   69000    1773.6754   -107.55791    1.6048587   -105.95305   -10592.139    4.3547265    4.3547265    4.3547265   -10592.139   -20772.226   -10427.753   -576.43883   -22408.838   -16167.118    123.54978    82.581478 
   69100    999.72849   -106.86126   0.90457535   -105.95668   -25276.932    4.3482394    4.3482394    4.3482394   -25276.932   -43506.384   -14344.767   -17979.646    22352.324    22347.525    -10182.21     82.21297 
   69200    1077.8021   -106.93139   0.97521801   -105.95617    11317.054    4.3322173    4.3322173    4.3322173    11317.054    16035.542    42753.978   -24838.358    8509.2955     3572.138   -43866.754    81.307515 
   69300    1839.7253   -107.61584    1.6646221   -105.95121    14965.734    4.3314421    4.3314421    4.3314421    14965.734   -17543.028    42563.155    19877.073    1534.3337   -3546.1616      21699.3    81.263877 
   69400    689.65624   -106.59516   0.62401546   -105.97115   -19792.286    4.3578368    4.3578368    4.3578368   -19792.286   -41129.591    17646.841   -35894.109    28248.773    24255.561   -26563.138     82.75855 
   69500    1914.0391   -107.67391    1.7318628   -105.94205    -13319.53    4.3549709    4.3549709    4.3549709    -13319.53    2596.6715   -6251.2412   -36304.021   -3949.7805   -9784.8319   -2515.6122    82.595382 
   69600    1036.4225   -106.88387   0.93777687   -105.94609    25744.199    4.3179398    4.3179398    4.3179398    25744.199   -2239.4256    31587.225    47884.798    31798.386    14683.494    17348.958    80.506278 
   69700    1374.9295   -107.19712    1.2440651   -105.95306    1639.8893    4.3311142    4.3311142    4.3311142    1639.8893   -7341.2286    27547.763   -15286.866    4361.3394    3888.2772   -23357.784    81.245421 
   69800    1424.9098   -107.23263    1.2892883   -105.94334   -5092.8531    4.3517192    4.3517192    4.3517192   -5092.8531   -924.95544    2467.5227   -16821.127    7158.4376   -25419.297    13545.873    82.410505 
   69900    936.85366   -106.79704   0.84768488   -105.94935   -2500.7459    4.3519326    4.3519326    4.3519326   -2500.7459    -27333.11    14261.283    5569.5891    26773.387    21349.079   -3713.2977    82.422632 
   70000    1668.6144   -107.44825    1.5097974   -105.93846   -4790.5958    4.3444073    4.3444073    4.3444073   -4790.5958     -4664.86    15993.356   -25700.284   -11192.849   -25222.774    3480.5935    81.995797 
   70100    1259.7603   -107.08644    1.1398576   -105.94658    4084.7122    4.3225222    4.3225222    4.3225222    4084.7122   -21840.128    1840.7157    32253.549    34199.953   -18398.531    4154.4777    80.762859 
   70200    1314.4938    -107.1472    1.1893816   -105.95782     13975.23    4.3365622    4.3365622    4.3365622     13975.23    15967.962    15731.616    10226.112     3605.913     26997.34   -1725.6464    81.552397 
   70300    1001.8326   -106.86034   0.90647921   -105.95386   -30245.052    4.3606219    4.3606219    4.3606219   -30245.052   -20426.429   -212.91794    -70095.81   -2284.0945    -46687.64    6534.5319    82.917329 
   70400    1375.7408   -107.19213    1.2447992   -105.94734    11038.601    4.3309365    4.3309365    4.3309365    11038.601    10944.074   -11185.822     33357.55    30419.724    11179.227   -117.45872    81.235424 
   70500    1495.1227   -107.29705    1.3528184   -105.94423    17152.415    4.3254062    4.3254062    4.3254062    17152.415   -5533.2639    49141.839    7848.6704   -8832.6219   -21024.151   -2161.7369    80.924623 
   70600    1113.7897   -106.95869    1.0077803   -105.95091   -23385.646    4.3485471    4.3485471    4.3485471   -23385.646   -37083.088   -4840.0327   -28233.819     18479.82   -42912.975    9226.4279    82.230428 
   70700    1441.3837   -107.24174    1.3041943   -105.93754     2985.519      4.34777      4.34777      4.34777     2985.519    4757.8452   -15098.178     19296.89    20880.106    8787.6835   -5297.1842     82.18635 
   70800    1089.6565   -106.92501    0.9859441   -105.93906   -14461.308    4.3491118    4.3491118    4.3491118   -14461.308   -37583.177     41101.42   -46902.169   -3519.9128   -52006.559   -4814.3067    82.262464 
   70900    1418.3119   -107.22478    1.2833184   -105.94146    289.98082    4.3310666    4.3310666    4.3310666    289.98082   -6100.2762   -25785.699    32755.918     37485.99    8064.1226   -689.05527    81.242742 
   71000    1207.3981   -107.03909    1.0924792   -105.94661    25717.866    4.3195124    4.3195124    4.3195124    25717.866     11252.84    54511.621    11389.137   -119.17409   -34844.671   -5971.4423    80.594274 
   71100     1244.058   -107.07974    1.1256498   -105.95409    -19801.18    4.3542653    4.3542653    4.3542653    -19801.18   -34538.352    13145.662    -38010.85    10828.322   -16181.557   -3008.6687    82.555241 
   71200      1341.09   -107.15106    1.2134465   -105.93762    -6350.384    4.3546938    4.3546938    4.3546938    -6350.384   -10642.672   -11980.947     3572.468    20972.485    3449.4197    2484.3305    82.579616 
   71300     1260.393     -107.072    1.1404301   -105.93157    10399.354    4.3322857    4.3322857    4.3322857    10399.354   -9674.9177    46258.687   -5385.7065   -21545.677   -36589.083   -7842.5545    81.311371 
   71400     1300.753   -107.11421    1.1769486   -105.93726    3533.0299    4.3326838    4.3326838    4.3326838    3533.0299    11905.039    2830.3507   -4136.2995    25302.695    25708.028    11483.629    81.333788 
   71500    1109.7221    -106.9527    1.0040999    -105.9486    15220.729    4.3368114    4.3368114    4.3368114    15220.729    24685.917    15371.087    5605.1825   -7798.5782   -33213.399   -10657.045    81.566461 
   71600    1429.9745   -107.23518    1.2938709   -105.94131    634.32177    4.3534669    4.3534669    4.3534669    634.32177   -16255.224    20225.318   -2067.1292    -2306.318    11061.504    2537.5807    82.509839 
   71700    1180.1681   -107.00624    1.0678409   -105.93839   -16564.264    4.3525265    4.3525265    4.3525265   -16564.264   -9486.5464   -35100.991   -5105.2544    11908.226    7908.6484   -404.60676    82.456382 
   71800    1476.2212   -107.26346     1.335716   -105.92775    23434.481     4.321951     4.321951     4.321951    23434.481    6575.4189    29864.357    33863.669   -8882.2615   -18127.505   -17299.263    80.730849 
   71900    1107.5238   -106.94966    1.0021108   -105.94755   -6201.5951    4.3304718    4.3304718    4.3304718   -6201.5951   -11266.761    11650.996    -18989.02    13675.859    50130.218    15004.079    81.209274 
   72000    1282.8249    -107.1092    1.1607269   -105.94847   -14915.753    4.3518388    4.3518388    4.3518388   -14915.753    23405.138   -57340.461   -10811.936      1669.81   -9544.6143    -21130.32    82.417302 
   72100    1621.7227   -107.41059    1.4673688   -105.94322    1732.9097    4.3393842    4.3393842    4.3393842    1732.9097   -2625.7765    21384.686   -13560.181    3533.3051    25547.979    5956.4495     81.71171 
   72200    536.00584   -106.44241   0.48498935   -105.95742   -5579.9139    4.3308703    4.3308703    4.3308703   -5579.9139    33281.591   -8981.2457   -41040.087    15953.812    29520.451    4814.2233    81.231696 
   72300    1867.5834   -107.63097    1.6898287   -105.94114    8616.7732    4.3368636    4.3368636    4.3368636    8616.7732    40671.142   -19078.301    4257.4792      6829.01   -19361.368   -17851.451    81.569406 
   72400    1009.6781   -106.87156   0.91357793   -105.95798   -3153.9542    4.3438892    4.3438892    4.3438892   -3153.9542    5493.1293    12267.973   -27222.965    3543.4816     26101.52    22130.574    81.966467 
   72500    1189.6895   -107.02471    1.0764561   -105.94825   -6648.2822    4.3426654    4.3426654    4.3426654   -6648.2822    16085.859    -17970.01   -18060.696    18647.488    8383.7116   -8672.0086    81.897208 
   72600    1560.7371    -107.3509    1.4121877   -105.93871    3366.8486    4.3373598    4.3373598    4.3373598    3366.8486   -15775.098    22867.919    3007.7251   -7933.1286   -27715.578   -945.11629    81.597403 
   72700     1011.204   -106.86566    0.9149586    -105.9507   -9062.4099    4.3348979    4.3348979    4.3348979   -9062.4099   -10703.158    10344.895   -26828.966    14565.682    37229.883    24025.245    81.458538 
   72800    1793.0995   -107.56049    1.6224341   -105.93806    4575.3104    4.3408524    4.3408524    4.3408524    4575.3104    4654.9739    10945.387   -1874.4298    2151.3843   -22518.387   -5293.5476    81.794681 
   72900    776.00982   -106.65779      0.70215   -105.95564   -26831.057    4.3484606    4.3484606    4.3484606   -26831.057   -46319.618   -5298.2026   -28875.351   -15364.067   -13345.136    6193.6656    82.225517 
   73000    1495.3487   -107.30012    1.3530229    -105.9471    7980.3777    4.3276795    4.3276795    4.3276795    7980.3777    47943.629   -2429.3959     -21573.1    18023.992    37556.145    23740.931    81.052286 
   73100    1311.7634   -107.13893    1.1869111   -105.95202    10280.437    4.3304711    4.3304711    4.3304711    10280.437    5002.9692    19848.564    5989.7791   -16241.893   -50334.309   -9360.8212    81.209239 
   73200    1177.9197   -107.01879    1.0658065   -105.95298   -14639.703    4.3490943    4.3490943    4.3490943   -14639.703   -2861.2745   -1655.0269   -39402.808    1339.0349    20405.226    16184.531     82.26147 
   73300    1532.6898    -107.3301    1.3868099   -105.94329    1135.5173    4.3398218    4.3398218    4.3398218    1135.5173   -2955.0613     19010.44   -12648.827    367.30498   -8194.6574    9960.0332    81.736433 
   73400    1196.0937   -107.03175    1.0822507   -105.94949   -134.13225    4.3338017    4.3338017    4.3338017   -134.13225    -31019.18    20491.527    10125.256   -8913.2022   -31876.607   -4401.6732    81.396759 
   73500    1312.0373   -107.14025    1.1871589   -105.95309    7615.7373    4.3296725    4.3296725    4.3296725    7615.7373    24871.145    17640.278   -19664.211    4302.5139    39591.442    16151.365    81.164315 
   73600    1375.6062   -107.20127    1.2446774   -105.95659    6177.0783     4.344511     4.344511     4.344511    6177.0783    10901.889    23981.328   -16351.983   -1775.4021    -30685.86    -4033.496    82.001669 
   73700    1261.4967   -107.09197    1.1414287   -105.95055   -19331.562     4.351013     4.351013     4.351013   -19331.562    -27769.35   -8767.2339   -21458.102    -281.4861    11289.799    5474.0406    82.370393 
   73800    1034.5547   -106.88851    0.9360868   -105.95242    15340.335    4.3258112    4.3258112    4.3258112    15340.335    63199.246    7081.8343   -24260.074    3394.7461    19608.121    9506.2979    80.947356 
   73900     1638.953   -107.43205    1.4829592    -105.9491    16598.598    4.3298627    4.3298627    4.3298627    16598.598    10482.931    43399.707   -4086.8438     5520.136   -22936.854   -14270.017    81.175013 
   74000    1098.6074   -106.94901   0.99404305   -105.95497   -13142.478    4.3514012    4.3514012    4.3514012   -13142.478    3394.0555   -286.97635   -42534.513    526.02729    33934.563    11478.319    82.392445 
   74100    1359.9768   -107.17275    1.2305356   -105.94222   -7005.8974    4.3517111    4.3517111    4.3517111   -7005.8974    17234.368   -8587.2897   -29664.771    8640.8369   -9988.4216     -11910.3    82.410049 
   74200    1606.2258   -107.38809    1.4533468   -105.93474   -3413.3785    4.3395455    4.3395455    4.3395455   -3413.3785   -24659.767    29759.132   -15339.501   -1037.1559    20747.705    1546.8929    81.720824 
   74300    941.83976   -106.80091   0.85219641   -105.94871    -670.3269    4.3251148    4.3251148    4.3251148    -670.3269    23740.068    3260.3642   -29011.413    8131.8345    30040.733    3253.7377    80.908271 
   74400    1793.0823   -107.57151    1.6224186   -105.94909   -4954.8122    4.3408216    4.3408216    4.3408216   -4954.8122    11698.019   -501.16184   -26061.294   -782.86724   -3675.8925   -20260.568     81.79294 
   74500     1300.461   -107.12244    1.1766844   -105.94576    -33095.86    4.3559998    4.3559998    4.3559998    -33095.86   -44487.469    10892.417   -65692.529   -587.67092    50901.174    9854.3331    82.653937 
   74600    972.22998   -106.82669   0.87969412     -105.947    259.31682    4.3335957    4.3335957    4.3335957    259.31682    57696.824   -26085.937   -30832.937    10047.491   -7064.3123   -13175.778    81.385153 
   74700    1608.0996   -107.39472    1.4550423   -105.93968     1646.331     4.327585     4.327585     4.327585     1646.331   -11836.176    40456.206   -23681.037   -2769.6429    27486.189   -7058.4243    81.046978 
   74800    1260.4867   -107.09121    1.1405149    -105.9507   -570.08085    4.3370876    4.3370876    4.3370876   -570.08085    13159.011    24902.679   -39771.933   -1257.9708    27777.786     2378.476    81.582044 
   74900    1264.2195   -107.09557    1.1438924   -105.95168   -12588.466    4.3507056    4.3507056    4.3507056   -12588.466     20627.18   -29766.202   -28626.375    1403.5684   -5336.5164   -7942.0457    82.352938 
   75000    1034.2527   -106.88892   0.93581362   -105.95311   -12351.139    4.3430118    4.3430118    4.3430118   -12351.139   -52313.716    44358.888   -29098.589   -1249.7887    53248.515    5258.2606    81.916807 
   75100    1526.2443    -107.3212    1.3809779   -105.94022    21088.099    4.3199495    4.3199495    4.3199495    21088.099    34356.306    26754.365    2153.6273   -150.89959    2186.4613   -5205.8705    80.618742 
   75200    1184.6525   -107.02569    1.0718984   -105.95379   -11859.298     4.341845     4.341845     4.341845   -11859.298   -17881.731    23997.198    -41693.36    704.76994     26355.59   -5637.7255    81.850804 
   75300    1370.9345   -107.18456    1.2404503   -105.94411   -6868.1613     4.344407     4.344407     4.344407   -6868.1613   -39213.223    53108.434   -34499.696    706.41131     35529.65    -6253.402    81.995783 
   75400     1162.633   -106.99724    1.0519748   -105.94527    576.50344     4.336769     4.336769     4.336769    576.50344    40924.298   -15159.796   -24034.991    1070.7721    -9806.677    -10047.13    81.564068 
   75500    1106.7942   -106.95377    1.0014506   -105.95232   -12846.894    4.3348148    4.3348148    4.3348148   -12846.894   -31210.152    44531.762   -51862.291    7487.4768    54362.142    8265.7213    81.453853 
   75600    1798.2178   -107.56923    1.6270653   -105.94216    22120.022    4.3279304    4.3279304    4.3279304    22120.022    26171.872    40097.218    90.975288   -3309.5465   -6483.0085   -20981.268    81.066387 
   75700    781.33086   -106.67167   0.70696458    -105.9647   -39413.165     4.349512     4.349512     4.349512   -39413.165   -14601.914    -25312.78   -78324.802    6999.3653    33684.953   -415.56614    82.285177 
   75800    1396.4389   -107.22164    1.2635273   -105.95811   -7757.3626    4.3353786    4.3353786    4.3353786   -7757.3626   -22012.433    26204.394   -27464.049    7979.6491    40746.412    6505.3982     81.48564 
   75900    1593.8502   -107.39125    1.4421492    -105.9491    8519.3972    4.3213845    4.3213845    4.3213845    8519.3972    20537.073    21051.519   -16030.401   -12488.594   -19107.264   -15208.547    80.699106 
   76000    665.56788   -106.56562    0.6022198    -105.9634   -26056.931    4.3425482    4.3425482    4.3425482   -26056.931   -13433.687   -6303.9766   -58433.131    9343.8204    67217.065    9733.8684    81.890577 
   76100    1641.5026   -107.43275     1.485266   -105.94749   -6036.2148    4.3388765    4.3388765    4.3388765   -6036.2148   -26501.521    28677.162   -20284.285   -8068.2563   -28447.347    6214.2118    81.683037 
   76200    1446.8956    -107.2591    1.3091816   -105.94992   -11260.862    4.3381673    4.3381673    4.3381673   -11260.862   -4664.3853    19134.333   -48252.533   -5418.1119    19229.316   -5401.5655    81.642988 
   76300     974.5544   -106.83885    0.8817973   -105.95705   -24187.394     4.334985     4.334985     4.334985   -24187.394    -36992.95   -4107.6096   -31461.621    3158.9807    38077.335    8663.2583     81.46345 
   76400     1395.971   -107.21452    1.2631039   -105.95142   -2387.6486    4.3267189    4.3267189    4.3267189   -2387.6486    -25313.37    28777.909   -10627.484   -5878.5147   -56912.925    1855.6583    80.998328 
   76500    1368.4408   -107.19156     1.238194   -105.95337   -31731.524    4.3447062    4.3447062    4.3447062   -31731.524   -54188.275    13017.479   -54023.778     4275.631    75359.872   -583.84064    82.012728 
   76600    1210.7269   -107.04268    1.0954911   -105.94718   -18861.208      4.34324      4.34324      4.34324   -18861.208   -34230.619   -14340.767   -8012.2392   -2119.1996    -27781.11     10904.79    81.929722 
   76700    1324.7154   -107.13965    1.1986303   -105.94102   -8980.1125    4.3307021    4.3307021    4.3307021   -8980.1125   -31533.842    31937.341   -27343.836    3911.1603    8081.4248   -5845.1867    81.222236 
   76800    1368.7934   -107.18181    1.2385131   -105.94329   -1115.2183    4.3339045    4.3339045    4.3339045   -1115.2183   -8453.9171    25298.121   -20189.859    2310.5917    53276.752    4386.8134    81.402548 
   76900     1258.741   -107.08925    1.1389353   -105.95032   -10139.553     4.340556     4.340556     4.340556   -10139.553   -22297.796   -6148.1127   -1972.7498    2671.9065   -43323.639    3020.2812    81.777924 
   77000    961.55829   -106.82678   0.87003815   -105.95674   -25073.198    4.3483054    4.3483054    4.3483054   -25073.198   -53556.771     17573.87   -39236.693   -2285.3689    62450.411   -3771.3204    82.216714 
   77100    1834.7721   -107.60049    1.6601404   -105.94035     174.2609     4.330261     4.330261     4.330261     174.2609   -1593.5592   -2385.8617    4502.2036    -1487.847   -15725.071    14027.829    81.197417 
   77200    972.04154   -106.83501   0.87952361   -105.95548   -12922.426    4.3301059    4.3301059    4.3301059   -12922.426   -36093.211    34934.851   -37608.917     -368.861     11925.47   -307.96511    81.188692 
   77300    1480.0444   -107.28488    1.3391753   -105.94571   -12214.732     4.346649     4.346649     4.346649   -12214.732   -35546.597    7693.4221   -8791.0218   -16626.516    23612.746    2369.9755    82.122792 
   77400    1079.6665   -106.92844   0.97690491   -105.95154   -15734.407    4.3410458    4.3410458    4.3410458   -15734.407    6619.9315   -20545.263    -33277.89    3842.8047   -14918.313    15032.358    81.805611 
   77500    1505.2716   -107.31039    1.3620014   -105.94839   -10419.516    4.3405331    4.3405331    4.3405331   -10419.516   -34148.484     40991.41   -38101.473   -6264.3785    30286.627   -12642.354    81.776633 
   77600    1586.6582   -107.37829    1.4356417   -105.94265    11893.381    4.3373605    4.3373605    4.3373605    11893.381    31816.345    6672.7042   -2808.9056   -11839.107   -7373.0453    23941.827    81.597445 
   77700    804.16379   -106.68463    0.7276243   -105.95701    10691.758     4.332513     4.332513     4.332513    10691.758    6355.7313    27308.294   -1588.7507   -4858.2584    13353.408   -1651.6999    81.324166 
   77800    1636.1623   -107.42176     1.480434   -105.94133   -6522.0059    4.3530591    4.3530591    4.3530591   -6522.0059   -6249.3268    54.870714   -13371.562    6738.0389    12785.632      6450.39    82.486657 
   77900    1023.0198   -106.87163    0.9256498   -105.94598   -4323.2318    4.3452575    4.3452575    4.3452575   -4323.2318    57762.652   -33221.833   -37510.514   -1578.3531   -1677.8041    30369.078    82.043949 
   78000    1455.8908   -107.25307    1.3173206   -105.93575    18749.934    4.3295925    4.3295925    4.3295925    18749.934    5890.7552     29099.82    21259.228    4973.9668     5698.378     -25851.5    81.159817 
   78100    1135.5647   -106.97508    1.0274828    -105.9476    -747.0956    4.3344712    4.3344712    4.3344712    -747.0956    48232.331    -27933.33   -22540.288    7582.8404    6859.8898    56939.406    81.434486 
   78200    1157.5998   -106.99873    1.0474206   -105.95131    12186.055    4.3413695    4.3413695    4.3413695    12186.055    46024.353    7634.4086   -17100.596   -8045.0422    2219.5787   -19132.155    81.823912 
   78300    1337.7214    -107.1553    1.2103985    -105.9449   -6013.5549    4.3482445    4.3482445    4.3482445   -6013.5549     11938.78   -9778.4611   -20200.984    1494.2009    5643.0496    11848.896     82.21326 
   78400    1068.2532   -106.91453   0.96657797   -105.94795    7846.0943    4.3324247    4.3324247    4.3324247    7846.0943    57461.817   -3375.8427   -30547.691    4984.7247    1352.9298    40613.776    81.319196 
   78500    1644.4633   -107.42962     1.487945   -105.94168    19509.828    4.3294032    4.3294032    4.3294032    19509.828    45374.744    19088.403   -5933.6642   -2312.7001    2431.4444   -47103.778    81.149171 
   78600    980.10884   -106.84446   0.88682308   -105.95763   -6110.1788    4.3387102    4.3387102    4.3387102   -6110.1788    32587.738    1866.7004   -52784.975   -1597.1085    -8973.484    54586.143    81.673641 
   78700    1288.2954   -107.12085    1.1656767   -105.95517    18338.419    4.3364432    4.3364432    4.3364432    18338.419    26164.682     16193.19    12657.385    9031.9108   -1096.7504   -4888.3601    81.545686 
   78800    1420.7143   -107.24036    1.2854921   -105.95487   -2773.0877    4.3408075    4.3408075    4.3408075   -2773.0877    10444.664   -16609.147   -2154.7794   -17016.664   -7188.4601   -614.30726    81.792143 
   78900    954.23963   -106.82326   0.86341607   -105.95984     14486.83     4.333135     4.333135     4.333135     14486.83    17300.419    29669.279   -3509.2072    7374.0063   -5346.3381    35729.324    81.359196 
   79000    1650.1792   -107.44246    1.4931168   -105.94934    15338.849    4.3368517    4.3368517    4.3368517    15338.849   -1203.1305    11591.312    35628.366   -2331.1792    11039.239   -15553.159    81.568731 
   79100    1133.8055   -106.98279     1.025891    -105.9569   -20542.253    4.3427247    4.3427247    4.3427247   -20542.253   -2275.7617   -40593.518   -18757.478   -20074.904   -16248.067    39431.222    81.900563 
   79200    1282.3919   -107.11514    1.1603352    -105.9548    12681.471    4.3279898    4.3279898    4.3279898    12681.471   -10172.302    48869.609   -652.89472    16116.921    17791.695    8851.0313    81.069723 
   79300     1580.165   -107.38627    1.4297665    -105.9565   -11650.355    4.3373486    4.3373486    4.3373486   -11650.355   -28275.702   -16710.498    10035.135   -15702.674    6334.6313    4907.8259    81.596774 
   79400    1115.4453    -106.9688    1.0092784   -105.95952    -17443.93    4.3429591    4.3429591    4.3429591    -17443.93    -3873.569     -28372.2   -20086.022   -14364.901    1315.7007    43539.932    81.913828 
   79500    1791.4601   -107.56382    1.6209507   -105.94287    1700.9399    4.3431723    4.3431723    4.3431723    1700.9399   -22556.259    26404.153    1254.9252    902.01075    21470.188   -19427.319    81.925889 
   79600     1041.102   -106.89088   0.94201096   -105.94887   -28818.997    4.3466786    4.3466786    4.3466786   -28818.997   -22822.405   -46380.953   -17253.634    -27838.95   -1239.5163    44253.784    82.124471 
   79700    1204.3893   -107.03831    1.0897568   -105.94855    19016.234    4.3269941    4.3269941    4.3269941    19016.234    13977.974    20096.057    22974.672   -1073.8627    7668.7505    9012.6981    81.013783 
   79800    1542.5477   -107.34641    1.3957296   -105.95068    713.50244    4.3334458    4.3334458    4.3334458    713.50244   -938.90707   -4385.7378    7465.1522   -5970.9318    7413.4423    70.923796    81.376706 
   79900    1007.0954   -106.86961   0.91124107   -105.95837   -18886.191    4.3444363    4.3444363    4.3444363   -18886.191    18615.799   -55359.058   -19915.314   -19260.019   -6772.5731    60809.118    81.997439 
   80000    1788.5559   -107.56107    1.6183229   -105.94275    8507.9993    4.3375145    4.3375145    4.3375145    8507.9993    5987.4893    11367.764    8168.7441     7599.444    8443.9898   -25587.567    81.606138 
   80100    826.30925      -106.71   0.74766197   -105.96234   -16161.841    4.3343371    4.3343371    4.3343371   -16161.841    21212.092    -37939.63   -31757.983    3245.5833    6008.1011    56755.281    81.426929 
   80200    1561.4017   -107.37355    1.4127891   -105.96076    11282.419    4.3279092    4.3279092    4.3279092    11282.419    15148.821   -23007.416    41705.851   -22443.205   -2265.3774    13950.351    81.065193 
   80300     1317.937   -107.15372    1.1924971   -105.96123    11156.396    4.3412989    4.3412989    4.3412989    11156.396    50119.567   -6819.1004   -9831.2792    11406.151    16852.803    16416.656    81.819923 
   80400    816.66289   -106.70321   0.73893375   -105.96427   -12448.498    4.3470457    4.3470457    4.3470457   -12448.498    31826.574   -52376.299   -16795.769   -13056.755    8822.2502    48398.551    82.145282 
   80500    1835.9649   -107.60127    1.6612197   -105.94005    19340.045    4.3361776    4.3361776    4.3361776    19340.045    11203.301    2095.1347    44721.699   -15804.152    2732.0791    -18107.65      81.5307 
   80600     1120.957   -106.96552    1.0142655   -105.95126    13946.392    4.3305807    4.3305807    4.3305807    13946.392    56219.284   -12398.269   -1981.8402     6075.969    18491.658     64712.55    81.215406 
   80700    1102.1734   -106.94955   0.99726965   -105.95228    4893.5828    4.3407309    4.3407309    4.3407309    4893.5828   -5100.9079   -6310.4748    26092.131   -33861.807    75.081822   -1871.4304    81.787813 
   80800    1253.7358   -107.08405    1.1344065   -105.94965   -1040.6967    4.3445263    4.3445263    4.3445263   -1040.6967    13849.715    14817.659   -31789.463   -7275.3273    5098.9966    495.24849    82.002538 
   80900    1151.9356   -106.99367    1.0422955   -105.95137    16686.154    4.3339071    4.3339071    4.3339071    16686.154    33046.717    26204.244   -9192.4979   -8935.2915    20200.954     37412.96    81.402694 
   81000    1453.5459   -107.25782    1.3151989   -105.94262    3781.0844    4.3398731    4.3398731    4.3398731    3781.0844   -7232.1784    9361.0863    9214.3454   -22322.681    5644.5858   -20027.574    81.739334 
   81100     1297.299   -107.12165    1.1738234   -105.94783   -15004.896    4.3414755    4.3414755    4.3414755   -15004.896    43897.177   -39014.174   -49897.691    6689.0942    12716.471    10011.261    81.829909 
   81200     1370.594   -107.18704    1.2401422    -105.9469    16026.678    4.3270151    4.3270151    4.3270151    16026.678    30674.734    5484.5487    11920.751   -21918.795     9036.963    10847.109    81.014964 
   81300    999.38864   -106.86697   0.90426784    -105.9627   -11356.665    4.3385773    4.3385773    4.3385773   -11356.665    17858.837   -24399.557   -27529.274   -4897.0686   -979.12421   -35420.068    81.666137 
   81400    1450.4334    -107.2684    1.3123827   -105.95601    9946.9458    4.3374771    4.3374771    4.3374771    9946.9458    52893.645    3386.7033   -26439.511    1367.5184   -3585.1823   -2400.3975    81.604026 
   81500    1137.9239   -106.98969    1.0296174   -105.96007    9330.2145    4.3359862    4.3359862    4.3359862    9330.2145    11125.988   -1189.0452      18053.7   -22542.254    4.4376913   -9253.3803    81.519904 
   81600    1189.9914   -107.03203    1.0767292    -105.9553   -22964.474    4.3459091    4.3459091    4.3459091   -22964.474    18608.228    -35924.74    -51576.91    8571.2587    -14826.19    -48614.68    82.080864 
   81700    1811.2867   -107.58098    1.6388903   -105.94209    19427.782    4.3297205    4.3297205    4.3297205    19427.782    18668.544    13362.161    26252.642   -21114.205    30.358602    12410.699    81.167015 
   81800    895.53818   -106.77297   0.81030177   -105.96267   -21790.192    4.3356019    4.3356019    4.3356019   -21790.192   -11605.918   -53997.005    232.34595   -15030.109   -2112.8082   -32000.208    81.498232 
   81900    1420.2628   -107.24102    1.2850836   -105.95593   -12482.243     4.343903     4.343903     4.343903   -12482.243    13924.865   -23272.833    -28098.76    6638.7073   -16862.337   -23808.157    81.967248 
   82000    1548.5559   -107.35082     1.401166   -105.94965    12398.103    4.3346869    4.3346869    4.3346869    12398.103    6896.0835   -3871.2195    34169.444   -22027.849    3410.0487    13326.098    81.446647 
   82100    960.47125   -106.82853   0.86905457   -105.95947   -27158.866    4.3432476    4.3432476    4.3432476   -27158.866    12002.921    -64222.76   -29256.758    12479.236   -2427.2874   -51891.306    81.930153 
   82200    1816.4249   -107.58487    1.6435394   -105.94133    6952.4977    4.3360995    4.3360995    4.3360995    6952.4977    25188.468    7476.0567   -11807.032    984.05138    -6813.759    31359.161      81.5263 
   82300    1104.2188   -106.94791   0.99912035   -105.94879   -1490.9938    4.3380557    4.3380557    4.3380557   -1490.9938    4315.0602   -8526.3637   -261.67789   -4429.3743   -574.50912   -28544.023    81.636686 
   82400    1223.7909   -107.05552    1.1073118   -105.94821   -14934.247    4.3420688    4.3420688    4.3420688   -14934.247    2650.5169   -48723.697    1270.4395    7131.2364    -2955.917    -21810.35    81.863461 
   82500    1321.2338   -107.14224    1.1954801   -105.94676    25934.929    4.3285676    4.3285676    4.3285676    25934.929    22824.942    20184.763    34795.083    -2277.004   -6827.9059    55743.435    81.102197 
   82600    1446.4016   -107.26088    1.3087346   -105.95215    4888.4939    4.3391217    4.3391217    4.3391217    4888.4939    9322.6309    -11389.64    16732.491   -5080.6201    6258.1927   -62549.627    81.696882 
   82700    1160.3262   -107.00085    1.0498875   -105.95097    -8380.695    4.3423644    4.3423644    4.3423644    -8380.695    23011.712   -33547.346   -14606.451   -1034.5668   -2184.7563     53449.23    81.880184 
   82800    1509.5935   -107.31213    1.3659119   -105.94622    9447.3378    4.3339135    4.3339135    4.3339135    9447.3378    7903.0077    16055.322    4383.6837     1309.903   -5135.5177    6882.0724    81.403058 
   82900    1201.6652   -107.03996    1.0872919   -105.95267    3547.6558    4.3319513    4.3319513    4.3319513    3547.6558    22218.758   -31936.617    20360.826   -6972.7303    5902.0215   -19124.174    81.292541 
   83000    978.39645   -106.84856   0.88527367   -105.96329    2364.5259    4.3350798    4.3350798    4.3350798    2364.5259    29696.883   -28259.533    5656.2276    972.92237   -1043.7515    70290.709    81.468792 
   83100    1922.4293   -107.68126    1.7394544    -105.9418    3000.9483    4.3434197    4.3434197    4.3434197    3000.9483   -7760.3622   -8966.5914    25729.798    3433.2027    -6315.593   -24410.522    81.939894 
   83200    720.66758    -106.6137   0.65207517   -105.96162   -15856.409     4.335853     4.335853     4.335853   -15856.409    58466.238    -69768.15   -36267.316   -1926.1578    6097.9271    70019.362    81.512396 
   83300     1702.589   -107.48683    1.5405383    -105.9463    12396.305    4.3313471    4.3313471    4.3313471    12396.305   -344.93127    15231.348    22302.499    2767.1387   -3105.8901   -4025.4008     81.25853 
   83400    1278.1353   -107.10838    1.1564837    -105.9519   -13934.164    4.3378175    4.3378175    4.3378175   -13934.164    5393.3024   -37992.265   -9203.5276    4309.9295   -4239.0481    45683.956    81.623237 
   83500    997.97856    -106.8583   0.90299198   -105.95531    11546.266    4.3362482    4.3362482    4.3362482    11546.266    51246.473   -8999.1451   -7608.5304   -3350.3999     683.2864    18231.423    81.534683 
   83600    1568.7512   -107.35797     1.419439   -105.93853   -5536.7749    4.3431647    4.3431647    4.3431647   -5536.7749    13021.813    -33817.04    4184.9024    8418.9807    110.62786   -2048.6544    81.925462 
   83700    1031.0847   -106.87596   0.93294714   -105.94301   -18345.072    4.3407911    4.3407911    4.3407911   -18345.072    31078.672   -50112.364   -36001.525   -3789.0701   -6890.5591    65494.321    81.791213 
   83800    1770.8202    -107.5343    1.6022754   -105.93202    16820.074    4.3288185    4.3288185    4.3288185    16820.074     20325.42    24590.054    5544.7499   -4545.4101    6503.9679   -50562.601    81.116299 
   83900    931.89502   -106.79357    0.8431982   -105.95037   -10169.739    4.3334557    4.3334557    4.3334557   -10169.739    48447.954   -46821.104   -32136.068    11396.897   -5427.5085    71346.985    81.377266 
   84000    1471.8877   -107.27724    1.3317949   -105.94544   -264.22933    4.3455466    4.3455466    4.3455466   -264.22933    20539.139    8635.1209   -29966.947   -4270.4818    1368.3167   -9333.3425    82.060327 
   84100    1452.5412   -107.25847    1.3142898   -105.94418    -13119.86    4.3412708    4.3412708    4.3412708    -13119.86    26441.844   -19401.241   -46400.182    648.86102    716.63394    18894.706    81.818334 
   84200    826.29034   -106.70287   0.74764487   -105.95522   -817.51079    4.3311339    4.3311339    4.3311339   -817.51079    57140.647   -9378.8883   -50214.291    9642.1759   -3997.5323    57557.152    81.246534 
   84300    1946.0483   -107.69532    1.7608254    -105.9345    18200.331    4.3335382    4.3335382    4.3335382    18200.331    21847.806    33060.287   -307.09909    12267.121    205.53224   -11641.898    81.381911 
   84400    840.44749   -106.71527   0.76045456   -105.95482   -25733.391    4.3417627    4.3417627    4.3417627   -25733.391    43078.624   -56560.213   -63718.583   -4821.6762   -4814.8738    79517.383    81.846148 
   84500    1540.0686   -107.33372    1.3934865   -105.94023    7415.3083    4.3379761    4.3379761    4.3379761    7415.3083    28885.627    9170.0264   -15809.728    16650.171   -3950.4939   -24185.654    81.632192 
   84600    1303.8628   -107.12427    1.1797625   -105.94451    1304.2136    4.3351285    4.3351285    4.3351285    1304.2136    51511.595   -31166.571   -16432.383    5268.8037    3072.2086    58478.696    81.471541 
   84700    1269.4608   -107.08986    1.1486348   -105.94122   -1568.8764    4.3341014    4.3341014    4.3341014   -1568.8764     28459.12   -22530.508    -10635.24   -9055.9961   -10187.428     10548.05    81.413648 
   84800    1173.8009   -107.00952    1.0620798   -105.94744   -2504.3842    4.3329629    4.3329629    4.3329629   -2504.3842    16096.298   -15306.385   -8303.0658    14901.206    2179.2767    449.01554    81.349504 
   84900    1548.0628   -107.34245    1.4007197   -105.94173    8205.0627    4.3399472    4.3399472    4.3399472    8205.0627    38538.063   -8229.4191   -5693.4557   -5217.0344     882.8093    36889.881     81.74352 
   85000     1001.901   -106.85427   0.90654106   -105.94773   -18012.775    4.3432327    4.3432327    4.3432327   -18012.775   -4271.6332   -22531.173    -27235.52   -10348.296   -9042.6613   -21673.708    81.929308 
   85100    1637.7054   -107.41969    1.4818302   -105.93786    9263.5124    4.3335395    4.3335395    4.3335395    9263.5124    50965.262   -9113.6691   -14061.056    18289.731    665.89371    7378.3409    81.381987 
   85200    982.52014   -106.83758   0.88900487   -105.94858    13327.134    4.3266487    4.3266487    4.3266487    13327.134     16321.21    19790.924    3869.2673   -24174.693   -3095.7094    3544.1411    80.994382 
   85300    1209.9912   -107.05363    1.0948255    -105.9588   -20996.617    4.3453696    4.3453696    4.3453696   -20996.617    3432.6378   -20097.855   -46324.633    11785.395   -7606.1404   -32293.449    82.050296 
   85400    1700.5355   -107.47896    1.5386802   -105.94028    1868.0259    4.3429686    4.3429686    4.3429686    1868.0259    16604.644   -3364.4994   -7636.0668   -19488.589    384.06916      9137.48    81.914366 
   85500    784.16335   -106.66278   0.70952748   -105.95325   -17488.576    4.3293875    4.3293875    4.3293875   -17488.576   -21755.374   -8509.5192   -22200.833   -26556.499   -7076.5593   -19225.933    81.148293 
   85600    1703.2107    -107.4816    1.5411009    -105.9405    6746.3454    4.3347727    4.3347727    4.3347727    6746.3454    50319.887   -5257.2947   -24823.556     13503.14   -5193.0531   -14399.994    81.451482 
   85700    1034.4315   -106.88965   0.93597534   -105.95368   -10214.951    4.3378129    4.3378129    4.3378129   -10214.951   -19542.704   -18705.261    7603.1111    -49291.11    -975.8409    15868.469    81.622981 
   85800    1538.8852    -107.3409    1.3924157   -105.94849   -13981.659    4.3447141    4.3447141    4.3447141   -13981.659   -3344.0296   -6903.8415   -31697.106    16349.482   -8636.4769   -16469.122    82.013175 
   85900    1094.8194   -106.94374   0.99061563   -105.95312    847.85441    4.3355819    4.3355819    4.3355819    847.85441    43031.104   -24346.861    -16140.68   -21774.917    232.65109    28177.243    81.497105 
   86000    1015.1928   -106.88112   0.91856775   -105.96255   -9253.1477    4.3296441    4.3296441    4.3296441   -9253.1477   -40240.808   -360.85726    12842.222   -19046.701   -2817.4257   -3172.7908    81.162718 
   86100    1874.3341   -107.63727    1.6959369   -105.94134    2549.3874    4.3442626    4.3442626    4.3442626    2549.3874    22053.872    15050.482   -29456.192    13616.027    600.60813    12458.255    81.987604 
   86200    806.94406   -106.69339   0.73013994   -105.96325   -28038.226    4.3387968    4.3387968    4.3387968   -28038.226   -33556.922   -35463.545   -15094.211   -55458.905    3620.4713    28393.186    81.678533 
   86300    1470.7445   -107.28327    1.3307606   -105.95251    18358.481    4.3337279    4.3337279    4.3337279    18358.481    28979.796    25471.526    624.12185     18893.26   -5641.6425   -13699.635    81.392601 
   86400    1258.6842    -107.0918    1.1388839   -105.95292   -6131.5406    4.3410068    4.3410068    4.3410068   -6131.5406    2482.9986   -12698.156   -8179.4648   -31986.111    7462.3581    12639.355     81.80341 
   86500     1072.095    -106.9308    0.9700541   -105.96075   -18718.656    4.3393853    4.3393853    4.3393853   -18718.656   -30478.957   -20386.669   -5290.3406   -43926.811    728.50663    14356.931    81.711772 
   86600     1793.779   -107.56481     1.623049   -105.94176    19972.711    4.3333997    4.3333997    4.3333997    19972.711    47018.883    24152.421   -11253.171    15988.169   -2376.1647   -20391.845    81.374109 
   86700    700.45067   -106.59724   0.63378248   -105.96346   -19080.511    4.3379791    4.3379791    4.3379791   -19080.511   -28055.817   -45628.342    16442.626   -68460.975    6996.6279    12891.949    81.632364 
   86800    1697.6336     -107.487    1.5360545   -105.95095    5213.2167    4.3387125    4.3387125    4.3387125    5213.2167    25789.074   -23.487118   -10125.937    5706.4252    7049.8647    2517.3469    81.673771 
   86900    1296.1503   -107.13053     1.172784   -105.95775    7844.0179    4.3349947    4.3349947    4.3349947    7844.0179    25884.531   -736.63435   -1615.8435   -28189.433   -5972.1935   -17726.884    81.463996 
   87000    1174.8003   -107.02048     1.062984   -105.95749   -5931.6867    4.3340247    4.3340247    4.3340247   -5931.6867   -18419.793   -23874.609    24499.343   -41692.984    13851.445    15511.114    81.409323 
   87100    1460.3925   -107.26827    1.3213938   -105.94688   -131.58399    4.3417748    4.3417748    4.3417748   -131.58399    743.17047    25603.299   -26741.222    15623.866   -2226.1232   -16584.985    81.846833 
   87200    973.69511   -106.83969    0.8810198   -105.95867   -15359.732    4.3398514    4.3398514    4.3398514   -15359.732   -44597.454   -16184.077    14702.334   -60583.423   -8382.5159   -4297.0208    81.738106 
   87300    1778.4156   -107.55145    1.6091478   -105.94231    17505.555    4.3280885    4.3280885    4.3280885    17505.555   -8430.6845    40792.958     20154.39    8639.9946    21887.869    271.56711     81.07527 
   87400      1135.72    -106.9835    1.0276233   -105.95587   -5852.4452    4.3380856    4.3380856    4.3380856   -5852.4452   -28918.421     3810.538    7550.5476   -19669.303   -13416.195   -16587.645    81.638378 
   87500    1069.9033   -106.91933     0.968071   -105.95126   -15097.363    4.3453681    4.3453681    4.3453681   -15097.363   -40189.914   -17980.587    12878.414   -34295.131    10118.549   -3139.0936    82.050215 
   87600    1701.6574   -107.47984    1.5396953   -105.94014     8072.982    4.3356923    4.3356923    4.3356923     8072.982   -16963.947    40223.752    959.14059    11373.563    24503.716   -4820.6196    81.503328 
   87700    1164.8468    -107.0078    1.0539779   -105.95382    4764.4119    4.3335461    4.3335461    4.3335461    4764.4119   -21413.176    -9224.607    44931.018   -48591.434   -13586.725   -22026.033    81.382358 
   87800    1362.0325   -107.17916    1.2323956   -105.94676    3035.7587    4.3458847    4.3458847    4.3458847    3035.7587   -33264.261    19480.426    22891.111    12593.502     31007.26   -7710.7779    82.079483 
   87900    1376.5965   -107.18167    1.2455735   -105.93609   -16820.699    4.3516614    4.3516614    4.3516614   -16820.699   -35375.404   -29793.663     14706.97   -29867.338    646.47177    -99.84445    82.407223 
   88000    1192.4624    -107.0188    1.0789651   -105.93984    5203.1275    4.3290412    4.3290412    4.3290412    5203.1275    3979.1605    6126.4569    5503.7652   -25457.249   -789.19069   -23119.357    81.128818 
   88100    1548.0954   -107.34126    1.4007492   -105.94051    13337.752    4.3295427    4.3295427    4.3295427    13337.752   -17236.839    17240.037    40010.059    12810.007    23745.028   -1303.3025    81.157019 
   88200    1355.0836   -107.17192    1.2261082   -105.94581   -12478.435    4.3459937    4.3459937    4.3459937   -12478.435   -14862.523    -47617.71    25044.929   -39901.901   -11779.369   -2621.1025    82.085656 
   88300    1145.8584   -106.98427    1.0367968   -105.94747    18205.899    4.3435566    4.3435566    4.3435566    18205.899    7237.2168    9369.2593     38011.22    8681.8938    1440.9217   -17416.039    81.947641 
   88400    1386.1326   -107.20451    1.2542019   -105.95031   -67.604451    4.3348656    4.3348656    4.3348656   -67.604451    -21891.19   -16574.122    38262.499   -10870.459    21501.891    12591.507    81.456719 
   88500    1130.0299   -106.97535    1.0224748   -105.95287    29692.959    4.3190625    4.3190625    4.3190625    29692.959    46145.549   -4963.5829    47896.909   -13685.798   -23074.249    1780.4803    80.569091 
   88600    1608.9867   -107.41499     1.455845   -105.95915     14159.88    4.3362983    4.3362983    4.3362983     14159.88    -1684.399    11930.491    32233.549    2609.5271   -7170.4903   -8076.3753     81.53751 
   88700    1192.2718   -107.03169    1.0787925    -105.9529   -19546.386    4.3522567    4.3522567    4.3522567   -19546.386    6804.4959   -63433.226   -2010.4271    -19214.68    12444.399     17275.75     82.44105 
   88800    1131.2527   -106.97198    1.0235812    -105.9484    16201.805    4.3322288    4.3322288    4.3322288    16201.805    31127.065    13167.044    4311.3067    699.77189   -49914.108    8083.0038    81.308163 
   88900    1770.2049   -107.54036    1.6017186   -105.93864    18104.848    4.3273185    4.3273185    4.3273185    18104.848    9819.5977     8041.468    36453.477   -13852.109    8693.2688   -5972.2798    81.032005 
   89000    913.04828   -106.78542   0.82614527   -105.95928   -7802.6699    4.3360377    4.3360377    4.3360377   -7802.6699    12844.225   -29361.825   -6890.4098   -11583.089   -18704.501    15877.838    81.522811 
   89100     1264.002   -107.10277    1.1436955   -105.95908     6102.102    4.3454176    4.3454176    4.3454176     6102.102   -7360.6608    3429.0301    22237.937    6354.5716   -29932.964   -1889.5393    82.053015 
   89200    1542.7057    -107.3485    1.3958726   -105.95263   -4948.9988    4.3416703    4.3416703    4.3416703   -4948.9988   -1115.0329   -31556.104    17824.141   -18434.918    22897.908   -4585.7446    81.840923 
   89300    839.29954   -106.72117   0.75941587   -105.96176   -15.112648    4.3260152    4.3260152    4.3260152   -15.112648   -2092.5861     10362.22   -8314.9722    1952.6918       -47784    17912.314    80.958811 
   89400    1677.8466   -107.47138    1.5181509   -105.95323   -1004.8095     4.335452     4.335452     4.335452   -1004.8095   -12692.385    7886.0956    1791.8604   -4125.7862    12135.002   -16041.463    81.489783 
   89500    1324.5424   -107.15353    1.1984738   -105.95505   -13463.864     4.342912     4.342912     4.342912   -13463.864   -19370.538    -18048.04   -2973.0155   -13915.367   -7232.9499    19009.383    81.911165 
   89600    968.39632   -106.83675   0.87622534   -105.96052   -5173.1141    4.3380946    4.3380946    4.3380946   -5173.1141   -15528.738   -6096.8902    6106.2862    3319.4624   -37824.552    6672.2028    81.638882 
   89700    1696.7248   -107.48525    1.5352323   -105.95002     6559.214    4.3331186    4.3331186    4.3331186     6559.214    -2153.298   -2498.2119    24329.152   -10141.514    37951.065   -19722.676    81.358277 
   89800    1138.7285    -106.9867    1.0303455   -105.95635    8259.9425    4.3343302    4.3343302    4.3343302    8259.9425    -11066.06    14473.091    21372.796   -1897.7329   -36406.795    31429.742     81.42654 
   89900    1263.5098   -107.10071    1.1432502   -105.95746   -20867.475    4.3495692    4.3495692    4.3495692   -20867.475   -1918.0671   -25974.214   -34710.143   -2347.3081    8883.8935   -35505.707    82.288422 
   90000    1667.7791   -107.45855    1.5090416   -105.94951    16644.091    4.3331097    4.3331097    4.3331097    16644.091    9183.2253   -8562.5462    49311.595   -3421.3451     3724.736   -8207.5932    81.357772 
   90100    901.59351   -106.77663   0.81578076   -105.96085    4513.5408    4.3224728    4.3224728    4.3224728    4513.5408    15056.001    3339.3273   -4854.7061   -1513.9877   -42883.089    15929.273    80.760094 
   90200    1469.5745   -107.28484    1.3297019   -105.95514    5380.4338    4.3421984    4.3421984    4.3421984    5380.4338    29219.222   -23184.531     10106.61    237.10937    18195.434   -41374.786    81.870791 
   90300    1498.5024   -107.30625    1.3558765   -105.95037    -20257.97    4.3497211    4.3497211    4.3497211    -20257.97   -26940.639   -2330.3262   -31502.945   -659.28838   -41562.567    30379.506    82.297043 
   90400     930.7845   -106.79992   0.84219338   -105.95772   -5026.0434     4.331414     4.331414     4.331414   -5026.0434    24828.576   -9456.6088   -30450.098    -3654.879   -6139.0081   -4303.9324    81.262295 
   90500    1674.0249   -107.45877    1.5146929   -105.94407    22858.812    4.3255599    4.3255599    4.3255599    22858.812    44175.295   -8503.9959    32905.138    1835.5437   -4751.9096   -10352.289    80.933251 
   90600    860.79677   -106.73812   0.77886701   -105.95925   -30185.129    4.3482591    4.3482591    4.3482591   -30185.129   -22338.117   -10847.816   -57369.454   -2576.0645   -40880.327    23494.033    82.214086 
   90700    1669.6464   -107.45463    1.5107312    -105.9439    9908.1389    4.3377522    4.3377522    4.3377522    9908.1389     49121.19   -21364.657    1967.8842     2923.767     20146.52   -17114.732    81.619556 
   90800    1223.4001   -107.06106    1.1069581    -105.9541   -35.175562    4.3341091    4.3341091    4.3341091   -35.175562    5159.2005     3261.006   -8525.7332   -55.295219   -39722.444    6597.1694    81.414081 
   90900    871.38023   -106.75641   0.78844314   -105.96797    -19090.78    4.3316887    4.3316887    4.3316887    -19090.78   -11217.158    520.96215   -46576.145    907.42656   -11886.022    11735.216     81.27776 
   91000    1948.9472   -107.71741    1.7634484   -105.95396    25410.795    4.3331144    4.3331144    4.3331144    25410.795     42151.83   -5160.2825    39240.836    5109.1245    12737.922   -7654.3093    81.358036 
   91100    860.91918   -106.74673   0.77897777   -105.96776   -41833.294    4.3517572    4.3517572    4.3517572   -41833.294   -54375.352   -6554.2846   -64570.245   -2049.5641   -56638.854    11454.385    82.412666 
   91200    1140.6957   -106.99429    1.0321255   -105.96217    3269.9991    4.3234845    4.3234845    4.3234845    3269.9991   -344.23369   -4282.3663    14436.597         1504    33388.899    3721.9293    80.816811 
   91300    1678.3397   -107.47259     1.518597     -105.954    8688.0438    4.3224714    4.3224714    4.3224714    8688.0438    13264.412    -176.2287    12975.948    10737.112   -35240.837   -4032.2849    80.760014 
   91400     1192.105   -107.03428    1.0786416   -105.95564   -22403.024    4.3460426    4.3460426    4.3460426   -22403.024   -16399.129   -11891.267   -38918.676    -6635.022   -12488.461    10866.693    82.088428 
   91500    1102.3216   -106.94915   0.99740377   -105.95174   -12004.544    4.3460697    4.3460697    4.3460697   -12004.544   -20614.826   -41274.671    25875.866    10879.912    34548.652    -3146.533    82.089966 
   91600    1570.6132   -107.36555    1.4211238   -105.94443    2507.8869    4.3365574    4.3365574    4.3365574    2507.8869    1384.9813   -15750.123    21888.803    8197.7083   -34322.448   -2722.9216    81.552126 
   91700    1280.9106   -107.11609    1.1589949   -105.95709    7700.1702    4.3203392    4.3203392    4.3203392    7700.1702    6885.7423     3918.823    12295.945   -1193.3257    47881.912    6889.2724    80.640562 
   91800     1023.033   -106.90672   0.92566179   -105.98106   -9403.6727    4.3320721    4.3320721    4.3320721   -9403.6727   -18066.406   -45333.664    35189.052    15285.801    2257.8947   -3897.1787    81.299339 
   91900    1807.8577   -107.59529    1.6357877    -105.9595   -5.0117817     4.343858     4.343858     4.343858   -5.0117817    -1100.539   -11091.539    12177.043   -6602.2026    2210.7659   -2754.5133    81.964699 
   92000    851.70978    -106.7445    0.7706449   -105.97386    7915.5488     4.331673     4.331673     4.331673    7915.5488   -5011.0583    -3287.361    32045.066    19305.008    40791.569    6023.6308    81.276873 
   92100    1222.7759   -107.06827    1.1063933   -105.96188   -6742.0776    4.3380143    4.3380143    4.3380143   -6742.0776     3229.344   -52795.504    29339.927    10179.863   -9349.5975   -8258.9684    81.634351 
   92200    1566.3757   -107.37009    1.4172896    -105.9528    14747.705     4.330813     4.330813     4.330813    14747.705    17422.209    18832.304    7988.6012   -6265.0019    16662.327   -7487.0244    81.228475 
   92300    1076.3106   -106.93826   0.97386849   -105.96439   -456.73137    4.3316544    4.3316544    4.3316544   -456.73137   -11812.062   -11251.364    21693.232    33244.967    15853.691   -2219.8318    81.275826 
   92400    1311.0397   -107.14562    1.1862563   -105.95937   -10889.792    4.3411447    4.3411447    4.3411447   -10889.792   -24753.531   -26803.699    18887.856   -10561.932   -11566.102    -8408.626    81.811206 
   92500     1290.758   -107.12508    1.1679049   -105.95717    4620.5614    4.3325445    4.3325445    4.3325445    4620.5614   -5248.3026      28413.9   -9303.9131    641.44682    4890.5211   -8638.4703    81.325939 
   92600    1114.6763   -106.96839    1.0085825   -105.95981   -6633.3594    4.3389937    4.3389937    4.3389937   -6633.3594   -35282.732   -37628.766     53011.42    37902.795    11683.729    27.946778    81.689652 
   92700    1656.7769   -107.45194    1.4990866   -105.95286    7018.4461    4.3324419    4.3324419    4.3324419    7018.4461   -9529.2985    11979.449    18605.187   -26703.352   -20917.752   -239.28229    81.320162 
   92800    847.18898    -106.7367   0.76655439   -105.97014    -7059.656    4.3276962    4.3276962    4.3276962    -7059.656   -36403.114   -207.00528    15431.151    40093.235    4184.5175   -5855.9784    81.053223 
   92900    1403.5702   -107.24391    1.2699798   -105.97393   -7473.4897    4.3366831    4.3366831    4.3366831   -7473.4897    -23167.28   -30608.126    31354.938    35512.708    8550.0333    17604.549    81.559222 
   93000     1837.334   -107.62261    1.6624584   -105.96015     4915.046    4.3393439    4.3393439    4.3393439     4915.046   -15789.531    22040.284    8494.3846   -7412.1112   -10216.402    3024.2524    81.709438 
   93100    566.33915   -106.48588   0.51243557   -105.97344   -25931.048    4.3423843    4.3423843    4.3423843   -25931.048   -58244.428   -32373.328    12824.613    60763.315    12681.434    4647.9271     81.88131 
   93200    1799.4906   -107.58186    1.6282169   -105.95364    12020.807    4.3367999    4.3367999    4.3367999    12020.807    14833.527    5188.9326     16039.96   -15885.377     2342.698    22318.662    81.565812 
   93300    1389.8298   -107.21774    1.2575472   -105.96019     17101.24    4.3293197    4.3293197    4.3293197     17101.24   -645.29163    21957.975    29991.036     37191.96   -2556.5949    711.19598    81.144476 
   93400    1055.4306   -106.92403   0.95497577   -105.96905     -595.464    4.3361564    4.3361564    4.3361564     -595.464   -33366.352    14090.726    17489.235     25914.32    8171.2062    7252.1494    81.529505 
   93500    1460.7685   -107.26874    1.3217341   -105.94701    13992.714    4.3453812    4.3453812    4.3453812    13992.714    5084.1107    8378.7577    28515.273   -14338.152   -6311.7771    20096.844    82.050956 
   93600    1080.7366   -106.92536   0.97787321   -105.94748   -491.17123    4.3452735    4.3452735    4.3452735   -491.17123   -15145.735   -710.12068    14382.342    59218.471    12422.109   -3061.2683    82.044857 
   93700    1655.6057   -107.44021    1.4980268   -105.94219    8985.7137    4.3307173    4.3307173    4.3307173    8985.7137    18686.821    25841.754   -17571.434   -11791.798    5000.5947    8727.9914     81.22309 
   93800    1157.2284   -107.00213    1.0470846   -105.95505    12790.084    4.3223596    4.3223596    4.3223596    12790.084    12512.554   -31394.189    57251.886    27806.313   -6871.4093    15341.411    80.753745 
   93900    1168.9726   -107.02268     1.057711   -105.96497   -15830.251    4.3454128    4.3454128    4.3454128   -15830.251   -16327.169   -16365.618   -14797.967    20085.087    16450.414   -18274.746    82.052743 
   94000    1685.8477   -107.47638    1.5253904   -105.95099   -4737.2043    4.3415736    4.3415736    4.3415736   -4737.2043    7605.8194   -13973.377   -7844.0557   -4362.1689   -3140.0828   -493.23875    81.835455 
   94100    1006.5968   -106.86388   0.91078998   -105.95309    405.36993     4.324732     4.324732     4.324732    405.36993   -14114.196   -41436.886    56767.191    45361.632    8073.7585   -1280.4669    80.886792 
   94200    1300.1101   -107.13059     1.176367   -105.95422   -7743.4026    4.3336879    4.3336879    4.3336879   -7743.4026    22479.167   -4167.9362   -41541.439    -17995.69    16252.977   -22839.884    81.390348 
   94300    1379.8128    -107.2027    1.2484836   -105.95421   -14705.188    4.3385729    4.3385729    4.3385729   -14705.188   -20675.732   -47847.841    24408.008    51311.909    3352.9944    2368.4383    81.665888 
   94400    1362.7331   -107.18635    1.2330296   -105.95332    -16807.76    4.3421099    4.3421099    4.3421099    -16807.76   -25055.767   -41261.857    15894.343   -449.62469    2912.9011   -10139.126    81.865786 
   94500    1200.7726   -107.03667    1.0864843   -105.95019   -13570.605    4.3343395    4.3343395    4.3343395   -13570.605    17768.572   -27552.425   -30927.962    7851.5236    22329.789   -19661.918    81.427065 
   94600    1095.4603   -106.94643   0.99119551   -105.95523    1287.6436    4.3215515    4.3215515    4.3215515    1287.6436   -3385.6299    -42097.48    49346.041    51218.455   -7540.5117    20230.432    80.708461 
   94700    1423.9077   -107.24306    1.2883816   -105.95468    -1290.209    4.3368475    4.3368475    4.3368475    -1290.209      5360.63   -18823.532    9592.2751    -43635.93     5929.689   -16142.577    81.568493 
   94800     1112.971   -106.96505    1.0070395   -105.95801   -18354.797    4.3437178    4.3437178    4.3437178   -18354.797    -19789.16   -38520.827    3245.5968    52938.105    21384.837    206.04768    81.956763 
   94900    1457.7727   -107.27134    1.3190234   -105.95232    -3501.656    4.3343305    4.3343305    4.3343305    -3501.656   -18614.344   -37199.378    45308.754   -13681.964   -12880.013    12784.673    81.426559 
   95000    1446.5998   -107.25974    1.3089139   -105.95082   -2178.3741    4.3319606    4.3319606    4.3319606   -2178.3741   -10173.864   -17769.018     21407.76   -22910.444    16788.727    -6802.027    81.293062 
   95100    1043.0109   -106.90105   0.94373816   -105.95731    4397.5559    4.3305218    4.3305218    4.3305218    4397.5559   -976.30546   -13715.747     27884.72    53953.173    17726.995   -288.61185    81.212093 
   95200    1362.1306   -107.18267    1.2324844   -105.95019   -11484.477    4.3438805    4.3438805    4.3438805   -11484.477   -23645.953   -27007.665    16200.188   -43162.419   -12098.989    9016.7531    81.965976 
   95300     1144.092   -106.98369    1.0351985    -105.9485   -16233.622    4.3419812    4.3419812    4.3419812   -16233.622    -37738.51   -5160.3702   -5801.9842    28668.057    47173.444   -3016.1428    81.858504 
   95400    1232.7218    -107.0582    1.1153926   -105.94281    17229.696    4.3252336    4.3252336    4.3252336    17229.696    1929.1608    1955.4313    47804.497    2562.8215   -11488.073   -12072.388    80.914938 
   95500    1302.2873    -107.1277     1.178337   -105.94936   -4948.2106    4.3323178    4.3323178    4.3323178   -4948.2106   -16269.769   -17414.476    18839.613    -19283.19    19225.036    5253.1383    81.313177 
   95600    1421.8012   -107.23337    1.2864756    -105.9469    4738.1692     4.341197     4.341197     4.341197    4738.1692   -21527.471    331.87098    35410.107    23827.602    30788.771   -5713.2768    81.814163 
   95700    1058.5519   -106.91055   0.95780002   -105.95275    -21812.15    4.3429409    4.3429409    4.3429409    -21812.15   -16322.622   -25495.023   -23618.805   -24257.049   -37089.765   -14927.285    81.912799 
   95800    1146.3883   -106.99063    1.0372763   -105.95335    1165.2391     4.328417     4.328417     4.328417    1165.2391   -3727.2998   -3578.7166    10801.734     1840.971    35649.202      16721.9    81.093732 
   95900    1818.8118   -107.59076    1.6456991   -105.94506    12244.066    4.3257088    4.3257088    4.3257088    12244.066    5615.2055    12673.896    18443.098    2478.0626   -24054.548   -17341.142    80.941609 
   96000     717.1044   -106.61279   0.64885113   -105.96394   -21958.396    4.3457218    4.3457218    4.3457218   -21958.396   -32277.663   -26754.584   -6842.9411   -23779.966   -23336.759    5692.5781    82.070251 
   96100    1896.0449   -107.65691    1.7155813   -105.94133    3471.0146    4.3420187    4.3420187    4.3420187    3471.0146   -3111.3834   -8110.3174    21634.745    4382.7032    16241.237    3825.9562    81.860628 
   96200    815.67726   -106.69357   0.73804193   -105.95553    15077.672    4.3273935    4.3273935    4.3273935    15077.672    2296.2881    4411.7057    38525.023   -2774.7156   -43342.819   -9289.6213    81.036218 
   96300    1308.1403   -107.14189    1.1836328   -105.95826   -1978.5976    4.3300097    4.3300097    4.3300097   -1978.5976    18695.935   -28702.388    4070.6603   -23357.684    2036.5813    13568.799    81.183281 
   96400    1740.1643   -107.52657    1.5745372   -105.95203    17247.395    4.3341853    4.3341853    4.3341853    17247.395    310.31281     9540.551     41891.32    25691.044    -1585.995    7925.8957    81.418374 
   96500    985.86372   -106.85645   0.89203021   -105.96442   -915.10308    4.3377546    4.3377546    4.3377546   -915.10308    6151.1497    1755.5896   -10652.049    -12877.24   -24938.853   -6479.9173    81.619687 
   96600     1506.083   -107.30987    1.3627356   -105.94713    2777.2742    4.3401492    4.3401492    4.3401492    2777.2742    16733.721    -19946.15    11544.251    7797.4597    14853.013    18786.859    81.754937 
   96700    942.99796   -106.81169   0.85324437   -105.95844   -1317.1315    4.3294878    4.3294878    4.3294878   -1317.1315   -22349.223    15505.254    2892.5747    24814.653   -12893.599   -2395.0493     81.15393 
   96800    1686.3492   -107.47573    1.5258442   -105.94989    21299.104    4.3281974    4.3281974    4.3281974    21299.104    38412.135      5187.84    20297.338   -5609.0823   -24112.689    551.24313    81.081391 
   96900    1282.6662   -107.12136    1.1605833   -105.96077   -7.6911445    4.3376173    4.3376173    4.3376173   -7.6911445   -10400.298    6096.7584    4280.4664    21329.032     25041.05    8262.1645    81.611942 
   97000    1074.8224   -106.93005   0.97252188   -105.95753    1745.9803    4.3395242    4.3395242    4.3395242    1745.9803   -17804.428    19610.466    3431.9027    15757.936   -19097.541   -5682.4246    81.719621 
   97100    1515.3356   -107.31833    1.3711075   -105.94722   -2988.9633    4.3352952    4.3352952    4.3352952   -2988.9633    5884.6286    -20703.58    5852.0612   -15223.499   -5903.5858     3331.778    81.480938 
   97200    1098.9945   -106.95047   0.99439335   -105.95608    3652.0832    4.3283415    4.3283415    4.3283415    3652.0832   -20560.674    16498.559    15018.364    14515.678    30726.986     2957.507    81.089488 
   97300    1743.6203   -107.52702    1.5776643   -105.94935    5075.9381    4.3337405    4.3337405    4.3337405    5075.9381    10751.553    -2.822974    4479.0843   -2249.3558   -9619.3702   -4619.3053    81.393309 
   97400    907.26457   -106.78048   0.82091205   -105.95957   -16731.764    4.3438535    4.3438535    4.3438535   -16731.764   -37907.379   -37767.768    25479.855   -28829.701    10906.639   -3804.6235    81.964448 
   97500    1529.1729   -107.33875    1.3836277   -105.95512    7051.4919    4.3287058    4.3287058    4.3287058    7051.4919    729.07763    25090.559    -4665.161     18723.97    42197.815    13115.157    81.109966 
   97600    1371.4243   -107.19732    1.2408935   -105.95643    25427.553    4.3237051    4.3237051    4.3237051    25427.553    23691.788   -14342.018     66932.89   -29805.816    -13387.01   -19247.639    80.829187 
   97700    1036.2723   -106.90459   0.93764096   -105.96695   -24497.343    4.3402875    4.3402875    4.3402875   -24497.343   -28026.684   -25920.055    -19545.29   -12186.385    42812.285    11210.197    81.762751 
   97800    1413.9485    -107.2347    1.2793703   -105.95533    18209.263    4.3366061    4.3366061    4.3366061    18209.263    8886.9785    25291.944    20448.867    8121.9276    4534.3819   -1564.6006    81.554877 
   97900     1466.157   -107.28209    1.3266097   -105.95548   -6464.4215    4.3352164    4.3352164    4.3352164   -6464.4215   -15270.512    -19316.74    15193.988   -27884.283    2325.6076    -5582.433    81.476495 
   98000    964.04803    -106.8372   0.87229092   -105.96491   -7468.0001     4.330483     4.330483     4.330483   -7468.0001   -16804.753     15799.95   -21399.198    11348.819    45531.978    14692.913    81.209904 
   98100    1551.4405   -107.36314     1.403776   -105.95937    9828.6907    4.3282019    4.3282019    4.3282019    9828.6907   -2544.0693     17816.07    14214.071   -4439.9065   -51852.267   -8764.8378    81.081641 
   98200    1445.6325    -107.2638    1.3080387   -105.95576   -12491.129    4.3442951    4.3442951    4.3442951   -12491.129   -43212.439    -6076.123    11815.176   -8792.7488    37245.425    8043.7095    81.989444 
   98300    988.17915   -106.85553   0.89412526    -105.9614   -8386.8693    4.3344969    4.3344969    4.3344969   -8386.8693   -32452.185    25065.015   -17773.438    4779.2124   -4087.8419    3948.8978    81.435933 
   98400    1397.9526   -107.22073    1.2648969   -105.95584    10523.054    4.3309199    4.3309199    4.3309199    10523.054   -14149.691    11311.911    34406.941   -3951.0904   -45810.535    4521.4993    81.234492 
   98500     1696.054   -107.48457    1.5346253   -105.94995   -1119.9129    4.3353831    4.3353831    4.3353831   -1119.9129   -26294.232    -4809.674    27744.167   -3332.4188    41720.783   -1831.1702    81.485894 
   98600    814.45544   -106.70058    0.7369364   -105.96365   -2239.2995    4.3384233    4.3384233    4.3384233   -2239.2995   -35238.786    14925.606    13595.281     1512.468   -53767.247    13043.296    81.657443 
   98700    1610.9256   -107.40744    1.4575994   -105.94984   -8536.4438    4.3418736    4.3418736    4.3418736   -8536.4438   -4344.4619   -22701.391    1436.5211    255.45866    1878.4627    -8032.786     81.85242 
   98800    1310.8864    -107.1362    1.1861176   -105.95008     8853.384    4.3294587    4.3294587    4.3294587     8853.384   -32352.106    26538.193    32374.064   -3928.6901   -17643.709   -7000.6007    81.152292 
   98900    1354.8762   -107.18044    1.2259205   -105.95452   -3864.6328    4.3353814    4.3353814    4.3353814   -3864.6328    -21688.12    7741.9704    2352.2517    3747.3694   -35049.715    7676.4345    81.485798 
   99000    1521.4488   -107.32334    1.3766389    -105.9467    3375.4861    4.3413098    4.3413098    4.3413098    3375.4861    18399.089   -25379.117    17106.486    1921.0378    9739.5059   -30465.475    81.820539 
   99100     901.2338   -106.76808   0.81545528   -105.95262   -14522.182    4.3448131    4.3448131    4.3448131   -14522.182   -55502.444     17597.26   -5661.3637    442.37925   -49834.228    5035.8353    82.018781 
   99200    1857.4616   -107.61971    1.6806703   -105.93904   -9295.9445    4.3404516    4.3404516    4.3404516   -9295.9445   -13199.683   -16256.331    1568.1809      8431.87    26502.888   -14676.313    81.772026 
   99300    1157.3616   -106.99293    1.0472051   -105.94573    5734.6327     4.329765     4.329765     4.329765    5734.6327   -8943.4889    25162.744     984.6425    3614.1467   -56541.897   -18305.339    81.169518 
   99400    1325.4976   -107.14864    1.1993381    -105.9493   -20768.789    4.3422341    4.3422341    4.3422341   -20768.789    -40420.47    11606.248   -33492.145   -2283.2251     1814.642    11293.924    81.872808 
   99500    1523.6658   -107.32158    1.3786449   -105.94294   -8401.7475    4.3413059    4.3413059    4.3413059   -8401.7475   -23335.374   -3282.2768    1412.4079    4894.7148    6325.5459   -2573.1649    81.820318 
   99600    1047.9403   -106.89746   0.94819845   -105.94926    4300.2311    4.3346122    4.3346122    4.3346122    4300.2311    1764.9131    35765.386   -24629.606     7152.989    -60370.54   -10594.855    81.442432 
   99700    1606.8189   -107.39596    1.4538835   -105.94208   -4756.3643    4.3418196    4.3418196    4.3418196   -4756.3643   -3733.1229   -1594.4565   -8941.5136   -2812.6081    45979.828     12774.73    81.849367 
   99800    1142.2253   -106.98404    1.0335095   -105.95054   -7986.8403     4.335053     4.335053     4.335053   -7986.8403   -17143.525     11068.74   -17885.736    8717.7199   -45774.448     11463.78    81.467283 
   99900    1323.6398   -107.14791    1.1976571   -105.95026    9184.7092     4.335114     4.335114     4.335114    9184.7092    14642.066    24078.994   -11166.933   -4027.4331   -8535.7534   -17472.352    81.470722 
  100000    1407.5226   -107.22897     1.273556   -105.95541   -15457.609    4.3367611    4.3367611    4.3367611   -15457.609    8834.3953   -27205.023   -28002.198   -1236.6427    17315.803     31235.65    81.563619 
Loop time of 21.6869 on 1 procs for 100000 steps with 8 atoms

Pair  time (%) = 6.70174 (30.9023)
Kspce time (%) = 5.26651 (24.2843)
Neigh time (%) = 0.102713 (0.47362)
Comm  time (%) = 1.01608 (4.68524)
Outpt time (%) = 0.022603 (0.104225)
Other time (%) = 8.57721 (39.5503)

Nlocal:    8 ave 8 max 8 min
Histogram: 1 0 0 0 0 0 0 0 0 0
Nghost:    1978 ave 1978 max 1978 min
Histogram: 1 0 0 0 0 0 0 0 0 0
Neighs:    2166 ave 2166 max 2166 min
Histogram: 1 0 0 0 0 0 0 0 0 0

Total # of neighbors = 2166
Ave neighs/atom = 270.75
Neighbor list builds = 1225
Dangerous builds = 0
unfix 20
unfix 21
print "seeds:9282435"
seeds:9282435
