LAMMPS (10 Feb 2015)
# ---- initialize simulations
clear
units metal
dimension 3
boundary p p p
atom_style charge
atom_modify map array
# ---- create atoms
read_data /Users/eugeneragasa/pyflamestk_git/pypospack/tests/tests_integration/workflow/WorkflowLammpsThermalExpansion/param_2632/MgO_NaCl_unit.npt.T900/lammps.structure
  triclinic box = (0 0 0) to (4.2565 4.2565 4.2565) with tilt (0 0 0)
  1 by 1 by 1 MPI processor grid
  reading atoms ...
  8 atoms
# ---- define interatomic potential
include potential.mod
mass 1 24.305
mass 2 15.999

group Mg type 1
4 atoms in group Mg
group O type 2
4 atoms in group O

set group Mg charge 1.63285961235
  4 settings made for charge
set group O charge -1.63285961235
  4 settings made for charge

variable R_cut equal 10.0

pair_style buck/coul/long ${R_cut}
pair_style buck/coul/long 10
pair_coeff 1 1 0.0 0.5 0.0 ${R_cut}
pair_coeff 1 1 0.0 0.5 0.0 10
pair_coeff 1 2 1437.07173936 0.281984725072 0.0 ${R_cut}
pair_coeff 1 2 1437.07173936 0.281984725072 0.0 10
pair_coeff 2 2 17907.6681412 0.158842179647 12.0518239093 ${R_cut}
pair_coeff 2 2 17907.6681412 0.158842179647 12.0518239093 10

kspace_style pppm 1.0e-5

neighbor 1.0 bin
neigh_modify every 1 delay 0 check yes
# ---- define settings
compute eng all pe/atom
compute eatoms all reduce sum c_eng
# ---- run minimization
reset_timestep 0
fix 1 all box/relax iso 0.0 vmax 0.001
thermo 10
thermo_style custom step pe lx ly lz xy xz yz press pxx pyy pzz pxy pxz pyz c_eatoms
min_style cg
minimize 1e-25 1e-25 5000 10000
PPPM initialization ...
  G vector (1/distance) = 0.352629
  grid = 8 8 8
  stencil order = 5
  estimated absolute RMS force accuracy = 3.86465e-05
  estimated relative force accuracy = 2.68385e-06
  using double precision FFTs
  3d grid and FFT values/proc = 3375 512
Neighbor list info ...
  1 neighbor list requests
  update every 1 steps, delay 0 steps, check yes
  master list distance cutoff = 11
Memory usage per processor = 4.06549 Mbytes
Step PotEng Lx Ly Lz Xy Xz Yz Press Pxx Pyy Pzz Pxy Pxz Pyz eatoms 
       0   -108.26668       4.2565       4.2565       4.2565            0            0            0     68174.25     68174.25     68174.25     68174.25 -1.8708973e-11 1.9918278e-11 -1.4539535e-10   -108.26668 
      10   -108.32672     4.299065     4.299065     4.299065            0            0            0    15974.818    15974.818    15974.818    15974.818 2.7247293e-10 7.4247233e-11 1.7340321e-10   -108.32672 
      14   -108.33064    4.3118345    4.3118345    4.3118345            0            0            0    1605.1095    1605.1095    1605.1095    1605.1095 -5.9694499e-11 -6.7982128e-11 4.9253128e-12   -108.33064 
Loop time of 0.0158188 on 1 procs for 14 steps with 8 atoms

Minimization stats:
  Stopping criterion = linesearch alpha is zero
  Energy initial, next-to-last, final = 
        -108.266678614      -108.33063925      -108.33063925
  Force two-norm initial, final = 9.8444 0.23785
  Force max component initial, final = 9.8444 0.237844
  Final line search alpha, max atom move = 1.28309e-07 3.05176e-08
  Iterations, force evaluations = 14 44

Pair  time (%) = 0.00421929 (26.6726)
Kspce time (%) = 0.00269127 (17.0131)
Neigh time (%) = 0 (0)
Comm  time (%) = 0.000492573 (3.11384)
Outpt time (%) = 2.09808e-05 (0.132632)
Other time (%) = 0.00839472 (53.0679)

Nlocal:    8 ave 8 max 8 min
Histogram: 1 0 0 0 0 0 0 0 0 0
Nghost:    2189 ave 2189 max 2189 min
Histogram: 1 0 0 0 0 0 0 0 0 0
Neighs:    2344 ave 2344 max 2344 min
Histogram: 1 0 0 0 0 0 0 0 0 0

Total # of neighbors = 2344
Ave neighs/atom = 293
Neighbor list builds = 0
Dangerous builds = 0
unfix 1
# ---- define output variables ----
variable natoms equal "count(all)"
variable tot_energy equal "c_eatoms"
variable length_x equal "lx"
variable length_y equal "ly"
variable length_z equal "lz"
variable tilt_xy equal "xy"
variable tilt_xz equal "xz"
variable tilt_yz equal "yz"
variable tot_press equal "press"
variable press_xx equal "pxx"
variable press_yy equal "pyy"
variable press_zz equal "pzz"
variable press_xy equal "pxy"
variable press_xz equal "pxz"
variable press_yz equal "pyz"

# ---- output ----
print "pypospack:output_section:begin"
pypospack:output_section:begin
print "tot_energy = ${tot_energy}"
tot_energy = -108.330639250266
print "num_atoms = ${natoms}"
num_atoms = 8
print "xx = ${length_x}"
xx = 4.3118345
print "yy = ${length_y}"
yy = 4.3118345
print "zz = ${length_z}"
zz = 4.3118345
print "xy = ${tilt_xy}"
xy = 0
print "xz = ${tilt_xz}"
xz = 0
print "yz = ${tilt_yz}"
yz = 0
print "tot_press = ${tot_press}"
tot_press = 1605.10951764203
print "pxx = ${press_xx}"
pxx = 1605.10951764176
print "pyy = ${press_yy}"
pyy = 1605.10951764198
print "pzz = ${press_zz}"
pzz = 1605.10951764233
print "pxy = ${press_xy}"
pxy = -5.96944985898881e-11
print "pxz = ${press_xz}"
pxz = -6.79821282837662e-11
print "pyz = ${press_yz}"
pyz = 4.92531279854496e-12
print "pypospack:output_section:done"
pypospack:output_section:done
print "pypospack:lammps_sim:done"
pypospack:lammps_sim:done
#------------------------------------------------------------------------------
# RUN THERMOSTAT
# running using an NPT Nose-Hoover style thermostat
#------------------------------------------------------------------------------
variable tempdamp equal 0.1
variable pressdamp equal 1.0
# set initial velocities
velocity all create 900 5293418 mom yes dist gaussian loop all
# fix for Nose-Hoover style thermostat
fix 20 all npt temp 900 900 0.1 aniso 0.0 0.0 1.0 drag 1.0 couple xyz
variable boxx equal lx
variable boxy equal ly
variable boxz equal lz
variable boxp equal press
variable boxt equal temp
# calculate averages every 10000 steps
reset_timestep 0
fix 21 all ave/time 10 10 100 v_boxx v_boxy v_boxz v_boxp v_boxt file lattice.out
thermo_style custom step temp pe ke etotal press lx ly lz press pxx pyy pzz pxy pxz pyz vol
thermo_modify flush yes
thermo 100
run 100000
PPPM initialization ...
  G vector (1/distance) = 0.352078
  grid = 8 8 8
  stencil order = 5
  estimated absolute RMS force accuracy = 3.96373e-05
  estimated relative force accuracy = 2.75266e-06
  using double precision FFTs
  3d grid and FFT values/proc = 3375 512
Memory usage per processor = 3.06549 Mbytes
Step Temp PotEng KinEng TotEng Press Lx Ly Lz Press Pxx Pyy Pzz Pxy Pxz Pyz Volume 
       0          900   -108.33065   0.81433891   -107.51631    12453.763    4.3118345    4.3118345    4.3118345    12453.763    10712.662    16234.999    10413.628    1584.7591    4078.6193   -1547.7091    80.165268 
     100    346.16729   -107.72089   0.31321944   -107.40767    2353.3917    4.3407649    4.3407649    4.3407649    2353.3917    -2475.079    7845.6058    1689.6483   -1449.9954    52.187125    5276.9062    81.789734 
     200    515.45953   -107.64905   0.46639861   -107.18266   -22717.239    4.3580099    4.3580099    4.3580099   -22717.239   -33086.351    -6655.486    -28409.88    5546.4352   -2682.5616     5005.923    82.768417 
     300    650.79491   -107.57597   0.58885291   -106.98712     17397.58    4.3412102    4.3412102    4.3412102     17397.58    11708.887    37694.392    2789.4603     2379.612     450.9751    6479.4389    81.814907 
     400    697.26339   -107.47267   0.63089857   -106.84178    8773.6139    4.3493044    4.3493044    4.3493044    8773.6139    11075.313    -2455.213    17700.742    1563.6036   -7978.1413    14100.443    82.273395 
     500    1161.3939   -107.78828    1.0508536   -106.73743   -10667.201    4.3666155    4.3666155    4.3666155   -10667.201    6923.3321   -18515.415   -20409.521    8747.1916   -12500.614   -9299.4362    83.259705 
     600    820.51775   -107.42604   0.74242171   -106.68362    1413.7948    4.3608622    4.3608622    4.3608622    1413.7948    5855.7873    939.21666   -2553.6197   -5863.3662   -3485.4217    6698.6684    82.931038 
     700    644.62008   -107.25191   0.58326579   -106.66865   -2329.0495    4.3477636    4.3477636    4.3477636   -2329.0495    6401.6412   -12175.511   -1213.2782    -4666.616    1022.9086    4827.8027    82.185985 
     800    1018.6225   -107.59933   0.92167106   -106.67766   -1224.4231    4.3645997    4.3645997    4.3645997   -1224.4231    -17300.62    19024.907   -5397.5564    339.69495    2224.5666   -5440.3376    83.144451 
     900    1045.9459   -107.62136   0.94639379   -106.67496   -21400.685    4.3724703    4.3724703    4.3724703   -21400.685   -21402.571   -36557.946   -6241.5385    -918.9468    4429.2628    24343.394    83.595059 
    1000    487.31375   -107.11281   0.44093173   -106.67188    22385.435     4.338312     4.338312     4.338312    22385.435      8483.87    43385.703    15286.731   -4528.0586    4771.1746    8451.9838    81.651159 
    1100    952.97121   -107.55187   0.86226838    -106.6896   -18999.005    4.3584956    4.3584956    4.3584956   -18999.005   -34327.012   -15739.471   -6930.5317   -2874.9565    2507.5307    1245.1549    82.796092 
    1200    555.94844   -107.18589   0.50303383   -106.68285   -12830.944    4.3743664    4.3743664    4.3743664   -12830.944   -6667.3932   -10141.991   -21683.448    4410.0375   -1434.7026    23558.644    83.703856 
    1300    1249.1663   -107.79991    1.1302719   -106.66964    14400.178    4.3352415    4.3352415    4.3352415    14400.178    19110.694    6925.4964    17164.345   -9183.1795    10258.385   -11125.265    81.477911 
    1400    1019.7016   -107.61694   0.92264743    -106.6943    6639.4946     4.351261     4.351261     4.351261    6639.4946    7451.9831    8554.2131    3912.2876   -3131.5471   -762.91262    10203.835    82.384482 
    1500    640.33248   -107.26315   0.57938628   -106.68376   -32398.404    4.3755672    4.3755672    4.3755672   -32398.404   -12061.394   -37942.654   -47191.165    2284.6864   -6380.0182    15510.716    83.772806 
    1600    1012.1279   -107.58527   0.91579455   -106.66947   -10520.244    4.3444656    4.3444656    4.3444656   -10520.244   -14751.071   -8856.1086   -7953.5526   -4623.4235    2282.0348   -11908.253    81.999098 
    1700    857.81977    -107.4598   0.77617335   -106.68362   -1590.2952    4.3534319    4.3534319    4.3534319   -1590.2952     -5749.65     4494.583   -3515.8186    1319.6792   -348.74601    21556.189     82.50785 
    1800    907.85535   -107.50501    0.8214466   -106.68356   -15666.536     4.366267     4.366267     4.366267   -15666.536   -11579.071   -37113.744    1693.2063   -5967.0968   -1647.2243    15333.421     83.23977 
    1900    954.87943   -107.54123   0.86399497   -106.67723    8405.6147    4.3463905    4.3463905    4.3463905    8405.6147   -17225.598    16966.423    25476.019    12101.499    6904.0908   -6995.0428    82.108144 
    2000    718.37724    -107.3367   0.65000282    -106.6867   -5842.1601    4.3551329    4.3551329    4.3551329   -5842.1601    12277.598   -9487.5762   -20316.502     -5255.52    4041.7189    17524.467    82.604601 
    2100     762.8248   -107.37372   0.69021991    -106.6835   -3238.4868    4.3655438    4.3655438    4.3655438   -3238.4868    18426.905   -17798.638   -10343.727    4818.0091    -1087.079    1632.2904    83.198414 
    2200     1248.589   -107.80433    1.1297496   -106.67458   -7913.8402    4.3573639    4.3573639    4.3573639   -7913.8402    2228.5656   -18184.547   -7785.5397    17465.298   -7061.2096   -2982.2273    82.731613 
    2300    786.30946   -107.39088   0.71146933   -106.67941    3697.0921    4.3546224    4.3546224    4.3546224    3697.0921    10032.337    -16308.23    17367.169   -594.01656   -5619.1369    12515.971    82.575555 
    2400    526.58706   -107.15601   0.47646704   -106.67954   -144.26737     4.363878     4.363878     4.363878   -144.26737     3522.534    6099.4239    -10054.76    12401.466    1085.1134   -849.34422     83.10321 
    2500     917.4881   -107.50259   0.83016251   -106.67243   -20115.418    4.3632715    4.3632715    4.3632715   -20115.418   -22867.696   -13813.035   -23665.523    6187.7946   -5516.2773    9600.5878    83.068567 
    2600    920.05754   -107.50454    0.8324874   -106.67205    7490.1204    4.3524674    4.3524674    4.3524674    7490.1204    1303.0722   -345.95748    21513.246     1004.019   -1141.6159    2386.2933    82.453023 
    2700    999.20981   -107.57768   0.90410603   -106.67358    4581.0627    4.3545576    4.3545576    4.3545576    4581.0627    5271.6884    14766.499   -6294.9992    2407.3976    8535.2723    2447.5027    82.571872 
    2800     921.8444   -107.51321   0.83410418    -106.6791   -20513.091    4.3624893    4.3624893    4.3624893   -20513.091   -35854.004   -25049.848    -635.4206   -9464.9052   -3163.4244    8855.3928      83.0239 
    2900    537.63746   -107.17006   0.48646567   -106.68359    10237.336    4.3538444    4.3538444    4.3538444    10237.336    34809.122    14414.703   -18511.817   -1529.8069    8539.6417   -4740.3507    82.531305 
    3000    1190.6079   -107.76142    1.0772871   -106.68413   -1551.8654    4.3496459    4.3496459    4.3496459   -1551.8654   -1865.3833     459.3742   -3249.5873   -4710.2728   -5529.0429    5891.6395    82.292774 
    3100    1089.6916   -107.67334   0.98597589   -106.68736   -13405.502     4.364087     4.364087     4.364087   -13405.502   -3163.8309   -20041.456    -17011.22   -5365.3227    4737.6402   -6828.2664     83.11515 
    3200    629.05294   -107.25059   0.56918032   -106.68141    12338.133    4.3505865    4.3505865    4.3505865    12338.133    18189.535    22007.859   -3182.9968    8372.6569    6553.1914    4822.0611    82.346175 
    3300    934.70372   -107.52964   0.84573957    -106.6839   -16283.507    4.3545029    4.3545029    4.3545029   -16283.507   -24517.859   -9252.9034    -15079.76     233.7602   -6244.8958   -747.60106    82.568758 
    3400    880.26306   -107.47926   0.79648052   -106.68278    -7514.369    4.3651598    4.3651598    4.3651598    -7514.369    5805.0869   -16608.509   -11739.685   -11259.942     7312.886   -5368.7119    83.176462 
    3500    1149.0453   -107.71682    1.0396803   -106.67714    18468.523    4.3432843    4.3432843    4.3432843    18468.523    2808.7596    1957.7119    50639.098    8490.3579    7551.7707    3214.3529    81.932229 
    3600    1034.7323   -107.62568   0.93624749   -106.68944    4806.2926    4.3522058    4.3522058    4.3522058    4806.2926    5195.4754   -21497.599    30721.001   -397.09194   -5081.4682   -3862.1861    82.438158 
    3700    680.52067   -107.30067    0.6157494   -106.68492   -16994.984    4.3695604    4.3695604    4.3695604   -16994.984   -14287.099   -20918.622    -15779.23   -6485.4223   -1483.8792   -154.61073     83.42827 
    3800    806.45524   -107.40616   0.72969765   -106.67646    11064.098    4.3435015    4.3435015    4.3435015    11064.098   -6513.0936    5840.5866    33864.802    8314.4395    7322.9888   -2879.4427    81.944524 
    3900    1160.1009   -107.73606    1.0496837   -106.68638   -3530.3938    4.3498555    4.3498555    4.3498555   -3530.3938    3383.2404   -21528.539    7554.1167   -1486.8408   -10900.932    7846.2626    82.304671 
    4000    844.79905   -107.44825   0.76439194   -106.68386    774.44856    4.3733644    4.3733644    4.3733644    774.44856   -19965.923   -27243.541    49532.809    3237.6164   -2847.4324    14574.735    83.646353 
    4100    787.80878   -107.38997   0.71282594   -106.67714   -1076.0736     4.353612     4.353612     4.353612   -1076.0736   -24087.578    18318.871    2540.4861   -2358.6318    11521.463    7551.7806     82.51809 
    4200    675.51534   -107.28765   0.61122047   -106.67643    20124.884    4.3396656    4.3396656    4.3396656    20124.884   -459.05309    13107.971    47725.735   -7731.6777   -1200.3934    2900.3539    81.727608 
    4300    826.16835   -107.43325   0.74753449   -106.68572   -8151.5516    4.3732282    4.3732282    4.3732282   -8151.5516   -32653.522    23470.695   -15271.828     3476.906    8519.6341    12072.819    83.638537 
    4400    1156.8708   -107.72238     1.046761   -106.67562   -16364.117    4.3630637    4.3630637    4.3630637   -16364.117   -39534.995   -6912.4347   -2644.9202   -15350.907    2918.4682   -7585.5025    83.056697 
    4500    1091.0894   -107.65338   0.98724066   -106.66614    19860.963    4.3336087    4.3336087    4.3336087    19860.963      14264.4    39153.021    6165.4672   -9454.4547    4941.5744   -1652.6109    81.385883 
    4600    510.97044   -107.15321   0.46233679   -106.69087   -5196.3809     4.364347     4.364347     4.364347   -5196.3809   -18694.757    18394.018   -15288.404    6891.2942     4100.803    6466.9319    83.130008 
    4700    1136.0799   -107.70675    1.0279489    -106.6788   -33730.063    4.3681009    4.3681009    4.3681009   -33730.063   -43158.005   -36896.775   -21135.409   -13011.891   -3380.7383   -2275.6683    83.344697 
    4800    1010.2885   -107.58699   0.91413029   -106.67286    36440.868    4.3381325    4.3381325    4.3381325    36440.868    17819.434    37790.093    53713.076    655.01589   -7591.9847    7337.0367    81.641021 
    4900    865.95107    -107.4804   0.78353072   -106.69687    -2466.948    4.3603448    4.3603448    4.3603448    -2466.948   -18680.825   -4831.2965    16111.278   -939.60716   -9198.4041    1353.3315    82.901522 
    5000    837.06588   -107.44282    0.7573948   -106.68542   -25105.207    4.3686285    4.3686285    4.3686285   -25105.207   -29015.251   -25488.657   -20811.713   -3672.0161   -7691.9101   -9719.1144    83.374904 
    5100    732.20548   -107.33369   0.66251491   -106.67117    28468.281    4.3416777    4.3416777    4.3416777    28468.281    23039.823    39969.602    22395.419   -1561.3014   -1385.1424    13943.208     81.84134 
    5200    964.66661   -107.56246   0.87285062   -106.68961    -20836.61    4.3634547    4.3634547    4.3634547    -20836.61   -15521.194   -16993.378   -29995.259   -10252.701    2101.6127   -4979.6377    83.079028 
    5300    1069.0584   -107.65153   0.96730651   -106.68423    1216.4927    4.3606626    4.3606626    4.3606626    1216.4927    -16637.54    1594.2604    18692.758    6623.0246    6403.5315    2062.6143    82.919648 
    5400    820.59196   -107.42591   0.74248885   -106.68342    1731.8736    4.3533033    4.3533033    4.3533033    1731.8736     4126.642    231.22692    837.75198    -2773.742    13453.884    2055.5136     82.50054 
    5500    602.92967   -107.23336   0.54554343   -106.68781   -20633.715    4.3612869    4.3612869    4.3612869   -20633.715    -29912.94   -33208.761    1220.5569   -15218.716   -2187.1071   -2869.7876    82.955271 
    5600    999.40079   -107.58843   0.90427884   -106.68416    21900.812    4.3457436    4.3457436    4.3457436    21900.812    341.58813    42943.051    22417.797    348.26381    6731.0146    15421.351    82.071485 
    5700    1057.8005   -107.65782   0.95712011    -106.7007   -11503.353    4.3626824    4.3626824    4.3626824   -11503.353    6317.1896   -28975.445   -11851.805    -5237.497    117.24078   -357.01455    83.034927 
    5800    808.38225   -107.42299   0.73144125   -106.69155   -4726.7239     4.360068     4.360068     4.360068   -4726.7239   -24660.108    29464.046    -18984.11    38.155877    -7190.025    6650.8535    82.885733 
    5900    720.60819   -107.33106   0.65202144   -106.67904      16770.8      4.34892      4.34892      4.34892      16770.8    25114.946    35016.012   -9818.5582    5189.7807    219.69828    12047.394    82.251579 
    6000    631.28489    -107.2555   0.57119984    -106.6843   -8263.0803    4.3668702    4.3668702    4.3668702   -8263.0803   -21305.894    14529.563    -18012.91    4201.2831   -2805.6549   -1271.9734    83.274272 
    6100    1185.9666   -107.75243    1.0730875   -106.67935   -3535.2018     4.353166     4.353166     4.353166   -3535.2018    5635.3774   -7971.1743   -8269.8086    6996.6892   -4767.4898     4614.255     82.49273 
    6200    1137.0769    -107.7159    1.0288511   -106.68705    7555.1677    4.3489805    4.3489805    4.3489805    7555.1677    21880.166     12368.18   -11582.842   -4472.6312   -1893.8283   -3134.4109    82.255012 
    6300     669.8877   -107.29888   0.60612847   -106.69275   -8270.2723    4.3683231    4.3683231    4.3683231   -8270.2723   -8809.7079    10806.233   -26807.342   -10517.491    -3492.369    2458.2664    83.357422 
    6400    980.14472   -107.57035   0.88685554   -106.68349   -7594.3119    4.3572794    4.3572794    4.3572794   -7594.3119   -16961.893    9395.1866   -15216.229   -4039.6903   -2724.5015    2244.0156      82.7268 
    6500     863.1074   -107.46285   0.78095771    -106.6819      19639.7    4.3484724    4.3484724    4.3484724      19639.7    22001.912    41961.868   -5044.6804    10535.082   -3404.1921      607.202    82.226186 
    6600    1144.2135    -107.7226    1.0353084    -106.6873   -16920.586    4.3618079    4.3618079    4.3618079   -16920.586   -4050.6309   -31248.474   -15462.653   -10430.436   -1956.4334   -4437.3528    82.985002 
    6700    589.34783   -107.22573   0.53325431   -106.69247    6334.9308    4.3539784    4.3539784    4.3539784    6334.9308    19047.024    23480.322   -23522.554    286.83046   -489.45491    5035.1824    82.538924 
    6800     833.6722   -107.44608   0.75432413   -106.69175    13776.923    4.3487242    4.3487242    4.3487242    13776.923    41462.899    35236.843   -35368.974    1945.0178   -5594.5456   -7190.4546     82.24047 
    6900    1077.6967   -107.66752   0.97512263    -106.6924   -17445.497    4.3702201    4.3702201    4.3702201   -17445.497    -19673.99   -15167.285   -17495.216   -536.25511    5851.5356    1709.0427    83.466061 
    7000    946.01178   -107.53804   0.85597134   -106.68207   -3500.1804    4.3620526    4.3620526    4.3620526   -3500.1804    90.370376    16152.454   -26743.365    6490.2565   -5530.5035    4067.7966    82.998966 
    7100    1083.0784   -107.65638   0.97999207   -106.67638   -296.89886    4.3422651    4.3422651    4.3422651   -296.89886    6587.6824     17089.44   -24567.819   -11866.744   -1099.5443   -725.70215    81.874564 
    7200    724.86896   -107.35009   0.65587666   -106.69422   -10241.697    4.3581878    4.3581878    4.3581878   -10241.697   -9798.2192   -550.93124    -20375.94    2839.1296    181.20469    4199.9256    82.778553 
    7300    926.61285   -107.52668   0.83841878   -106.68826    -6246.319    4.3699342    4.3699342    4.3699342    -6246.319    1524.6063     4508.109   -24771.672    1146.2017   -6648.1686    10438.271    83.449686 
    7400    1147.5132   -107.72135     1.038294   -106.68306    12131.058    4.3415079    4.3415079    4.3415079    12131.058    34831.664    7844.3422   -6282.8323   -3680.3496   -1848.3941   -3065.9727     81.83174 
    7500    601.98297   -107.24608   0.54468685   -106.70139    18016.363    4.3464312    4.3464312    4.3464312    18016.363    36611.012    27198.655   -9760.5783      175.076    1133.5695    3862.6307    82.110451 
    7600    1025.8342   -107.61433   0.92819638   -106.68613   -28105.778    4.3802146    4.3802146    4.3802146   -28105.778   -9322.5634   -33507.135   -41487.637   -42.621996    1428.1425   -494.57785    84.040023 
    7700    1062.3347   -107.63836   0.96122273   -106.67714    19008.804    4.3440603    4.3440603    4.3440603    19008.804    15432.157    40739.413    854.84142   -1944.4513      -519.06   -1102.6445    81.976151 
    7800    946.59872   -107.54246   0.85650241   -106.68596    7107.8254    4.3423755    4.3423755    4.3423755    7107.8254    11050.762     8646.395    1626.3192    10834.628    4980.0536    8261.6256    81.880811 
    7900    1041.7301   -107.62076   0.94257932   -106.67818   -25161.529    4.3784142    4.3784142    4.3784142   -25161.529   -14815.921   -3012.3027   -57656.363    1052.8185    2443.6074    3859.9159    83.936436 
    8000    783.15441   -107.38412   0.70861457   -106.67551    2755.5003    4.3555501    4.3555501    4.3555501    2755.5003   -6732.0564    24610.545   -9611.9875    48.530955    2783.0199    8898.4006    82.628345 
    8100    1124.2206   -107.69221    1.0172184   -106.67499     6268.463    4.3411619    4.3411619    4.3411619     6268.463     13785.38    2906.7637    2113.2449   -2560.4933     4828.282    1343.2406    81.812174 
    8200    1036.8653   -107.62106   0.93817753   -106.68288    416.63382    4.3629479    4.3629479    4.3629479    416.63382      16281.2     13909.63   -28940.929   -7643.1376    3764.2021   -3039.4719    83.050083 
    8300    467.11622   -107.11752   0.42265657   -106.69486   -4877.5113      4.35568      4.35568      4.35568   -4877.5113    14950.577   -324.47598   -29258.634    715.91699    3810.9006    2556.5608    82.635737 
    8400    1082.3525     -107.672   0.97933529   -106.69267   -4744.6483    4.3413843    4.3413843    4.3413843   -4744.6483    7904.8242    -11749.49   -10389.279    13810.431    5255.4272    5744.9663    81.824749 
    8500    1001.7777   -107.60371   0.90642955   -106.69728    20746.834    4.3537603    4.3537603    4.3537603    20746.834    19354.482     40673.78     2212.238   -15985.541    2599.5986   -35.781429    82.526524 
    8600     943.3337   -107.54876   0.85354816   -106.69522   -22835.901    4.3628108    4.3628108    4.3628108   -22835.901   -1973.5494   -37405.608   -29128.545    10171.244   -5040.7589   -212.58243    83.042257 
    8700    780.23584    -107.3934   0.70597379   -106.68743    7332.9932    4.3477692    4.3477692    4.3477692    7332.9932    12829.076    20944.603     -11774.7   -1633.2075    4437.6421   -3547.6382    82.186303 
    8800    853.67512   -107.46123   0.77242318   -106.68881    18033.682    4.3476814    4.3476814    4.3476814    18033.682    65416.589   -1332.7261   -9982.8154   -8614.8088   -907.55265    4928.8094    82.181325 
    8900    900.62583   -107.50893   0.81490518   -106.69402   -27645.995    4.3676703    4.3676703    4.3676703   -27645.995   -8490.6931   -43453.071   -30994.219    12993.318   -7654.6127   -7151.4115    83.320053 
    9000    914.47956   -107.50942   0.82744032   -106.68198    17235.876    4.3455305    4.3455305    4.3455305    17235.876    31056.772      6793.98    13856.876   -6930.5203    3763.4696   -6220.9804    82.059412 
    9100    1107.5023   -107.68676    1.0020913   -106.68467   -10996.311    4.3435762    4.3435762    4.3435762   -10996.311   -3243.5076    3064.6152   -32810.042      5870.89   -3169.9416    7516.5315    81.948749 
    9200    386.38465   -107.05054   0.34960895   -106.70093   -15433.806    4.3641356    4.3641356    4.3641356   -15433.806   -11849.422    11700.925   -46152.921   -3769.1422   -2159.7932   -14287.068    83.117929 
    9300     1292.846   -107.86418    1.1697943   -106.69439    2297.5627    4.3460631    4.3460631    4.3460631    2297.5627    28001.795   -22262.323    1153.2162   -1561.7699   -2276.9274    6817.5184    82.089591 
    9400       772.21   -107.40288   0.69871184   -106.70417    7922.0783    4.3539175    4.3539175    4.3539175    7922.0783    61736.316   -4605.3245   -33364.757    4191.0674   -3882.5877   -8352.5429     82.53546 
    9500    502.26751   -107.15116   0.45446219    -106.6967   -13489.237    4.3652529    4.3652529    4.3652529   -13489.237    24017.707   -17152.765   -47332.654    8397.3438    -2810.558   -7119.0964    83.181782 
    9600    1086.1101   -107.66179   0.98273526   -106.67905    3326.7673    4.3520417    4.3520417    4.3520417    3326.7673    19091.646    3160.1309   -12271.475   -7187.0838   -4364.0038    1480.9071     82.42883 
    9700    1079.8348   -107.65753   0.97705724   -106.68048     -11942.9    4.3605506    4.3605506    4.3605506     -11942.9   -19315.286   -9119.1068   -7394.3065    11224.098   -3440.1074   -10372.806    82.913258 
    9800    1120.7672   -107.69116    1.0140937   -106.67707    -6585.567    4.3531611    4.3531611    4.3531611    -6585.567    2858.1775   -13707.398   -8907.4811    7568.3822   -1205.9115    5130.3991    82.492456 
    9900    629.31832   -107.25419   0.56942044   -106.68477      19519.6    4.3517024    4.3517024    4.3517024      19519.6    34934.413    17441.643    6182.7454   -3839.6686   -777.01896    2591.5812    82.409557 
   10000     971.3271   -107.56516   0.87887717   -106.68628   -8240.5134    4.3597506    4.3597506    4.3597506   -8240.5134    20726.809   -27945.976   -17502.374    1522.1509   -546.50925   -1112.9866    82.867634 
   10100    771.75861   -107.38392   0.69830341   -106.68561    26945.495    4.3516846    4.3516846    4.3516846    26945.495    40128.941    27813.187    12894.359    8600.3426    1345.6975    5548.9377    82.408545 
   10200    1028.7587   -107.62221   0.93084245   -106.69136    5561.5527    4.3505036    4.3505036    4.3505036    5561.5527     7879.271   -10598.445    19403.832   -13378.811    13934.788   -10115.394    82.341469 
   10300    888.50168   -107.49869   0.80393499   -106.69475   -9596.2743    4.3592307    4.3592307    4.3592307   -9596.2743    5921.3374    2105.3361   -36815.496    9809.7145   -1003.4527    3302.7324     82.83799 
   10400    821.75908   -107.43579   0.74354488   -106.69224      958.691    4.3518627    4.3518627    4.3518627      958.691   -352.90065    12919.873    -9690.899   -3025.2479    2492.7472   -5587.8215    82.418663 
   10500    1238.1903   -107.81189    1.1203406   -106.69155   -2885.3207    4.3545162    4.3545162    4.3545162   -2885.3207     9914.601   -17201.686   -1368.8767    9836.9166   -282.61819   -4702.8566    82.569514 
   10600    972.74923   -107.56419   0.88016395   -106.68403   -6660.0013    4.3664978    4.3664978    4.3664978   -6660.0013    8128.0717   -11066.097   -17041.979    1227.8503   -6001.9035    4650.0291    83.252971 
   10700    665.55829    -107.2818   0.60221113   -106.67959    6762.5257    4.3512577    4.3512577    4.3512577    6762.5257    37536.913    -20317.13    3067.7941   -3296.0915    4957.6902   -4474.2059    82.384292 
   10800    684.32782   -107.30131   0.61919419   -106.68211      26297.5    4.3515784    4.3515784    4.3515784      26297.5    32800.174    32879.229    13213.098    14898.257    3512.0503   -3585.2215    82.402508 
   10900    1071.0245   -107.65344   0.96908547   -106.68436   -5316.1492    4.3597217    4.3597217    4.3597217   -5316.1492    11672.432   -39837.672    12216.792   -7621.4447    7341.5147    1372.3477    82.865985 
   11000    657.40623   -107.28023   0.59483497    -106.6854     27565.07    4.3540574    4.3540574    4.3540574     27565.07    20144.257    11507.737    51043.215    788.51017    1972.7983    4754.7199    82.543418 
   11100    1202.2306   -107.76777    1.0878035   -106.67997   -10904.359     4.358567     4.358567     4.358567   -10904.359   -4592.1079    -20796.83   -7324.1386    6078.1965    1528.5735   -7157.6643    82.800158 
   11200    515.48868   -107.15438   0.46642499   -106.68796   -1968.0758    4.3536076    4.3536076    4.3536076   -1968.0758   -17192.014    13395.613   -2107.8261   -6334.3391    -4963.082   -8331.8066    82.517841 
   11300    1108.0462    -107.6913    1.0025835   -106.68871   -8349.8993    4.3531339    4.3531339    4.3531339   -8349.8993   -3905.3146   -23496.688    2352.3045   -10089.698   -7044.8544   -1980.6634    82.490908 
   11400    1328.0315   -107.88631    1.2016309   -106.68468   -19684.881    4.3677967    4.3677967    4.3677967   -19684.881    -29597.59    -11766.19   -17690.862    1520.0868   -2287.6552    6509.0158    83.327287 
   11500    925.85958   -107.51848   0.83773721   -106.68074    -15618.32    4.3624039    4.3624039    4.3624039    -15618.32   -2498.4251   -39246.394    -5110.142   -10472.147   -5761.2432   -2607.2432    83.019024 
   11600    844.65754   -107.43633   0.76426389   -106.67207    12639.209    4.3518108    4.3518108    4.3518108    12639.209    13682.158    13159.259    11076.211   -5126.3834    3822.9013    874.58503    82.415713 
   11700    773.41877   -107.37909   0.69980555   -106.67929   -3408.3267    4.3665554    4.3665554    4.3665554   -3408.3267    5277.4237   -31562.695    16060.292   -2846.1793    11291.386    1094.6911    83.256264 
   11800    541.16552   -107.16927   0.48965793   -106.67961    16244.641    4.3671324    4.3671324    4.3671324    16244.641    28868.576    1577.1041    18288.243   -10806.747    8697.8903     4672.396    83.289272 
   11900    1079.8907   -107.64652   0.97710776   -106.66941    17065.644     4.348795     4.348795     4.348795    17065.644    45652.552   -23954.548    29498.927   -4287.6555    14224.783    -3295.569    82.244487 
   12000    453.05705   -107.10118   0.40993554   -106.69124    10052.406    4.3547183    4.3547183    4.3547183    10052.406    40997.295   -7823.9764   -3016.1012   -3663.2677    10262.301   -9988.8792    82.581013 
   12100     972.7834   -107.56827   0.88019486   -106.68807   -20071.261    4.3671319    4.3671319    4.3671319   -20071.261   -5205.8944   -37613.796   -17394.093    5746.4598   -536.51068   -3756.6578    83.289245 
   12200    930.29773   -107.52521   0.84175294   -106.68346     11240.46     4.351104     4.351104     4.351104     11240.46    17333.905   -3577.9348    19965.409   -10524.352    2240.3722    3132.2212    82.375564 
   12300    976.83371   -107.57359   0.88385967   -106.68973   -3748.3358    4.3531283    4.3531283    4.3531283   -3748.3358    13074.922   -10522.978   -13796.952    5564.1312   -5579.1862   -4278.6964    82.490586 
   12400    1176.3096   -107.74327    1.0643496   -106.67892   -18370.761    4.3696385    4.3696385    4.3696385   -18370.761    -6915.327   -16928.293   -31268.662    1488.6697   -501.87934    4035.6636    83.432742 
   12500    768.26891   -107.36864   0.69514586    -106.6735    9598.1201    4.3518504    4.3518504    4.3518504    9598.1201    50692.775   -18848.159   -3050.2556    -14637.61   -5304.0949   -10504.631    82.417965 
   12600    947.76282    -107.5346   0.85755571   -106.67704   -3841.9066    4.3557014    4.3557014    4.3557014   -3841.9066    1661.2398    -9738.913   -3448.0465    993.49555    10792.061       8123.5    82.636955 
   12700      944.585   -107.53423   0.85468036   -106.67955   -8265.9534    4.3677852    4.3677852    4.3677852   -8265.9534    -916.3389   -44312.195    20430.674   -3881.9395    10549.423    2013.3425    83.326629 
   12800    568.55161   -107.19759   0.51443744   -106.68316    14154.185    4.3579003    4.3579003    4.3579003    14154.185     7262.727   -1363.8961    36563.725   -2414.2621    12404.576   -12071.347    82.762168 
   12900    930.36723   -107.52348   0.84181583   -106.68166    2839.1792    4.3559615    4.3559615    4.3559615    2839.1792   -22368.107   -25630.472    56516.117   -1316.6017   -954.27873    6609.7039    82.651757 
   13000    929.36962   -107.52549   0.84091316   -106.68458   -13559.043    4.3680855    4.3680855    4.3680855   -13559.043   -26485.633   -17487.538    3296.0435   -3152.6315   -5674.5589     2745.736     83.34382 
   13100    1133.1138   -107.70256    1.0252652    -106.6773   -20778.596    4.3604072    4.3604072    4.3604072   -20778.596    674.69746   -38723.609   -24286.877    1526.3053   -5122.9956    2274.2728     82.90508 
   13200    1121.6569   -107.69064    1.0148987   -106.67575     4759.096    4.3525843    4.3525843    4.3525843     4759.096   -15772.018    12595.078    17454.228    410.20588    -14528.75   -406.42189    82.459667 
   13300    849.08923   -107.44993   0.76827378   -106.68166   -6704.3468    4.3656719    4.3656719    4.3656719   -6704.3468    4040.9953   -38043.882    13889.847   -4990.3046    1830.6977   -682.88073    83.205737 
   13400    459.45233   -107.09555   0.41572212   -106.67983    24138.382    4.3616066    4.3616066    4.3616066    24138.382   -802.75018    15048.146    58169.752    4926.3093   -838.16658      11645.9    82.973513 
   13500    1011.0714   -107.59101   0.91483864   -106.67617   -2794.5829    4.3599165    4.3599165    4.3599165   -2794.5829   -35823.341   -22561.112    50000.704   -6229.0956     12978.21   -4489.0215    82.877094 
   13600     983.7888   -107.57452   0.89015278   -106.68437    7200.1153    4.3517819    4.3517819    4.3517819    7200.1153     15083.93   -2821.6121    9338.0281   -328.88111    6447.8033   -4816.6839    82.414069 
   13700    1088.5076   -107.67646   0.98490455   -106.69156   -9992.9618     4.368736     4.368736     4.368736   -9992.9618   -1104.8053   -16255.257   -12618.823    9281.9213   -5077.4039    4202.9698    83.381056 
   13800    838.19839   -107.44604   0.75841952   -106.68762   -8575.6422    4.3639471    4.3639471    4.3639471   -8575.6422   -37639.029   -18873.604    30785.707   -4076.1895   -6090.2014   -9951.6875    83.107158 
   13900    608.06738   -107.23769   0.55019214    -106.6875    15574.428    4.3431194    4.3431194    4.3431194    15574.428    1845.1806   -15776.267    60654.369    4550.8208   -7912.3088   -6420.1207    81.922897 
   14000    916.25243   -107.52232   0.82904445   -106.69327    5962.9897    4.3610404    4.3610404    4.3610404    5962.9897   -1020.7914   -11644.261    30554.022    3546.7252   -7237.1139    6297.8762    82.941205 
   14100    1202.8811   -107.77382    1.0883921   -106.68543    -15395.11    4.3628931    4.3628931    4.3628931    -15395.11   -8082.0947   -16254.151   -21849.083    4243.1362    6413.1966   -3220.1919    83.046954 
   14200    754.89849   -107.36628   0.68304802   -106.68324   -12362.667    4.3567257    4.3567257    4.3567257   -12362.667   -11251.231   -14034.877   -11801.892    3981.0326    4424.4208    2092.2743    82.695269 
   14300    848.28636    -107.4447   0.76754733   -106.67715    6564.4766    4.3569036    4.3569036    4.3569036    6564.4766   -18688.609    7177.3001    31204.738   -934.18752    6788.9356    9401.2111    82.705396 
   14400     778.4325   -107.38451   0.70434209   -106.68017    3434.9564    4.3644597    4.3644597    4.3644597    3434.9564   -12272.866   -2526.3224    25104.057    8345.9406    9878.6898   -11452.998    83.136449 
   14500    882.92883   -107.47684   0.79889256   -106.67794    7405.9666    4.3567088    4.3567088    4.3567088    7405.9666   -2796.3169   -27344.962    52359.178   -3449.5511   -72.417117    2851.8611    82.694305 
   14600    1087.8709   -107.66333   0.98432847     -106.679   -6278.3174      4.35232      4.35232      4.35232   -6278.3174   -32622.087    8809.7164    4977.4189   -4068.1994    3947.1608   -3416.6772    82.444647 
   14700    676.48923   -107.30366   0.61210168   -106.69155    -15705.34    4.3591896    4.3591896    4.3591896    -15705.34   -20587.026   -12443.589   -14085.405    3740.3796   -4528.4397   -5043.7959     82.83565 
   14800    920.60205   -107.52543   0.83298008   -106.69245    1092.4849    4.3545278    4.3545278    4.3545278    1092.4849   -7303.4615   -28265.858    38846.774   -4143.5318   -1353.3091    13320.181    82.570177 
   14900     1076.519   -107.66833   0.97405703   -106.69428    3746.6908    4.3631507    4.3631507    4.3631507    3746.6908   -23108.688   -7613.0671    41961.827    1300.5481    5036.4317    116.69285    83.061667 
   15000    765.26129   -107.38368    0.6924245   -106.69126     7422.005      4.35847      4.35847      4.35847     7422.005    6117.7284   -12183.148    28331.434   -2387.1443    9079.0835    10715.365    82.794631 
   15100    909.01686   -107.50897   0.82249756   -106.68647   -2404.5027    4.3581237    4.3581237    4.3581237   -2404.5027    10084.489   -24600.096    7302.0989   -2659.6322   -2357.1198    2325.6455    82.774898 
   15200    1075.7912   -107.65457   0.97339844   -106.68117   -13549.853    4.3648165    4.3648165    4.3648165   -13549.853   -28322.332   -3954.3495   -8372.8791    2847.3179    934.75243   -4180.6849    83.156838 
   15300    655.47958   -107.27625    0.5930917   -106.68316    20305.487    4.3498087    4.3498087    4.3498087    20305.487    25084.601   -30127.936    65959.795   -6432.2769   -1691.2987    12320.657    82.302018 
   15400     1095.648   -107.67544   0.99136531   -106.68407    7194.0098    4.3563751    4.3563751    4.3563751    7194.0098    21858.726   -22555.866     22279.17    1934.5225   -8645.9138    7663.6841    82.675306 
   15500    764.00118   -107.37244   0.69128432   -106.68115    -10669.44    4.3719784    4.3719784    4.3719784    -10669.44    -31674.86   -40139.167    39805.709   -3020.3836    1526.0719    7747.9011    83.566849 
   15600    845.33532   -107.43564   0.76487716   -106.67076   -11496.097    4.3543409    4.3543409    4.3543409   -11496.097   -1318.9645   -23660.378   -9508.9492   -8668.9754    1334.2873    9716.1843    82.559543 
   15700     1202.831    -107.7587    1.0883468   -106.67036    4076.4558    4.3454963    4.3454963    4.3454963    4076.4558    17938.284   -10363.704    4654.7868    7849.4313     157.2643    616.08162    82.057477 
   15800    818.30986   -107.42803   0.74042395   -106.68761   -23514.693    4.3752292    4.3752292    4.3752292   -23514.693    -16672.18   -57386.901    3515.0012   -13923.077    3781.4577    12539.627    83.753397 
   15900    864.17805   -107.46436   0.78192646   -106.68244    7885.0828    4.3614786    4.3614786    4.3614786    7885.0828    16734.645    -11466.76    18387.363    1286.0346    -8022.929    7998.1912     82.96621 
   16000    958.60394   -107.54174   0.86736499   -106.67438     17166.61    4.3380662    4.3380662    4.3380662     17166.61    33425.152   -2825.8816    20900.559    363.80397   -5208.1798   -5307.9598    81.637277 
   16100    444.07044   -107.10105   0.40180426   -106.69924    3458.0576    4.3646236    4.3646236    4.3646236    3458.0576    30416.374   -24784.355    4742.1546   -15449.101   -1903.4432    6803.2729    83.145812 
   16200    1096.5575   -107.66846   0.99218824   -106.67627   -8828.3379    4.3740183    4.3740183    4.3740183   -8828.3379    8580.0289   -16617.211   -18447.831   -731.60675    397.91143   -6387.3398    83.683875 
   16300    963.28387   -107.54082   0.87159949   -106.66922    7365.3183    4.3499856    4.3499856    4.3499856    7365.3183    17947.556   -7303.7183    11452.117   -13416.481    4626.2286    70.287743    82.312055 
   16400    778.07317   -107.38811   0.70401696   -106.68409    10984.629    4.3531178    4.3531178    4.3531178    10984.629    -8878.235     28587.38    13244.742   -7179.0685    6325.0081    4111.6068     82.48999 
   16500    983.67252   -107.57258   0.89004756   -106.68253   -27770.314    4.3777638    4.3777638    4.3777638   -27770.314   -34011.281   -15708.439   -33591.222    5749.6528    847.21927    2807.7121    83.899035 
   16600    860.70509   -107.45882   0.77878406   -106.68003   -15312.886    4.3565981    4.3565981    4.3565981   -15312.886   -22088.324   -2781.5385   -21068.796   -6484.4962   -1398.8212    11914.268    82.688003 
   16700    1236.3189   -107.79724    1.1186473   -106.67859    4636.7368    4.3396665    4.3396665    4.3396665    4636.7368   -12077.095   -8069.1161    34056.422   -1820.4067   -1567.9011   -5575.8608     81.72766 
   16800    1000.9236   -107.59481   0.90565667   -106.68916   -25382.512    4.3740708    4.3740708    4.3740708   -25382.512   -36403.645   -5997.7475   -33746.142     6399.785    3410.3428     7192.178    83.686891 
   16900    847.40099   -107.43875   0.76674623   -106.67201   -34400.128     4.370789     4.370789     4.370789   -34400.128   -45018.928   -25590.004   -32591.452   -10030.454   -3273.8503    8207.1088    83.498666 
   17000    1019.1516   -107.57864   0.92214976   -106.65649    21220.246    4.3375422    4.3375422    4.3375422    21220.246    -4573.713    38045.474    30188.976    -1566.493   -4016.6164    -7254.376    81.607701 
   17100    1025.8212   -107.61226   0.92818462   -106.68407   -9891.2625     4.362208     4.362208     4.362208   -9891.2625    14130.257   -10256.368   -33547.676   -5533.8345    863.59054    13234.728    83.007842 
   17200    1088.7189   -107.66643   0.98509572   -106.68133   -17896.336    4.3719163    4.3719163    4.3719163   -17896.336   -14763.373   -22017.667   -16907.968   -3554.0929   -6610.5596    3589.7262    83.563285 
   17300    693.62777   -107.30572   0.62760898   -106.67811    7404.8715    4.3493173    4.3493173    4.3493173    7404.8715    12292.199    40408.937   -30486.521    12232.406     2934.228    5628.2075    82.274124 
   17400    771.95988   -107.38433   0.69848552   -106.68585    5229.3315    4.3475772    4.3475772    4.3475772    5229.3315    28728.894   -9593.4931   -3447.4066   -995.94666    3647.4702    2550.9277    82.175416 
   17500    888.36547   -107.48734   0.80381175   -106.68353   -2250.9564    4.3722674    4.3722674    4.3722674   -2250.9564   -7795.4995    2011.8249   -969.19462    4588.9762    3250.8322   -7517.8886    83.583421 
   17600    772.98439   -107.37437   0.69941252   -106.67495   -36.986198    4.3617832    4.3617832    4.3617832   -36.986198    17477.474   -24145.527    6557.0944     2718.367    6815.7467    4344.6923    82.983594 
   17700    667.92756   -107.27281    0.6043549   -106.66846    24589.504    4.3417792    4.3417792    4.3417792    24589.504    12988.731    12884.687    47895.095   -10690.985    7290.7324    6442.5237    81.847082 
   17800    700.04337   -107.31598   0.63341395   -106.68256    -5580.215    4.3654889    4.3654889    4.3654889    -5580.215   -14565.985    5467.8497   -7642.5096    14.591494    8586.4153   -1018.4823    83.195274 
   17900    890.51093   -107.48503   0.80575301   -106.67928   -11156.426    4.3657249    4.3657249    4.3657249   -11156.426   -1538.1433   -10805.196   -21125.939   -8058.4596    597.14712    15503.442    83.208772 
   18000    1019.3592    -107.5952   0.92233766   -106.67286    17234.497    4.3403032    4.3403032    4.3403032    17234.497    35150.829    16658.347   -105.68578   -15207.025    3844.4479   -1994.8661    81.763637 
   18100    850.76855   -107.46217   0.76979327   -106.69238   -9574.6932     4.357737     4.357737     4.357737   -9574.6932    3437.4113   -8346.2105   -23815.281    11345.022    373.66677    1447.2858    82.752867 
   18200    867.95496   -107.46584   0.78534389   -106.68049   -32546.196    4.3754475    4.3754475    4.3754475   -32546.196   -7082.5224   -36269.807   -54286.257   -1617.7754   -2065.5701    1949.1341    83.765933 
   18300    1092.3105   -107.66193   0.98834552   -106.67359    9384.1663    4.3399185    4.3399185    4.3399185    9384.1663   -6648.5496     11477.02    23324.028   -326.65966    201.47287   -4823.9006    81.741899 
   18400    1069.6381   -107.65364   0.96783103   -106.68581    1505.3807    4.3440894    4.3440894    4.3440894    1505.3807    13482.762    5302.2166   -14268.836     8185.338    2300.6331    13439.176    81.977802 
   18500    825.98124   -107.43284   0.74736518   -106.68547   -16509.936    4.3777682    4.3777682    4.3777682   -16509.936    8635.4929   -19943.073   -38222.229   -16497.879    4997.8296   -2452.9369    83.899291 
   18600    760.62589   -107.36948   0.68823029   -106.68125    18418.951    4.3470169    4.3470169    4.3470169    18418.951    39515.201    8131.9078    7609.7437    2830.8865   -4182.9248    7309.9514    82.143651 
   18700    770.02333   -107.38102   0.69673329   -106.68429     16448.32    4.3452601    4.3452601    4.3452601     16448.32    36085.296    3433.4797    9826.1841   -3659.7127     11746.19    11383.742    82.044096 
   18800    1244.3265   -107.80065    1.1258928   -106.67475   -19620.302    4.3719959    4.3719959    4.3719959   -19620.302   -30346.118   -19953.617   -8561.1713   -7084.9186   -3958.6389    -5016.661    83.567852 
   18900    619.65381   -107.23449   0.56067579   -106.67382    16844.071    4.3495612    4.3495612    4.3495612    16844.071    37967.624    21211.994   -8647.4065    11801.104   -6713.3897    13945.354     82.28797 
   19000    859.80296   -107.45764   0.77796779   -106.67968   -2718.9598    4.3500507    4.3500507    4.3500507   -2718.9598    22438.547   -13158.989   -17436.437    6526.2052   -3077.9643    1183.2892    82.315754 
   19100    792.55039   -107.39837   0.71711625   -106.68126    6356.8681    4.3622441    4.3622441    4.3622441    6356.8681    38829.067   -3747.7608   -16010.702    5649.7759   -6659.8014    3582.4267    83.009899 
   19200    911.02234   -107.50911   0.82431216    -106.6848   -663.37861    4.3517187    4.3517187    4.3517187   -663.37861    12357.027   -35121.365    20774.203    3279.5613   -6390.3273    7617.4321    82.410479 
   19300     947.6861   -107.54583    0.8574863   -106.68834    312.77544    4.3538848    4.3538848    4.3538848    312.77544     331.7506    12651.382   -12044.807   -3391.9439     7687.029   -8274.4934    82.533602 
   19400    886.93875   -107.48949   0.80252082   -106.68697    4112.3936    4.3561127    4.3561127    4.3561127    4112.3936    13208.133   -20903.318    20032.366    1912.4929    4221.5899    8011.9207    82.660365 
   19500    653.86752   -107.28202   0.59163307   -106.69039   -1916.0296    4.3648739    4.3648739    4.3648739   -1916.0296    26147.033   -8080.7221     -23814.4    9508.4789    7460.3161    -2804.629    83.160119 
   19600    1246.4353   -107.80581    1.1278008   -106.67801    8056.1969    4.3455368    4.3455368    4.3455368    8056.1969    30949.578   -2577.0177   -4203.9695    3291.6373   -5879.9977   -619.65188    82.059771 
   19700    567.55054    -107.2026   0.51353165   -106.68907     5447.535    4.3548933    4.3548933    4.3548933     5447.535     46775.72   -13844.357   -16588.758    13839.776    2057.4625    10614.449     82.59097 
   19800    1052.7909   -107.63436   0.95258733   -106.68177   -30555.128    4.3693811    4.3693811    4.3693811   -30555.128   -31142.266    -19531.58    -40991.54    5954.8445   -5638.7803   -6956.5558    83.417998 
   19900    1012.3861   -107.59794   0.91602824   -106.68191    17198.804     4.342208     4.342208     4.342208    17198.804    72009.418   -9149.9702   -11263.036   -6286.2186    797.64196    10836.031    81.871334 
   20000    827.90568   -107.44317   0.74910646   -106.69406    8118.1072    4.3565193    4.3565193    4.3565193    8118.1072     30765.51   -19758.655    13347.466    13909.533    5572.1226    2565.2822    82.683512 
   20100    949.50679   -107.54216    0.8591337   -106.68302    -14903.58    4.3681383    4.3681383    4.3681383    -14903.58    39408.116   -41191.165   -42927.689    2042.8019    3931.8801    2881.5433    83.346843 
   20200    874.31461    -107.4727   0.79109823    -106.6816    -3900.604    4.3427304    4.3427304    4.3427304    -3900.604     6839.978    8815.9477   -27357.738    4616.0858    8373.1472    8569.8047    81.900886 
   20300    1144.6536   -107.72301    1.0357066   -106.68731   -2531.6112    4.3544958    4.3544958    4.3544958   -2531.6112    19337.971   -29377.634    2444.8301    10705.133    -2376.518   -2374.1894    82.568352 
   20400    794.85088   -107.40473   0.71919778   -106.68553   -5078.9704    4.3665621    4.3665621    4.3665621   -5078.9704    45081.045   -25121.433   -35196.524   -8175.4336   -72.974186    11319.231     83.25665 
   20500    692.52727   -107.30403   0.62661323   -106.67742    24956.932    4.3395585    4.3395585    4.3395585    24956.932    74776.304    14428.266   -14333.775    6087.9177    3263.2851   -1558.4117    81.721556 
   20600    918.69901   -107.51734   0.83125817   -106.68608   -9343.7988    4.3539653    4.3539653    4.3539653   -9343.7988    12369.103   -6739.9474   -33660.552    5120.4391   -2673.3602    1211.3891     82.53818 
   20700    928.32628   -107.52358   0.83996913   -106.68361    -22376.92    4.3625332    4.3625332    4.3625332    -22376.92    -22833.39   -5865.8382   -38431.532   -10750.978    7210.6606    559.09955    83.026406 
   20800    1223.2561   -107.78331    1.1068278   -106.67648    7477.0809    4.3413524    4.3413524    4.3413524    7477.0809    18604.668    11073.136   -7246.5609    11857.393   -1789.9655   -2238.3083    81.822947 
   20900    531.95774   -107.17315   0.48132654   -106.69182   -223.22565    4.3569486    4.3569486    4.3569486   -223.22565    60452.468    -12329.56   -48792.585    976.75532   -584.18584    5718.4579    82.707962 
   21000     704.3244   -107.32754   0.63728752   -106.69025   -3360.6031    4.3574834    4.3574834    4.3574834   -3360.6031    54954.242   -26542.632    -38493.42   -8885.6989    1438.1113   -3481.9399    82.738422 
   21100    1199.6437   -107.76941    1.0854628   -106.68395     17429.28    4.3407032    4.3407032    4.3407032     17429.28    25037.789    17981.978    9268.0734    4973.3388   -968.00394    14671.123    81.786245 
   21200    1072.8977   -107.66278   0.97078038     -106.692   -31764.536     4.367712     4.367712     4.367712   -31764.536   -28340.217    -33394.14   -33559.253   -9271.7639   -4288.3295    3823.4472    83.322439 
   21300    862.59308   -107.46375   0.78049235   -106.68326   -4344.2418    4.3549636    4.3549636    4.3549636   -4344.2418    15359.235    3350.7477   -31742.708   -9615.4658      8866.65    -3663.635    82.594967 
   21400    763.88776   -107.36913    0.6911817   -106.67795    32826.927    4.3323005    4.3323005    4.3323005    32826.927    74201.103    3782.9308    20496.747   -3213.7264    417.07355    13331.487    81.312204 
   21500    845.39849   -107.46036   0.76493432   -106.69542   -8561.2938    4.3677875    4.3677875    4.3677875   -8561.2938    23258.415   -30748.705   -18193.591   -9212.6279    3977.8643   -11721.113    83.326762 
   21600    1003.1501    -107.5933   0.90767129   -106.68563    -11092.39    4.3562909    4.3562909    4.3562909    -11092.39    26972.812    -24719.19   -35530.792   -9413.7757    7244.3761    7184.5293    82.670508 
   21700     839.0509   -107.43143   0.75919088   -106.67224    21112.313    4.3277067    4.3277067    4.3277067    21112.313        20522    24763.038    18051.903    11202.327   -1801.9846   -1806.7552    81.053817 
   21800    849.28007   -107.45872   0.76844646   -106.69028   -22741.312    4.3652485    4.3652485    4.3652485   -22741.312   -33415.481   -13212.741   -21595.714   -10548.637    97.834757   -7557.9021     83.18153 
   21900    1084.8577   -107.66398   0.98160202   -106.68238   -9403.1551    4.3585398    4.3585398    4.3585398   -9403.1551   -7916.1283   -4189.9903   -16103.347    3558.3793   -6203.2231    6527.4601    82.798611 
   22000    973.19976   -107.55323    0.8805716   -106.67266    21313.664    4.3395374    4.3395374    4.3395374    21313.664    46634.945    3478.9922    13827.055   -4770.3035   -11494.548    -8139.609    81.720366 
   22100    595.23851   -107.22171   0.53858431   -106.68312   -5554.7201    4.3592091    4.3592091    4.3592091   -5554.7201    37668.654   -14848.203   -39484.611   -11766.887    6147.0943    11772.751    82.836758 
   22200    845.08791   -107.44452    0.7646533   -106.67987   -8784.2832    4.3564997    4.3564997    4.3564997   -8784.2832    39880.351   -20308.896   -45924.304    5563.6651   -1492.2358    -919.5826    82.682401 
   22300    1070.8973   -107.64787   0.96897036    -106.6789    -1907.422    4.3478481    4.3478481    4.3478481    -1907.422    16959.313   -17468.891   -5212.6873   -7301.2563    3426.6414    4913.8064    82.190776 
   22400    988.60201   -107.58266   0.89450788   -106.68815   -10722.262     4.351258     4.351258     4.351258   -10722.262   -9419.9501    10581.598   -33328.434   -8206.4712    13064.486    14033.896     82.38431 
   22500    1092.0115   -107.67569   0.98807495   -106.68761   -12320.428    4.3557546    4.3557546    4.3557546   -12320.428    21178.423   -12892.923   -45246.786    2418.2034    2890.8814   -3616.5499    82.639981 
   22600    777.09668   -107.39132   0.70313341   -106.68818    7101.5221    4.3484171    4.3484171    4.3484171    7101.5221     34020.56     11047.45   -23763.444   -8145.8048    5400.1237    8025.3686    82.223051 
   22700     613.9848   -107.24632   0.55554635   -106.69078    8736.3673    4.3562366    4.3562366    4.3562366    8736.3673    52328.975   -4645.8391   -21474.034   -10255.839   -1055.4752    5201.0703    82.667419 
   22800    1083.1166   -107.65937   0.98002667   -106.67935    4526.0862    4.3506775    4.3506775    4.3506775    4526.0862    25273.161   -6667.6708   -5027.2316   -2498.5403   -9217.8404   -4679.1749    82.351343 
   22900    966.38288   -107.55972   0.87440354   -106.68532   -14694.327    4.3499741    4.3499741    4.3499741   -14694.327   -5929.0865   -20612.227   -17541.666   -6329.6469     9534.707    5991.2825    82.311405 
   23000    1023.4116   -107.60737   0.92600429   -106.68136   -11480.116    4.3620706    4.3620706    4.3620706   -11480.116   -10089.163    5759.0338   -30110.218    236.43804     5482.087   -2629.4783    82.999995 
   23100    807.32004   -107.40887   0.73048014   -106.67839    2660.5234    4.3526706    4.3526706    4.3526706    2660.5234    32386.315   -21577.683   -2827.0626    2152.8688    4669.3517    3398.8583    82.464569 
   23200    610.32938   -107.23597   0.55223885   -106.68373    9407.8197    4.3477411    4.3477411    4.3477411    9407.8197    67339.477   -15498.163   -23617.854    -10875.34    16386.128    33.123187    82.184708 
   23300    959.78654   -107.55126   0.86843503   -106.68283    5357.5952    4.3557468    4.3557468    4.3557468    5357.5952    37376.801   -2523.5343   -18780.481    9657.2127    4772.5058   -6287.6985    82.639536 
   23400    943.64581   -107.53774   0.85383056   -106.68391   -17162.345    4.3600901    4.3600901    4.3600901   -17162.345    -22945.03   -18712.786   -9829.2194   -15616.251    3086.6047     11779.86    82.886996 
   23500    1138.0465   -107.70813    1.0297284    -106.6784   -1374.2682    4.3472986    4.3472986    4.3472986   -1374.2682    10874.396   -758.86216   -14238.339    904.08864   -2444.0274    -11389.98    82.159617 
   23600    856.28789   -107.45456   0.77478728   -106.67977    3888.3904    4.3483354    4.3483354    4.3483354    3888.3904    21512.254   -125.19914   -9721.8834    4849.1214   -12240.627    6622.2244    82.218417 
   23700    441.24056   -107.08355   0.39924373    -106.6843    5830.9856    4.3592663    4.3592663    4.3592663    5830.9856    31643.836   -6645.6781   -7505.2009   -10310.327    1609.3321    4201.6286    82.840023 
   23800    1122.9656    -107.6936    1.0160829   -106.67752    2560.4531    4.3481584    4.3481584    4.3481584    2560.4531    48319.533   -11353.417   -29284.757     14743.25   -1408.0889   -3539.8494    82.208374 
   23900    1044.4868   -107.62484   0.94507363   -106.67976   -5228.7942    4.3505647    4.3505647    4.3505647   -5228.7942    20215.894     -21801.3   -14100.977   -7605.7929     -2150.41     10173.29    82.344937 
   24000    1016.1243   -107.60041   0.91941063     -106.681   -26710.839    4.3607583    4.3607583    4.3607583   -26710.839   -23099.715     -37925.8   -19107.004   -11416.234    18031.797   -1358.4129     82.92511 
   24100    701.23438    -107.3207    0.6344916   -106.68621    6251.9648    4.3483446    4.3483446    4.3483446    6251.9648    50026.675    873.43697   -32144.217   -739.27075     8870.911    12120.224     82.21894 
   24200    950.55221   -107.54567   0.86007961   -106.68559    13581.339    4.3435496    4.3435496    4.3435496    13581.339    69678.631       -16649   -12285.613   -9872.1245    797.47136   -1242.0044    81.947247 
   24300    879.60459   -107.48819   0.79588472    -106.6923   -16438.393    4.3591125    4.3591125    4.3591125   -16438.393     2926.999   -19448.947   -32793.232    1915.1251    411.19721    9880.3618    82.831255 
   24400    1077.9667   -107.66169   0.97536693   -106.68633   -6248.2416    4.3501666    4.3501666    4.3501666   -6248.2416    19221.754   -19911.244   -18055.235   -2221.7898   -706.14559    12308.043    82.322331 
   24500    1021.1725   -107.61108   0.92397833    -106.6871    4948.6637    4.3421684    4.3421684    4.3421684    4948.6637    46312.401    -16628.92   -14837.489   -1859.4224    2268.8786    -19.91574    81.869097 
   24600    452.79082   -107.10845   0.40969465   -106.69876    1275.6532    4.3570945    4.3570945    4.3570945    1275.6532    55622.012   -8075.4512   -43719.601   -3809.0395    10366.712    16914.778    82.716268 
   24700    929.53342   -107.52716   0.84106138    -106.6861    10625.887    4.3506314    4.3506314    4.3506314    10625.887    36335.965   -9232.8873     4774.583   -1044.7187    991.08987   -2509.3424    82.348724 
   24800    1071.1894   -107.65458   0.96923468   -106.68535   -20173.599     4.349808     4.349808     4.349808   -20173.599    919.74563   -42509.164   -18931.379   -9627.2777    11337.169    14766.432    82.301976 
   24900    928.35608   -107.52899    0.8399961   -106.68899   -4750.7113    4.3536709    4.3536709    4.3536709   -4750.7113    38420.637   -20281.555   -32391.216    3190.1114    6287.9741    9102.9926     82.52144 
   25000    794.45487   -107.40558   0.71883946   -106.68674    25153.225     4.343608     4.343608     4.343608    25153.225     59582.22   -330.60121    16208.058    63.228243   -9565.4672   -5546.1089     81.95055 
   25100    605.02238   -107.24267   0.54743696   -106.69524   -4872.4935    4.3524707    4.3524707    4.3524707   -4872.4935    30353.915   -29345.932   -15625.464   -3545.7605     10249.01    16129.298    82.453209 
   25200    1151.9014   -107.72796    1.0422646   -106.68569   -24130.084    4.3540294    4.3540294    4.3540294   -24130.084   -13972.222   -31585.189   -26832.842    4573.4034    12518.884   -298.56108    82.541828 
   25300    1000.7712    -107.5904   0.90551878   -106.68488    30175.786    4.3345571    4.3345571    4.3345571    30175.786    37662.823    12788.795    40075.739   -3899.1827   -2053.5852    4748.7652    81.439326 
   25400    874.65423   -107.48614   0.79140553   -106.69473   -8466.0708    4.3613599    4.3613599    4.3613599   -8466.0708    40343.189   -23944.355   -41797.046    -3690.667    4609.4069    4702.0194    82.959436 
   25500    697.67526   -107.31732   0.63127124   -106.68605   -4358.1853    4.3529826    4.3529826    4.3529826   -4358.1853    31700.122   -27551.536   -17223.143    6806.9952   -7167.2116    758.99215    82.482305 
   25600     856.0326   -107.45468   0.77455629   -106.68012    17330.886    4.3327115    4.3327115    4.3327115    17330.886    20084.891   -4624.8503    36532.618   -2121.6296   -732.74184    10054.195    81.335348 
   25700    1193.0846    -107.7679     1.079528   -106.68837   -24476.897    4.3609558    4.3609558    4.3609558   -24476.897    -8908.802    -35208.15   -29313.737    10283.259    8541.0196    1710.2448    82.936378 
   25800    893.04562   -107.49787   0.80804644   -106.68982     4946.109     4.351411     4.351411     4.351411     4946.109    32293.789   -25295.809    7840.3475    7121.8661   -1674.1051    8142.3031    82.392998 
   25900     864.4453    -107.4663   0.78216827   -106.68413    26391.846    4.3338967    4.3338967    4.3338967    26391.846    69702.056    -11183.94    20657.423    977.42866    2325.2886    2919.4368    81.402111 
   26000    818.28274   -107.43628   0.74039942   -106.69588   -10553.781    4.3505698    4.3505698    4.3505698   -10553.781    11514.534   -33565.764   -9610.1127    5514.3283     8774.373    2471.0866    82.345224 
   26100    890.33646   -107.49944   0.80559514   -106.69385   -14147.629    4.3599421    4.3599421    4.3599421   -14147.629   -11463.834   -32570.737    1591.6838    2495.9152   -18034.137     6540.886    82.878553 
   26200    1326.2011   -107.88224    1.1999746   -106.68227    16803.062    4.3372936    4.3372936    4.3372936    16803.062    55100.975   -10075.945    5384.1555   -3622.0571    15042.056   -5375.0511    81.593668 
   26300    447.84144   -107.10269   0.40521635   -106.69747    1229.8766    4.3484788    4.3484788    4.3484788    1229.8766    42450.863   -45099.581    6338.3481    6605.0402     4390.004    9029.1306    82.226548 
   26400      852.789   -107.46237   0.77162141   -106.69075   -14594.128    4.3586715    4.3586715    4.3586715   -14594.128    25138.866   -48353.294   -20567.956   -1220.8857   -9179.8049    433.65321    82.806114 
   26500    1198.6349   -107.77101      1.08455   -106.68646   -875.70206    4.3442552    4.3442552    4.3442552   -875.70206   -6437.1413   -8955.6258    12765.661    1520.3257   -1231.9823   -4980.5572    81.987187 
   26600     779.8745   -107.40128   0.70564683   -106.69563   -8551.7775    4.3425848    4.3425848    4.3425848   -8551.7775   -11213.902    -20970.57      6529.14    14356.924   -7258.8444    20423.006    81.892649 
   26700    1092.0659   -107.67825   0.98812421   -106.69013    321.75737    4.3496238    4.3496238    4.3496238    321.75737    26753.563   -30557.442    4769.1514   -2881.2694   -2158.4397   -1380.4291    82.291522 
   26800    545.68601   -107.18582   0.49374817   -106.69207    2179.8815    4.3558352    4.3558352    4.3558352    2179.8815    18349.527   -33752.906    21943.024    5668.0824    8211.6857     8675.268     82.64457 
   26900     854.8267   -107.46473   0.77346516   -106.69126    7393.9237    4.3393365    4.3393365    4.3393365    7393.9237    55576.983   -7756.3299   -25638.882    6203.4769   -6040.7482    13560.535    81.709019 
   27000    1306.2903   -107.87661    1.1819589   -106.69465    5408.5919    4.3486913    4.3486913    4.3486913    5408.5919    6755.2679   -8673.8713    18144.379   -8157.2129   -12790.906    583.59531    82.238604 
   27100    807.79873   -107.42141   0.73091326   -106.69049   -21995.662    4.3642956    4.3642956    4.3642956   -21995.662    18140.824   -52199.545   -31928.266    4807.5181    5703.2474    14008.489    83.127069 
   27200     875.7443   -107.47493   0.79239184   -106.68254    8345.0584    4.3386401    4.3386401    4.3386401    8345.0584    45934.021   -21238.918    340.07255     -5929.58   -6732.3966   -2613.7737    81.669683 
   27300    859.13598   -107.46754   0.77736429   -106.69018    21987.243    4.3395088    4.3395088    4.3395088    21987.243    58094.052   -2118.2082    9985.8867   -5933.7186    9772.4214    11030.573    81.718751 
   27400    1159.8304   -107.73735     1.049439   -106.68791   -17955.116    4.3627128    4.3627128    4.3627128   -17955.116    3704.7676     -30448.8   -27121.315    12016.859    6725.2055    3908.5937    83.036661 
   27500    639.69901   -107.27426   0.57881311   -106.69545    1494.4249    4.3426158    4.3426158    4.3426158    1494.4249    20736.351   -23795.045    7541.9681   -3885.6521   -10998.371    1394.7917    81.894403 
   27600    817.83771   -107.43907   0.73999674   -106.69907    7126.8548    4.3355755    4.3355755    4.3355755    7126.8548    49608.629   -32330.499    4102.4345   -480.36504    -8249.225    14272.768    81.496742 
   27700    894.58979   -107.50278   0.80944364   -106.69333   -14768.964    4.3704207    4.3704207    4.3704207   -14768.964    19916.592   -21657.101   -42566.384    2711.2415   -712.81103   -3370.6817    83.477559 
   27800    972.95299   -107.56829   0.88034831   -106.68794    679.27956    4.3444076    4.3444076    4.3444076    679.27956    1405.8249   -15721.733    16353.747   -13299.772   -9761.6382    13753.987    81.995817 
   27900    976.48603   -107.57346   0.88354508   -106.68992    12907.841    4.3410469    4.3410469    4.3410469    12907.841    65556.588   -17833.816   -8999.2477   -2115.0902    6316.6242   -477.17993    81.805676 
   28000    1036.9407   -107.62685   0.93824578   -106.68861   -17977.187     4.358767     4.358767     4.358767   -17977.187   -1850.3661   -32520.398   -19560.796   -2212.9495    851.77822   -155.17609    82.811562 
   28100    555.11703   -107.19111   0.50228156   -106.68882    23561.833    4.3537953    4.3537953    4.3537953    23561.833    89640.352   -16789.186   -2165.6668   -11831.658   -7778.6521    10906.809    82.528513 
   28200     1408.546   -107.95798     1.274482   -106.68349   -12843.606    4.3532728    4.3532728    4.3532728   -12843.606    1706.0739   -17826.376   -22410.515    3734.9803   -4937.0151   -6098.6437    82.498804 
   28300    633.00306   -107.26517   0.57275447   -106.69242    27680.827    4.3424741    4.3424741    4.3424741    27680.827    97412.964   -21908.936    7538.4514    4430.5089    4390.8649    7735.5935    81.886386 
   28400    825.57057   -107.44472    0.7469936   -106.69773   -19638.366    4.3645382    4.3645382    4.3645382   -19638.366    6596.5278   -49436.133   -16075.492   -348.25731   -8126.9925   -1459.6783    83.140936 
   28500    1071.8562   -107.65921     0.969838   -106.68937    7620.9545    4.3463741    4.3463741    4.3463741    7620.9545    58019.212   -15860.682   -19295.667    3291.5272    14122.319    610.23086     82.10721 
   28600     779.3342   -107.40566   0.70515796    -106.7005    11097.046    4.3420166    4.3420166    4.3420166    11097.046    37474.608   -19742.254    15558.783   -10416.328   -10333.104    5269.5174    81.860507 
   28700    812.08791   -107.43431   0.73479421   -106.69951   -8886.4972    4.3605026    4.3605026    4.3605026   -8886.4972    32204.474   -44617.639   -14246.326   -7193.4859   -13576.424    -7526.097    82.910524 
   28800    813.49076   -107.43111   0.73606354   -106.69505   -7021.3454    4.3564462    4.3564462    4.3564462   -7021.3454    38800.732   -38935.127   -20929.642    4364.4703    1034.8089    7199.1765    82.679352 
   28900    850.39112   -107.46193   0.76945175   -106.69248    8288.9011    4.3464857    4.3464857    4.3464857    8288.9011    20237.704   -9217.4798    13846.479   -2942.1348   -16888.631   -5910.3933    82.113539 
   29000    1025.6485   -107.62338   0.92802833   -106.69535    1229.1966      4.34785      4.34785      4.34785    1229.1966    47735.278   -24942.691   -19104.997    6795.9317    3674.5656   -1653.1249    82.190888 
   29100    904.29205   -107.51243   0.81822245   -106.69421   -4346.1478    4.3606023    4.3606023    4.3606023   -4346.1478      26521.6   -43103.481    3543.4375     4911.728   -5728.3132     10239.96    82.916212 
   29200    825.39664   -107.43436   0.74683623   -106.68752   -1094.9874    4.3559199    4.3559199    4.3559199   -1094.9874    41107.656   -32889.659   -11502.959   -8479.8622   -376.91786   -10915.674    82.649389 
   29300    978.61675   -107.57382     0.885473   -106.68834   -681.77709    4.3482018    4.3482018    4.3482018   -681.77709    39541.174   -25278.152   -16308.353    2419.1465   -3501.2954     12095.23    82.210837 
   29400    966.52112   -107.56836   0.87452862   -106.69383    18191.695     4.351003     4.351003     4.351003    18191.695    60036.235   -20652.596    15191.445   -5092.2723    14004.376    4450.2972    82.369829 
   29500    566.53398   -107.21974   0.51261185   -106.70712   -5230.7684    4.3567984    4.3567984    4.3567984   -5230.7684    20806.167   -46715.308    10216.836   -2282.0782    -2212.925    539.72925    82.699404 
   29600    868.54278    -107.4867   0.78587576   -106.70083   -3569.0057    4.3495151    4.3495151    4.3495151   -3569.0057    2029.7684   -55061.283    42324.497     14389.38   -4933.9451    14012.682    82.285354 
   29700    929.57568   -107.53743   0.84109961   -106.69633     8587.586    4.3593724    4.3593724    4.3593724     8587.586    46496.423    -25141.78    4408.1149   -7534.6701   -7219.6336   -1621.7352    82.846068 
   29800    783.31821   -107.40333   0.70876278   -106.69456   -6971.1812    4.3551989    4.3551989    4.3551989   -6971.1812    13202.661   -37258.334    3142.1295   -758.98258   -4516.2177    9158.1356    82.608358 
   29900    820.29655   -107.43062   0.74222155    -106.6884    3899.8073    4.3534586    4.3534586    4.3534586    3899.8073    61023.758   -49395.401    71.065178    3889.8426     85.78986    3449.4937    82.509369 
   30000    1244.7797   -107.81205    1.1263029   -106.68574   -15441.618    4.3590993    4.3590993    4.3590993   -15441.618    4577.8998   -43102.478   -7800.2769   -4748.3761    6024.6046    3413.4686    82.830502 
   30100    967.78706   -107.56178   0.87567407    -106.6861   -5290.0408    4.3586131    4.3586131    4.3586131   -5290.0408    9535.4829   -31645.347    6239.7417    11499.274    7611.7178    4620.7578    82.802788 
   30200    1045.9469   -107.62696   0.94639469   -106.68056   -6898.8688    4.3598601    4.3598601    4.3598601   -6898.8688    14346.365   -36537.557    1494.5859   -5670.5312   -2882.8106   -7186.2138    82.873875 
   30300    635.60526   -107.25669     0.575109   -106.68158    32542.945    4.3370837    4.3370837    4.3370837    32542.945    69852.981   -37487.325    65263.179    4748.2335   -7074.9824    11212.443    81.581823 
   30400    971.96258   -107.58038   0.87945217   -106.70093   -19648.914    4.3627451    4.3627451    4.3627451   -19648.914   -19627.181   -50968.309    11648.748    5043.0194   -3044.4732    -2199.235    83.038504 
   30500    1061.3404   -107.65095   0.96032306   -106.69063    1257.2239    4.3569218    4.3569218    4.3569218    1257.2239    18009.724   -36269.113     22031.06   -11715.155    7139.8253   -529.35601    82.706432 
   30600    1040.3216   -107.62741   0.94130487    -106.6861     1230.003    4.3379125    4.3379125    4.3379125     1230.003    23847.286   -27558.395     7401.118    10322.501      6357.68    14333.903    81.628604 
   30700    538.29803   -107.18618   0.48706337   -106.69912   -6051.3632    4.3601684    4.3601684    4.3601684   -6051.3632    15201.654   -43729.465    10373.721    939.07673   -4371.2825   -4266.2197    82.891461 
   30800    964.36114   -107.56159   0.87257423   -106.68901    575.91571    4.3630297    4.3630297    4.3630297    575.91571    26567.249   -40066.465    15226.963   -2933.5257   -4737.8509     13103.39    83.054755 
   30900    1004.3293   -107.59639   0.90873827   -106.68766   -743.62595    4.3523538    4.3523538    4.3523538   -743.62595    23691.597   -39924.815     14002.34    2698.4096   -12591.949    3929.0538    82.446566 
   31000    684.36978   -107.31281   0.61923216   -106.69358    22496.645    4.3427806    4.3427806    4.3427806    22496.645    22445.427   -18869.339    63913.847   -11850.519    2404.7354    3022.0874    81.903727 
   31100    943.57498   -107.55283   0.85376647   -106.69907   -21044.385    4.3649304    4.3649304    4.3649304   -21044.385    3420.4182   -52582.272   -13971.302    54.615977   -980.14784    8629.9218    83.163346 
   31200    1014.1166   -107.61101   0.91759405   -106.69341   -6463.1148    4.3476786    4.3476786    4.3476786   -6463.1148    8883.5918   -33894.856    5621.9196   -14197.558    4300.0991    -3738.127    82.181165 
   31300    838.15518   -107.45233   0.75838042   -106.69394    16643.226     4.347345     4.347345     4.347345    16643.226     46332.62   -27284.255    30881.313   -9187.2601   -13335.498   -699.76678     82.16225 
   31400    790.37577   -107.40396   0.71514861   -106.68882   -10594.424    4.3653871    4.3653871    4.3653871   -10594.424   -15730.351    -51069.28    35016.359   -6407.6643   -6697.1643    8210.1655    83.189458 
   31500    735.10287   -107.34384   0.66513652    -106.6787     15831.61    4.3468794    4.3468794    4.3468794     15831.61    31696.917   -33283.202    49081.117   -12274.455   -5654.1013   -7087.1718    82.135854 
   31600    1106.6089   -107.68477     1.001283   -106.68349   -16733.894    4.3606183    4.3606183    4.3606183   -16733.894   -18633.854   -26040.681   -5527.1456   -1645.9343    12386.686    3567.9905     82.91712 
   31700    982.05286   -107.57019   0.88858207   -106.68161   -18061.068    4.3613043    4.3613043    4.3613043   -18061.068   -4783.8689   -29269.129   -20130.206   -10604.023    6138.2907   -3579.0143    82.956259 
   31800    1058.7987   -107.63873   0.95802327    -106.6807    7480.9514    4.3499547    4.3499547    4.3499547    7480.9514      27342.7   -33456.536    28556.691    3723.5907    2697.3149    1500.4278    82.310301 
   31900    812.85255   -107.42143   0.73548607   -106.68595    5341.8494    4.3568823    4.3568823    4.3568823    5341.8494    6258.9624   -30608.819    40375.405   -2601.8368   -6433.3426    8999.3297    82.704183 
   32000    757.36646   -107.38003   0.68528109   -106.69475    7961.1613    4.3584648    4.3584648    4.3584648    7961.1613    3765.2075   -29057.487    49175.764   -4171.1784   -6538.2817     2748.107    82.794339 
   32100    1206.6319   -107.78244    1.0917859   -106.69066   -4803.6583    4.3546907    4.3546907    4.3546907   -4803.6583   -3686.0637    -27295.27    16570.359    14106.201   -6953.4098    2721.7183    82.579443 
   32200    672.92346   -107.30616   0.60887528   -106.69729    3444.3692    4.3467803    4.3467803    4.3467803    3444.3692    6571.8319   -18444.254     22205.53   -11666.441     5144.367    2040.1204    82.130238 
   32300    856.00196   -107.47579   0.77452856   -106.70126   -2380.5575     4.359799     4.359799     4.359799   -2380.5575   -29710.111    -37861.01    60429.449     8868.006    1801.2057   -10926.464    82.870395 
   32400    1194.7683   -107.77704    1.0810514   -106.69599   -5344.4514    4.3585187    4.3585187    4.3585187   -5344.4514   -14834.668   -23573.648    22374.962    1290.0212    3219.9078   -7384.5849    82.797407 
   32500    561.60941   -107.20552     0.508156   -106.69737    16839.268     4.346475     4.346475     4.346475    16839.268    5126.6327   -13548.177    58939.347    -9823.161   -3353.2449   -4979.4757    82.112934 
   32600    1081.1303   -107.66806    0.9782294   -106.68983    -18479.24    4.3575819    4.3575819    4.3575819    -18479.24   -10232.407   -23220.759   -21984.553    2112.6692    12055.747   -873.38592    82.744029 
   32700    759.32356   -107.37289   0.68705191   -106.68584   -1909.0366    4.3610827    4.3610827    4.3610827   -1909.0366   -20936.246   -26913.826    42122.962   -7077.7731   -4106.8876    8104.0466    82.943618 
   32800    743.36208   -107.35906   0.67260963   -106.68645    4030.3626    4.3566981    4.3566981    4.3566981    4030.3626   -18656.295   -11609.281    42356.664    2673.0555    14973.599    10270.545    82.693695 
   32900    1036.7491   -107.62051   0.93807237   -106.68244    17431.052    4.3491908    4.3491908    4.3491908    17431.052    11334.315   -13402.499    54361.339   -9863.1046    1035.1021    8658.1611    82.266945 
   33000    962.20508   -107.56096   0.87062338   -106.69034   -21936.333    4.3600467    4.3600467    4.3600467   -21936.333   -23466.626   -28973.906   -13368.467   -34.208312   -4380.0465    555.58879    82.884521 
   33100    605.95632   -107.24123   0.54828201   -106.69294   -2833.8246    4.3624757    4.3624757    4.3624757   -2833.8246   -19252.522   -20683.153      31434.2    4665.2653    892.18581   -6222.7258    83.023121 
   33200     1034.731   -107.61753   0.93624632   -106.68128    11248.233    4.3455533    4.3455533    4.3455533    11248.233     12507.91    465.76746    20771.022   -4771.9943    2065.6139   -9040.4251    82.060708 
   33300    788.04421   -107.40408   0.71303896   -106.69104    2746.9172     4.356248     4.356248     4.356248    2746.9172   -28241.454   -21593.869    58076.075     2088.149    2388.6173   -7777.6048    82.668066 
   33400    950.42743   -107.54875   0.85996671   -106.68879   -21536.754    4.3644169    4.3644169    4.3644169   -21536.754   -20341.742   -7387.9138   -36880.608    1248.3234    17535.433   -7723.7942       83.134 
   33500    849.49206   -107.45321   0.76863827   -106.68457    13130.063    4.3425622    4.3425622    4.3425622    13130.063    12729.039   -10619.469     37280.62    9418.6211   -3475.4521     10724.81    81.891369 
   33600    863.22921   -107.47419   0.78106793   -106.69313   -8850.4562    4.3628138    4.3628138    4.3628138   -8850.4562   -18615.742   -18433.257    10497.631    4615.1293    12.235632    5188.1902    83.042427 
   33700     633.3939    -107.2586   0.57310812   -106.68549   -1704.2095    4.3661385    4.3661385    4.3661385   -1704.2095    -21511.06   -28094.814    44493.246    5564.6195    1136.7571    1294.4149    83.232422 
   33800    927.77959   -107.51595   0.83947447   -106.67648    10221.212    4.3430542    4.3430542    4.3430542    10221.212    6594.2084    2204.9653    21864.463    16833.069    -2041.458    8496.3413    81.919209 
   33900    965.85419   -107.56072   0.87392517   -106.68679   -18413.294    4.3588431    4.3588431    4.3588431   -18413.294   -26799.833   -14798.407   -13641.641    -2305.749    7742.4629   -3324.0504    82.815898 
   34000    787.79936   -107.39908   0.71281741   -106.68626   -8603.0879    4.3627725    4.3627725    4.3627725   -8603.0879   -19219.359   -16256.579    9666.6741     11014.13    5126.8664   -8407.7163    83.040068 
   34100     1011.115   -107.59748   0.91487808    -106.6826    4036.3912    4.3503864    4.3503864    4.3503864    4036.3912   -18015.417   -12835.233    42959.823    4646.3334   -6514.8188   -4235.6324    82.334812 
   34200    711.99777   -107.33354   0.64423055   -106.68931   -3807.3714    4.3538039    4.3538039    4.3538039   -3807.3714   -10135.289   -23032.192    21745.367    -3903.064    2915.8726   -6096.2567    82.529001 
   34300    893.94311   -107.49825   0.80885852   -106.68939   -22786.722     4.360585     4.360585     4.360585   -22786.722   -31920.431   -50591.804     14152.07    12800.758    872.62852    4669.1324    82.915222 
   34400    1161.6808   -107.73478    1.0511132   -106.68367    5928.4823    4.3508767    4.3508767    4.3508767    5928.4823    2512.7755    8001.3121    7271.3594    1306.1897    1159.3291    3783.3217    82.362651 
   34500    805.01857   -107.42169   0.72839772   -106.69329   -20091.728    4.3575779    4.3575779    4.3575779   -20091.728   -37136.301   -23639.638    500.75484    6626.8393    7759.6567   -1903.6811    82.743802 
   34600    783.07491   -107.39772   0.70854264   -106.68917    4155.5914     4.354229     4.354229     4.354229    4155.5914   -17484.643   -30483.138    60434.555   -5824.2287    4700.0706    1881.6898     82.55318 
   34700    990.54878   -107.58306   0.89626935   -106.68679    12778.888    4.3511244    4.3511244    4.3511244    12778.888   -5469.3181    11252.477    32553.506     7657.096   -2034.3257    1235.0528    82.376722 
   34800    825.09441   -107.43664   0.74656276   -106.69008   -26669.747    4.3655115    4.3655115    4.3655115   -26669.747    -36342.49   -21628.546   -22038.205    5672.9468    12724.013   -13864.401    83.196568 
   34900    1256.6354   -107.81291    1.1370301   -106.67588   -436.07395    4.3481849    4.3481849    4.3481849   -436.07395   -9472.3062    10956.421   -2792.3365   -11642.403     -7052.19     5270.918    82.209882 
   35000    752.03107   -107.36335   0.68045352    -106.6829   -4858.2918    4.3533887    4.3533887    4.3533887   -4858.2918   -20395.816   -16778.406    22599.347    15124.291    2950.2891   -214.15235    82.505391 
   35100    609.66446   -107.23634   0.55163721    -106.6847   -8690.7771    4.3632875    4.3632875    4.3632875   -8690.7771   -30531.741    -26996.27    31455.679   -8935.0721    1535.7315    9467.5624    83.069479 
   35200     1112.664   -107.67965    1.0067617   -106.67289    12143.674    4.3486352    4.3486352    4.3486352    12143.674   -24636.116   -8924.6805    69991.819    4870.8013   -1650.8266    3840.5342     82.23542 
   35300    745.05255    -107.3582    0.6741392   -106.68406    -14273.66     4.361508     4.361508     4.361508    -14273.66   -41108.981   -9519.1039    7807.1055    749.50756     10904.11    327.26757    82.967884 
   35400    1005.8244    -107.5904   0.91009106   -106.68031   -17225.479    4.3579484    4.3579484    4.3579484   -17225.479   -37179.124   -18885.767    4388.4539   -5590.5925    2596.2793   -3545.3043    82.764911 
   35500    1125.8766   -107.69949    1.0187168   -106.68077    5154.9977    4.3490575    4.3490575    4.3490575    5154.9977   -6411.5656    11572.615    10303.944    8486.9315    -87.85187   -7760.4823    82.259384 
   35600     822.7536   -107.43558   0.74444474   -106.69113   -1842.8908    4.3584102    4.3584102    4.3584102   -1842.8908   -38903.238   -26770.864     60145.43   -13570.153    12836.563   -4519.3032    82.791226 
   35700    948.76126   -107.54373   0.85845913   -106.68527    12797.191     4.353645     4.353645     4.353645    12797.191   -29267.933    12430.922    55228.584    5120.0803   -5019.6125    419.42078    82.519968 
   35800    965.04657   -107.55827   0.87319441   -106.68508   -4405.6863    4.3533978    4.3533978    4.3533978   -4405.6863   -8560.3061   -12379.979    7723.2258   -5087.8087    5808.0284    5562.0152    82.505911 
   35900     912.7356   -107.51832   0.82586235   -106.69245   -21003.329    4.3550478    4.3550478    4.3550478   -21003.329   -29040.335   -36373.973    2404.3192   -6181.8543   -111.73202     2197.715    82.599759 
   36000    1089.8419   -107.67674   0.98611188   -106.69063    11419.467    4.3549715    4.3549715    4.3549715    11419.467    -10290.93   -448.09611    44997.427   -290.85235   -8812.0874    615.88438     82.59542 
   36100     549.9677   -107.18993   0.49762233   -106.69231    8744.0395    4.3574563    4.3574563    4.3574563    8744.0395   -26296.016   -18366.649    70894.784    -10444.66    6064.3953   -3178.4584    82.736877 
   36200    1104.5123   -107.68448   0.99938591   -106.68509   -14902.762    4.3479943    4.3479943    4.3479943   -14902.762   -9791.7639   -32519.486   -2397.0375    6586.4465    4391.5481   -442.16321    82.199067 
   36300     930.3069    -107.5322   0.84176123   -106.69043   -3536.4451    4.3607437    4.3607437    4.3607437   -3536.4451   -13586.696   -23924.146    26901.507   -4555.8726     6888.742    6139.6354    82.924274 
   36400    757.82708   -107.37762   0.68569787   -106.69192   -9697.1373    4.3555312    4.3555312    4.3555312   -9697.1373   -44196.444   -13380.315    28485.347     340.7727    18257.457    -629.1372    82.627265 
   36500    979.42561   -107.57296   0.88620487   -106.68675    16413.894    4.3435753    4.3435753    4.3435753    16413.894   -7832.2981   -9235.6363    66309.616    1686.7641    3456.9408   -4007.1023    81.948701 
   36600    1000.2295   -107.59858   0.90502868   -106.69356   -20093.041    4.3623497    4.3623497    4.3623497   -20093.041    -39299.45   -45832.385    24852.713   -3808.9743   -1269.8008   -1444.0689    83.015927 
   36700    919.39991   -107.52221   0.83189236   -106.69031   -13706.282    4.3571137    4.3571137    4.3571137   -13706.282   -30201.079   -17361.428    6443.6605    7212.2367   -1018.3286   -10233.522    82.717362 
   36800    784.10619   -107.39361   0.70947576   -106.68413    23134.665    4.3457333    4.3457333    4.3457333    23134.665   -22932.394   -5615.7662    97952.154   -11681.091   -5820.6141    5503.2669    82.070904 
   36900    1002.6127   -107.59871   0.90718507   -106.69153   -25569.384    4.3597841    4.3597841    4.3597841   -25569.384   -41689.267   -31078.082   -3940.8015    8594.7198    7143.9618    318.57074    82.869545 
   37000    933.62479   -107.53374   0.84476333   -106.68898    2478.3469    4.3445172    4.3445172    4.3445172    2478.3469   -11931.864   -11524.264    30891.169   -5392.1294    13954.731    3920.0465    82.002022 
   37100    834.74273   -107.45567   0.75529276   -106.70037    12081.442    4.3499327    4.3499327    4.3499327    12081.442   -16153.091   -22658.276    75055.694   -7380.7188     115.8284    5664.5415    82.309052 
   37200    684.85895   -107.31716   0.61967477   -106.69749   -9742.8057    4.3664548    4.3664548    4.3664548   -9742.8057   -42423.145   -28175.553    41370.281    7168.9304    1790.0375    5063.2878     83.25051 
   37300    891.48101   -107.49282   0.80663076   -106.68619    13909.864    4.3375607    4.3375607    4.3375607    13909.864   -4456.7756     688.0282    45498.338   -13627.602    3492.3286   -10068.795    81.608743 
   37400    1260.7756   -107.83249    1.1407762   -106.69172   -15007.476    4.3578395    4.3578395    4.3578395   -15007.476    -17124.97   -28482.197    584.73883    6669.0216   -3568.3218   -3450.2101    82.758706 
   37500    673.07694   -107.30287   0.60901416   -106.69385   -15172.353    4.3680316    4.3680316    4.3680316   -15172.353   -56197.674   -41952.294     52632.91   -16696.048    7113.5112   -4679.9694     83.34073 
   37600    802.89261   -107.41555   0.72647411   -106.68908     28301.17    4.3364977    4.3364977    4.3364977     28301.17   -2103.3939    14828.661    72178.241   -573.97401    7963.5382   -397.55393    81.548762 
   37700    1064.9561   -107.66951    0.9635947   -106.70592   -5599.8072    4.3531307    4.3531307    4.3531307   -5599.8072   -11206.582   -1218.6387   -4374.2012   -731.33615    3592.6629    7505.3285    82.490727 
   37800    878.31089   -107.48377   0.79471415   -106.68905   -40818.716    4.3780337    4.3780337    4.3780337   -40818.716   -55386.157   -47392.594   -19677.395   -16866.592    13801.855    1718.1289    83.914555 
   37900    980.82366   -107.55901   0.88746986   -106.67154    37682.557    4.3347768    4.3347768    4.3347768    37682.557    12176.537    22932.952    77938.182    8190.5679   -5674.9876    1603.7214    81.451714 
   38000    519.90573    -107.1674   0.47042163   -106.69697    4328.0382    4.3514044    4.3514044    4.3514044    4328.0382    -26610.04   -760.90528     40355.06   -20554.021    4373.1964   -8104.4529    82.392626 
   38100    1162.0557   -107.73028    1.0514524   -106.67883   -29408.638    4.3731556    4.3731556    4.3731556   -29408.638   -33836.136   -34193.086   -20196.691   -3024.0189    4213.1203   -1536.1118     83.63437 
   38200    874.55226   -107.47336   0.79131327   -106.68204    15140.633    4.3414004    4.3414004    4.3414004    15140.633   -8042.3014     33391.79    20072.411   -5297.6746   -3096.3503   -4141.7313    81.825663 
   38300    674.92643   -107.30783   0.61068762   -106.69715    3784.7061    4.3417606    4.3417606    4.3417606    3784.7061   -15316.303    11602.139    15068.282   -11056.266    16842.829    17221.085    81.846031 
   38400    1077.2035   -107.66254   0.97467636   -106.68786   -3018.6382    4.3725102    4.3725102    4.3725102   -3018.6382   -35848.362   -3987.1864    30779.634    711.01512   -6663.0489   -5839.6537    83.597345 
   38500    959.93927   -107.55748   0.86857323    -106.6889   -18943.165    4.3550835    4.3550835    4.3550835   -18943.165   -37553.664   -4169.4987   -15106.332     -8577.81    9096.4129   -8968.3038    82.601791 
   38600    773.91139   -107.38427   0.70025129   -106.68402    27473.097    4.3315016    4.3315016    4.3315016    27473.097   -9131.7536    37816.942    53734.101   -4394.5611    6682.0068   -2609.4938    81.267228 
   38700    1155.3252   -107.73694    1.0453625   -106.69158   -16438.947     4.367043     4.367043     4.367043   -16438.947   -38749.826    11718.618   -22285.633    4221.8692   -6112.0408    1203.2085     83.28416 
   38800    593.60069   -107.23212   0.53710238   -106.69502   -5139.2543    4.3601394    4.3601394    4.3601394   -5139.2543   -51774.959    40913.398   -4556.2022   -13386.812     7543.974    5808.0021    82.889805 
   38900    1131.5805    -107.7034    1.0238778   -106.67952    15515.487      4.34214      4.34214      4.34214    15515.487   -8180.8682    19982.461    34744.867    2413.8371   -2027.2262    1043.2061     81.86749 
   39000    1052.1711   -107.63723   0.95202654    -106.6852   -10157.859    4.3551262    4.3551262    4.3551262   -10157.859   -23315.178    13090.827   -20249.226   -7944.5307    1076.3087    2291.9074    82.604221 
   39100    555.39099   -107.18825   0.50252944   -106.68572    3333.7605    4.3644409    4.3644409    4.3644409    3333.7605    -41243.23     28625.87    22618.642    -10223.56    8231.0587   -8824.7804    83.135374 
   39200    1161.5099   -107.72536    1.0509586    -106.6744   -1759.4318     4.356759     4.356759     4.356759   -1759.4318    -14456.81    28815.684   -19637.169     14422.87   -480.26926   -629.15653    82.697162 
   39300     790.3157   -107.39547   0.71509425   -106.68038    12517.062    4.3436992    4.3436992    4.3436992    12517.062   -11956.521     54965.21   -5457.5027   -8482.8718    9001.2047    3354.2276     81.95571 
   39400    1032.2758   -107.62207   0.93402485   -106.68805   -5931.4852    4.3602118    4.3602118    4.3602118   -5931.4852   -8739.7619   -9150.0197    95.325794    5641.5568    300.66768    4621.8594    82.893933 
   39500    1059.8228    -107.6393   0.95894997   -106.68035   -21601.409    4.3630522    4.3630522    4.3630522   -21601.409   -19892.535   -7863.9347   -37047.756   -327.19732    5665.5729    8869.5917    83.056039 
   39600    778.20085   -107.38373   0.70413248    -106.6796    21822.242    4.3388508    4.3388508    4.3388508    21822.242   -5972.8148    60619.417    10820.123   -10472.104    11205.084   -1968.8004    81.681581 
   39700    911.62162   -107.51494    0.8248544   -106.69009    18195.544    4.3546372    4.3546372    4.3546372    18195.544    15848.873    34352.573    4385.1845     2019.481   -5879.8351    5205.6298    82.576396 
   39800    1003.7154   -107.59354   0.90818276   -106.68536   -33240.713    4.3702251    4.3702251    4.3702251   -33240.713   -38634.589   -12602.296   -48485.254   -13008.085    16562.486   -9040.9865    83.466347 
   39900    937.78658   -107.52646     0.848529   -106.67793    20052.718    4.3333485    4.3333485    4.3333485    20052.718    7023.1831    30969.529    22165.443   -7598.0007       2691.2   -1979.8169    81.371222 
   40000    809.96119   -107.43165    0.7328699   -106.69878    151.65511    4.3502626    4.3502626    4.3502626    151.65511     -16896.5    13119.737    4231.7277    7007.4682     3199.075   -1952.0784    82.327785 
   40100    980.18334   -107.57073   0.88689048   -106.68384   -32453.616    4.3739926    4.3739926    4.3739926   -32453.616    -44799.99   -10920.152   -41640.705   -8987.0654    17882.705    357.69878    83.682402 
   40200    810.99976   -107.40656   0.73380963   -106.67275     42281.73    4.3283826    4.3283826    4.3283826     42281.73    34026.138    47061.312     45757.74    1864.0351    -11244.29    5488.5731    81.091797 
   40300    819.92916   -107.43959   0.74188914    -106.6977   -10600.136    4.3534314    4.3534314    4.3534314   -10600.136   -16930.595    -3995.441   -10874.373    7371.0221    5703.6845    1751.0104    82.507818 
   40400    938.10212    -107.5229   0.84881451   -106.67408   -5176.6124    4.3659953    4.3659953    4.3659953   -5176.6124    3951.5248   -21985.038    2503.6754   -2442.6699   -521.69455    3083.8169    83.224228 
   40500    877.60398   -107.46354   0.79407453   -106.66946    2481.7104    4.3388561    4.3388561    4.3388561    2481.7104   -2261.3923   -17814.355    27520.879    6386.9325   -4271.7371   -14383.571    81.681884 
   40600    990.06383   -107.57995   0.89583056   -106.68412   -8608.1109     4.351967     4.351967     4.351967   -8608.1109    1837.9502   -12045.118   -15617.165    6725.4932    3790.1185    6083.6154     82.42459 
   40700    1017.6117   -107.59995   0.92075645    -106.6792     6878.678    4.3556745    4.3556745    4.3556745     6878.678   -9624.4625   -6111.8835     36372.38    1452.8237   -10823.354   -1497.7141    82.635422 
   40800    529.88075    -107.1668   0.47944724   -106.68735   -11357.131    4.3604936    4.3604936    4.3604936   -11357.131   -18585.288   -8468.8725   -7017.2324    6342.2736    1920.9012   -2776.7689    82.910009 
   40900    939.08823   -107.52694   0.84970676   -106.67723    14761.744    4.3520954    4.3520954    4.3520954    14761.744   -17386.056    11102.901    50568.386    7593.8048   -4608.1221    17180.448    82.431884 
   41000    831.00412   -107.43714   0.75190999   -106.68523      3795.09    4.3486272    4.3486272    4.3486272      3795.09    9959.8852    3330.6509   -1905.2661    4749.6544    -7169.546   -16304.838    82.234969 
   41100    774.58239   -107.39221   0.70085842   -106.69135   -15980.977    4.3555219    4.3555219    4.3555219   -15980.977   -17961.949   -14917.699   -15063.284    7381.8379   -1990.1934    1984.0058    82.626739 
   41200    1248.1562   -107.81398    1.1293579   -106.68462   -6083.8335    4.3479127    4.3479127    4.3479127   -6083.8335    4579.6497   -13835.948   -8995.2025   -5610.2075   -5254.5222   -2178.1834    82.194442 
   41300    421.65399   -107.07735   0.38152139   -106.69583    5008.2705    4.3508705    4.3508705    4.3508705    5008.2705    31572.475   -28553.184    12005.521    793.71629     6185.012   -20684.612    82.362301 
   41400    1229.5116   -107.79994    1.1124879   -106.68746   -18340.703    4.3614137    4.3614137    4.3614137   -18340.703   -16482.473   -28968.117   -9571.5199   -4912.4224   -6582.4334    20071.743    82.962506 
   41500    696.92697   -107.31266   0.63059417   -106.68206    8391.3719    4.3594203    4.3594203    4.3594203    8391.3719    19221.105   -3376.4418     9329.452   -10319.705    4905.7352   -13538.607    82.848803 
   41600    763.74268   -107.36911   0.69105043   -106.67806   -988.63665    4.3362748    4.3362748    4.3362748   -988.63665   -4066.2554    7681.3381   -6580.9926    2465.6454   -2111.0302   -5459.8029    81.536187 
   41700    913.71591   -107.51852   0.82674935   -106.69177   -3139.5872    4.3567852    4.3567852    4.3567852   -3139.5872   -9049.6203   -11885.616    11516.474   -4128.3675   -2346.1603      4669.47    82.698653 
   41800    812.04815   -107.41565   0.73475823   -106.68089   -20149.804     4.367756     4.367756     4.367756   -20149.804   -12554.256   -18851.934    -29043.22   -7713.0414     4877.975   -25067.035    83.324958 
   41900    1043.7812   -107.61326   0.94443514   -106.66882    9690.7676    4.3321258    4.3321258    4.3321258    9690.7676    31990.584   -9709.8383    6791.5566    15418.411    -8535.242     1730.132    81.302364 
   42000    873.68548   -107.48217   0.79052898   -106.69164    3517.2339    4.3503521    4.3503521    4.3503521    3517.2339    11560.853   -11640.681     10631.53   -4662.6776    13453.043   -6653.3957    82.332866 
   42100    712.22017   -107.33464   0.64443178   -106.69021   -12553.479    4.3659698    4.3659698    4.3659698   -12553.479    2221.3008   -30852.176   -9029.5608    1945.3177    2697.7088   -8349.3349    83.222774 
   42200    949.93594   -107.54046     0.859522   -106.68094   -12532.873    4.3543123    4.3543123    4.3543123   -12532.873   -11407.673   -41044.144    14853.198    10383.307    1498.5206    10304.833    82.557914 
   42300    725.43293   -107.33432   0.65638696   -106.67793    24243.587    4.3419508    4.3419508    4.3419508    24243.587     38545.84     10942.36    23242.562   -15481.723    5726.0585   -8730.7002    81.856786 
   42400    773.58284   -107.38649   0.69995401   -106.68653   -278.00392    4.3615371    4.3615371    4.3615371   -278.00392    5403.5366   -20055.224    13817.675    5101.4542    4986.1419    8093.4562    82.969548 
   42500    763.46037   -107.37112   0.69079498   -106.68033   -21109.004    4.3723836    4.3723836    4.3723836   -21109.004   -12438.899   -54043.286    3155.1743   -13023.113    4021.7655    3924.8961    83.590084 
   42600    1004.4037   -107.57786   0.90880559   -106.66906    16614.404    4.3431716    4.3431716    4.3431716    16614.404    32672.099   -15560.561    32731.673    3160.4344    949.40416   -8625.9454    81.925854 
   42700     861.9792   -107.46407    0.7799369   -106.68414   -3738.4418    4.3457886    4.3457886    4.3457886   -3738.4418   -13537.143   -16070.079    18391.897    2967.6613   -11679.668    10879.913    82.074033 
   42800    1033.7687   -107.62208   0.93537566    -106.6867   -14119.529    4.3657816    4.3657816    4.3657816   -14119.529   -21952.304   -39783.067    19376.786   -20721.763    2492.2813   -7693.4107    83.212013 
   42900    999.79427   -107.59367   0.90463486   -106.68904   -5351.1379    4.3490383    4.3490383    4.3490383   -5351.1379    15282.542    -35725.17    4389.2143    13405.345     159.1069   -1591.6691    82.258295 
   43000    395.21819   -107.04848   0.35760172   -106.69088    26927.807    4.3323863    4.3323863    4.3323863    26927.807     24104.89   -13879.257    70557.789   -9847.0182    4966.1215    5657.9617    81.317033 
   43100    1250.4492   -107.82266    1.1314327   -106.69123   -15275.712    4.3686839    4.3686839    4.3686839   -15275.712   -1105.0304   -42749.898   -1972.2075   -8700.6115    3636.6205   -9384.6415    83.378075 
   43200      903.524   -107.50705    0.8175275   -106.68953   -18901.763    4.3597809    4.3597809    4.3597809   -18901.763   -17157.828   -44719.821    5172.3598    14850.154   -9840.2487    2477.2457     82.86936 
   43300    809.17248   -107.40729   0.73215627   -106.67513    26650.052    4.3287199    4.3287199    4.3287199    26650.052    22611.037   -1925.1181    59264.236   -21961.997    2153.7032    2712.4495    81.110759 
   43400    1180.0148   -107.74828    1.0677022   -106.68058   -14437.897    4.3614305    4.3614305    4.3614305   -14437.897       -12577   -28641.704   -2094.9856    16029.121   -9171.6843   -4255.5098    82.963462 
   43500    474.67376   -107.11855   0.42949479   -106.68906   -1341.6408     4.352328     4.352328     4.352328   -1341.6408   -22402.964   -44548.888     62926.93   -9678.8223    1766.8066    11478.134    82.445103 
   43600    1036.6359   -107.62488   0.93796991   -106.68691     24727.51    4.3395371    4.3395371    4.3395371     24727.51    47153.814   -5037.8575    32066.574   -8540.5085   -7615.5006    3709.7558    81.720351 
   43700    991.64355   -107.58855   0.89725992   -106.69129   -9327.5727    4.3578229    4.3578229    4.3578229   -9327.5727   -19353.195   -36141.516    27511.993     6868.748   -1130.8216     5657.792    82.757758 
   43800    587.64111   -107.22124   0.53171002   -106.68953    7606.5964    4.3509424    4.3509424    4.3509424    7606.5964    25432.125    -40134.14    37521.805   -16595.909    537.62223    7297.6026    82.366382 
   43900    1409.7647   -107.95517    1.2755847   -106.67959   -13389.275    4.3533416    4.3533416    4.3533416   -13389.275    2430.4571   -31398.624   -11199.658    3678.6466   -574.38897    1036.5479    82.502717 
   44000    709.71325    -107.3265   0.64216346   -106.68434    12679.294    4.3472993    4.3472993    4.3472993    12679.294    16308.869   -29881.719    51610.733    -7028.768    11131.425    3577.7235    82.159659 
   44100    846.44116   -107.45058   0.76587775    -106.6847    5026.9221    4.3556328    4.3556328    4.3556328    5026.9221    45149.754   -25682.956   -4386.0317   -5586.5319    5782.2142    1196.0664     82.63305 
   44200    1057.5003   -107.63586   0.95684853   -106.67901   -3375.8512    4.3524368    4.3524368    4.3524368   -3375.8512    17933.695   -35111.855    7050.6068    4221.0987    766.75992   -9950.1674    82.451284 
   44300    668.30273   -107.28933   0.60469435   -106.68463    17550.464    4.3430608    4.3430608    4.3430608    17550.464    20966.121   -26156.379    57841.649   -18104.421    8644.3567      6970.11     81.91958 
   44400    1293.9918   -107.85379     1.170831   -106.68295   -9495.6371    4.3564012    4.3564012    4.3564012   -9495.6371    4938.5727    -20783.64   -12641.844     2835.235   -11969.745   -12720.608    82.676792 
   44500    752.95517    -107.3663   0.68128966   -106.68501    1365.1786    4.3600721    4.3600721    4.3600721    1365.1786    -863.5436    -32190.41     37149.49   -9807.5864    174.58667   -3227.2778    82.885967 
   44600    1076.2062   -107.65522   0.97377395   -106.68144   -12993.278    4.3523989    4.3523989    4.3523989   -12993.278   -13763.899   -33137.959    7922.0254   -11761.889   -5232.5388   -1983.9638    82.449132 
   44700    1060.3403   -107.64144    0.9594182   -106.68202    18834.927    4.3453815    4.3453815    4.3453815    18834.927    36201.888     -23907.7    44210.592   -2097.4517      1929.99   -9739.4519    82.050973 
   44800    739.36209   -107.36237   0.66899036   -106.69338   -5535.7135    4.3698446    4.3698446    4.3698446   -5535.7135    7771.2604   -38057.143    13678.742   -17227.035    -657.5775     2667.154    83.444548 
   44900    818.17263   -107.42133   0.74029979   -106.68103     4637.958    4.3563623    4.3563623    4.3563623     4637.958      40118.7   -44811.297    18606.471   -1936.7543     10062.96    -6877.641    82.674576 
   45000    893.84154   -107.48247   0.80876661    -106.6737    18806.435    4.3386441    4.3386441    4.3386441    18806.435    46657.593    -31254.95    41016.662   -10209.718    12033.487   -1884.5782    81.669908 
   45100    778.71543   -107.39691   0.70459808   -106.69231   -20688.795    4.3623697    4.3623697    4.3623697   -20688.795   -24929.158   -63806.104    26668.876   -4225.8363    11103.864   -4.2326945     83.01707 
   45200    1028.5566   -107.61549   0.93065965   -106.68483   -2844.6337    4.3545247    4.3545247    4.3545247   -2844.6337    8818.1634   -36548.938    19196.873    4517.0736   -1333.3542   -10524.606    82.569997 
   45300    1032.7308   -107.61935   0.93443654   -106.68491   -15284.287    4.3448388    4.3448388    4.3448388   -15284.287   -14895.802   -40845.765    9888.7046   -13495.246   -10278.295    1743.0187    82.020234 
   45400    603.17994   -107.24001   0.54576988   -106.69424    7509.7964    4.3478295    4.3478295    4.3478295    7509.7964    858.67074   -50397.163    72067.881    7712.8279    5123.6597   -9164.6506     82.18972 
   45500     998.4932     -107.595   0.90345763   -106.69155   -6939.6834    4.3636759    4.3636759    4.3636759   -6939.6834    14898.576   -34625.674   -1091.9523   -4382.7901   -7308.3725   -4001.5962    83.091667 
   45600    528.55794   -107.16796   0.47825033   -106.68971    6815.7691    4.3519722    4.3519722    4.3519722    6815.7691    15760.034   -35430.964    40118.237   -5285.3504     9182.919   -2353.0241    82.424883 
   45700    992.81444      -107.58   0.89831937   -106.68168    15590.937    4.3383216    4.3383216    4.3383216    15590.937    25035.446   -20374.181    42111.546    10124.969    4588.9585    -5242.791    81.651702 
   45800    956.22242   -107.56013   0.86521014   -106.69492   -19306.664    4.3627388    4.3627388    4.3627388   -19306.664   -21945.951   -41737.927     5763.886   -11293.329    918.89096    -152.0057    83.038146 
   45900    781.84054   -107.40616   0.70742575   -106.69873   -1294.1997    4.3482398    4.3482398    4.3482398   -1294.1997    -18680.34   -33461.191    48258.932    15081.735    1077.7696    848.00518    82.212995 
   46000     1039.328   -107.63205    0.9404058   -106.69164    20470.141    4.3388375    4.3388375    4.3388375    20470.141    50076.885   -7036.0796    18369.618   -2408.6322    5696.3428   -6840.9798     81.68083 
   46100     953.1953   -107.55727   0.86247114    -106.6948   -10128.535    4.3531735    4.3531735    4.3531735   -10128.535   -13876.167   -43399.361    26889.924    3749.2541   -13111.781    6248.0274    82.493159 
   46200    754.98742   -107.37232   0.68312848   -106.68919    3368.8112    4.3537718    4.3537718    4.3537718    3368.8112    37126.822   -38736.144    11715.757    11241.288    15683.601   -1185.5647    82.527175 
   46300     993.1374   -107.58039   0.89861159   -106.68177   -9701.5677    4.3562876    4.3562876    4.3562876   -9701.5677   -1141.6094   -33658.252    5695.1587   -5932.4915   -13256.987    6834.4382    82.670324 
   46400    885.62057    -107.4842   0.80132811   -106.68287     8972.257    4.3402035    4.3402035    4.3402035     8972.257    3545.8674   -30156.328    53527.232     17760.19   -2147.0759   -907.81726    81.758001 
   46500    1083.7678   -107.67148   0.98061586   -106.69086   -6208.7625    4.3526235    4.3526235    4.3526235   -6208.7625    19540.841   -40027.238    1860.1095   -1576.4318   -10339.981    4801.3027    82.461893 
   46600    836.60115   -107.44586    0.7569743   -106.68889   -12430.037    4.3585351    4.3585351    4.3585351   -12430.037   -16691.088   -42438.427    21839.405    4555.2363    -3776.074    14092.043    82.798342 
   46700    942.59227   -107.53261    0.8528773   -106.67973    17860.667    4.3379071    4.3379071    4.3379071    17860.667    45356.482   -13302.521    21528.039    14174.454   -1024.2634   -2511.7067    81.628298 
   46800    893.70907   -107.49741   0.80864675   -106.68876   -8795.8097    4.3586193    4.3586193    4.3586193   -8795.8097   -9746.8681   -29794.443    13153.882   -10823.227    2799.9472    6169.4918    82.803139 
   46900    843.27932   -107.45237   0.76301685   -106.68935   -7345.2405    4.3498442    4.3498442    4.3498442   -7345.2405    -1353.882   -22623.428    1941.5881    14660.468   -4261.0856     7450.356    82.304031 
   47000    941.54716   -107.53573   0.85193166   -106.68379    24604.463    4.3365427    4.3365427    4.3365427    24604.463    30910.446   -10856.392    53759.337    3735.3875    431.10029   -3056.9027    81.551299 
   47100    979.19349   -107.57575   0.88599484   -106.68975   -27955.442    4.3637108    4.3637108    4.3637108   -27955.442   -22766.369    -41473.78   -19626.177   -2165.3799    3759.3166    11818.462    83.093656 
   47200    798.19509   -107.40667    0.7222237   -106.68444    12347.588    4.3490561    4.3490561    4.3490561    12347.588    14329.003   -15164.644    37878.404    16205.775   -11960.149   -4676.9439    82.259305 
   47300    946.09484   -107.53699   0.85604649   -106.68094    10488.828    4.3402397    4.3402397    4.3402397    10488.828    19122.841   -16727.222    29070.865    -5207.146    8568.7054    7272.1818    81.760052 
   47400      868.725   -107.47446   0.78604064   -106.68842   -27141.444    4.3548042    4.3548042    4.3548042   -27141.444   -9193.2054   -49594.723   -22636.404    10522.087   -10889.002    18508.414    82.585901 
   47500    763.82144   -107.37688   0.69112169   -106.68575    16964.802    4.3507851    4.3507851    4.3507851    16964.802    12495.918   -12638.958    51037.447    4006.2321   -13981.947   -7026.2745    82.357448 
   47600    1208.7636   -107.77808    1.0937147   -106.68436   -16951.046    4.3513923    4.3513923    4.3513923   -16951.046   -11924.779   -15889.556   -23038.803    2217.8222   -867.31546    21513.567    82.391939 
   47700    615.07709   -107.24771   0.55653468   -106.69118    8133.7897    4.3491847    4.3491847    4.3491847    8133.7897     6756.063   -27534.422    45179.728    12910.355   -15144.596    1327.1174    82.266601 
   47800    1077.5075   -107.65989    0.9749514   -106.68494    12068.367    4.3447895    4.3447895    4.3447895    12068.367    9868.8874    3873.2567    22462.958   -7522.6737    -540.1059    9318.8079    82.017442 
   47900    825.45246   -107.43862   0.74688674   -106.69173     -12573.7    4.3571917    4.3571917    4.3571917     -12573.7   -16278.846    -34785.28    13343.025    11028.323    5146.0183    14948.946    82.721806 
   48000    872.06532   -107.47517   0.78906302   -106.68611    777.80929    4.3540936    4.3540936    4.3540936    777.80929    1600.0303   -14207.383    14940.781   -81.738255   -14753.692   -6064.6699    82.545475 
   48100     1088.639   -107.66593   0.98502349    -106.6809    1629.3656    4.3448153    4.3448153    4.3448153    1629.3656    9880.5092   -10246.871    5254.4586    1597.1381    14305.824    5167.2563    82.018904 
   48200    618.07131   -107.24767   0.55924391   -106.68843   -2798.1808    4.3509461    4.3509461    4.3509461   -2798.1808   -14724.109   -32708.655    39038.222    10441.242   -6044.1363    5705.4011    82.366595 
   48300    992.30453   -107.58521   0.89785799   -106.68736    3963.6872    4.3516235    4.3516235    4.3516235    3963.6872    19148.402   -31832.379    24575.039   -9110.7517    5494.8354   -12367.846     82.40507 
   48400    1012.7693   -107.60727   0.91637499   -106.69089   -11156.944    4.3499303    4.3499303    4.3499303   -11156.944    -23416.93   -20894.278    10840.374    16720.416   -5953.8977    19006.357    82.308917 
   48500    823.89914   -107.43842   0.74548125   -106.69293    4773.3859    4.3435503    4.3435503    4.3435503    4773.3859    5460.2107   -16280.985    25140.932   -2389.9706   -5624.3377   -7610.2055    81.947287 
   48600    1048.7604    -107.6417   0.94894046   -106.69276   -2448.5016    4.3511317    4.3511317    4.3511317   -2448.5016    2597.3372   -24949.633    15006.791    1436.6425   -6437.0209     6279.572    82.377134 
   48700    569.58519   -107.20965   0.51537265   -106.69428   -3365.9823    4.3555922    4.3555922    4.3555922   -3365.9823   -22042.641   -18388.463    30333.157      20939.6   -1219.5258    9699.2398    82.630741 
   48800    1125.6265   -107.70764    1.0184905   -106.68915   -386.42801    4.3420998    4.3420998    4.3420998   -386.42801   -7694.8216   -12899.115    19434.653   -15481.788   -12202.507   -880.25388    81.865217 
   48900    941.55147   -107.54688   0.85193555   -106.69494   -6034.6028     4.352509     4.352509     4.352509   -6034.6028   -14084.341   -10937.947    6918.4802    11370.095    8361.6361    3167.7935    82.455386 
   49000    759.87515   -107.37985   0.68755101    -106.6923   -11655.121    4.3510518    4.3510518    4.3510518   -11655.121    -21597.99   -24027.531    10660.159    11986.805   -4579.9818    12347.129    82.372598 
   49100    1031.8964   -107.62254   0.93368152   -106.68886   -7944.1515    4.3477358    4.3477358    4.3477358   -7944.1515   -8104.2926   -24725.663    8997.5012   -22330.352    6510.4649   -10013.235    82.184412 
   49200    738.84008   -107.35427   0.66851803   -106.68575    6185.2523    4.3565364    4.3565364    4.3565364    6185.2523   -12263.492   -3419.1918     34238.44    21087.467     6076.256     4514.025    82.684486 
   49300    966.75411    -107.5597   0.87473943   -106.68496   -5299.1482    4.3474337    4.3474337    4.3474337   -5299.1482   -16261.122   -11143.678    11507.356   -10731.651    531.56434    -4682.894    82.167276 
   49400    867.76897   -107.47594    0.7851756   -106.69076    5201.9969    4.3539164    4.3539164    4.3539164    5201.9969   -9922.6859    2283.3154    23245.361   -4933.3972   -4990.3873   -8464.6151    82.535401 
   49500    1082.9248   -107.67008   0.97985311   -106.69023   -9203.1656    4.3524888    4.3524888    4.3524888   -9203.1656    -14119.51   -20585.644    7095.6576    13330.557    -4967.343     6902.686    82.454236 
   49600     770.7453   -107.39831   0.69738654   -106.70092   -7761.0525    4.3438207    4.3438207    4.3438207   -7761.0525   -18735.086     2265.343   -6813.4151   -23495.463   -10176.596    466.93706    81.962588 
   49700    1020.5814   -107.62705   0.92344354    -106.7036    690.19551    4.3522228    4.3522228    4.3522228    690.19551   -19138.846   -13731.201    34940.634    14871.966    5664.8239    4773.2182    82.439123 
   49800    704.22664   -107.33842   0.63719906   -106.70122   -2220.8602    4.3547633    4.3547633    4.3547633   -2220.8602   -13179.813   -6787.4862    13304.718   -8913.5522   -6973.1378    12826.134    82.583572 
   49900     921.2012   -107.52472    0.8335222   -106.69119   -8788.2407    4.3474281    4.3474281    4.3474281   -8788.2407   -18598.709   -16489.767    8723.7538   -15552.785   -291.81147   -95.347261    82.166964 
   50000    972.79282   -107.56219   0.88020339   -106.68199    15888.033    4.3499188    4.3499188    4.3499188    15888.033   -6263.8043    32928.803    20999.099    14619.372    6426.9327    3078.3225    82.308263 
   50100    791.27867   -107.40434   0.71596557   -106.68838     -25610.8    4.3585207    4.3585207    4.3585207     -25610.8   -32529.709   -35351.818   -8950.8726   -23397.107   -4759.5429    4592.6443    82.797523 
   50200     999.7937   -107.58811   0.90463435   -106.68348    5813.3835    4.3489389    4.3489389    4.3489389    5813.3835   -13505.159    9881.0508    21064.259    -1709.633   -4627.6284   -17184.043    82.252655 
   50300    1086.2614   -107.67183   0.98287213   -106.68896   -10465.573    4.3523156    4.3523156    4.3523156   -10465.573   -11274.633   -33083.669    12961.582   -8609.5732   -4304.9628     9882.428    82.444397 
   50400    584.89446   -107.22543   0.52922479   -106.69621    -7064.529    4.3523991    4.3523991    4.3523991    -7064.529   -17369.642   -12976.104    9152.1587   -22127.387   -5000.9399    7016.3761     82.44914 
   50500    1320.0566    -107.8804     1.194415   -106.68598   -10168.918    4.3546483    4.3546483    4.3546483   -10168.918    8854.5785    -19796.37   -19564.963    291.25308    2486.4263   -16890.622    82.577032 
   50600    486.50524    -107.1312   0.44020017     -106.691   -548.42261    4.3595774    4.3595774    4.3595774   -548.42261   -8665.3971   -3588.6544    10608.784   -13303.788     -7332.32    24091.927     82.85776 
   50700     943.4389   -107.53315   0.85364334   -106.67951    10138.842    4.3382604    4.3382604    4.3382604    10138.842    35881.579   -4428.8739   -1036.1787   -13416.652    1553.7332   -6113.7189    81.648245 
   50800    989.82673   -107.58374   0.89561602   -106.68813    6797.1625    4.3546776    4.3546776    4.3546776    6797.1625    6698.6799    6987.6232    6705.1845    6053.3534    3645.7206   -1669.2398    82.578696 
   50900    723.15229   -107.34195   0.65432339   -106.68763   -11659.432     4.362786     4.362786     4.362786   -11659.432    3518.3408   -30750.905   -7745.7311   -15797.782   -15809.472    17097.627    83.040838 
   51000    1112.2679   -107.68134    1.0064033   -106.67493    12411.715    4.3445261    4.3445261    4.3445261    12411.715    12389.955    25183.074   -337.88222   -896.96884    9245.3189   -6167.6834    82.002524 
   51100    981.04615   -107.56958   0.88767118   -106.68191   -13496.276    4.3542202    4.3542202    4.3542202   -13496.276   -2361.8024   -31847.424   -6279.6027    164.86745   -6610.9175    4229.7618    82.552679 
   51200    573.38392   -107.20451   0.51880982    -106.6857    2745.5337    4.3572095    4.3572095    4.3572095    2745.5337    18236.594   -10937.897    937.90427   -16827.822   -3392.2815    14049.627    82.722818 
   51300    1476.3151   -108.01387    1.3358009   -106.67807   -13049.131    4.3516746    4.3516746    4.3516746   -13049.131   -3145.3721   -14647.168   -21354.854    14450.408    6544.3557   -6194.3822    82.407975 
   51400    343.62482   -107.00507   0.31091896   -106.69415    14602.174    4.3475735    4.3475735    4.3475735    14602.174    26957.936   -4871.5636    21720.149   -13239.273   -12546.111     18929.03    82.175203 
   51500    1174.5196   -107.75517    1.0627301   -106.69244   -6385.6703    4.3511653    4.3511653    4.3511653   -6385.6703   -21484.247    8454.4332   -6127.1975   -17351.556   -1517.6315   -4200.5464    82.379046 
   51600    1069.3537   -107.65593   0.96757374   -106.68835    1386.0695    4.3544266    4.3544266    4.3544266    1386.0695   -11468.363    16886.584    -1260.012    8322.3308    547.26662   -2970.1821    82.564417 
   51700    375.74603   -107.03513   0.33998291   -106.69514    17679.248     4.344061     4.344061     4.344061    17679.248    10459.044   -3610.9176    46189.619   -23244.544   -12277.121    12513.006    81.976192 
   51800    1395.0557   -107.95107    1.2622758    -106.6888   -13349.753    4.3594924    4.3594924    4.3594924   -13349.753   -22389.726   -7.1971919   -17652.335   -1102.8094    6019.0977   -9459.9387    82.852913 
   51900    978.50925   -107.57308   0.88537573   -106.68771     5771.627    4.3492548    4.3492548    4.3492548     5771.627   -20166.116    2861.7183    34619.279   -12959.405    -1892.022    1872.1626     82.27058 
   52000    665.20979   -107.29633   0.60189579   -106.69444    4728.1086     4.349024     4.349024     4.349024    4728.1086    14951.194    3422.8851   -4189.7529   -13529.628   -8047.8814    5248.2236    82.257483 
   52100    1230.1149   -107.79474    1.1130338   -106.68171   -7145.4119    4.3625163    4.3625163    4.3625163   -7145.4119   -17709.482    4813.5781   -8540.3312     8021.961    8683.4298    -2206.698    83.025439 
   52200    728.96277   -107.34482   0.65958084   -106.68524     17593.89    4.3386023    4.3386023    4.3386023     17593.89   -257.77534    14843.551    38195.893   -21287.552   -6055.4874    5955.4787    81.667552 
   52300    807.95601   -107.42988   0.73105558   -106.69883   -2165.4653    4.3530042    4.3530042    4.3530042   -2165.4653   -1456.3983   -16876.658    11836.661    3799.3334    7126.9932    6347.7156    82.483535 
   52400    941.28768   -107.53607   0.85169687   -106.68437    6040.2988    4.3618385    4.3618385    4.3618385    6040.2988   -15153.858   -9071.1276    42345.882   -2484.2603    11909.897   -2358.3394    82.986748 
   52500    832.85514   -107.43934   0.75358483   -106.68576    2423.9818    4.3499291    4.3499291    4.3499291    2423.9818   -6210.9323   -24935.944    38418.822   -16529.806    -6155.855    13446.274    82.308851 
   52600    1037.4945   -107.62415   0.93874686    -106.6854   -13351.884     4.355586     4.355586     4.355586   -13351.884   -12111.353   -10356.202   -17588.096    6690.3012    2251.0264   -6174.2687    82.630387 
   52700    1091.5696    -107.6677   0.98767516   -106.68002    3320.3866    4.3513747    4.3513747    4.3513747    3320.3866   -1564.3691   -9467.8247    20993.354   -15508.224    -2808.181     4863.751    82.390937 
   52800    765.36219   -107.37624   0.69251579   -106.68372   -19475.336    4.3692458    4.3692458    4.3692458   -19475.336   -29753.319   -10822.945   -17849.742     -285.918   -9648.4946    4334.4504    83.410253 
   52900    933.14842   -107.52402    0.8443323   -106.67969    4516.6158    4.3524363    4.3524363    4.3524363    4516.6158   -502.13777     25086.68   -11034.695    4707.8772    1839.8137   -10095.365    82.451254 
   53000    968.18348   -107.55695   0.87603276   -106.68092    14323.565    4.3401838    4.3401838    4.3401838    14323.565    3411.9029    23037.661    16521.131    -875.6108   -3887.7209   -192.23468    81.756891 
   53100    820.95505   -107.43275   0.74281738   -106.68993   -14019.546    4.3660535    4.3660535    4.3660535   -14019.546   -6191.3196   -15809.919   -20057.399    10335.482     3.408481    5335.2148    83.227557 
   53200    959.68492   -107.54875   0.86834308   -106.68041     12781.35    4.3525767    4.3525767    4.3525767     12781.35    11173.876    5443.5585    21726.616    943.06072     1916.472   -390.51537    82.459233 
   53300    933.40637   -107.52683    0.8445657   -106.68226   -2253.5505    4.3452018    4.3452018    4.3452018   -2253.5505     4516.885   -586.05534   -10691.481   -1594.3279   -12296.078    10792.099    82.040794 
   53400    857.82026   -107.46296    0.7761738   -106.68679   -6249.5078    4.3591851    4.3591851    4.3591851   -6249.5078    -9982.465    6721.9047   -15487.963    7718.7788    1118.6448    6643.6749    82.835389 
   53500    768.03868   -107.37648   0.69493754   -106.68155    4123.2849    4.3616249    4.3616249    4.3616249    4123.2849    -4823.114    5114.9872    12077.982    1397.9444    -8260.531    -7974.301    82.974559 
   53600    900.35504   -107.49044   0.81466016   -106.67578   -6166.9574     4.354791     4.354791     4.354791   -6166.9574   -10092.048    16226.848   -24635.673    2988.9876   -2595.7312    4518.6992    82.585147 
   53700    931.82608   -107.52017   0.84313582   -106.67703    4029.2109    4.3523353    4.3523353    4.3523353    4029.2109    5763.8921    5659.4095    664.33094    619.55903    5407.0235   -12914.466    82.445513 
   53800    863.74645   -107.45883   0.78153594    -106.6773   -13184.348    4.3650966    4.3650966    4.3650966   -13184.348   -16043.374   -6601.0349   -16908.636   -7464.5409     -8905.01   -406.06212    83.172848 
   53900    1103.5385   -107.67324   0.99850481   -106.67474   -23633.932     4.353229     4.353229     4.353229   -23633.932   -13162.356   -28303.901    -29435.54   -9910.9023    8937.2984   -10318.771    82.496313 
   54000    744.80158   -107.35697   0.67391212   -106.68306     19954.15    4.3443096    4.3443096    4.3443096     19954.15    19864.173    9355.3874    30642.889     4623.223   -11237.225   -17179.745    81.990265 
   54100    1142.1666   -107.72225    1.0334564    -106.6888   -16722.867    4.3599511    4.3599511    4.3599511   -16722.867   -3019.9954   -20022.949   -27125.657   -3423.8893    685.59474    13790.907    82.879066 
   54200    547.02602   -107.18378   0.49496064   -106.68882    16036.789     4.350561     4.350561     4.350561    16036.789    39966.176   -6626.3598     14770.55    11184.994   -1505.6072   -20274.604    82.344724 
   54300     905.9564   -107.50571   0.81972839   -106.68598   -1304.7569    4.3602088    4.3602088    4.3602088   -1304.7569   -3618.2078    39499.159   -39795.222    10755.548    -5653.308   -1517.8845    82.893762 
   54400     990.5184   -107.57977   0.89624186   -106.68353    6972.2771    4.3512373    4.3512373    4.3512373    6972.2771    3723.8166    8559.8394    8633.1752    2595.8325   -2557.4266    6032.4098    82.383132 
   54500    696.40112   -107.32043   0.63011837   -106.69031    1545.1245    4.3491351    4.3491351    4.3491351    1545.1245    10603.266    28237.516   -34205.408    6274.4301   -1663.6618   -22437.893    82.263784 
   54600     1235.965   -107.80132    1.1183271   -106.68299   -15008.904    4.3592112    4.3592112    4.3592112   -15008.904   -26256.486   -9870.1861   -8900.0394    1858.7049    2783.2744    2586.6511    82.836882 
   54700    869.56877   -107.47161   0.78680409    -106.6848    9893.6974    4.3440882    4.3440882    4.3440882    9893.6974    10615.507    41680.395   -22614.809    -4699.297   -1556.3815   -14175.112    81.977732 
   54800    687.62138   -107.31541   0.62217428   -106.69323    -8163.621    4.3615451    4.3615451    4.3615451    -8163.621   -17756.908   -3728.7268   -3005.2283     9429.948   -1373.2964   -12579.871    82.970004 
   54900    1183.8329   -107.74797    1.0711569   -106.67682    1887.5083    4.3537282    4.3537282    4.3537282    1887.5083   -14987.223    30967.644   -10317.895    1094.6969   -3049.4288    7536.4522    82.524697 
   55000    562.86716   -107.19528   0.50929403   -106.68599    16048.196     4.348989     4.348989     4.348989    16048.196    48071.555   -10625.715    10698.749    7267.7313   -9034.0233   -10959.666    82.255494 
   55100    768.98691   -107.38294   0.69579552   -106.68715   -12468.981      4.36098      4.36098      4.36098   -12468.981    -6601.531   -22499.917    -8305.495    7077.4632   -5887.9309    9739.3587    82.937756 
   55200    994.56802    -107.5749   0.89990604   -106.67499    26472.015    4.3400013    4.3400013    4.3400013    26472.015    43488.739    15100.288    20827.018    5241.4901   -4073.3978    2110.1066    81.746578 
   55300    736.15225   -107.35813   0.66608602   -106.69205   -18221.844    4.3632618    4.3632618    4.3632618   -18221.844   -11279.135   -38233.138   -5153.2587     5983.168   -7112.2733   -7304.2552     83.06801 
   55400    932.16009   -107.52901   0.84343804   -106.68557   -18240.533    4.3517391    4.3517391    4.3517391   -18240.533   -22870.156   -27904.802   -3946.6424    4748.0043   -3065.9824    21290.623     82.41164 
   55500    925.77103    -107.5179   0.83765708   -106.68024    26842.837    4.3364153    4.3364153    4.3364153    26842.837    61296.458    2175.4795    17056.573   -5843.9476    9942.3787   -8677.1701    81.544111 
   55600    831.78566   -107.44014   0.75261714   -106.68752   -40140.494    4.3667831    4.3667831    4.3667831   -40140.494   -31957.919   -57511.045   -30952.518    17315.721    352.53932    3732.1797    83.269287 
   55700    783.34669   -107.39431   0.70878855   -106.68553    13585.054    4.3408239    4.3408239    4.3408239    13585.054    65774.166    -22782.83   -2236.1744    3250.2255    3664.7127    17829.457    81.793067 
   55800     1332.569   -107.89231    1.2057364   -106.68658    -4934.685    4.3456085    4.3456085    4.3456085    -4934.685    4174.4146   -13917.545   -5060.9252    5302.1905    2604.0328   -14489.268    82.063831 
   55900    581.79527   -107.21814   0.52642059   -106.69172   -28966.959    4.3662078    4.3662078    4.3662078   -28966.959   -6102.4037   -58729.618   -22068.854     16231.08   -5554.4559     22457.91    83.236383 
   56000    1170.2276   -107.73815    1.0588465    -106.6793    7463.9535    4.3430725    4.3430725    4.3430725    7463.9535    28164.014   -1273.5272   -4498.6266   -9762.7269    5393.7514    121.94308    81.920243 
   56100    799.31662   -107.40813   0.72323847    -106.6849    9366.7147    4.3509722    4.3509722    4.3509722    9366.7147    35669.171    -21131.96    13562.933    1331.9889    5269.0361    2079.3234    82.368076 
   56200    506.26745   -107.15118   0.45808143    -106.6931    -15374.07     4.362342     4.362342     4.362342    -15374.07    26192.056   -53461.913   -18852.353   -3281.5754    10381.758    28953.769    83.015486 
   56300    985.60126   -107.57228   0.89179273   -106.68049    16588.881    4.3505124    4.3505124    4.3505124    16588.881    20062.502    13541.133    16163.008   -6836.7793    3648.2806    -3191.588    82.341966 
   56400    824.79882   -107.43495   0.74629531   -106.68866   -2798.1889    4.3529226    4.3529226    4.3529226   -2798.1889     555.7063   -17539.055    8588.7822     3698.672    2321.1978    23060.756    82.478896 
   56500    896.39964   -107.49144   0.81108124   -106.68036   -21531.931    4.3645132    4.3645132    4.3645132   -21531.931   -30363.799   -41221.208    6989.2137    -6326.989   -126.23465     4296.437    83.139502 
   56600    1294.8554   -107.83939    1.1716124   -106.66778    -3734.572    4.3496774    4.3496774    4.3496774    -3734.572   -12467.582    2463.0631    -1199.197    6421.3972   -8251.4628     5810.752    82.294562 
   56700    645.63882   -107.27102   0.58418757   -106.68684   -3300.7425    4.3515077    4.3515077    4.3515077   -3300.7425   -9067.7633   -31240.649    30406.185    8646.3121   -567.27355    13920.284    82.398494 
   56800     1094.202   -107.67441   0.99005699   -106.68435   -21340.597    4.3607046    4.3607046    4.3607046   -21340.597   -16530.336   -36105.633   -11385.823   -676.53324    -8557.777   -10111.012    82.922043 
   56900     979.4887   -107.56783   0.88626196   -106.68157   -1181.0852    4.3495105    4.3495105    4.3495105   -1181.0852    4024.5617   -14985.388    7417.5709    7292.6465    8358.9451    4366.0409     82.28509 
   57000    723.18188   -107.34409   0.65435016   -106.68974    3890.5986    4.3475283    4.3475283    4.3475283    3890.5986    17290.117   -19279.358    13661.036   -1841.0906   -4049.8469    15888.918    82.172642 
   57100     944.6915   -107.54293   0.85477673   -106.68816   -8680.5304    4.3613298    4.3613298    4.3613298   -8680.5304   -5762.9095   -5995.2866   -14283.395   -11399.785   -323.56229   -12982.588    82.957714 
   57200    972.28476   -107.55832   0.87974368   -106.67858   -8883.8508    4.3593407    4.3593407    4.3593407   -8883.8508   -15075.716    14918.236   -26494.072   -209.12561    1711.3634     2758.345    82.844262 
   57300    400.62988    -107.0393   0.36249833    -106.6768     19260.69    4.3556343    4.3556343    4.3556343     19260.69    11975.368    11324.267    34482.434   -9642.8383   -14604.568   -7762.7941    82.633136 
   57400    959.89577   -107.53959   0.86853386   -106.67105   -1973.9676    4.3574683    4.3574683    4.3574683   -1973.9676    1453.0912    15043.287   -22418.281   -8182.3567   -2673.7398   -21223.267    82.737558 
   57500    838.94683   -107.43139   0.75909673   -106.67229    5003.9246    4.3542827    4.3542827    4.3542827    5003.9246   -8062.0565    7714.6417    15359.189    571.18058   -4582.9701    7571.9544     82.55623 
   57600     453.2846   -107.09327   0.41014143   -106.68312    13852.623    4.3564892    4.3564892    4.3564892    13852.623    28224.338   -9507.1889     22840.72   -15170.721    -17944.03   -15263.453    82.681803 
   57700    1123.6639   -107.68911    1.0167147    -106.6724    1766.4153    4.3576296    4.3576296    4.3576296    1766.4153    9048.6749    2093.7691   -5843.1982   -6081.8944   -6446.8505   -4266.1249    82.746749 
   57800    845.97014    -107.4442   0.76545156   -106.67875   -7856.4757     4.355739     4.355739     4.355739   -7856.4757    8702.7554   -39481.488    7209.3054     9080.431   -7043.4773    5184.7488    82.639092 
   57900    659.79002   -107.27991   0.59699188   -106.68292   -9742.6189    4.3523307    4.3523307    4.3523307   -9742.6189    15466.905   -25276.202   -19418.561   -5430.4316   -2880.8498   -25378.153    82.445254 
   58000    1404.8442   -107.95075    1.2711326   -106.67962   -11238.884    4.3562139    4.3562139    4.3562139   -11238.884   -16476.211    3525.8099   -20766.252    7632.8572    6213.0939    19464.581    82.666126 
   58100    625.61299   -107.25129   0.56606778   -106.68523    -23518.95    4.3649847    4.3649847    4.3649847    -23518.95   -15590.648   -35224.441   -19741.761     930.9324   -3367.3762   -15585.117    83.166453 
   58200    1153.9257   -107.71955    1.0440963   -106.67545   -7415.2478     4.342944     4.342944     4.342944   -7415.2478   -14966.061    5863.4648   -13143.147   -5212.0781    735.51578   -7086.8974    81.912974 
   58300    1201.7748   -107.76979    1.0873911    -106.6824    10148.569    4.3491022    4.3491022    4.3491022    10148.569   -4142.6122    23358.424    11229.896    6178.0698    7773.8903    -2015.208     82.26192 
   58400    476.84011   -107.12478   0.43145495   -106.69333   -40735.253    4.3692724    4.3692724    4.3692724   -40735.253   -40914.372   -65851.647   -15439.741   -3265.6702   -4841.9242   -32859.374    83.411778 
   58500    1135.2552   -107.70679    1.0272028   -106.67959     6693.721    4.3345451    4.3345451    4.3345451     6693.721   -8286.4984    14599.138    13768.523   -2930.0843   -2566.1085    475.84391    81.438653 
   58600    978.10648   -107.57858    0.8850113   -106.69357    1052.1739     4.352239     4.352239     4.352239    1052.1739    12820.923   -22999.263    13334.861    1390.0032   -9476.4094   -13933.659    82.440046 
   58700    678.49088   -107.30751   0.61391281    -106.6936   -38772.037    4.3661238    4.3661238    4.3661238   -38772.037   -21283.042   -59834.148    -35198.92   -4662.7734    42.120853   -14838.197    83.231583 
   58800    1134.4335   -107.70301    1.0264593   -106.67655     17326.26    4.3386076    4.3386076    4.3386076     17326.26    49738.359   -3280.8644    5521.2858     5638.223    1246.1774    9466.1136    81.667851 
   58900    709.99846    -107.3297   0.64242153   -106.68728    3762.9514    4.3534628    4.3534628    4.3534628    3762.9514    21907.119   -12808.985    2190.7209   -3364.1083     2564.667   -22870.483    82.509607 
   59000     795.2102   -107.40579    0.7195229   -106.68627   -13734.195    4.3549177    4.3549177    4.3549177   -13734.195   -2631.8077   -27578.167   -10992.611    6159.8224    9906.8654   -5619.3056    82.592355 
   59100    1070.4552   -107.65461   0.96857039   -106.68604    11814.239    4.3514106    4.3514106    4.3514106    11814.239    8729.6039    8873.3086    17839.803    2533.6497    1551.7804    5079.1929    82.392978 
   59200    855.02518   -107.46232   0.77364475   -106.68867   -7518.5198    4.3617985    4.3617985    4.3617985   -7518.5198   -27186.118   -9029.2006    13659.759    822.99431    7228.8946   -16730.201    82.984463 
   59300    756.75983   -107.36928    0.6847322   -106.68455   -4663.2963    4.3468616    4.3468616    4.3468616   -4663.2963   -16676.162   -1338.8778    4025.1509   -4347.8649   -12192.455    14463.865    82.134845 
   59400    1151.5891    -107.7233     1.041982   -106.68132   -4719.7684    4.3566944    4.3566944    4.3566944   -4719.7684    4163.4716    3418.4365   -21741.213   -10170.732   -3265.6232    3651.3307    82.693484 
   59500    1083.4595   -107.65723   0.98033693    -106.6769   -19742.319    4.3657869    4.3657869    4.3657869   -19742.319   -36799.681   -23632.191    1204.9168   -7894.5387   -7529.3317    153.15053    83.212312 
   59600    941.35063   -107.52761   0.85175383   -106.67585   -5055.4857    4.3502304    4.3502304    4.3502304   -5055.4857    3833.5604   -2448.1573    -16551.86   -11450.608   -5726.1301    31436.332    82.325956 
   59700    1145.6865   -107.71765    1.0366412   -106.68101    5142.5373    4.3527778    4.3527778    4.3527778    5142.5373   -27191.088    6723.6533    35895.046    1025.9807    1926.4402   -7698.2223    82.470662 
   59800    845.56425   -107.45717    0.7650843   -106.69208   -3809.0116     4.352272     4.352272     4.352272   -3809.0116   -28223.772    16424.727    372.01082   -7137.9859   -3336.6518    561.36957    82.441921 
   59900    732.45005   -107.35907    0.6627362   -106.69634   -3355.8779    4.3573365    4.3573365    4.3573365   -3355.8779   -4932.6516    12951.015   -18085.998    2317.8465    5671.0716    17367.249     82.73005 
   60000    1200.0596   -107.76897    1.0858392   -106.68313    11781.568     4.349562     4.349562     4.349562    11781.568   -22389.202     41589.38    16144.526    12532.881    9544.1033   -8674.2786    82.288015 
   60100    877.06585   -107.48532   0.79358761   -106.69173   -7865.7105    4.3451051    4.3451051    4.3451051   -7865.7105    6177.7801    1332.5652   -31107.477   -2514.4784   -2209.1929    26787.488    82.035316 
   60200    707.91401   -107.33791   0.64053548   -106.69738   -12730.181    4.3660468    4.3660468    4.3660468   -12730.181   -14659.162   -17799.491   -5731.8887    7704.5169   -4596.8533     11957.07    83.227178 
   60300    1333.6063   -107.88766     1.206675   -106.68098    2552.1462     4.348352     4.348352     4.348352    2552.1462   -7202.4619    16430.813   -1571.9121    501.17115    -828.6395   -3429.2469    82.219359 
   60400    484.89039   -107.13339   0.43873902   -106.69465    8610.2877    4.3499086    4.3499086    4.3499086    8610.2877    1875.2204    35349.427   -11393.785   -8634.4698   -6240.1876     17704.27    82.307687 
   60500    888.19114   -107.48612   0.80365401   -106.68247   -5058.3324    4.3661191    4.3661191    4.3661191   -5058.3324   -36366.563    28042.002    -6850.436   -1462.5961    5239.3148   -9583.9713    83.231312 
   60600    974.00698   -107.55706   0.88130198   -106.67576   -896.92738    4.3460317    4.3460317    4.3460317   -896.92738   -26986.771      45753.5   -21457.512    -10226.52   -867.56077    16253.227    82.087808 
   60700    791.04649   -107.40741   0.71575549   -106.69165   -11228.561    4.3454107    4.3454107    4.3454107   -11228.561    -19041.21   -26513.917    11869.443     -6886.86    -11595.74    19558.281    82.052629 
   60800    1096.5202   -107.68877   0.99215451   -106.69662     1229.312    4.3585093    4.3585093    4.3585093     1229.312   -37878.462    48342.747   -6776.3492    5506.7342    7581.9291   -15008.793    82.796874 
   60900    741.85295   -107.36839   0.67124414   -106.69714    -9264.037    4.3606048    4.3606048    4.3606048    -9264.037    -28679.21    12208.185   -11321.086   -7957.2835   -9499.3637    14221.352    82.916354 
   61000     773.8744   -107.39007   0.70021782   -106.68985    11463.456    4.3370637    4.3370637    4.3370637    11463.456   -8703.6884    42747.783    346.27448   -188.17774    -4935.072    8394.3645    81.580697 
   61100    1156.0514   -107.74719    1.0460196   -106.70117   -2013.5552     4.349937     4.349937     4.349937   -2013.5552   -17106.988    24399.871   -13333.549    7770.0503    1034.0804   -3672.3738    82.309297 
   61200    687.76699    -107.3192   0.62230602   -106.69689   -13482.127    4.3670477    4.3670477    4.3670477   -13482.127   -37203.578    19301.323   -22544.125   -6560.2798    -5130.614    18607.791    83.284429 
   61300    948.46127     -107.543   0.85818769   -106.68482     3591.292    4.3386567    4.3386567    4.3386567     3591.292   -10921.766    16867.737    4827.9057    7291.0072    1068.3244   -6682.2567    81.670625 
   61400    863.91694   -107.47433   0.78169021   -106.69264    8296.3402    4.3413017    4.3413017    4.3413017    8296.3402   -23154.571    26039.748    22003.844    4325.6039   -5089.3984   -14061.431    81.820083 
   61500    913.14107   -107.52661   0.82622923   -106.70038   -16199.566     4.363902     4.363902     4.363902   -16199.566   -39150.125    13444.002   -22892.577   -5161.1968   -846.97768     27622.56    83.104581 
   61600    1048.6189   -107.64717   0.94881241   -106.69835   -11050.531    4.3545034    4.3545034    4.3545034   -11050.531   -27686.352   -1318.9241   -4146.3178    6797.4767   -2755.3448   -3268.0735    82.568787 
   61700    652.99648   -107.28206   0.59084494   -106.69121    23292.343    4.3397928    4.3397928    4.3397928    23292.343    -20948.88    82029.937     8795.973    4057.8312   -2810.5763    1858.8413    81.734798 
   61800    1038.7696   -107.63611   0.93990055   -106.69621   -21938.007    4.3570854    4.3570854    4.3570854   -21938.007   -34638.122   -23767.994   -7407.9034   -5618.3985    8367.2986     11697.57    82.715754 
   61900    946.98232   -107.55078    0.8568495   -106.69393   -12248.193    4.3559202    4.3559202    4.3559202   -12248.193   -28724.267    2368.3072   -10388.618    9530.5008   -8448.7098   -13488.431    82.649406 
   62000    960.22697   -107.55787   0.86883355   -106.68904    10228.586    4.3377245    4.3377245    4.3377245    10228.586   -4350.3078    43633.398   -8597.3319    -3631.537    5929.0114    3990.7323    81.617991 
   62100    686.09059   -107.31994   0.62078918   -106.69915    2769.9379    4.3551289    4.3551289    4.3551289    2769.9379   -35277.173    49450.711   -5863.7244   -2970.2898   -800.08576     15740.69    82.604371 
   62200    927.80145   -107.53411   0.83949425   -106.69461   -11540.009    4.3599981    4.3599981    4.3599981   -11540.009   -34468.882    6999.3345   -7150.4812    8019.2975   -13595.509   -15095.281    82.881745 
   62300    1005.5856   -107.59762   0.90987496   -106.68775   -2231.3373    4.3443267    4.3443267    4.3443267   -2231.3373   -181.74227    20627.436   -27139.705   -5513.5115    10770.402     8664.788    81.991238 
   62400    914.86109   -107.51755   0.82778554   -106.68977   -2491.0865    4.3512441    4.3512441    4.3512441   -2491.0865   -23546.083    9156.8928    6915.9306    5533.8151   -3915.3042    12207.542    82.383521 
   62500    649.81142   -107.27971   0.58796303   -106.69174    9031.9273    4.3558279    4.3558279    4.3558279    9031.9273   -22951.633    64126.005   -14078.591    5220.4243   -3906.0059   -16715.576    82.644156 
   62600    1142.6026   -107.72221    1.0338508   -106.68836   -8129.9419    4.3482354    4.3482354    4.3482354   -8129.9419   -4047.2301     4981.164    -25323.76   -3348.6156    8437.7004    12588.388    82.212744 
   62700    795.75822   -107.41176   0.72001876   -106.69174    2434.4119    4.3542027    4.3542027    4.3542027    2434.4119   -22535.493    29273.452    565.27687    16702.246   -2352.7457   -3248.8051    82.551681 
   62800    835.84937   -107.45033   0.75629408   -106.69404   -3211.5033    4.3485892    4.3485892    4.3485892   -3211.5033   -19567.902    32163.724   -22230.331   -5431.5396    5866.0809   -14314.431    82.232816 
   62900    1048.7228   -107.64779   0.94890644   -106.69888    6927.9377    4.3480496    4.3480496    4.3480496    6927.9377   -4438.8426    42733.026    -17510.37   -3139.8673    4996.3797    12362.412    82.202208 
   63000    932.49663   -107.54435   0.84374255   -106.70061    -13467.12    4.3560089    4.3560089    4.3560089    -13467.12   -28667.849   -1477.4226   -10256.089    451.92099     3612.026   -4830.9094    82.654458 
   63100    772.21665   -107.39288   0.69871786   -106.69416    6985.9032    4.3465446    4.3465446    4.3465446    6985.9032    2312.1668    29108.909   -10463.366    1933.0805    3706.0917   -5009.3184    82.116878 
   63200    852.25241   -107.46397   0.77113589   -106.69283    13625.496    4.3546907    4.3546907    4.3546907    13625.496   -18119.779    84506.437   -25510.171    6099.7874    584.53371    14943.602    82.579444 
   63300    794.68746   -107.42237   0.71904992   -106.70332   -14890.956    4.3505288    4.3505288    4.3505288   -14890.956   -36864.585    3419.9066   -11228.189     12309.87    18059.471   -21922.719      82.3429 
   63400    1068.6934   -107.66395   0.96697629   -106.69698    8267.8947    4.3409145    4.3409145    4.3409145    8267.8947   -3521.2013    22880.169    5444.7167    1833.6117    86.643842   -3578.1373    81.798191 
   63500     1000.351   -107.60165   0.90513865   -106.69651   -11425.633    4.3604281    4.3604281    4.3604281   -11425.633   -39376.667    37263.258   -32163.491   -215.42435    5568.5934       8437.9    82.906272 
   63600    444.23129    -107.1068    0.4019498   -106.70485   -1630.3166    4.3485483    4.3485483    4.3485483   -1630.3166   -29530.343    46108.204   -21468.811    2841.0441    22201.538   -16569.594    82.230492 
   63700    1283.3861   -107.85593    1.1612347    -106.6947    19561.278    4.3341169    4.3341169    4.3341169    19561.278     3186.758    37318.229    18178.847    136.04192   -3756.1319    3343.1729     81.41452 
   63800    1066.5046   -107.66609   0.96499573    -106.7011   -22675.863    4.3621438    4.3621438    4.3621438   -22675.863   -42490.349    11895.538   -37432.779    4365.2145    11409.092   -8910.0145    83.004174 
   63900    434.42876    -107.0897   0.39308027   -106.69662    16774.627    4.3548137    4.3548137    4.3548137    16774.627   -23004.617    67127.582    6200.9145    2221.4717    5311.4455   -18016.894     82.58644 
   64000    1120.0968   -107.69586    1.0134871   -106.68238    16395.874    4.3432015    4.3432015    4.3432015    16395.874    372.65594    43477.912    5337.0552   -2410.7773    312.54818    5814.6234    81.927545 
   64100    735.22623   -107.35725   0.66524814     -106.692   -12664.125    4.3504596    4.3504596    4.3504596   -12664.125   -12373.251    14744.405    -40363.53    3879.8876      13228.6   -17925.526     82.33897 
   64200    1181.4647   -107.75704    1.0690141   -106.68802   -9068.5603    4.3516038    4.3516038    4.3516038   -9068.5603   -25169.176    6489.9411   -8526.4457    2438.2707   -1941.1771      -1327.5    82.403954 
   64300    679.68566   -107.30175   0.61499387   -106.68675    6271.8985     4.357383     4.357383     4.357383    6271.8985    -15819.44    53766.748   -19131.612    5.1137418    8276.8515   -10249.952    82.732701 
   64400    770.72803   -107.38211   0.69737092   -106.68474   -17378.428    4.3485755    4.3485755    4.3485755   -17378.428    5245.4969   -9928.7284   -47452.051    5130.6762     74.05851   -29251.812    82.232039 
   64500    958.68351   -107.54689   0.86743698   -106.67946     14291.01    4.3436197    4.3436197    4.3436197     14291.01   -22990.526    37373.225    28490.329    3111.2069      8138.34    2274.3547    81.951215 
   64600    1082.3757   -107.66614   0.97935632   -106.68679   -30149.219      4.35789      4.35789      4.35789   -30149.219   -26426.106   -21152.461   -42869.091   -3508.5034    10299.631   -21574.768    82.761582 
   64700    703.81307   -107.32998   0.63682486   -106.69316   -2974.8329     4.351052     4.351052     4.351052   -2974.8329   -21688.021   -254.04577    13017.568    3463.5606    -2074.231   -17131.498    82.372609 
   64800    993.66318   -107.59048   0.89908733   -106.69139    7938.6683    4.3386596    4.3386596    4.3386596    7938.6683   -22916.185    55973.448   -9241.2579   -4518.0212    12522.297    7024.1349    81.670784 
   64900    781.67526    -107.4092    0.7072762   -106.70192    8908.5167    4.3471574    4.3471574    4.3471574    8908.5167   -1537.9607     18665.21    9598.3011    2965.5641   -527.01944   -22529.057    82.151612 
   65000    1142.5153   -107.72444    1.0337718   -106.69067    -32619.02    4.3670818    4.3670818    4.3670818    -32619.02   -45539.698   -34722.289   -17595.072    1945.7628    2431.1878   -5983.0761    83.286379 
   65100    938.74801   -107.53345   0.84939893   -106.68405    11664.134    4.3415233    4.3415233    4.3415233    11664.134    -22172.62    47342.426    9822.5955   -3715.1685    13781.501    4303.9195     81.83261 
   65200    741.19251   -107.35535   0.67064656    -106.6847    23199.797    4.3305781    4.3305781    4.3305781    23199.797    22749.125   -1487.6254     48337.89     1872.988   -11361.843   -17076.242    81.215256 
   65300    816.41425   -107.42795   0.73870877   -106.68924    212.90806    4.3652972    4.3652972    4.3652972    212.90806    -20717.13    29643.164   -8287.3099    4652.8105   -3644.9902   -641.97723    83.184317 
   65400    1042.0623   -107.62164    0.9428799   -106.67876    10234.706    4.3539789    4.3539789    4.3539789    10234.706   -15343.111    5542.8605    40504.369    758.60907    10598.554   -6278.2674    82.538956 
   65500    931.93957   -107.52259    0.8432385   -106.67936    -8131.085    4.3314594    4.3314594    4.3314594    -8131.085   -5168.7845   -6542.0205    -12682.45    1737.9079    -15283.33   -17210.055    81.264853 
   65600    857.93134   -107.46736   0.77627431   -106.69109    22104.951    4.3475499    4.3475499    4.3475499    22104.951   -6294.5385    26191.065    46418.327    766.65575   -921.94902   -3477.6613    82.173869 
   65700    990.57227   -107.58293   0.89629061   -106.68664   -30296.141    4.3685805    4.3685805    4.3685805   -30296.141   -33451.323   -47837.438   -9599.6611    234.50582   -1437.1188   -12491.083    83.372156 
   65800    709.36156   -107.33376   0.64184525   -106.69191    1397.3423    4.3374369    4.3374369    4.3374369    1397.3423   -20079.889    21510.298    2761.6182   -537.19066   -16978.589   -9277.2612    81.601759 
   65900    1136.5189   -107.71467    1.0283462   -106.68632    34736.895    4.3292378    4.3292378    4.3292378    34736.895    7351.7297    29568.068    67290.886   -2059.6791    4584.3053     6147.576    81.139873 
   66000     672.8071   -107.30177      0.60877     -106.693   -37736.567    4.3666417    4.3666417    4.3666417   -37736.567   -38082.623   -29630.823   -45496.256   -1447.8018   -12633.009   -12081.582    83.261201 
   66100    1003.7215   -107.58851   0.90818834   -106.68033    577.33934     4.348548     4.348548     4.348548    577.33934   -29396.557    29621.008    1507.5673   -5813.9866   -10047.677   -8371.4167    82.230475 
   66200    1008.8389   -107.59342   0.91281868    -106.6806   -1153.6245    4.3366661    4.3366661    4.3366661   -1153.6245    -4659.505   -12507.719    13706.351    1985.5113    6335.3159    9449.3353    81.558263 
   66300    683.00444   -107.31248   0.61799677   -106.69449   -7287.9344    4.3508355    4.3508355    4.3508355   -7287.9344   -26480.227    28981.297   -24364.874    351.44557   -15440.585   -14678.733    82.360315 
   66400    1166.5799   -107.74085     1.055546    -106.6853   -10236.781    4.3591972    4.3591972    4.3591972   -10236.781   -33283.374   -10284.437    12857.467    3148.4473    6807.2964    9627.1426    82.836083 
   66500    754.17966   -107.37113   0.68239761   -106.68873   -3270.1464    4.3382289    4.3382289    4.3382289   -3270.1464   -6067.8267    12121.427   -15864.039     311.8922    -3189.298   -14526.557    81.646466 
   66600    893.47832   -107.50596   0.80843796   -106.69752    10144.421    4.3413219    4.3413219    4.3413219    10144.421   -12792.164    18586.873    24638.554    1669.5464    1915.4426   -18111.207    81.821223 
   66700    1050.6395   -107.64804   0.95064074    -106.6974   -2033.1255    4.3527091    4.3527091    4.3527091   -2033.1255   -41137.014   -6369.0547    41406.692    4497.4019    11352.055   -1739.6853     82.46676 
   66800    822.82892   -107.43818    0.7445129   -106.69366   -6618.4927    4.3555192    4.3555192    4.3555192   -6618.4927   -26097.012    7834.8436   -1593.3098    1194.9549   -4784.7026   -13164.043    82.626584 
   66900    1051.0007   -107.63202   0.95096754   -106.68105    5806.2843     4.344924     4.344924     4.344924    5806.2843   -20420.139   -4279.1093    42118.101   -2380.4741    12380.847   -221.01499    82.025061 
   67000    821.40073   -107.42656   0.74322064   -106.68334    14815.672    4.3310472    4.3310472    4.3310472    14815.672   -21555.903    24938.197    41064.723     6318.879    6585.7977   -1706.4763    81.241655 
   67100    936.68108    -107.5414   0.84752873   -106.69387   -6363.3248    4.3573571    4.3573571    4.3573571   -6363.3248   -20225.163   -3746.4151    4881.6036   -53.029187   -3872.6832   -13241.759    82.731225 
   67200    958.65748   -107.55261   0.86741343   -106.68519   -3912.4322    4.3530426    4.3530426    4.3530426   -3912.4322   -41782.826   -2246.5266    32292.056   -5648.2775    5544.3518     11063.41    82.485714 
   67300    863.08624   -107.45761   0.78093857   -106.67667    11895.249    4.3350317    4.3350317    4.3350317    11895.249    1624.1491    25674.514    8387.0825    5977.8361   -38.027364   -7549.4366    81.466084 
   67400    868.02249    -107.4695   0.78540499   -106.68409    740.00303    4.3502002    4.3502002    4.3502002    740.00303   -28405.292   -1305.5243    31930.826   -6813.3257    4807.0038   -2028.0195    82.324241 
   67500    1053.4557    -107.6344   0.95318881   -106.68121   -15632.138    4.3561661    4.3561661    4.3561661   -15632.138   -41152.525   -3988.8047   -1755.0849   -2909.1696    11834.875   -3300.6197    82.663406 
   67600    822.09141   -107.42374   0.74384559   -106.67989    12799.613    4.3415923    4.3415923    4.3415923    12799.613   -4349.1366    2761.6994    39986.277   -982.25513   -6273.2697   -12600.714    81.836513 
   67700    1094.7275   -107.67449   0.99053246   -106.68396   -14694.004    4.3412554    4.3412554    4.3412554   -14694.004   -33134.563   -7097.9077   -3849.5429   -772.74318    17545.488   -6146.5658    81.817462 
   67800    927.44367     -107.527   0.83917052   -106.68783    2104.0996    4.3521814    4.3521814    4.3521814    2104.0996   -29210.441    2519.5685    33003.172   -3514.6026     3714.212   -1922.1381    82.436768 
   67900    694.49843   -107.32192   0.62839677   -106.69352    7376.7078    4.3505322    4.3505322    4.3505322    7376.7078   -11448.591   -8304.5877    41883.302   -1727.6764   -23.862851   -11926.324    82.343092 
   68000    1012.2195      -107.61   0.91587748   -106.69412    -1901.467    4.3465153    4.3465153    4.3465153    -1901.467   -29996.122    5358.9658    18932.755    -1590.151    7076.0301   -3432.4881    82.115216 
   68100    1067.3746    -107.6589   0.96578295   -106.69312    11504.993     4.337383     4.337383     4.337383    11504.993    -1682.814    9085.9768    27111.816   -4484.7267   -3855.3685   -7099.4946    81.598718 
   68200    589.90424      -107.24   0.53375776   -106.70624   -13252.839    4.3571005    4.3571005    4.3571005   -13252.839    -33882.64   -10420.665    4544.7883   -2128.2032    12118.949   -2682.5015     82.71661 
   68300    1233.3202   -107.80347     1.115934   -106.68753    5516.7039    4.3469508    4.3469508    4.3469508    5516.7039   -27110.993    14429.938    29231.167    -4827.328    1882.7195    7578.0408      82.1399 
   68400    681.06463   -107.31419   0.61624159   -106.69795   -9341.1416    4.3476058    4.3476058    4.3476058   -9341.1416   -20117.867   -20547.756    12642.198   -206.86273    -3451.226   -17631.801    82.177037 
   68500    1120.7156   -107.70962     1.014047   -106.69557    804.35485    4.3463521    4.3463521    4.3463521    804.35485   -20810.387    3948.7905    19274.661   -2495.3664    8597.7054   -1240.6849    82.105969 
   68600    1069.5701   -107.66724   0.96776948   -106.69947   -6097.0954    4.3543197    4.3543197    4.3543197   -6097.0954   -37930.512   -12702.644     32341.87    1533.5123   -12824.257   -3344.4341    82.558337 
   68700    863.94164   -107.48353   0.78171256   -106.70182   -16125.768    4.3431613    4.3431613    4.3431613   -16125.768   -18183.331   -18370.779   -11823.192   -3514.2247   -5209.2195   -9519.6932    81.925271 
   68800    971.92091   -107.57187   0.87941447   -106.69246    27832.023    4.3374613    4.3374613    4.3374613    27832.023   -18200.094    40435.718    61260.447    1900.2186    2129.5505   -2063.3572    81.603136 
   68900    795.41784   -107.41428   0.71971078   -106.69457   -37592.927    4.3651193    4.3651193    4.3651193   -37592.927   -53027.705   -20118.601   -39632.474   -993.74947   -26448.878   -12569.955    83.174145 
   69000    833.57792   -107.44043   0.75423882   -106.68619    30232.331    4.3285443    4.3285443    4.3285443    30232.331     1621.967     30266.01    58809.016   -987.77818     5849.354    -13662.01    81.100884 
   69100    958.17479   -107.56662   0.86697669   -106.69965    5664.0455     4.343113     4.343113     4.343113    5664.0455     -38797.5    21567.338    34222.299   -1355.7475   -17686.575    11330.838    81.922534 
   69200    874.11374   -107.48529   0.79091648   -106.69437   -21360.126    4.3582888    4.3582888    4.3582888   -21360.126   -36876.192   -16698.591   -10505.593    1610.4924   -9849.0898   -1821.5974    82.784307 
   69300    692.74699   -107.32035   0.62681203   -106.69354    12373.712    4.3376597    4.3376597    4.3376597    12373.712   -8124.8425    9822.9087    35423.069   -2185.4436    1503.5224   -8513.4092    81.614334 
   69400    1128.1878   -107.71662     1.020808   -106.69581   -14979.163    4.3432507    4.3432507    4.3432507   -14979.163   -41255.294   -5418.3957    1736.2009    1217.5071   -29414.877    5494.8237    81.930326 
   69500     890.4492   -107.50029   0.80569715    -106.6946    6585.9253    4.3495415    4.3495415    4.3495415    6585.9253   -15087.957   -10563.842    45409.575     795.6404    10985.172   -13250.562    82.286852 
   69600    861.06253   -107.47098   0.77910747   -106.69187   -11661.025    4.3507765    4.3507765    4.3507765   -11661.025   -24863.278   -18239.581     8119.783   -4540.2607   -12653.564    -3382.942    82.356963 
   69700     1091.916   -107.67207   0.98798854   -106.68409    16974.449    4.3392046    4.3392046    4.3392046    16974.449    -13653.76    11013.338    53563.769    2811.5203   -14517.954   -3555.6978    81.701566 
   69800    762.06255   -107.38495   0.68953021   -106.69542   -9.5367046    4.3444601    4.3444601    4.3444601   -9.5367046   -14391.916   -3579.8288    17943.135   -4396.9647    9434.7333   -15276.049    81.998787 
   69900    963.95492   -107.56735   0.87220667   -106.69514    1108.5252    4.3515779    4.3515779    4.3515779    1108.5252   -28149.079   -6441.7008    37916.355   -3058.9525   -8590.7671    1150.9801    82.402483 
   70000    1101.4087   -107.68439   0.99657777   -106.68781    17933.955    4.3428102    4.3428102    4.3428102    17933.955   -16321.254    14277.526    55845.593    872.73351    173.45563   -3395.9595    81.905401 
   70100     500.6521   -107.15248   0.45300054   -106.69948   -482.62065     4.345872     4.345872     4.345872   -482.62065   -27987.675   -14304.219    40844.032   -3188.7967    8512.4598   -11138.102    82.078761 
   70200    1122.2149   -107.70689    1.0154036   -106.69149   -198.37673     4.347036     4.347036     4.347036   -198.37673   -20617.733    6186.9206    13835.682   -921.20514   -8288.4261    11739.955    82.144731 
   70300    686.57301   -107.32052   0.62122569   -106.69929    4919.6738    4.3403328    4.3403328    4.3403328    4919.6738   -25576.938   -9761.5219    50097.482    94.200841    7642.2994   -11459.951     81.76531 
   70400    1084.5159   -107.68425   0.98129277   -106.70296   -19918.433    4.3550626    4.3550626    4.3550626   -19918.433   -29189.303    -30418.43   -147.56463   -2086.9458    1763.6131    -4461.696    82.600599 
   70500    947.53979   -107.55492   0.85735391   -106.69757    10056.358    4.3508391    4.3508391    4.3508391    10056.358   -21698.434   -1947.0259    53814.535    2352.4592   -3425.5683   -3480.6331    82.360519 
   70600     694.5539   -107.32382   0.62844697   -106.69537    4182.7453    4.3335362    4.3335362    4.3335362    4182.7453   -300.20134    -9675.201    22523.638    -4002.422    10254.281   -15143.478    81.381799 
   70700    1257.0907   -107.83641     1.137442   -106.69897   -8865.1955    4.3592868    4.3592868    4.3592868   -8865.1955   -28949.926   -2774.4087    5128.7484   -492.07585    596.90331     1883.006     82.84119 
   70800     668.6697   -107.30747    0.6050264   -106.70244    14253.142     4.350603     4.350603     4.350603    14253.142   -9806.5296    2713.0766     49852.88    3771.0782    2846.8458    5103.4365    82.347112 
   70900    755.99302   -107.37676   0.68403837   -106.69272    17427.769    4.3354772    4.3354772    4.3354772    17427.769    8053.6024    11857.833    32371.872   -5820.4821    3651.5373   -12390.085    81.491204 
   71000    1125.9821   -107.70318    1.0188123   -106.68436   -5590.2331    4.3585932    4.3585932    4.3585932   -5590.2331   -27652.961   -3357.2904    14239.552    7229.5148   -2905.3021   -27.020357    82.801653 
   71100    431.89687   -107.07817   0.39078936   -106.68739    12383.656    4.3523266    4.3523266    4.3523266    12383.656   -1224.3154   -1015.7135    39390.998    1247.3357    -2994.353   -13745.038     82.44502 
   71200    1171.1028   -107.73819    1.0596384   -106.67855   -4327.4401    4.3496146    4.3496146    4.3496146   -4327.4401   -1917.4407   -1320.7833   -9744.0964   -1892.3421    2875.3508   -19887.771    82.290996 
   71300    870.90387    -107.4729   0.78801212   -106.68489    2433.5191    4.3467746    4.3467746    4.3467746    2433.5191   -28187.747   -15242.435     50730.74    13924.611   -3487.4387    11273.623    82.129914 
   71400    723.21184   -107.34867   0.65437727    -106.6943    313.47075     4.348581     4.348581     4.348581    313.47075    784.02673   -23496.866    23653.252   -397.57202     8944.614   -34015.547    82.232347 
   71500    1229.9183   -107.80036     1.112856    -106.6875   -17220.986    4.3569195    4.3569195    4.3569195   -17220.986   -28887.191   -27899.177    5123.4114    5271.9692    1484.0789    8223.3346    82.706302 
   71600    666.88063   -107.29721   0.60340761   -106.69381   -388.37636    4.3436701    4.3436701    4.3436701   -388.37636   -27996.002   -17921.084    44751.957    6845.7993   -1826.5194   -2711.3095    81.954065 
   71700    942.07707   -107.54787   0.85241113   -106.69546    8243.4283    4.3400472    4.3400472    4.3400472    8243.4283    11806.251   -15384.248    28308.282   -3501.2894     2291.282   -20863.245    81.749171 
   71800    1102.1359   -107.69129   0.99723572   -106.69405   -16295.412    4.3586085    4.3586085    4.3586085   -16295.412   -36208.547   -33904.964    21227.276    8529.2127   -3667.2404    4687.3608    82.802524 
   71900    903.51526   -107.50856    0.8175196   -106.69104   -4968.8211    4.3450618    4.3450618    4.3450618   -4968.8211   -19365.304   -15757.782    20216.623    -1068.875    9845.1668   -15199.986    82.032866 
   72000    673.72194   -107.30463   0.60959777   -106.69503    15484.366    4.3404125    4.3404125    4.3404125    15484.366    9258.0181   -6098.2612    43293.341    2500.5553     1082.374   -20809.369    81.769816 
   72100     1014.355   -107.61433   0.91780968   -106.69652   -18309.821    4.3578938    4.3578938    4.3578938   -18309.821   -27774.636   -16954.085   -10200.741     4616.268    440.33025    1622.4439    82.761799 
   72200    651.50932   -107.28592   0.58949933   -106.69642   -6895.2034    4.3529539    4.3529539    4.3529539   -6895.2034   -11761.891   -13977.963    5054.2437   -3585.9887    8838.2539   -27564.418    82.480674 
   72300    1044.0743   -107.63023   0.94470041   -106.68553    16357.768    4.3288281    4.3288281    4.3288281    16357.768     14181.64   -3219.3833    38111.048    16136.234    2288.2299   -1032.2271    81.116838 
   72400    959.35659   -107.56613     0.868046   -106.69808    -9793.283    4.3561811    4.3561811    4.3561811    -9793.283    -10350.08   -17648.421   -1381.3483   -7551.2808    -3301.597   -3589.9423    82.664259 
   72500    821.96208   -107.44234   0.74372857   -106.69862   -3505.8053     4.347628     4.347628     4.347628   -3505.8053   -13223.221   -14861.355     17567.16    8938.1349     794.0948    -18103.46    82.178294 
   72600    854.08385   -107.46696   0.77279302   -106.69417     15969.46    4.3395887    4.3395887    4.3395887     15969.46    11554.663   -11428.023    47781.741    10981.161   -3903.5369    8565.4604    81.723267 
   72700    1092.9761   -107.67637   0.98894771   -106.68742   -8848.7715    4.3548062    4.3548062    4.3548062   -8848.7715   -19530.639   -21391.226     14375.55    -11462.04   -1766.2297   -21151.358    82.586013 
   72800    789.07322   -107.40073   0.71397003   -106.68676   -5293.4189     4.349281     4.349281     4.349281   -5293.4189   -18637.365   -39005.598    41762.706    27234.481   -1206.2974   -12171.958    82.272066 
   72900    1051.2599   -107.63395   0.95120209   -106.68275   -7209.2321    4.3454352    4.3454352    4.3454352   -7209.2321   -16597.683   -20212.057    15182.043   -10097.897   -2354.7036   -543.36193    82.054016 
   73000    930.67157    -107.5302    0.8420912   -106.68811   -9232.4161    4.3471412    4.3471412    4.3471412   -9232.4161   -18825.752   -27821.164    18949.667    7624.4887   -7404.8887    -9650.567    82.150693 
   73100    827.47582   -107.44262   0.74871751    -106.6939   -14903.118    4.3551606    4.3551606    4.3551606   -14903.118   -28449.298   -35490.176    19230.119    14642.379    11815.537    665.55212    82.606179 
   73200    978.21113   -107.57829   0.88510598   -106.69318    -1886.711    4.3404445    4.3404445    4.3404445    -1886.711   -13958.813   -1704.8673    10003.547   -18011.326       -15228    2069.3947    81.771625 
   73300     779.3083    -107.4035   0.70513453   -106.69837    6845.0509    4.3440686    4.3440686    4.3440686    6845.0509   -14072.783   -2314.0123    36921.948    14485.049    3215.5017   -14856.306    81.976624 
   73400    799.44856    -107.4147   0.72335786   -106.69134   -15485.587    4.3642192    4.3642192    4.3642192   -15485.587   -29599.004   -7433.9724   -9423.7843   -13255.901   -476.29774    6828.4472    83.122704 
   73500    754.88242   -107.36676   0.68303348   -106.68373   -7032.8428    4.3466849    4.3466849    4.3466849   -7032.8428   -14958.142    15212.533   -21352.919   -10044.142   -13455.455   -15791.691    82.124829 
   73600    906.37601   -107.49944   0.82010806   -106.67933    18379.732    4.3415832    4.3415832    4.3415832    18379.732    8276.6008    10367.977    36494.619    5588.5471    9147.7703   -11150.309    81.835999 
   73700    745.77399   -107.35915   0.67479198   -106.68435   -19261.677    4.3620979    4.3620979    4.3620979   -19261.677     -29198.3   -5414.6413   -23172.091   -12632.652   -643.05118    531.38706    83.001554 
   73800    920.61211   -107.51223   0.83298918   -106.67924    -7025.114    4.3499744    4.3499744    4.3499744    -7025.114   -23379.596   -4908.3512     7212.605    6796.2143   -12743.738   -22403.773    82.311421 
   73900    1007.6618   -107.59101   0.91175354   -106.67925    13899.738    4.3465504    4.3465504    4.3465504    13899.738    17128.103   -1469.5866    26040.697    3003.8612     20773.84    3060.3352    82.117203 
   74000    730.17172   -107.34847   0.66067472   -106.68779   -20946.566     4.359404     4.359404     4.359404   -20946.566   -5176.0736   -29270.767   -28392.856   -8600.7086   -8509.8144   -7898.7748    82.847873 
   74100    1008.3436   -107.58837   0.91237045     -106.676    407.01005     4.351995     4.351995     4.351995    407.01005    15536.305   -12944.566   -1370.7088    5210.8736    1926.1151   -13663.137    82.426177 
   74200    942.87862   -107.52878   0.85313639   -106.67565   -7116.4004     4.351817     4.351817     4.351817   -7116.4004    6671.5951   -13041.246    -14979.55   -14161.967    9655.2727    5666.8138    82.416065 
   74300    676.51407   -107.30182   0.61212415    -106.6897   -16372.982    4.3480558    4.3480558    4.3480558   -16372.982   -16056.256    4611.8554   -37674.544   -14093.939   -20454.993   -16885.439    82.202556 
   74400    1296.7724   -107.85648    1.1733469   -106.68313    3522.1078    4.3446347    4.3446347    4.3446347    3522.1078    16403.823    5969.1138   -11806.614    7002.3395    11483.948    1882.6868    82.008677 
   74500    525.78676   -107.16667   0.47574291   -106.69092   -17695.708    4.3620119    4.3620119    4.3620119   -17695.708   -34177.141    12914.619   -31824.601     -8954.76    -6914.709    2292.1685    82.996646 
   74600    707.40784   -107.32526   0.64007748   -106.68519    5089.5385    4.3462014    4.3462014    4.3462014    5089.5385    45287.687    4681.3199   -34700.392    6487.6321   -12614.635   -14296.264    82.097424 
   74700    1368.6619   -107.92082    1.2383941   -106.68243    4412.9903    4.3407662    4.3407662    4.3407662    4412.9903    12732.575    1250.5479   -744.15173    2820.0722    2650.4741    13076.976    81.789806 
   74800    406.17814   -107.06382   0.36751852    -106.6963   -23854.179    4.3674316    4.3674316    4.3674316   -23854.179   -4815.1226   -15349.296   -51398.119   -13096.471   -23581.865   -11926.998    83.306395 
   74900    1174.9808   -107.74075    1.0631473    -106.6776    6510.7333    4.3442672    4.3442672    4.3442672    6510.7333    4091.4071   -2311.2468    17752.039    1762.4167   -7706.8608   -4832.5456    81.987867 
   75000    977.61303   -107.56617   0.88456481   -106.68161    1993.4875    4.3431481    4.3431481    4.3431481    1993.4875    9394.7995     7662.629   -11076.966   -6117.8144    493.00092   -1991.0825    81.924524 
   75100    440.21797    -107.0845   0.39831847   -106.68618   -17720.025    4.3653688    4.3653688    4.3653688   -17720.025    -2661.135   -10675.721    -39823.22   -1766.8833    -13701.12    -23298.77    83.188412 
   75200    1138.8128    -107.6969    1.0304218   -106.66648     22723.02    4.3372901    4.3372901    4.3372901     22723.02    8219.2816    29825.181    30124.597    10973.079    -5974.083    4893.6892    81.593472 
   75300    610.37739   -107.23816   0.55228229   -106.68588   -433.21212    4.3510766    4.3510766    4.3510766   -433.21212    14328.559    5847.0235   -21475.219   -8848.5857   -4342.2525    -13253.32    82.374007 
   75400     810.9666   -107.41602   0.73377962   -106.68224   -26869.751    4.3635339    4.3635339    4.3635339   -26869.751   -29333.703   -23319.633   -27955.917    6698.3214   -4761.2845    -7530.081    83.083556 
   75500    1143.7997   -107.70723     1.034934    -106.6723    18375.169    4.3321358    4.3321358    4.3321358    18375.169    22421.404    14383.743    18320.359    4171.2159   -1594.4311    13594.973    81.302927 
   75600    912.72628   -107.51846   0.82585392    -106.6926   -24694.541    4.3540403    4.3540403    4.3540403   -24694.541    -23481.09   -41510.139   -9092.3945   -16032.634   -13956.673   -12539.951    82.542449 
   75700    934.71378   -107.53093   0.84574867   -106.68519   -19485.796    4.3585494    4.3585494    4.3585494   -19485.796   -30778.373   -27477.616   -201.39821    13246.462   -1156.8547   -6393.5896    82.799155 
   75800    1186.0818   -107.74789    1.0731918    -106.6747    5263.4902    4.3428613    4.3428613    4.3428613    5263.4902    -742.4604    6433.0716    10099.859   -9262.3867   -2318.5077    3546.4309    81.908293 
   75900    531.23972    -107.1656   0.48067686   -106.68492   -6594.1046    4.3563596    4.3563596    4.3563596   -6594.1046   -25351.858   -5412.9414    10982.486   -1181.0656   -9952.5104   -12439.666    82.674419 
   76000    1103.5747   -107.67509    0.9985376   -106.67656   -4363.3042    4.3508003    4.3508003    4.3508003   -4363.3042   -21454.809    19718.956   -11354.059    22592.815     8948.168    3324.2706    82.358316 
   76100    763.08287   -107.37185   0.69045341   -106.68139    8132.7249    4.3518782    4.3518782    4.3518782    8132.7249    3706.0829    16523.466    4168.6257   -8688.0033   -10346.995    637.20476    82.419543 
   76200    663.72588   -107.28569   0.60055312   -106.68513   -14508.775    4.3546686    4.3546686    4.3546686   -14508.775   -14880.213   -20434.244   -8211.8686    21159.838    819.60761   -5279.0674    82.578184 
   76300    1131.0256    -107.6998    1.0233757   -106.67642      13120.2    4.3392145    4.3392145    4.3392145      13120.2    19355.963   -2237.2636    22241.899    15194.503    7353.0632    6659.1353    81.702125 
   76400    909.32489   -107.51483   0.82277627   -106.69206   -10535.366    4.3561919    4.3561919    4.3561919   -10535.366   -1860.4169   -10886.127   -18859.554   -21868.081   -2808.2092   -8986.3545    82.664875 
   76500    704.26108   -107.32953   0.63723022    -106.6923   -4706.2885    4.3530041    4.3530041    4.3530041   -4706.2885   -14510.916    -14940.99     15333.04    16306.855    5709.9243    2862.2023    82.483528 
   76600    1215.0057   -107.78226    1.0993627    -106.6829    4647.7925    4.3447466    4.3447466    4.3447466    4647.7925   -17329.237     31873.71   -601.09539   -8916.4554   -1009.8518   -7370.4923     82.01501 
   76700    573.93786   -107.21312   0.51931104   -106.69381    743.40783    4.3536739    4.3536739    4.3536739    743.40783   -22586.765    4532.8341    20284.154   -112.65803   -6623.9639   -12465.107    82.521607 
   76800    961.70573   -107.56424   0.87017156   -106.69407   -8180.8647    4.3484502    4.3484502    4.3484502   -8180.8647   -7397.9297    4673.0124   -21817.677     22934.54    4682.7329   -11963.207    82.224928 
   76900    908.59857   -107.51222   0.82211908    -106.6901    7531.2369    4.3506646    4.3506646    4.3506646    7531.2369    13107.783    9241.9512    243.97696   -3511.0894   -221.28288    13948.686    82.350606 
   77000    748.74113   -107.37192   0.67747671   -106.69445   -13477.726    4.3495375    4.3495375    4.3495375   -13477.726   -5224.4256    -30658.05   -4550.7028    14355.268   -7431.6834   -15776.452    82.286621 
   77100    853.30107   -107.46728   0.77208474    -106.6952    -390.2743    4.3478279    4.3478279    4.3478279    -390.2743    1988.8906    4489.7554    -7649.469    5881.9826    20428.154    10201.988    82.189631 
   77200    1179.8927   -107.75854    1.0675917   -106.69095    -8009.798    4.3488707    4.3488707    4.3488707    -8009.798   -20074.071    7533.9903   -11489.313   -2560.4441   -6985.5408   -2131.4601    82.248785 
   77300    694.09707   -107.32136   0.62803361   -106.69332   -8265.4261    4.3494552    4.3494552    4.3494552   -8265.4261    -19169.69   -1971.4039   -3655.1847    14465.585    3237.0111   -7406.3079    82.281952 
   77400    974.29107   -107.56526   0.88155903    -106.6837   -6590.8912     4.354793     4.354793     4.354793   -6590.8912   -6259.7712     29556.19   -43069.093    4289.1468    15054.798    13601.582    82.585263 
   77500    936.28878   -107.52693   0.84717376   -106.67976   -6609.1171     4.353624     4.353624     4.353624   -6609.1171    5678.0518   -25449.048   -56.354874    14800.801   -12669.457   -9462.5272     82.51877 
   77600    621.82954   -107.24943   0.56264443   -106.68678   -2575.4978     4.347022     4.347022     4.347022   -2575.4978    25210.316   -9212.5182   -23724.291    15138.246    11059.442   -250.86487    82.143937 
   77700    1010.6935    -107.5981    0.9144967   -106.68361     11301.58    4.3491487    4.3491487    4.3491487     11301.58     24578.23    28895.186   -19568.675       -10387    737.81207    10409.846    82.264556 
   77800    875.78165   -107.47895   0.79242564   -106.68653   -18572.995    4.3590969    4.3590969    4.3590969   -18572.995   -12154.506   -33986.927   -9577.5528    17405.998   -1866.6662   -15405.522    82.830362 
   77900    846.77859   -107.44957   0.76618307   -106.68339   -12087.703    4.3452938    4.3452938    4.3452938   -12087.703   -30136.371    10964.276   -17091.014    7427.9592    14363.304    9072.6752    82.046002 
   78000    1177.3125   -107.74868    1.0652571   -106.68342    9902.2572    4.3469519    4.3469519    4.3469519    9902.2572    32911.692   -862.81941   -2342.1009     -1829.98    60.231248   -3276.5639    82.139961 
   78100    825.78405   -107.43933   0.74718676   -106.69215   -21962.176    4.3588165    4.3588165    4.3588165   -21962.176   -18852.144    -28569.11   -18465.274     24968.04    1116.6309   -6374.6835    82.814379 
   78200    646.32471   -107.27249   0.58480818   -106.68768    22167.875    4.3400408    4.3400408    4.3400408    22167.875    53632.842    1653.4533    11217.329   -8247.7576     9480.654    9895.7994    81.748807 
   78300    1169.6665   -107.74439    1.0583388   -106.68605    4343.1717     4.351004     4.351004     4.351004    4343.1717    3323.5652    16744.155   -7038.2057    -1961.233   -6579.5803   -12119.731    82.369882 
   78400    903.70005   -107.50832    0.8176868   -106.69063    -14885.87    4.3518768    4.3518768    4.3518768    -14885.87   -28016.577   -15762.511    -878.5221    22270.329     3215.011   -1050.4829     82.41946 
   78500    824.60495   -107.43254   0.74611989   -106.68642    18221.556    4.3508456    4.3508456    4.3508456    18221.556    17261.485    29143.993    8259.1899    -7393.606    7372.4876    2052.0441    82.360886 
   78600    1272.4643   -107.82767    1.1513524   -106.67632   -24183.895    4.3607599    4.3607599    4.3607599   -24183.895   -15872.759   -33492.145   -23186.781    13644.508   -2569.4156   -9260.5412    82.925197 
   78700    394.74584   -107.03711   0.35717433   -106.67994      24842.3    4.3428497    4.3428497    4.3428497      24842.3    44370.851     12668.18    17487.869     7285.037    15560.829    4971.3001    81.907635 
   78800    1290.3209   -107.84584    1.1675095   -106.67833   -5344.1369    4.3503174    4.3503174    4.3503174   -5344.1369    10036.552   -15053.367   -11015.596   -22278.785    5680.3981    -186.9206    82.330896 
   78900    759.19581   -107.37203   0.68693632   -106.68509    10852.183    4.3472252    4.3472252    4.3472252    10852.183    17015.543    7034.2461    8506.7599    19717.153    4002.0413   -5605.9229    82.155456 
   79000    789.78898   -107.40439   0.71461767   -106.68978    4526.9052    4.3512467    4.3512467    4.3512467    4526.9052   -6655.9537    10183.116    10053.553   -6548.2597    15613.772    8739.0931    82.383666 
   79100    1386.4842   -107.92897      1.25452   -106.67445   -17814.516    4.3611503    4.3611503    4.3611503   -17814.516   -27713.926   -11215.233    -14514.39   -4925.3143   -602.63595   -6614.5715    82.947473 
   79200     462.0759   -107.09945   0.41809599   -106.68135    26622.651    4.3353575    4.3353575    4.3353575    26622.651     38400.75     15728.21    25738.993    26820.961    9598.8691    5688.0388    81.484454 
   79300    1108.8162   -107.69242    1.0032802   -106.68914   -1468.8681    4.3474877    4.3474877    4.3474877   -1468.8681     5268.127    4730.1613   -14404.893   -16686.332    11318.476    594.06395    82.170341 
   79400    809.66812   -107.41446   0.73260473   -106.68186    7881.8283    4.3587471    4.3587471    4.3587471    7881.8283    16504.545   -15056.143    22197.082    17545.348   -2651.4842   -4480.0119    82.810427 
   79500    769.13352   -107.37699   0.69592817   -106.68106   -2287.4356    4.3420299    4.3420299    4.3420299   -2287.4356     8873.172   -8818.8389     -6916.64    7049.7276    21519.743    7300.5397    81.861261 
   79600     1195.105   -107.76063    1.0813561   -106.67927    2035.4676    4.3472329    4.3472329    4.3472329    2035.4676   -3597.0611    2049.1681    7654.2958   -6749.1796    1664.4206   -6659.5433    82.155894 
   79700    847.31932   -107.45165   0.76667232   -106.68498   -7498.3641    4.3556232    4.3556232    4.3556232   -7498.3641     2452.013   -23646.354   -1300.7514     22889.04     6940.183     6147.285    82.632503 
   79800      823.489   -107.42764   0.74511015   -106.68253   -8509.9855    4.3586285    4.3586285    4.3586285   -8509.9855     9810.148    -20462.07   -14878.035    645.04171     8013.926    5089.4665    82.803663 
   79900    862.41989   -107.45765   0.78033564   -106.67731    21019.712    4.3432387    4.3432387    4.3432387    21019.712    76775.648   -11544.719   -2171.7911     15103.82   -5856.7793   -7420.7938     81.92965 
   80000     751.4336   -107.37302   0.67991292   -106.69311    -3469.823     4.341229     4.341229     4.341229    -3469.823   -16171.354    1270.9826    4490.9025    18729.975    10034.433    12252.017     81.81597 
   80100    897.22117   -107.50285   0.81182457   -106.69102   -11425.152    4.3620636    4.3620636    4.3620636   -11425.152       2623.7   -7897.5602   -29001.597   -3573.5157    -621.5608    704.25897    82.999595 
   80200     1119.717   -107.69731    1.0131434   -106.68417   -4091.2899    4.3468078    4.3468078    4.3468078   -4091.2899    7391.9386   -3204.3864   -16461.422    5028.5791    1.8225216   -1698.7391    82.131794 
   80300    403.61973   -107.06251   0.36520362    -106.6973    17531.696    4.3401013    4.3401013    4.3401013    17531.696    49319.945   -12711.735    15986.878    5739.3425    9648.5587    15413.406    81.752231 
   80400    1127.1323   -107.71238     1.019853   -106.69252    6348.4229    4.3535182    4.3535182    4.3535182    6348.4229    41788.331    -10478.17   -12264.893   -7557.3237   -73.626272   -1724.5807    82.512757 
   80500    907.29547   -107.51413   0.82094001   -106.69319   -14279.623    4.3602938    4.3602938    4.3602938   -14279.623   -7378.5381   -33651.408   -1808.9239    12423.484   -5821.1609    3245.3246    82.898612 
   80600    850.22193   -107.46388   0.76929867   -106.69458   -10599.625    4.3378698    4.3378698    4.3378698   -10599.625   -9455.4288   -18903.435   -3440.0123    16288.942    11419.463     16340.99    81.626195 
   80700    1067.8289   -107.65997   0.96619403   -106.69377    32351.279    4.3370984    4.3370984    4.3370984    32351.279    73240.518   -2573.7057    26387.024   -6873.6551   -4471.5137   -3391.6817    81.582654 
   80800    730.99037   -107.35389   0.66141545   -106.69248   -28000.963    4.3709253    4.3709253    4.3709253   -28000.963   -9490.7577   -59956.493   -14555.639    20601.262    2474.3933    10125.389    83.506475 
   80900    714.50493   -107.32979   0.64649907   -106.68329    18323.839    4.3395328    4.3395328    4.3395328    18323.839    57279.761   -7719.6771    5411.4322    5216.2454    6565.2738    5427.1152    81.720105 
   81000    1180.8288   -107.74904    1.0684387    -106.6806    7217.4715    4.3329964    4.3329964    4.3329964    7217.4715    26036.795   -14506.033    10121.653    581.76875   -1262.6261   -5136.2267    81.351394 
   81100    679.98585   -107.30692   0.61526549   -106.69166   -24822.984    4.3620711    4.3620711    4.3620711   -24822.984   -10058.848   -57805.364   -6604.7412    16773.146    7428.3956    19872.061    83.000026 
   81200    1193.7279   -107.75776    1.0801101   -106.67765   -272.93678    4.3555769    4.3555769    4.3555769   -272.93678    25335.682   -22860.765   -3293.7278   -9748.5347    10100.859   -9406.4868    82.629867 
   81300    739.08295   -107.35306   0.66873778   -106.68432    1402.0907    4.3382265    4.3382265    4.3382265    1402.0907    42269.854   -30986.901   -7076.6808    9138.9709   -7872.8949    15291.539    81.646332 
   81400    741.00193   -107.36591   0.67047412   -106.69543    10357.552     4.342407     4.342407     4.342407    10357.552    35564.908   -22564.089    18071.837    9102.8932      13958.7    8672.6169     81.88259 
   81500    1234.9186   -107.80206    1.1173803   -106.68468   -23897.889    4.3630951    4.3630951    4.3630951   -23897.889   -20754.746   -13349.761    -37589.16   -2053.6988    5256.6653   -1566.3394    83.058492 
   81600    663.27732   -107.28222   0.60014726   -106.68207    3986.2393    4.3460904    4.3460904    4.3460904    3986.2393    15250.259   -26010.948    22719.407    16380.872   -8096.6793    14477.361    82.091138 
   81700    1246.8262   -107.80677    1.1281546   -106.67862    2479.5832    4.3417442    4.3417442    4.3417442    2479.5832      32094.8   -11796.257   -12859.794   -1431.5821    23735.219   -7482.8211      81.8451 
   81800    574.04452   -107.20613   0.51940754   -106.68672    26506.034    4.3448147    4.3448147    4.3448147    26506.034    39366.705    19373.751    20777.646    1129.5938   -13066.935     14483.41    82.018868 
   81900     894.4966   -107.49981   0.80935932   -106.69045   -13042.863    4.3593012    4.3593012    4.3593012   -13042.863    5662.1923   -19120.659   -25670.122    12914.274   -2351.9198   -1636.0232    82.842013 
   82000    1217.6747   -107.78176    1.1017776   -106.67998    668.02012    4.3483264    4.3483264    4.3483264    668.02012     -849.412   -16654.724    19508.197    7.0286661    1853.9468   -6425.6251    82.217905 
   82100     788.0816   -107.39739    0.7130728   -106.68432    6519.0239    4.3311698    4.3311698    4.3311698    6519.0239    11283.197    21937.606   -13663.731    11310.397   -21401.522    17228.566    81.248552 
   82200    928.04555   -107.53006   0.83971511   -106.69035   -7348.3601    4.3610061    4.3610061    4.3610061   -7348.3601   -8103.1097   -21825.659    7883.6881    17906.813    3756.8852   -6152.0501    82.939244 
   82300    1131.1228   -107.70508    1.0234637   -106.68162   -7556.3388     4.353991     4.353991     4.353991   -7556.3388    25307.303   -22199.204   -25777.116   -1281.8636   -5211.5842    6278.9956    82.539644 
   82400    485.78281   -107.12516    0.4395465   -106.68562     13317.79    4.3330357    4.3330357    4.3330357     13317.79    20932.306   -4772.7188    23793.784    26924.137   -8338.9811    7425.1684    81.353606 
   82500    1037.1738   -107.63507   0.93845667   -106.69662    9923.5721    4.3503495    4.3503495    4.3503495    9923.5721    30779.443   -13134.182    12125.455    1393.8851    1220.5674    2992.6658    82.332716 
   82600    880.84126   -107.49708   0.79700368   -106.70008   -18444.164    4.3529924    4.3529924    4.3529924   -18444.164     6191.663   -29019.489   -32504.666     5239.227    -4664.748    4973.0946    82.482864 
   82700    832.22734    -107.4426   0.75301678   -106.68958   -596.97325    4.3394688    4.3394688    4.3394688   -596.97325   -18628.429   -2254.4342    19091.944    16030.256   -13513.395    7518.6463    81.716492 
   82800    1178.4834   -107.75018    1.0663166   -106.68386   -10331.278      4.35679      4.35679      4.35679   -10331.278    10743.537   -23262.208   -18475.164   -11871.595    16729.389   -4623.7872    82.698926 
   82900      673.518    -107.2973   0.60941324   -106.68789   -13569.858    4.3475494    4.3475494    4.3475494   -13569.858    10573.238   -23618.231    -27664.58    8027.1052   -12635.098    7787.0313     82.17384 
   83000    776.74796   -107.38675   0.70281788   -106.68393    31672.985    4.3380556    4.3380556    4.3380556    31672.985    53457.898    19087.098    22473.961    6191.3149    4885.2167   -1507.5325    81.636683 
   83100    918.35413    -107.5094   0.83094611   -106.67845   -23946.081    4.3712609    4.3712609    4.3712609   -23946.081    2379.7481   -44961.409   -29256.582   -6160.2573    4183.3151    3341.2985    83.525711 
   83200    584.82852   -107.20922   0.52916514   -106.68006   -3196.9156    4.3397423    4.3397423    4.3397423   -3196.9156   -3513.4999   -7332.0682    1254.8213    27700.358   -13373.583    12294.669    81.731944 
   83300    1325.4561   -107.87024    1.1993005   -106.67094    20236.323    4.3274306    4.3274306    4.3274306    20236.323    10221.236    32391.006    18096.728    1122.0102    7522.0113   -12483.193    81.038302 
   83400    779.38456     -107.383   0.70520353    -106.6778   -36590.293    4.3724574    4.3724574    4.3724574   -36590.293    -34042.55   -37925.197   -37803.133    10361.906   -10432.099    10242.181    83.594317 
   83500    818.55803   -107.42088   0.74064851   -106.68023   -8736.7126    4.3402354    4.3402354    4.3402354   -8736.7126   -35790.001    19834.959   -10255.095    29610.887   -14643.404   -1549.3328    81.759805 
   83600    1263.3694   -107.81652    1.1431231   -106.67339    29748.317    4.3263332    4.3263332    4.3263332    29748.317    47101.088    26781.052    15362.813   -13426.822    6143.4787    1073.2936    80.976667 
   83700    605.08204   -107.24071   0.54749094   -106.69322   -6735.9459    4.3590731    4.3590731    4.3590731   -6735.9459   -6629.5027    2263.2216   -15841.557     22698.77   -7116.0763    7353.5185    82.829008 
   83800    842.37711   -107.44599   0.76220051   -106.68379    2880.2841    4.3610656    4.3610656    4.3610656    2880.2841    3432.7599    17170.293   -11962.201    10722.798    146.27064    1518.7016    82.942642 
   83900    1345.1996   -107.88964    1.2171648   -106.67247    5861.9016    4.3384411    4.3384411    4.3384411    5861.9016     24852.11     5118.945    -12385.35   -858.29041    113.64345    9993.2721    81.658448 
   84000    426.41296   -107.07601   0.38582741   -106.69018    11617.164    4.3377191    4.3377191    4.3377191    11617.164   -15265.346    26796.199    23320.639    36778.968   -6331.2434   -2129.5964    81.617688 
   84100    1232.3623   -107.79737    1.1150673   -106.68231   -16448.766    4.3675567    4.3675567    4.3675567   -16448.766   -15013.071   -24772.321   -9560.9052   -9851.9895   -162.31868    8549.7934    83.313551 
   84200     1021.584    -107.6101    0.9243507   -106.68575    1278.4039    4.3388765    4.3388765    4.3388765    1278.4039   -24034.565    30025.298   -2155.5208    22015.831   -7088.3906    7268.0115    81.683037 
   84300    578.94767   -107.21384   0.52384402      -106.69    12857.979    4.3327275    4.3327275    4.3327275    12857.979     30483.28    -6843.906    14934.562    14074.007   -11288.949    1847.3724    81.336247 
   84400    1106.7678   -107.67805    1.0014268   -106.67663    2482.2383    4.3574152    4.3574152    4.3574152    2482.2383    1343.4914   -4056.7622    10159.986   -19476.618   -53.247463    7380.1349    82.734534 
   84500    616.92185   -107.23931   0.55820385   -106.68111    10467.601    4.3435829    4.3435829    4.3435829    10467.601    20744.473    6164.0166     4494.312    32964.264    -12839.52     1269.097    81.949129 
   84600    1122.4598   -107.69731    1.0156252   -106.68169   -18760.089    4.3469102    4.3469102    4.3469102   -18760.089   -8746.3519   -22855.277   -24678.637    2147.6933   -8347.3599   -2370.7429    82.137602 
   84700    1050.9131   -107.63199   0.95088822    -106.6811    18668.109     4.340315     4.340315     4.340315    18668.109    17947.823    15868.795     22187.71    11176.776     3025.245   -124.11897    81.764307 
   84800    733.23429   -107.35888   0.66344579   -106.69544   -24053.511    4.3614811    4.3614811    4.3614811   -24053.511   -22836.885   -40679.969   -8643.6797    21079.513   -15915.291    417.75896     82.96635 
   84900    1110.9148   -107.69502    1.0051791   -106.68985   -10695.752    4.3460346    4.3460346    4.3460346   -10695.752    2072.3906   -3446.9833   -30712.662   -12509.985   -4497.0577   -5815.0595    82.087977 
   85000    826.83004   -107.42889    0.7481332   -106.68076    40907.086    4.3185896    4.3185896    4.3185896    40907.086    68460.097    5270.6419    48990.519    16802.218    2756.6264    1440.8113    80.542627 
   85100    727.50101   -107.35272    0.6582582   -106.69446   -31778.523    4.3664511    4.3664511    4.3664511   -31778.523   -42084.349   -35633.523   -17617.697    13952.574   -9907.6185    8690.8725    83.250297 
   85200    988.83679   -107.57602   0.89472031    -106.6813    17609.562    4.3400196    4.3400196    4.3400196    17609.562    60311.613    5894.4029   -13377.329    2815.4535    4329.2103   -5287.3304    81.747613 
   85300    1037.9815   -107.61845   0.93918749   -106.67926    2862.5721    4.3283702    4.3283702    4.3283702    2862.5721    -2362.366    -10826.29    21776.372    25579.983   -7551.8195    214.51671    81.091101 
   85400    637.10192   -107.26393    0.5764632   -106.68747    -8003.002    4.3590195    4.3590195    4.3590195    -8003.002    25409.781   -15366.379   -34052.408    9415.9757   -12618.285    8328.6343    82.825953 
   85500    1100.5628   -107.67566   0.99581232   -106.67985    335.15823    4.3468498    4.3468498    4.3468498    335.15823    17212.014    3613.7043   -19820.244   -3103.6292    2953.2913   -14163.568    82.134178 
   85600    808.02504   -107.41522   0.73111804   -106.68411   -14002.243    4.3423696    4.3423696    4.3423696   -14002.243    5260.7957   -38478.288   -8789.2358    19339.997   -7057.7413    10830.842    81.880475 
   85700    925.68592   -107.51863   0.83758007   -106.68105    12965.051    4.3372254    4.3372254    4.3372254    12965.051    21265.927    29430.928   -11801.702    3972.5909   -8506.2119   -1791.9253    81.589818 
   85800    941.57599   -107.54314   0.85195774   -106.69118   -14179.004    4.3511772    4.3511772    4.3511772   -14179.004   -3945.4642   -19098.743   -19492.805    5545.5332    8717.6974   -10272.041    82.379722 
   85900     786.8883   -107.40343   0.71199307   -106.69144   -8320.3232    4.3466276    4.3466276    4.3466276   -8320.3232    29851.185   -24623.712   -30188.442    16796.212    -5534.642    13264.738    82.121581 
   86000    867.79652   -107.46899   0.78520053   -106.68379    19827.621    4.3410956    4.3410956    4.3410956    19827.621    30762.435    31931.434   -3211.0071   -9382.5529   -4138.2108   -8584.2957    81.808428 
   86100    638.51919    -107.2662   0.57774558   -106.68845   -15998.361    4.3523565    4.3523565    4.3523565   -15998.361   -8457.9252    -27310.21   -12226.947    20472.574    8699.8105   -52.615798    82.446721 
   86200    1112.6761   -107.68883    1.0067727   -106.68206   -3564.3254    4.3382295    4.3382295    4.3382295   -3564.3254     19200.27   -9847.3136   -20045.933    4630.2847   -10732.096    14115.376    81.646502 
   86300    957.06805   -107.54962   0.86597528   -106.68364    5064.7492    4.3459791    4.3459791    4.3459791    5064.7492   -16531.636    26814.137    4911.7472   -6090.4459    6332.1949    -6440.125    82.084832 
   86400    718.08285   -107.33995   0.64973646   -106.69022   -23335.487    4.3483243    4.3483243    4.3483243   -23335.487   -19469.898   -28152.265   -22384.297    24651.102    1868.8637    15547.835    82.217787 
   86500    1050.2764   -107.63752   0.95031218    -106.6872    15254.371    4.3345691    4.3345691    4.3345691    15254.371    58416.162    1238.4413   -13891.489   -10849.473   -8969.1483    12638.912    81.440005 
   86600    1029.3444   -107.62267    0.9313724   -106.69129    9732.5533    4.3418502    4.3418502    4.3418502    9732.5533    4534.5652    25650.212    -987.1169    14152.374    13313.106   -3234.5048    81.851099 
   86700    571.10856   -107.21324   0.51675102   -106.69648   -9870.3394     4.354305     4.354305     4.354305   -9870.3394     55770.06   -45994.219   -39386.859    9138.0943    1492.2238    26301.987    82.557502 
   86800    1444.0361   -107.98843    1.3065942   -106.68184   -3075.7179     4.341339     4.341339     4.341339   -3075.7179    11381.346   -12360.127   -8248.3724    -14725.66   -995.41492   -3427.3556    81.822192 
   86900    627.27324   -107.25649   0.56757001   -106.68892     24417.83    4.3335845    4.3335845    4.3335845     24417.83    70811.045    3793.9053   -1351.4585     23233.02    3764.4402    12794.299    81.384519 
   87000    867.09408   -107.47619   0.78456495   -106.69162   -21476.924     4.358061     4.358061     4.358061   -21476.924    11750.972   -36462.774   -39718.971   -4136.0273   -1197.9047    17630.687    82.771326 
   87100    1280.9618   -107.84485    1.1590411   -106.68581    8290.3374    4.3338287    4.3338287    4.3338287    8290.3374    25634.138   -6828.8996    6065.7736    686.39699   -4235.6459   -13703.909    81.398277 
   87200    486.76364   -107.13845   0.44043397   -106.69801    24109.527     4.332578     4.332578     4.332578    24109.527    33570.068    26469.841    12288.672    26147.054    10484.575    26055.183    81.327825 
   87300    1187.9141   -107.75742    1.0748496   -106.68257   -25353.484    4.3599418    4.3599418    4.3599418   -25353.484   -22501.927   -11041.102   -42517.422   -10584.099   -210.60534    989.21288    82.878539 
   87400    928.98775   -107.52161   0.84056764   -106.68104    18198.478    4.3316049    4.3316049    4.3316049    18198.478    5385.8891    28681.088    20528.456    10516.431   -3778.8346   -8138.2032    81.273039 
   87500    654.58383   -107.28591    0.5922812   -106.69363    1120.7103    4.3401046    4.3401046    4.3401046    1120.7103    30059.013   -13292.409   -13404.474    13900.354    10905.607    31853.364    81.752414 
   87600     1367.672   -107.91687    1.2374984   -106.67937   -13726.835    4.3541567    4.3541567    4.3541567   -13726.835   -13628.016   -9165.3754   -18387.113   -8766.0157   -1173.2376   -12205.867    82.549066 
   87700    715.51737   -107.33608   0.64741515   -106.68866    366.59519    4.3387959    4.3387959    4.3387959    366.59519   -546.77496    7507.6438   -5861.0833    18733.193    96.771283    9965.9843    81.678485 
   87800    704.97988   -107.32815   0.63788061   -106.69027    15650.929    4.3417499    4.3417499    4.3417499    15650.929    43342.683    6897.7149   -3287.6104    1425.6383      10099.2    18660.283    81.845425 
   87900    1317.2212   -107.87016    1.1918494   -106.67831   -9417.2936    4.3511621    4.3511621    4.3511621   -9417.2936   -19896.858    11413.275   -19768.298    129.41975   -621.12081   -10274.435    82.378864 
   88000    394.95077   -107.05157   0.35735976   -106.69421   -6782.7461     4.341422     4.341422     4.341422   -6782.7461    30337.372    -37217.71   -13467.901    22234.657    5961.5936    30323.544    81.826881 
   88100    1085.0509   -107.66835   0.98177686   -106.68657    10010.953    4.3357161    4.3357161    4.3357161    10010.953    30186.368    359.65928   -513.16698   -10221.679    691.80647    7951.4586    81.504673 
   88200    1214.2144   -107.78856    1.0986467   -106.68991   -19230.315    4.3489776    4.3489776    4.3489776   -19230.315   -7239.6135   -29206.004   -21245.328    9085.7769   -5674.8365    7643.1455    82.254852 
   88300    449.67887   -107.10337   0.40687889   -106.69649   -6513.2434    4.3493486    4.3493486    4.3493486   -6513.2434    38282.997   -48435.544   -9387.1833    6237.0033   -448.80039    24701.703      82.2759 
   88400    1348.4612    -107.9012    1.2201161   -106.68108    4562.6962    4.3371957    4.3371957    4.3371957    4562.6962   -15634.116    38266.756   -8944.5518     -5352.73   -3756.9103   -4746.7729    81.588144 
   88500    684.29998   -107.31291   0.61916901   -106.69374    11456.206    4.3366857    4.3366857    4.3366857    11456.206    32416.252    6167.4138   -4215.0474    13729.625    835.01817    17775.191    81.559365 
   88600    741.77025   -107.36877   0.67116931    -106.6976     -433.624    4.3540702    4.3540702    4.3540702     -433.624    5946.5681    21705.614   -28953.054    17095.986   -2213.6461    10434.416    82.544146 
   88700    1177.0906   -107.75099    1.0650563   -106.68594     5420.929    4.3481524    4.3481524    4.3481524     5420.929   -1326.1179    17713.182    -124.2768   -8033.4468    3634.2074   -2424.3939    82.208037 
   88800    740.99006   -107.35487   0.67046337   -106.68441    18271.236       4.3236       4.3236       4.3236    18271.236    49381.188     7088.415   -1655.8938    19557.752   -8293.5454    22549.786    80.823288 
   88900     831.1407   -107.44606   0.75203357   -106.69402    2016.5749    4.3569497    4.3569497    4.3569497    2016.5749   -12311.119    22361.884   -4001.0397   -2222.2539    6959.1083   -1656.2058     82.70802 
   89000    1140.4194   -107.71575    1.0318755   -106.68387   -9116.8411    4.3529929    4.3529929    4.3529929   -9116.8411   -1204.7073   -6723.3997   -19422.416   -12837.268   -409.08294    1436.3228    82.482891 
   89100    595.96667   -107.21961   0.53924317   -106.68037    15262.075    4.3204365    4.3204365    4.3204365    15262.075    21895.137    15291.478    8599.6099    24237.149    1161.3654    18372.053     80.64601 
   89200    1167.7111   -107.74587    1.0565695    -106.6893   -2225.0522     4.342586     4.342586     4.342586   -2225.0522   -12151.091    8256.6793   -2780.7446   -3863.9366     22542.78   -8659.9595    81.892718 
   89300    854.87047   -107.45932   0.77350477   -106.68582    -12280.69    4.3576126    4.3576126    4.3576126    -12280.69    4538.8019   -13556.237   -27824.634    6803.1345   -5969.5306    13943.218    82.745779 
   89400    752.72637   -107.36682   0.68108264   -106.68573   -8423.0974    4.3447537    4.3447537    4.3447537   -8423.0974    10255.334   -18632.662   -16891.964    25168.977    14507.114    5376.8681    82.015412 
   89500    1201.4893   -107.76672    1.0871328   -106.67959    31718.602    4.3233191    4.3233191    4.3233191    31718.602    46117.177    29220.262    19818.368   -10829.443    6749.2788   -884.76847    80.807537 
   89600    587.31922    -107.2398   0.53141878   -106.70838    -6855.387    4.3514685    4.3514685    4.3514685    -6855.387     17618.54   -19812.788   -18371.913    16595.842   -5343.2239    15315.143    82.396268 
   89700    1042.9668   -107.63268   0.94369831   -106.68898   -35651.102    4.3587654    4.3587654    4.3587654   -35651.102   -46157.641   -28695.389   -32100.277    17348.434    9733.0807   -5003.1945    82.811469 
   89800    1049.7616   -107.62225    0.9498464    -106.6724    47720.385    4.3091711    4.3091711    4.3091711    47720.385    78263.025    40914.457    23983.673   -877.84812     3065.514    6711.9405    80.016805 
   89900    712.27782   -107.34886   0.64448394   -106.70438    -9166.421    4.3446743    4.3446743    4.3446743    -9166.421    18248.206   -36997.904   -8749.5649    31809.027   -8691.6657    7858.2422    82.010919 
   90000    1010.9217   -107.59077   0.91470317   -106.67607   -17543.883    4.3631746    4.3631746    4.3631746   -17543.883    11522.421   -33325.221   -30828.848   -140.06353    10894.916   -8640.5934    83.063034 
   90100    984.95726   -107.56128   0.89121003   -106.67007    19413.103    4.3216328    4.3216328    4.3216328    19413.103    38444.743    4303.0911    15491.476    3254.9558   -5339.7717    16807.564    80.713018 
   90200    923.11461   -107.52252    0.8352535   -106.68727   -3412.0475     4.334794     4.334794     4.334794   -3412.0475   -1476.6308    -22023.21    13263.698    27466.733    7809.9329   -3872.0093    81.452683 
   90300    810.62787    -107.4212   0.73347313   -106.68773   -2040.6876    4.3529873    4.3529873    4.3529873   -2040.6876    31589.379    -19875.55   -17835.892   -15623.122    12445.808    3832.0623    82.482575 
   90400     946.3944    -107.5416   0.85631754   -106.68528    11308.934    4.3415582    4.3415582    4.3415582    11308.934    35009.146   -12137.355    11055.012    9121.0471    -608.6205    9179.3796    81.834582 
   90500    1013.7277   -107.60185   0.91724211   -106.68461    14459.331    4.3288639    4.3288639    4.3288639    14459.331    46546.791   -3223.9295     55.13151    11827.026    8310.9321   -5209.7838    81.118851 
   90600    633.46096   -107.27307   0.57316879   -106.69991   -9399.0215    4.3432558    4.3432558    4.3432558   -9399.0215    4455.6614   -16812.965   -15839.761    -15998.76   -3831.9624    8466.9874    81.930618 
   90700    1316.8781   -107.87578     1.191539   -106.68424   -1621.3001    4.3511908    4.3511908    4.3511908   -1621.3001    26368.454   -19503.393   -11728.961    463.62197   -11027.943   -2036.6632    82.380495 
   90800    492.19924   -107.13948   0.44535222   -106.69413    2141.5012    4.3391166    4.3391166    4.3391166    2141.5012    64991.224   -23692.697   -34874.024   -2924.9409    6681.3115    4795.2898    81.696597 
   90900      788.069   -107.40727   0.71306139   -106.69421    1354.7725    4.3308213    4.3308213    4.3308213    1354.7725    14409.512   -9270.5496   -1074.6447   -25229.464   -4627.9029    7295.9625     81.22894 
   91000    1274.5889   -107.84668    1.1532748   -106.69341   -3189.9785    4.3455617    4.3455617    4.3455617   -3189.9785    27697.579   -17297.771   -19969.744    4480.6991     64.36426   -6645.9188    82.061182 
   91100    551.97549   -107.20621   0.49943902   -106.70677   -10853.276    4.3439127    4.3439127    4.3439127   -10853.276    38782.286   -25862.141   -45479.973   -7333.2201    8954.0525    10167.836      81.9678 
   91200    905.81999   -107.51528   0.81960496   -106.69567    18671.438     4.326401     4.326401     4.326401    18671.438    48165.064   -5451.6155    13300.864   -13880.389    2375.4746   -1095.1249    80.980472 
   91300    1019.2796   -107.62016   0.92226556   -106.69789   -14179.408    4.3483002    4.3483002    4.3483002   -14179.408    13130.344   -32084.698    -23583.87    10052.065    595.88147   -3428.9383    82.216418 
   91400    961.14963   -107.56654   0.86966838   -106.69687   -9528.9749    4.3437258    4.3437258    4.3437258   -9528.9749    28330.582   -33497.737    -23419.77   -16310.573     15196.67    12448.157     81.95722 
   91500      864.213   -107.47642   0.78195808   -106.69446      19556.4    4.3241487    4.3241487    4.3241487      19556.4    53998.546   -9230.7511    13901.405   -5186.9055    733.81844   -14413.031    80.854063 
   91600    714.31303   -107.35181   0.64632544   -106.70548    1009.5917    4.3397399    4.3397399    4.3397399    1009.5917    53310.959   -40931.167   -9351.0168    20228.276    4434.8065    9502.3396    81.731807 
   91700    1339.5997   -107.90364     1.212098   -106.69154   -17793.558    4.3521589    4.3521589    4.3521589   -17793.558    -7524.636   -25534.218   -20321.821   -8042.5025    3013.5182    3171.8903    82.435491 
   91800    757.08125   -107.38066   0.68502303   -106.69564    -4981.352    4.3372814    4.3372814    4.3372814    -4981.352    33028.309   -39694.278   -8278.0864    10848.375   -5756.5857   -9494.7347    81.592982 
   91900    687.87616   -107.31791   0.62240481    -106.6955    7775.5388    4.3322618    4.3322618    4.3322618    7775.5388     42876.08   -25136.916    5587.4519    14556.612   -5579.9903    17534.526    81.310024 
   92000    1106.3551   -107.68963    1.0010534   -106.68857   -235.32295    4.3473339    4.3473339    4.3473339   -235.32295    30295.267   -20391.156    -10610.08   -6944.5467     7366.194    -9290.612    82.161619 
   92100    644.23276   -107.27776   0.58291534   -106.69484   -10884.923    4.3429661    4.3429661    4.3429661   -10884.923    35685.877   -58989.387   -9351.2574    10102.566   -6369.7035    10355.373    81.914221 
   92200    947.04044   -107.54895   0.85690209   -106.69205   -9318.9392    4.3372618    4.3372618    4.3372618   -9318.9392   -10664.833   -13435.672   -3856.3126    11024.012    13693.514    7125.2839    81.591875 
   92300    1149.2163   -107.72905    1.0398351   -106.68922   -3774.8576    4.3356062    4.3356062    4.3356062   -3774.8576    22546.491   -11649.109   -22221.955    -4111.751    20425.613   -2570.1212    81.498476 
   92400     630.0144   -107.26846   0.57005027   -106.69841     -5232.94    4.3407474    4.3407474    4.3407474     -5232.94    58524.277   -54136.245   -20086.852    15589.545   -1591.6433    20975.788    81.788743 
   92500    821.16623   -107.43695   0.74300846   -106.69394    2837.3781    4.3434972    4.3434972    4.3434972    2837.3781    26126.901   -7285.6843   -10329.083   -3388.6856    18129.462   -4669.2629     81.94428 
   92600    959.01218   -107.56018   0.86773437   -106.69245   -3104.9393    4.3387462    4.3387462    4.3387462   -3104.9393    36763.055   -13228.423    -32849.45   -3397.6241   -2469.9828    18637.367    81.675675 
   92700    1081.4228   -107.66753   0.97849408   -106.68904   -10302.019    4.3412831    4.3412831    4.3412831   -10302.019    14023.176    -31362.04   -13567.193    9155.7817     768.3846    4184.9028    81.819031 
   92800    780.26539    -107.3959   0.70600052    -106.6899   -3422.5546    4.3393813    4.3393813    4.3393813   -3422.5546    3353.5558    2376.5913   -15997.811    -4624.635     6924.462    6171.0989    81.711551 
   92900    757.20601   -107.38107   0.68513591   -106.69593    4045.3613    4.3381654    4.3381654    4.3381654    4045.3613     68232.14   -22039.418   -34056.638    1416.4262   -8659.3868    23754.889    81.642883 
   93000    1373.8684   -107.93224     1.243105   -106.68914    15176.745    4.3312414    4.3312414    4.3312414    15176.745    39742.484   -8728.0931    14515.845    1193.2132    2173.2804   -10601.232    81.252579 
   93100    475.09342   -107.13401   0.42987451   -106.70414   -13240.216    4.3485695    4.3485695    4.3485695   -13240.216    12799.446    -16459.87   -36060.225   -5926.3516    10315.168    23473.225    82.231695 
   93200    1077.0778   -107.66633   0.97456267   -106.69177   -9476.5357    4.3445231    4.3445231    4.3445231   -9476.5357     6887.514   -12039.763   -23277.358    6818.8517   -12119.233      5384.79    82.002357 
   93300    1227.2347   -107.79413    1.1104277   -106.68371    17718.834    4.3225261    4.3225261    4.3225261    17718.834    47037.641   -792.80223    6911.6625   -3822.5504    19752.264    274.41318    80.763082 
   93400    354.38093   -107.02476   0.32065131   -106.70411    -3937.062    4.3470833    4.3470833    4.3470833    -3937.062    30546.541   -8709.1722   -33648.555   -7199.2973   -1507.8906    20603.937    82.147413 
   93500    1168.1539   -107.73777    1.0569702    -106.6808   -7344.3956    4.3497375    4.3497375    4.3497375   -7344.3956    8651.5255   -11929.041   -18755.671    4705.4826    3255.4221   -9095.2943    82.297974 
   93600    871.90819   -107.47081   0.78892085   -106.68188    784.26056    4.3260689    4.3260689    4.3260689    784.26056     36170.44   -15440.332   -18377.326   -3330.1076    18691.619    22243.569    80.961825 
   93700    809.76717   -107.42656   0.73269436   -106.69386    45.595445    4.3377608    4.3377608    4.3377608    45.595445    15362.564    474.53361   -15700.312    -11443.16   -3949.9991    5734.0593    81.620038 
   93800    1126.2432   -107.70524    1.0190485   -106.68619   -20294.769    4.3573691    4.3573691    4.3573691   -20294.769   -5604.8083   -39646.427   -15633.073    17499.803    2906.0303    80.904377    82.731912 
   93900     794.1747   -107.41123   0.71858596   -106.69265   -3545.9142    4.3345906    4.3345906    4.3345906   -3545.9142     29200.96   -20752.518   -19086.185   -3605.8904     9045.604    20375.065    81.441217 
   94000     861.7599   -107.46526   0.77973846   -106.68552    31999.982    4.3212795    4.3212795    4.3212795    31999.982    57086.222    16587.603    22326.121   -7145.5189   -13379.571   -5173.8998    80.693223 
   94100    767.43644   -107.38308   0.69439262   -106.68869   -30401.421    4.3595859    4.3595859    4.3595859   -30401.421   -26696.751   -54765.361   -9742.1509    27269.525    3390.6186    8952.8789    82.858244 
   94200    989.53037   -107.57815   0.89534787    -106.6828   -1324.5181    4.3363415    4.3363415    4.3363415   -1324.5181    11010.219   -13979.189   -1004.5846   -12121.682   -442.47797    8185.4665    81.539948 
   94300    950.10563    -107.5401   0.85967554   -106.68042    15802.792    4.3225232    4.3225232    4.3225232    15802.792    22819.598   -10770.659    35359.436    20376.954   -638.21887    13.536098    80.762917 
   94400    653.60925   -107.28284   0.59139939   -106.69144    -6811.518    4.3468692    4.3468692    4.3468692    -6811.518    19391.799   -44655.017    4828.6639    22018.956    11528.912    13932.008    82.135277 
   94500    1071.5471   -107.65256   0.96955833     -106.683   -923.16128    4.3445982    4.3445982    4.3445982   -923.16128    30671.694   -19111.763   -14329.415   -12004.762    7914.3882   -2854.0468    82.006609 
   94600    736.21816   -107.35528   0.66614566   -106.68914    -11339.86    4.3346066    4.3346066    4.3346066    -11339.86   -6793.1456   -47447.793    20221.359    35426.179   -2613.3637    7875.3643    81.442119 
   94700    957.97609   -107.55615   0.86679689   -106.68935     15111.21    4.3271792    4.3271792    4.3271792     15111.21    29687.932   -4546.2133    20191.913     1287.342    7133.7651    10150.336    81.024181 
   94800    1117.4143    -107.7056      1.01106   -106.69454   -7886.3281    4.3499174    4.3499174    4.3499174   -7886.3281    11362.085   -20918.066   -14103.003    4826.9159   -2333.6911   -9071.0631    82.308185 
   94900    758.86563   -107.38556   0.68663757   -106.69892    335.91007     4.337065     4.337065     4.337065    335.91007    29434.631   -46622.947    18196.046    21609.719   -8300.5673    13582.769    81.580768 
   95000    764.95863   -107.38337   0.69215064   -106.69122    35248.481    4.3239751    4.3239751    4.3239751    35248.481    68151.794    15672.925    21920.724   -8498.1251    10725.994   -2544.9487     80.84433 
   95100    1267.6977   -107.83327    1.1470395   -106.68623   -17035.463    4.3516512    4.3516512    4.3516512   -17035.463   -17862.385   -17876.609   -15367.394    15675.014   -2986.3847   -6925.5074    82.406647 
   95200    820.67086   -107.43306   0.74256024    -106.6905    4441.3693    4.3332893    4.3332893    4.3332893    4441.3693     32614.88   -37639.973    18349.202    11066.488    3560.3502     20084.78    81.367891 
   95300    824.58236   -107.44034   0.74609945   -106.69424    14948.474    4.3283824    4.3283824    4.3283824    14948.474    23177.225    10541.217     11126.98   -6378.9322    6200.9868   -18978.784    81.091786 
   95400     1209.431   -107.77975    1.0943186   -106.68543   -5709.2128    4.3499334    4.3499334    4.3499334   -5709.2128    10364.093   -13203.472    -14288.26    10037.273     10748.25    10652.272    82.309093 
   95500    636.20616   -107.26657    0.5756527   -106.69091    3210.9508     4.336786     4.336786     4.336786    3210.9508    40887.605   -39517.383    8262.6305   -2842.8816   -1831.6302    6506.6315    81.565028 
   95600    815.31933   -107.42979   0.73771807   -106.69208    7480.8157    4.3320056    4.3320056    4.3320056    7480.8157    13274.753    2886.2347    6281.4589   -10896.853    18554.072   -24515.335      81.2956 
   95700    1174.2635   -107.75087    1.0624983   -106.68837    10881.708    4.3368314    4.3368314    4.3368314    10881.708    31552.487   -1858.0045    2950.6415     3348.258   -4997.3167    19890.465    81.567586 
   95800    574.26473   -107.21834    0.5196068   -106.69874   -14787.014    4.3429697    4.3429697    4.3429697   -14787.014    5508.7361   -49092.265   -777.51337   -7725.2725     7856.513   -15112.454    81.914427 
   95900    912.08225   -107.51904   0.82527119   -106.69377    1193.3992    4.3336231    4.3336231    4.3336231    1193.3992    -10152.94    1338.0354    12395.102   -8049.3178    4538.1102   -10275.754    81.386694 
   96000    1284.4149   -107.85154    1.1621656   -106.68938    9393.9148    4.3301418    4.3301418    4.3301418    9393.9148    21587.684   -3170.6157    9764.6764   -3090.6554   -10749.203    11412.372    81.190715 
   96100    555.56116   -107.20507   0.50268341   -106.70239   -24257.498     4.344503     4.344503     4.344503   -24257.498   -10629.127   -49990.535   -12152.832   -9077.6511    9614.5745   -21022.179    82.001219 
   96200    937.49055    -107.5447   0.84826115   -106.69644    5041.1961    4.3357307    4.3357307    4.3357307    5041.1961   -5095.1701    3107.3832    17111.375   -8918.9637    3816.0757    2894.6531    81.505494 
   96300    1174.4053   -107.75374    1.0626266   -106.69111     9257.083    4.3336639    4.3336639    4.3336639     9257.083    51438.283   -20274.669   -3392.3657    3148.7756     2302.704   -7740.0496    81.388994 
   96400    538.07176    -107.1881   0.48685864   -106.70124   -2348.2949    4.3384247    4.3384247    4.3384247   -2348.2949    11306.125    -37768.02    19417.011   -15399.792    12095.386    -14592.54    81.657519 
   96500    1017.5661   -107.61223   0.92071523   -106.69151    2640.6436    4.3418352    4.3418352    4.3418352    2640.6436     9140.746   -11032.258    9813.4425     6870.562    20166.977     6762.762    81.850248 
   96600    998.43676   -107.59066   0.90340656   -106.68725    463.12162    4.3381839    4.3381839    4.3381839    463.12162     6757.479   -27616.004     22247.89   -5969.2879   -4491.0909   -19619.982    81.643925 
   96700     707.2676   -107.33092   0.63995058   -106.69097   -5471.7555    4.3380682    4.3380682    4.3380682   -5471.7555   -9806.6332   -25005.461    18396.828   -14755.704    5378.4721   -83.704328    81.637392 
   96800    1225.5087   -107.79183     1.108866   -106.68296   -11669.202    4.3438321    4.3438321    4.3438321   -11669.202   -6321.0108   -24117.601   -4568.9962    16162.604    3007.3268    919.47347    81.963235 
   96900    848.19899    -107.4555   0.76746827   -106.68804    13725.816    4.3288435    4.3288435    4.3288435    13725.816    26815.693   -13113.619    27475.374   -16901.405   -10174.117   -14810.908    81.117703 
   97000    671.16572   -107.30457   0.60728485   -106.69729   -10714.107    4.3414326    4.3414326    4.3414326   -10714.107   -3612.0274   -23102.467   -5427.8259   -8139.0596    10176.613    2904.6671    81.827485 
   97100    1212.7354    -107.7819    1.0973085   -106.68459   -14230.585     4.349103     4.349103     4.349103   -14230.585   -2091.0169   -28541.868   -12058.869    11171.085    4221.9936    4400.9528    82.261963 
   97200    733.56168   -107.35159   0.66374202   -106.68785    9264.6866    4.3236027    4.3236027    4.3236027    9264.6866   -7145.1868   -4022.9039     38962.15   -34246.846   -3132.3874   -8674.7354    80.823441 
   97300    737.53894   -107.36657   0.66734073   -106.69923   -12106.623    4.3366409    4.3366409    4.3366409   -12106.623   -28639.108    2424.3436   -10105.106    5078.4289    15320.373    13058.717     81.55684 
   97400    1109.4815   -107.68972    1.0038822   -106.68584   -12344.949    4.3471555    4.3471555    4.3471555   -12344.949   -16672.056   -21913.728    1550.9356   -674.17599   -5200.4049    17191.234    82.151504 
   97500    626.98259   -107.25399   0.56730702   -106.68668   -5978.3901    4.3389055    4.3389055    4.3389055   -5978.3901   -31713.619    6730.5777    7047.8711   -23914.414    -303.7262   -8752.4177    81.684674 
   97600    1029.2078   -107.61263   0.93124886   -106.68138   -12891.457    4.3358986    4.3358986    4.3358986   -12891.457   -8523.0007   -14434.093   -15717.278     20767.24    7375.5912     17858.45    81.514968 
   97700    1007.1894   -107.59629    0.9113261   -106.68497    1425.7821    4.3324212    4.3324212    4.3324212    1425.7821   -1694.1582   -3443.6304     9415.135   -18901.618   -7356.1102     85.18076    81.318998 
   97800    724.42284   -107.34822   0.65547301   -106.69275   -18391.686    4.3460124    4.3460124    4.3460124   -18391.686   -24047.122   -17345.487   -13782.448   -6405.1286    6935.3205   -5391.0095    82.086716 
   97900    914.45951   -107.51599   0.82742218   -106.68857   -7102.7088    4.3346264    4.3346264    4.3346264   -7102.7088    12645.404   -25195.382   -8758.1486    10920.749    6981.9233    22486.713    81.443235 
   98000    1071.3732   -107.65532   0.96940098   -106.68592    7838.7292    4.3296272    4.3296272    4.3296272    7838.7292   -1705.1512    6942.8126    18278.526   -22618.746   -6717.0577   -4510.5974    81.161768 
   98100    615.08224   -107.24755   0.55653934   -106.69101    -23786.98    4.3515897    4.3515897    4.3515897    -23786.98   -9643.2837   -29402.483   -32315.171    5257.9173    11342.141    10729.572     82.40315 
   98200    922.14612   -107.52196   0.83437719   -106.68759   -8397.5658    4.3300955    4.3300955    4.3300955   -8397.5658    12795.728   -32833.859   -5154.5663    9653.7158     3253.456    19972.954    81.188106 
   98300     1142.813   -107.71681    1.0340412   -106.68277    12395.588    4.3281085    4.3281085    4.3281085    12395.588    13043.365    2440.9198     21702.48    -15540.31   -4757.1685   -3308.5753    81.076393 
   98400    471.27341   -107.11945   0.42641809   -106.69303   -29434.386    4.3502369    4.3502369    4.3502369   -29434.386   -754.88524   -50654.796   -36893.477    11811.293    13226.162     22656.28    82.326326 
   98500    1095.1255   -107.68022    0.9908926   -106.68933    9145.4251     4.330745     4.330745     4.330745    9145.4251    34180.921   -26350.818    19606.173      4756.22   -5078.9113    1476.4384    81.224646 
   98600    1158.3573   -107.74051     1.048106   -106.69241    4016.6245    4.3337772    4.3337772    4.3337772    4016.6245    23777.415   -8837.9394   -2889.6023   -7237.0503    9343.5207     10355.44    81.395375 
   98700    370.90124   -107.03979   0.33559924   -106.70419   -12049.948    4.3412168    4.3412168    4.3412168   -12049.948    19609.025   -38040.945   -17717.925    8718.1889    14623.368    18396.766    81.815283 
   98800    1298.8617   -107.86428    1.1752374   -106.68904    6846.1341    4.3376551    4.3376551    4.3376551    6846.1341    15566.876   -15197.849    20169.375   -3416.3368   -3883.3378   -4421.6283    81.614075 
   98900     878.6642   -107.48911   0.79503383   -106.69408    263.78666    4.3373533    4.3373533    4.3373533    263.78666    404.34884   -893.34099    1280.3521   -1627.1837    1340.6909    23546.193    81.597041 
   99000    650.52444   -107.28542   0.58860819   -106.69681    7446.7254    4.3316867    4.3316867    4.3316867    7446.7254    29163.321    -16551.67    9728.5253    7906.5451     8974.605    6390.6678    81.277645 
   99100    1243.2198   -107.81336    1.1248914   -106.68847   -11082.549    4.3472392    4.3472392    4.3472392   -11082.549   -11831.481   -12150.394    -9265.772    1724.4166   -24951.439   -3547.8321    82.156249 
   99200    775.41131   -107.39206   0.70160845   -106.69046   -2973.9225    4.3385993    4.3385993    4.3385993   -2973.9225    7803.3469   -17515.069    789.95492   -5.0895725    3261.4248    19940.248     81.66738 
   99300    942.31891   -107.53885   0.85262995   -106.68622    7103.7089      4.32716      4.32716      4.32716    7103.7089    27403.212   -4959.0336   -1133.0516    9719.4078    150.65299    -2266.455    81.023103 
   99400    954.39632   -107.55112   0.86355784   -106.68756   -13052.741    4.3460642    4.3460642    4.3460642   -13052.741   -16092.192   -13829.854   -9236.1761   -5691.7442   -25701.768   -2581.2097    82.089651 
   99500    689.73098   -107.31124   0.62408308   -106.68715    6942.8207    4.3395565    4.3395565    4.3395565    6942.8207    30695.684   -7379.6215   -2487.6001    2295.6905     22257.03    22441.907    81.721446 
   99600    980.93511   -107.57279    0.8875707   -106.68522   -2403.9527    4.3298714    4.3298714    4.3298714   -2403.9527   -7565.7588    7690.3533   -7336.4527    6801.6282   -25763.065   -3392.3437    81.175503 
   99700    817.08922   -107.42891    0.7393195   -106.68959   -6306.2838    4.3376849    4.3376849    4.3376849   -6306.2838   -14985.324   -7493.6917    3560.1638   -11436.389   -9141.5172    8029.6526    81.615755 
   99800    944.95555   -107.54445   0.85501564   -106.68943   -11254.189    4.3408428    4.3408428    4.3408428   -11254.189    9091.2605   -12495.283   -30358.546     12162.23    11071.557    18563.651    81.794137 
   99900    738.69431   -107.36048   0.66838614    -106.6921   -8585.1943    4.3386726    4.3386726    4.3386726   -8585.1943   -20672.576    967.96461   -6050.9717   -2915.1124   -31699.668   -8609.6382    81.671522 
  100000    1135.4825   -107.71548    1.0274085   -106.68807    169.21558     4.330225     4.330225     4.330225    169.21558    8820.7296   -15241.554    6928.4711    -3503.549    5136.1522    11320.212    81.195393 
Loop time of 21.5308 on 1 procs for 100000 steps with 8 atoms

Pair  time (%) = 6.6934 (31.0875)
Kspce time (%) = 5.2312 (24.2963)
Neigh time (%) = 0 (0)
Comm  time (%) = 1.03949 (4.82793)
Outpt time (%) = 0.0214081 (0.09943)
Other time (%) = 8.54532 (39.6888)

Nlocal:    8 ave 8 max 8 min
Histogram: 1 0 0 0 0 0 0 0 0 0
Nghost:    2189 ave 2189 max 2189 min
Histogram: 1 0 0 0 0 0 0 0 0 0
Neighs:    2344 ave 2344 max 2344 min
Histogram: 1 0 0 0 0 0 0 0 0 0

Total # of neighbors = 2344
Ave neighs/atom = 293
Neighbor list builds = 0
Dangerous builds = 0
unfix 20
unfix 21
print "seeds:5293418"
seeds:5293418
