LAMMPS (10 Feb 2015)
# ---- initialize simulations
clear
units metal
dimension 3
boundary p p p
atom_style charge
atom_modify map array
# ---- create atoms
read_data /Users/eugeneragasa/pyflamestk_git/pypospack/tests/tests_integration/workflow/WorkflowLammpsThermalExpansion/param_5262/MgO_NaCl_unit.npt.T300/lammps.structure
  triclinic box = (0 0 0) to (4.2565 4.2565 4.2565) with tilt (0 0 0)
  1 by 1 by 1 MPI processor grid
  reading atoms ...
  8 atoms
# ---- define interatomic potential
include potential.mod
mass 1 24.305
mass 2 15.999

group Mg type 1
4 atoms in group Mg
group O type 2
4 atoms in group O

set group Mg charge 1.695400086
  4 settings made for charge
set group O charge -1.695400086
  4 settings made for charge

variable R_cut equal 10.0

pair_style buck/coul/long ${R_cut}
pair_style buck/coul/long 10
pair_coeff 1 1 0.0 0.5 0.0 ${R_cut}
pair_coeff 1 1 0.0 0.5 0.0 10
pair_coeff 1 2 1303.37543516 0.290482854228 0.0 ${R_cut}
pair_coeff 1 2 1303.37543516 0.290482854228 0.0 10
pair_coeff 2 2 9936.88636401 0.22003654812 26.9596347598 ${R_cut}
pair_coeff 2 2 9936.88636401 0.22003654812 26.9596347598 10

kspace_style pppm 1.0e-5

neighbor 1.0 bin
neigh_modify every 1 delay 0 check yes
# ---- define settings
compute eng all pe/atom
compute eatoms all reduce sum c_eng
# ---- run minimization
reset_timestep 0
fix 1 all box/relax iso 0.0 vmax 0.001
thermo 10
thermo_style custom step pe lx ly lz xy xz yz press pxx pyy pzz pxy pxz pyz c_eatoms
min_style cg
minimize 1e-25 1e-25 5000 10000
PPPM initialization ...
  G vector (1/distance) = 0.353118
  grid = 8 8 8
  stencil order = 5
  estimated absolute RMS force accuracy = 4.08652e-05
  estimated relative force accuracy = 2.83793e-06
  using double precision FFTs
  3d grid and FFT values/proc = 3375 512
Neighbor list info ...
  1 neighbor list requests
  update every 1 steps, delay 0 steps, check yes
  master list distance cutoff = 11
Memory usage per processor = 4.06549 Mbytes
Step PotEng Lx Ly Lz Xy Xz Yz Press Pxx Pyy Pzz Pxy Pxz Pyz eatoms 
       0   -115.99413       4.2565       4.2565       4.2565            0            0            0    97842.713    97842.713    97842.713    97842.713 -3.9648682e-11 -1.4130262e-10 -2.4072873e-11   -115.99413 
      10   -116.09248     4.299065     4.299065     4.299065            0            0            0    39915.456    39915.456    39915.456    39915.456 -6.718901e-11 1.6759609e-10 -1.4910019e-10   -116.09248 
      20   -116.11494    4.3319944    4.3319944    4.3319944            0            0            0    7.4200549    7.4200549    7.4200549    7.4200549 -9.9303313e-12 -1.50322e-10 -3.7717238e-11   -116.11494 
      22   -116.11494    4.3320008    4.3320008    4.3320008            0            0            0  0.022500426  0.022500427  0.022500425  0.022500427 -1.5011423e-10 -9.5142159e-11 1.463096e-10   -116.11494 
Loop time of 0.0162411 on 1 procs for 22 steps with 8 atoms

Minimization stats:
  Stopping criterion = linesearch alpha is zero
  Energy initial, next-to-last, final = 
        -115.994127563     -116.114943198     -116.114943198
  Force two-norm initial, final = 14.1285 3.9258e-05
  Force max component initial, final = 14.1285 8.20487e-06
  Final line search alpha, max atom move = 0.5 4.10243e-06
  Iterations, force evaluations = 22 41

Pair  time (%) = 0.00437212 (26.9201)
Kspce time (%) = 0.00260472 (16.0379)
Neigh time (%) = 0 (0)
Comm  time (%) = 0.000474215 (2.91985)
Outpt time (%) = 3.71933e-05 (0.229008)
Other time (%) = 0.00875282 (53.8931)

Nlocal:    8 ave 8 max 8 min
Histogram: 1 0 0 0 0 0 0 0 0 0
Nghost:    2189 ave 2189 max 2189 min
Histogram: 1 0 0 0 0 0 0 0 0 0
Neighs:    2344 ave 2344 max 2344 min
Histogram: 1 0 0 0 0 0 0 0 0 0

Total # of neighbors = 2344
Ave neighs/atom = 293
Neighbor list builds = 0
Dangerous builds = 0
unfix 1
# ---- define output variables ----
variable natoms equal "count(all)"
variable tot_energy equal "c_eatoms"
variable length_x equal "lx"
variable length_y equal "ly"
variable length_z equal "lz"
variable tilt_xy equal "xy"
variable tilt_xz equal "xz"
variable tilt_yz equal "yz"
variable tot_press equal "press"
variable press_xx equal "pxx"
variable press_yy equal "pyy"
variable press_zz equal "pzz"
variable press_xy equal "pxy"
variable press_xz equal "pxz"
variable press_yz equal "pyz"

# ---- output ----
print "pypospack:output_section:begin"
pypospack:output_section:begin
print "tot_energy = ${tot_energy}"
tot_energy = -116.114943197766
print "num_atoms = ${natoms}"
num_atoms = 8
print "xx = ${length_x}"
xx = 4.33200077919323
print "yy = ${length_y}"
yy = 4.33200077919323
print "zz = ${length_z}"
zz = 4.33200077919323
print "xy = ${tilt_xy}"
xy = 0
print "xz = ${tilt_xz}"
xz = 0
print "yz = ${tilt_yz}"
yz = 0
print "tot_press = ${tot_press}"
tot_press = 0.0225004262556315
print "pxx = ${press_xx}"
pxx = 0.0225004265502418
print "pyy = ${press_yy}"
pyy = 0.0225004253807009
print "pzz = ${press_zz}"
pzz = 0.0225004268359518
print "pxy = ${press_xy}"
pxy = -1.50114228566484e-10
print "pxz = ${press_xz}"
pxz = -9.5142158828828e-11
print "pyz = ${press_yz}"
pyz = 1.46309599907844e-10
print "pypospack:output_section:done"
pypospack:output_section:done
print "pypospack:lammps_sim:done"
pypospack:lammps_sim:done
#------------------------------------------------------------------------------
# RUN THERMOSTAT
# running using an NPT Nose-Hoover style thermostat
#------------------------------------------------------------------------------
variable tempdamp equal 0.1
variable pressdamp equal 1.0
# set initial velocities
velocity all create 300 7845416 mom yes dist gaussian loop all
# fix for Nose-Hoover style thermostat
fix 20 all npt temp 300 300 0.1 aniso 0.0 0.0 1.0 drag 1.0 couple xyz
variable boxx equal lx
variable boxy equal ly
variable boxz equal lz
variable boxp equal press
variable boxt equal temp
# calculate averages every 10000 steps
reset_timestep 0
fix 21 all ave/time 10 10 100 v_boxx v_boxy v_boxz v_boxp v_boxt file lattice.out
thermo_style custom step temp pe ke etotal press lx ly lz press pxx pyy pzz pxy pxz pyz vol
thermo_modify flush yes
thermo 100
run 100000
PPPM initialization ...
  G vector (1/distance) = 0.352343
  grid = 8 8 8
  stencil order = 5
  estimated absolute RMS force accuracy = 4.23631e-05
  estimated relative force accuracy = 2.94196e-06
  using double precision FFTs
  3d grid and FFT values/proc = 3375 512
Memory usage per processor = 3.06549 Mbytes
Step Temp PotEng KinEng TotEng Press Lx Ly Lz Press Pxx Pyy Pzz Pxy Pxz Pyz Volume 
       0          300   -116.11495    0.2714463   -115.84351    3564.4589    4.3320008    4.3320008    4.3320008    3564.4589    5047.2599    2863.6494    2782.4674   -1493.6599   -1391.0442    474.96049    81.295326 
     100    139.17055   -115.93021   0.12592443   -115.80429   -4375.9667    4.3451768    4.3451768    4.3451768   -4375.9667    2757.2687   -9613.7196    -6271.449    1602.3103    321.80225    63.316616     82.03938 
     200    228.78978   -115.93866    0.2070138   -115.73164    2679.3126     4.336054     4.336054     4.336054    2679.3126    2527.0004   -1753.2784    7264.2159   -3587.9521    2893.1935    -900.9051    81.523733 
     300    262.25629    -115.9047     0.237295    -115.6674    1430.8714    4.3460721    4.3460721    4.3460721    1430.8714    8268.3389   -12623.592    8647.8674    2677.4167    490.11811   -254.55513      82.0901 
     400    315.47192   -115.90603   0.28544563   -115.62058    4260.1544    4.3429113    4.3429113    4.3429113    4260.1544     5923.895   -4193.4168    11049.985    1977.1545   -1821.7179     462.7386    81.911122 
     500    260.59707   -115.82265    0.2357937   -115.58686   -1760.0239    4.3439034    4.3439034    4.3439034   -1760.0239    10826.316   -14050.388   -2056.0003   -2103.3337    856.70899    1190.4471     81.96727 
     600    320.78928   -115.86075   0.29025688    -115.5705   -2505.6613    4.3460948    4.3460948    4.3460948   -2505.6613    12085.384   -12068.002   -7534.3653    2047.5545    2766.3929   -931.18563    82.091383 
     700     514.1343   -116.03041   0.46519952   -115.56521   -4526.5585    4.3444664    4.3444664    4.3444664   -4526.5585    886.42238   -8552.8726   -5913.2253   -4408.7389    786.56714   -325.94754    81.999148 
     800    191.20625   -115.74192   0.17300743   -115.56891   -551.46741    4.3472398    4.3472398    4.3472398   -551.46741    24121.199   -18015.103   -7760.4979    2813.1377   -137.72965    832.41229    82.156284 
     900    276.89645   -115.82115   0.25054172   -115.57061   -307.52159    4.3404051    4.3404051    4.3404051   -307.52159   -3201.4388   -9165.4283    11444.302   -4937.4576    718.82454    19.670944    81.769398 
    1000    298.78516   -115.84061   0.27034709   -115.57026   -1341.7706    4.3504833    4.3504833    4.3504833   -1341.7706    2270.5523   -15440.818    9144.9536    4526.6617    768.45115    423.21168    82.340315 
    1100     247.3444   -115.79459   0.22380241   -115.57079    5925.1566    4.3413319    4.3413319    4.3413319    5925.1566    13359.658   -7893.1193    12308.931   -2015.2213    778.47812   -969.98449    81.821786 
    1200    216.34911   -115.76697   0.19575722   -115.57122   -4978.9723    4.3449411    4.3449411    4.3449411   -4978.9723    1184.2285   -14587.393   -1533.7527   -3583.2136    1014.4699    -164.6937    82.026026 
    1300     358.7509    -115.8937   0.32460535   -115.56909   -7045.8682    4.3479855    4.3479855    4.3479855   -7045.8682   -8101.5179   -4306.7735   -8729.3132    794.16803    -248.3973   -777.45254    82.198569 
    1400      346.095   -115.88246   0.31315403   -115.56931   -1619.3805    4.3436035    4.3436035    4.3436035   -1619.3805    8256.4889   -9725.9187   -3388.7116   -2474.3704   -72.693377    487.52409    81.950296 
    1500    201.99585   -115.75431   0.18277009   -115.57154   -456.77542    4.3439237    4.3439237    4.3439237   -456.77542    3158.3461   -5637.6674     1108.995    38.079434    1409.0058    228.78517    81.968419 
    1600    215.44651     -115.767   0.19494053   -115.57206   -458.03839    4.3480239    4.3480239    4.3480239   -458.03839   -3048.8202   -5466.3459     7141.051   -4048.9849    2321.5328    205.66237    82.200746 
    1700    291.74239   -115.83366   0.26397465   -115.56969    4424.8872    4.3432537    4.3432537    4.3432537    4424.8872    4805.7588   -9022.8608    17491.764    4911.0257   -925.86855   -353.67395    81.930499 
    1800    200.94242   -115.75252   0.18181692    -115.5707    6527.8495    4.3434762    4.3434762    4.3434762    6527.8495    13752.593   -691.48655     6522.442   -1989.2595    3.1086336   -514.32334    81.943089 
    1900    229.67751   -115.77831   0.20781704   -115.57049   -3416.8424    4.3488872    4.3488872    4.3488872   -3416.8424    8201.6112   -12773.108   -5679.0306   -416.65759    1831.4148   -442.98743    82.249722 
    2000    438.14467   -115.96445    0.3964425     -115.568   -2973.8073    4.3417485    4.3417485    4.3417485   -2973.8073   -4315.8211   -2434.3012   -2171.2996   -213.28981    920.23258   -472.06374    81.845344 
    2100    238.29918   -115.78556   0.21561811   -115.56994    3100.9949    4.3476362    4.3476362    4.3476362    3100.9949    26733.065   -8772.8343   -8657.2459   -1749.4486   -949.71308   -180.65646    82.178759 
    2200    317.93264    -115.8579   0.28767213   -115.57023   -3889.7864    4.3439346    4.3439346    4.3439346   -3889.7864   -383.38655    -10869.18   -416.79266    -1525.067     1159.156   -1083.3235    81.969037 
    2300    209.32644   -115.76091   0.18940296   -115.57151    5788.6628    4.3442639    4.3442639    4.3442639    5788.6628    11772.592   -9433.4391    15026.836   -2680.5648    2039.9851     1443.429     81.98768 
    2400    335.14303   -115.87387   0.30324446   -115.57062   -444.27411    4.3467467    4.3467467    4.3467467   -444.27411    1920.9155   -11414.536     8160.798    1700.3478    19.714378    161.78959     82.12833 
    2500    206.79887    -115.7586   0.18711596   -115.57149    1389.0151    4.3426725    4.3426725    4.3426725    1389.0151    11788.696   -14490.615    6868.9649   -4309.2254   -178.55146    346.45844    81.897613 
    2600    330.52208   -115.86925   0.29906333   -115.57018   -6567.6085    4.3468797    4.3468797    4.3468797   -6567.6085   -721.58805   -13515.158   -5466.0793   -1424.9754    1555.7544   -328.52553    82.135869 
    2700    450.42267   -115.97575    0.4075519    -115.5682   -8749.2897    4.3465257    4.3465257    4.3465257   -8749.2897   -3454.1369   -12617.547   -10176.186    2086.5983    1577.6894     715.7341    82.115807 
    2800    242.63882   -115.79012   0.21954471   -115.57057    93.780571    4.3422511    4.3422511    4.3422511    93.780571    17416.362   -14773.761   -2361.2588    -2982.037    -306.2132    956.17469     81.87377 
    2900     381.1792   -115.91552   0.34489895   -115.57063   -7800.5063    4.3469245    4.3469245    4.3469245   -7800.5063   -5857.7195   -16026.328   -1517.4715   -3326.2942    324.23276   -1259.0226    82.138413 
    3000    259.06187   -115.80528   0.23440462   -115.57088    4676.2231      4.34671      4.34671      4.34671    4676.2231    13432.077   -12993.433    13590.026     1581.434    765.82079   -156.32393    82.126249 
    3100    327.20865   -115.86666   0.29606526   -115.57059    3753.3536    4.3399845    4.3399845    4.3399845    3753.3536    5695.3855    -8318.553    13883.228     208.2406    714.01605   -412.52891     81.74563 
    3200    266.97849   -115.81276   0.24156775    -115.5712    -749.2087    4.3497517    4.3497517    4.3497517    -749.2087    15450.493   -19456.968    1758.8496    102.86724    692.40428    1088.5048    82.298782 
    3300    398.82271   -115.92982   0.36086317   -115.56896    1495.0214    4.3441804    4.3441804    4.3441804    1495.0214    3841.9764   -832.30762    1475.3954    680.83244   -278.19109    298.14188     81.98295 
    3400    403.49125    -115.9339   0.36508736   -115.56882    615.54337    4.3429427    4.3429427    4.3429427    615.54337    17489.294   -10062.669   -5579.9944    220.59957   -526.86942   -627.45424      81.9129 
    3500    325.49988   -115.86436   0.29451913   -115.56984   -2793.1132    4.3483556    4.3483556    4.3483556   -2793.1132    6665.9816   -9450.9743   -5594.3468   -3730.8378    868.01695   -954.10706    82.219562 
    3600    340.17506   -115.87761   0.30779754   -115.56981    3463.7698    4.3436058    4.3436058    4.3436058    3463.7698    3669.1697   -3205.3586    9927.4982   -1694.6589    3139.7997   -468.39474    81.950426 
    3700    294.45955   -115.83677   0.26643318   -115.57034    5809.4484    4.3449524    4.3449524    4.3449524    5809.4484    13037.418   -10353.264    14744.192    3246.0621    123.76899   -123.45462     82.02667 
    3800    251.15943   -115.79834   0.22725433   -115.57108     1682.285    4.3451131    4.3451131    4.3451131     1682.285   -4874.1077   -4038.3645    13959.327   -1079.4437   -2487.3811   -837.95648    82.035767 
    3900    289.07337   -115.83203   0.26155966   -115.57047   -2154.8178    4.3462617    4.3462617    4.3462617   -2154.8178   -313.80913   -11979.482    5828.8378   -2446.2187   -241.63262   -130.06456    82.100841 
    4000    371.89241   -115.90571   0.33649607   -115.56921    19.134991    4.3441568    4.3441568    4.3441568    19.134991    6080.1163   -4865.5705   -1157.1408    2171.5153    3289.0916   -548.86064    81.981617 
    4100    306.51079    -115.8471   0.27733741   -115.56976   -4197.6063    4.3451897    4.3451897    4.3451897   -4197.6063    481.21444    -8514.081   -4559.9524    2115.9449    314.39783    718.98533    82.040105 
    4200    336.58277   -115.87378   0.30454716   -115.56923   -9335.0005    4.3461808    4.3461808    4.3461808   -9335.0005   -10588.588   -13954.142   -3462.2719    -4567.398   -2431.3362   -203.56556    82.096259 
    4300    234.75503   -115.78271   0.21241129    -115.5703    4377.1488    4.3452241    4.3452241    4.3452241    4377.1488    11984.536   -10337.971    11484.881    1895.5799    272.54684    175.61596    82.042055 
    4400    302.10254   -115.84395   0.27334873    -115.5706    1289.8135    4.3428562    4.3428562    4.3428562    1289.8135   -3285.0304   -8429.0807    15583.552    2894.5329    2245.0888     -1335.14    81.908002 
    4500    165.26054   -115.72141   0.14953121   -115.57188    1289.9011     4.346902     4.346902     4.346902    1289.9011    10915.115    -16498.79    9453.3789   -2088.8186    18.001295   -849.86505    82.137133 
    4600    315.46556   -115.85601   0.28543987   -115.57057   -1277.7169    4.3442708    4.3442708    4.3442708   -1277.7169   -2513.1516   -10130.282    8810.2832    2658.0515   -2148.5402    520.59224    81.988073 
    4700      311.001    -115.8511   0.28140024    -115.5697     889.2634    4.3441853    4.3441853    4.3441853     889.2634    14768.694   -6651.0839   -5449.8196    895.67958    917.81011      188.395    81.983228 
    4800    266.11968   -115.81051   0.24079068   -115.56972   -5078.4024    4.3469336    4.3469336    4.3469336   -5078.4024    6754.7321    -14429.83   -7560.1094   -113.75113    1926.7476    849.61391    82.138926 
    4900    333.62651   -115.87117   0.30187228    -115.5693   -6825.0639    4.3446039    4.3446039    4.3446039   -6825.0639   -10692.619   -11323.671    1541.0987   -5354.2229   -153.89465   -409.42004    82.006929 
    5000    171.42101    -115.7253   0.15510534   -115.57019    7504.4092     4.345558     4.345558     4.345558    7504.4092    18312.433   -6606.9731    10807.767    2784.8762   -1069.7682    1269.4644    82.060969 
    5100    296.93702    -115.8385   0.26867486   -115.56983   -2659.2075    4.3441367    4.3441367    4.3441367   -2659.2075   -6053.6387   -12228.897    10304.913    378.81077    454.06877     321.3655    81.980478 
    5200    143.36412   -115.70104   0.12971887   -115.57133    2746.3528    4.3457905    4.3457905    4.3457905    2746.3528    3528.9454   -10941.955    15652.068   -5643.1644    795.74261    6.7699791    82.074143 
    5300     373.5392   -115.90761   0.33798612   -115.56962   -4767.9081    4.3464271    4.3464271    4.3464271   -4767.9081   -7773.7584   -4950.2736   -1579.6922    2494.1979    60.489618     -536.579    82.110215 
    5400    278.06118   -115.82181    0.2515956   -115.57021    1426.9492    4.3425043    4.3425043    4.3425043    1426.9492    13228.982   -9236.6251    288.49065    1456.8576    67.341054   -187.82315    81.888096 
    5500    333.54395    -115.8716   0.30179757    -115.5698   -7585.2989    4.3479928    4.3479928    4.3479928   -7585.2989   -7764.1306   -5373.1416   -9618.6247   -1403.3832    -19.37357   -44.196763    82.198983 
    5600    325.07564   -115.86333   0.29413527   -115.56919   -1665.1462    4.3463051    4.3463051    4.3463051   -1665.1462    1033.0724   -8663.1918    2634.6809   -2993.3771   -259.42355   -343.55034    82.103305 
    5700     254.4124   -115.79966   0.23019769   -115.56947     8612.209    4.3404699    4.3404699    4.3404699     8612.209    12334.554   -3969.4862    17471.559     4839.715   -280.68144    659.44988    81.773062 
    5800    289.96263   -115.83252   0.26236428   -115.57016   -656.39979    4.3486286    4.3486286    4.3486286   -656.39979    194.02531   -8499.9052    6336.6806   -2966.1365    591.69228   -143.91432    82.235046 
    5900    235.45436    -115.7835   0.21304405   -115.57046     5337.648    4.3452551    4.3452551    4.3452551     5337.648    14849.813   -12714.619     13877.75    354.55044    794.17193    509.80292    82.043812 
    6000    400.91711   -115.93251   0.36275823   -115.56976     379.4976    4.3405814    4.3405814    4.3405814     379.4976    2433.2768   -3361.7753    2066.9913    4246.4305    972.26754   -597.62539    81.779364 
    6100    305.38619   -115.84694   0.27631985   -115.57062   -3279.6012    4.3499877    4.3499877    4.3499877   -3279.6012    17247.915   -13079.132   -14007.586   -2089.4491    915.91397    140.08528    82.312175 
    6200    394.76439   -115.92719   0.35719111      -115.57   -3934.7988    4.3434275    4.3434275    4.3434275   -3934.7988    1860.2709   -11482.552    -2182.115    -2968.023    -1580.622   -1365.1485    81.940336 
    6300    314.47179   -115.85496   0.28454068   -115.57042    3324.6731    4.3428413    4.3428413    4.3428413    3324.6731    12584.829   -10114.256    7503.4464   -2480.6261   -298.41743    27.805627    81.907164 
    6400    316.92094   -115.85698   0.28675673   -115.57022   -2789.4524    4.3482199    4.3482199    4.3482199   -2789.4524    199.39494   -13388.303    4820.5511    4360.7908    2252.4288    516.28321    82.211863 
    6500    236.55074   -115.78451   0.21403608   -115.57047    3191.8299    4.3430049    4.3430049    4.3430049    3191.8299    5829.6522   -15471.399    19217.237   -8192.8363    2931.6332    443.01106    81.916416 
    6600    352.18572   -115.88929   0.31866504   -115.57063   -947.82414    4.3453087    4.3453087    4.3453087   -947.82414    1803.9131   -14069.288    9421.9021   -1054.4046   -1608.6749    896.34631    82.046846 
    6700    326.56715   -115.86585   0.29548482   -115.57036   -4169.0889    4.3462451    4.3462451    4.3462451   -4169.0889    -2310.286   -14024.696    3827.7153    3983.0505    -1036.229   -477.67299    82.099903 
    6800    360.52338   -115.89627   0.32620913   -115.57006   -8473.2743    4.3442871    4.3442871    4.3442871   -8473.2743   -4634.9785   -14629.278   -6155.5662   -5402.5117    1252.0652    560.09143    81.988993 
    6900    330.66678   -115.86964   0.29919425   -115.57045   -1175.2423    4.3465627    4.3465627    4.3465627   -1175.2423    10503.581   -12873.326   -1155.9817    1123.1725    2310.0281   -479.81446    82.117903 
    7000    327.48938   -115.86644   0.29631927   -115.57012   -376.15459    4.3439016    4.3439016    4.3439016   -376.15459   -762.55151   -8618.2282    8252.3159    1887.3292   -700.60791    546.62283    81.967171 
    7100    262.87881   -115.80792   0.23785827   -115.57006   -1930.3896    4.3457001    4.3457001    4.3457001   -1930.3896   -3650.8867     -12284.6    10144.318   -111.26485    340.60501   -1016.9859    82.069023 
    7200    200.85467   -115.75211   0.18173752   -115.57037    6906.9697    4.3467502    4.3467502    4.3467502    6906.9697    14746.917   -11102.745    17076.738   -5265.9552    968.64532   -754.78821     82.12853 
    7300    346.17118   -115.88211   0.31322295   -115.56889    4486.4902    4.3419656    4.3419656    4.3419656    4486.4902   -1069.5483   -77.382199    14606.401    5174.3062    750.60897    977.18215    81.857626 
    7400    238.98075   -115.78596    0.2162348   -115.56973    1487.9339    4.3467176    4.3467176    4.3467176    1487.9339    16132.076   -12019.602    351.32751     1352.514   -338.89818    1250.2558     82.12668 
    7500    377.53574   -115.91125   0.34160227   -115.56965    -5632.476    4.3461086    4.3461086    4.3461086    -5632.476   -9778.4242   -2180.2701   -4938.7338   -4709.8663   -1187.4148    688.95235    82.092167 
    7600    264.94577   -115.80986    0.2397285   -115.57013    7346.9712    4.3424579    4.3424579    4.3424579    7346.9712    20066.904   -4298.8875    6272.8971    497.23138   -217.72931   -1022.7327    81.885469 
    7700    357.22593   -115.89273   0.32322553   -115.56951   -5172.3562    4.3468338    4.3468338    4.3468338   -5172.3562   -8021.2419   -9771.3332    2275.5065    1756.6389    1156.5592   -37.050589    82.133267 
    7800    201.88915   -115.75304   0.18267354   -115.57037    841.07789    4.3455775    4.3455775    4.3455775    841.07789   -8778.3932   -5426.4345    16728.061   -2580.8707    2282.4324   -1170.3149    82.062076 
    7900    225.01008   -115.77369   0.20359385   -115.57009    4616.4781    4.3433283    4.3433283    4.3433283    4616.4781     6300.125   -10340.361    17889.671   -5351.9217   -470.01165    201.83311    81.934718 
    8000    305.01975   -115.84536   0.27598828   -115.56937   -1283.4804    4.3452669    4.3452669    4.3452669   -1283.4804   -7141.7321   -10266.725    13558.016    8136.8127   -2343.3257   -1305.8125    82.044481 
    8100    265.65977   -115.81068   0.24037454   -115.57031   -4588.7775    4.3458944    4.3458944    4.3458944   -4588.7775   -3944.6001    -11488.23    1666.4973   -2624.8665    1163.8763    611.10757    82.080029 
    8200     349.7366   -115.88657   0.31644903   -115.57012   -8649.6444    4.3452322    4.3452322    4.3452322   -8649.6444   -6332.0305   -13477.205   -6139.6982   -2002.0677    3081.8178   -282.84155    82.042518 
    8300    291.29052   -115.83416   0.26356578   -115.57059    843.77113    4.3431504    4.3431504    4.3431504    843.77113    12770.615   -11010.008    770.70626    6957.7182   -14.065534    668.59181    81.924653 
    8400    381.08429   -115.91533   0.34481307   -115.57052   -6709.3315    4.3474456    4.3474456    4.3474456   -6709.3315   -6989.1715   -12211.155    -927.6686   -1024.8198   -2343.9362    834.54963    82.167952 
    8500    226.35969   -115.77625     0.204815   -115.57143    3378.2043    4.3440099    4.3440099    4.3440099    3378.2043     13785.48   -14126.698    10475.831   -3024.6631    1350.8886   -1377.4208      81.9733 
    8600    271.97332   -115.81702   0.24608717   -115.57093    5095.9197    4.3422732    4.3422732    4.3422732    5095.9197    3740.7235   -7829.2986    19376.334    1416.0776    1585.7206   -546.30833     81.87502 
    8700    308.30502   -115.84874   0.27896086   -115.56978    2466.3225    4.3484213    4.3484213    4.3484213    2466.3225    15655.648   -13036.222    4779.5411    5237.1074   -1245.3039   -2263.7601     82.22329 
    8800    353.19562   -115.88916   0.31957882   -115.56958   -864.56327    4.3437956    4.3437956    4.3437956   -864.56327    3115.3159   -10118.295    4409.2888   -5745.7804    -1043.777    845.29128     81.96117 
    8900    292.44418   -115.83483   0.26460964   -115.57022    312.90532    4.3428769    4.3428769    4.3428769    312.90532    8800.3392   -8663.5555    801.93234   -3724.9894    1206.9001   -291.08182    81.909175 
    9000    418.68202   -115.94801   0.37883229   -115.56918   -7100.4852    4.3495845    4.3495845    4.3495845   -7100.4852    1253.9888   -11091.981   -11463.463    4123.9843    2156.8844    1052.9718    82.289293 
    9100    334.47026   -115.87259   0.30263572   -115.56996    2227.1211    4.3422069    4.3422069    4.3422069    2227.1211    8758.4302   -9499.1781    7422.1112   -3333.5468   -2390.6395     878.5251    81.871272 
    9200    276.84896   -115.82175   0.25049876   -115.57125   -893.19215    4.3451705    4.3451705    4.3451705   -893.19215   -3481.3388   -9083.4316     9885.194   -4591.5169   -880.76383    1165.6957    82.039023 
    9300    253.78598   -115.80103   0.22963089    -115.5714    356.02471    4.3473011    4.3473011    4.3473011    356.02471   -2792.7698   -10390.475    14251.319    3720.1483    1167.7741     432.4969    82.159761 
    9400    323.38053   -115.86216    0.2926015   -115.56956    3737.9026    4.3431866    4.3431866    4.3431866    3737.9026    5502.0192    -10061.09    15772.779   -173.07539    1959.0793   -955.37959      81.9267 
    9500    318.80042   -115.85842   0.28845732   -115.56996   -1380.0087    4.3466681    4.3466681    4.3466681   -1380.0087     -1870.73   -5923.7196    3654.4233   -4363.6307   -1213.0148    7.1626181    82.123879 
    9600    258.76938   -115.80456   0.23413997   -115.57042    -1414.301    4.3447262    4.3447262    4.3447262    -1414.301    7311.9911   -10886.391   -668.50324    5581.7625   -170.11025   -929.02016    82.013858 
    9700    460.77841   -115.98567   0.41692199   -115.56874   -5276.8587    4.3446258    4.3446258    4.3446258   -5276.8587   -6731.1376   -6424.2157   -2675.2229    2608.6103    644.45778    846.31631     82.00817 
    9800    246.75362   -115.79345   0.22326786   -115.57018     5779.942    4.3471555    4.3471555    4.3471555     5779.942    26217.005   -8803.8062   -73.373161   -6123.3746    1428.7528   -697.85651    82.151507 
    9900    283.43518   -115.82721   0.25645811   -115.57075    159.26157    4.3415513    4.3415513    4.3415513    159.26157   -9733.8698   -7181.0318    17392.686    80.366101   -214.71383    1181.1346    81.834195 
   10000     225.4974   -115.77503   0.20403479     -115.571    3185.3794    4.3473866    4.3473866    4.3473866    3185.3794    9623.7522   -11600.032    11532.418    3596.3012    -149.0031   -236.95295     82.16461 
   10100    279.54669   -115.82264   0.25293972    -115.5697     5630.227    4.3451123    4.3451123    4.3451123     5630.227    9429.9503   -8218.7774    15679.508    -3456.209    303.34048    1716.0042    82.035726 
   10200    260.01898   -115.80514   0.23527064   -115.56987    819.05031    4.3415071    4.3415071    4.3415071    819.05031    2266.6757   -10331.879    10522.354   -5031.5751    1075.8756    512.12409    81.831698 
   10300    256.12012   -115.80161   0.23174287   -115.56987   -7270.9476    4.3486365    4.3486365    4.3486365   -7270.9476   -3185.6054   -13187.525   -5439.7124    2720.0824    127.94912   -454.79372    82.235499 
   10400    395.06521   -115.92649   0.35746331   -115.56903   -8477.4852    4.3451328    4.3451328    4.3451328   -8477.4852   -8644.3735   -11892.705   -4895.3772   -689.73231   -1401.7855   -154.33394    82.036885 
   10500    220.18076   -115.76989   0.19922418   -115.57067    2416.5543    4.3419182    4.3419182    4.3419182    2416.5543    8820.2628   -12421.886    10851.286   -9216.6692    1290.7493   -1340.4228    81.854945 
   10600    279.00985   -115.82391   0.25245398   -115.57146   -10564.513    4.3487966    4.3487966    4.3487966   -10564.513   -19262.438   -16979.803    4548.7022    5698.1104    2644.1908    651.34594    82.244579 
   10700    214.76274   -115.76522   0.19432184    -115.5709    2527.1591    4.3434197    4.3434197    4.3434197    2527.1591   -5401.2347   -9704.7215    22687.434    207.64834    -263.0459   -441.58261    81.939894 
   10800    276.73714   -115.82078   0.25039758   -115.57038    2878.3718    4.3438574    4.3438574    4.3438574    2878.3718    2742.4199   -11179.875    17072.571   -6273.6863   -2017.9692    1482.1077    81.964668 
   10900    249.55433   -115.79619   0.22580201   -115.57038    -867.4919    4.3463727    4.3463727    4.3463727    -867.4919    1248.0662   -14620.222     10769.68    3914.3717   -87.063065   -400.81081    82.107135 
   11000    358.66862   -115.89334    0.3245309   -115.56881   -5108.4148    4.3451535    4.3451535    4.3451535   -5108.4148   -10420.839   -4528.3266   -376.07838    3278.1889    2823.5418   -19.226771     82.03806 
   11100    331.06906   -115.86871   0.29955825   -115.56915    635.96807     4.345343     4.345343     4.345343    635.96807    16916.726    -12289.57   -2719.2521   -4094.9637    560.49717    360.30889     82.04879 
   11200    335.08676   -115.87286   0.30319354   -115.56967      2050.29    4.3433382    4.3433382    4.3433382      2050.29     2071.285   -3414.1304    7493.7155   -3433.7256   -531.75968   -497.39832     81.93528 
   11300     272.8291   -115.81748    0.2468615   -115.57062    2257.1925    4.3474457    4.3474457    4.3474457    2257.1925    7198.1868   -10947.485    10520.875     5932.331   -258.45434   -445.65938    82.167956 
   11400    316.52476   -115.85655   0.28639825   -115.57015    4603.0986    4.3435372    4.3435372    4.3435372    4603.0986    5160.1384   -8109.2835    16758.441   -2167.2124    1341.0856   -1474.4403    81.946545 
   11500    241.08843   -115.78899   0.21814188   -115.57084    6860.7392    4.3436767    4.3436767    4.3436767    6860.7392    6170.5578   -4215.7169    18627.377   -4949.8404   -1486.2864    1146.1469    81.954439 
   11600    350.99733   -115.88741   0.31758976   -115.56982   -3186.7945    4.3480974    4.3480974    4.3480974   -3186.7945    1837.5179   -15318.771    3920.8693    2002.4381    181.83846    297.33798    82.204914 
   11700     400.7472   -115.93184   0.36260449   -115.56923    -3743.133    4.3434928    4.3434928    4.3434928    -3743.133   -3250.0681   -5603.6757   -2375.6551    839.14554    1205.7031    1288.5258    81.944031 
   11800    309.03561   -115.84982   0.27962192    -115.5702   -1302.3709    4.3445605    4.3445605    4.3445605   -1302.3709    4933.2837   -11688.056    2847.6592   -6430.0096     833.3932   -688.79259    82.004476 
   11900    428.93129   -115.95781   0.38810605    -115.5697    -9164.977    4.3475392    4.3475392    4.3475392    -9164.977   -9278.9308   -16587.282   -1628.7184    2464.9003   -197.22508     938.5168    82.173263 
   12000    244.82729   -115.79208   0.22152488   -115.57056    6774.3123    4.3428261    4.3428261    4.3428261    6774.3123    11430.815   -9207.2865    18099.408    4920.4959    501.11424   -39.318381    81.906301 
   12100    361.42519   -115.89729   0.32702511   -115.57026   -3819.2963    4.3455881    4.3455881    4.3455881   -3819.2963   -11068.596   -13808.514     13419.22   -8249.1527    365.09678   -732.56844    82.062676 
   12200    193.02003    -115.7465   0.17464858   -115.57185    3768.0194    4.3452699    4.3452699    4.3452699    3768.0194    11727.027   -15705.226    15282.258    1900.9182   -478.63993   -319.33267    82.044651 
   12300     408.3671   -115.93968   0.36949913   -115.57018   -1972.4999    4.3442099    4.3442099    4.3442099   -1972.4999   -1059.0393   -10110.604    5252.1436    6213.2062    1336.9514    -977.4312    81.984621 
   12400    328.61215   -115.86716   0.29733518   -115.56982    -936.2493    4.3459853    4.3459853    4.3459853    -936.2493     14461.62   -10820.852   -6449.5165   -2649.4072    1900.7496    1370.6402     82.08518 
   12500    283.57378   -115.82673   0.25658352   -115.57014   -3774.7067      4.34333      4.34333      4.34333   -3774.7067    1267.2022   -10135.779   -2455.5434   -3332.5605      140.752   -537.03346    81.934818 
   12600    361.28118   -115.89681    0.3268948   -115.56991   -2510.5983    4.3465758    4.3465758    4.3465758   -2510.5983    626.07635   -12269.381    4111.5101    2288.4787   -873.14306      1000.15    82.118645 
   12700    248.04654    -115.7946   0.22443772   -115.57016    7414.8762    4.3452826    4.3452826    4.3452826    7414.8762    20222.729   -7027.0563    9048.9563    736.01094    1274.6528   -901.48905     82.04537 
   12800     236.4931   -115.78524   0.21398393   -115.57126    705.89264    4.3413048    4.3413048    4.3413048    705.89264   -9472.2135   -9902.1431    21492.035   -7838.2497     1466.843    71.555051    81.820256 
   12900    197.21927   -115.75025   0.17844814   -115.57181   -589.49311    4.3493983    4.3493983    4.3493983   -589.49311    75.792353    -11612.71    9768.4382    2431.7738   -90.436411    -755.1665    82.278722 
   13000    352.87096    -115.8883   0.31928506   -115.56902    1664.3765    4.3431966    4.3431966    4.3431966    1664.3765    3309.6802   -3951.1484    5634.5976    1045.2045    125.73329   -1280.6769     81.92727 
   13100    253.15554   -115.79918   0.22906046   -115.57011   -1076.2006    4.3424104    4.3424104    4.3424104   -1076.2006   -538.06541   -8627.8173    5937.2809   -8263.6421    624.14672    120.98033    81.882785 
   13200    276.33603   -115.81998   0.25003465   -115.56995   -12702.992    4.3508981    4.3508981    4.3508981   -12702.992   -19280.922   -9475.7993   -9352.2555    -385.9548   -12.097279   -341.56105    82.363867 
   13300    294.72361   -115.83564   0.26667212   -115.56897    1817.8831    4.3423039    4.3423039    4.3423039    1817.8831    4400.0043   -8115.3502    9168.9953    4978.8191   -1052.7065       1395.8     81.87676 
   13400    268.83561   -115.81257   0.24324811   -115.56932    2872.5179    4.3434222    4.3434222    4.3434222    2872.5179    -190.3638   -5661.2722     14469.19   -5069.2529    1347.4353   -100.37978    81.940036 
   13500    128.59098   -115.68804   0.11635182   -115.57169   -1546.4259    4.3496546    4.3496546    4.3496546   -1546.4259   -2777.6679   -14184.718    12323.108   -2475.1277    1891.3385    724.18791    82.293269 
   13600    305.21084   -115.84602   0.27616118   -115.56986    1610.4798    4.3408923    4.3408923    4.3408923    1610.4798   -6484.1723   -8412.8568    19728.469    6976.8573   -558.50362   -693.30321    81.796935 
   13700    273.78811   -115.81769   0.24772924   -115.56996    4851.9909    4.3465823    4.3465823    4.3465823    4851.9909    19266.834   -8386.4884    3675.6273    -1632.716   -1042.6339   -4.7647736    82.119016 
   13800    292.69464   -115.83557   0.26483626   -115.57074   -4709.4699    4.3456345    4.3456345    4.3456345   -4709.4699   -335.92264   -11437.255   -2355.2316   -5315.0515    1095.0055   -691.18736    82.065305 
   13900    330.24768   -115.86894   0.29881504   -115.57012   -4477.7192    4.3447863    4.3447863    4.3447863   -4477.7192   -2093.1809   -9905.5389   -1434.4377    2093.2914    2258.2133     199.9688    82.017262 
   14000     318.7376   -115.85727   0.28840048   -115.56887    5350.9514    4.3454895    4.3454895    4.3454895    5350.9514    20177.823   -9409.8472     5284.878   -195.21127    133.85072    844.76724    82.057088 
   14100    343.34681    -115.8804   0.31066741   -115.56974   -1677.0021    4.3435808    4.3435808    4.3435808   -1677.0021   -5171.0734   -10335.509    10475.576   -5845.7935   -580.59319   -85.232622    81.949009 
   14200    149.58242    -115.7072   0.13534531   -115.57186    4730.8724    4.3461332    4.3461332    4.3461332    4730.8724     8094.117   -14852.053    20950.553   -1632.6823   -1123.5923    999.57571    82.093563 
   14300    422.60969    -115.9518   0.38238613   -115.56941   -4278.4353    4.3456907    4.3456907    4.3456907   -4278.4353   -8959.3614   -12251.255     8375.311    3938.8913    1165.8817    1324.1401    82.068488 
   14400    243.69189   -115.79125   0.22049755   -115.57075    6166.3715    4.3412152    4.3412152    4.3412152    6166.3715    12981.528     -10407.8    15925.386   -8634.7454   -557.54177    1698.8039    81.815189 
   14500    398.60515   -115.93151   0.36066631   -115.57085    -14721.45    4.3500912    4.3500912    4.3500912    -14721.45   -15094.964   -18818.739   -10250.646   -3170.3108   -45.866847   -531.86129    82.318055 
   14600    345.60327   -115.88333    0.3127091   -115.57062   -762.20454    4.3423091    4.3423091    4.3423091   -762.20454    7476.4554   -9397.4279   -365.64113    7639.9809   -243.17451    -188.4068    81.877052 
   14700    407.00795   -115.93784   0.36826935   -115.56957   -2876.3887     4.344119     4.344119     4.344119   -2876.3887   -81.520067   -8945.8325     398.1865   -5036.9135    1404.4436    -1256.168    81.979475 
   14800    294.88442   -115.83733   0.26681762   -115.57051   -2211.4648    4.3484248    4.3484248    4.3484248   -2211.4648    5345.4104   -19623.051    7643.2463   -2821.2306    1389.1758   -197.36045     82.22349 
   14900    291.54212   -115.83393   0.26379344   -115.57014    5732.4822    4.3423086    4.3423086    4.3423086    5732.4822    6687.5235   -4995.3698    15505.293    2488.8733   -2409.0718    399.96401    81.877026 
   15000      344.697   -115.88154   0.31188909   -115.56965    5536.7641    4.3447631    4.3447631    4.3447631    5536.7641    9268.2026   -8275.4502     15617.54    2400.2978   -2773.1798     242.2802    82.015946 
   15100    309.31165   -115.85073   0.27987168   -115.57086    2119.3816     4.346378     4.346378     4.346378    2119.3816    12813.014   -14699.641    8244.7721   -5202.2801    1226.6481    856.63291    82.107435 
   15200    371.92043   -115.90698   0.33652142   -115.57046    824.13144    4.3434603    4.3434603    4.3434603    824.13144    3956.1148   -2432.8313    949.11086    1194.5449    4259.3428    163.22344    81.942192 
   15300    366.25314   -115.90081   0.33139353   -115.56942    1276.9535    4.3464143    4.3464143    4.3464143    1276.9535    17643.906   -10872.219   -2940.8257    1097.4429   -675.38017    1509.9651    82.109491 
   15400    382.30064   -115.91575   0.34591365   -115.56984   -3806.0927      4.34366      4.34366      4.34366   -3806.0927   -6092.9067    -6797.844    1472.4727   -6794.2679   -2567.2102   -1418.4079    81.953496 
   15500    241.62273    -115.7895   0.21862532   -115.57087    2380.3211    4.3467195    4.3467195    4.3467195    2380.3211    4677.0261   -10769.368    13233.305   -383.04974      1030.28   -671.21887    82.126792 
   15600    316.14703   -115.85492   0.28605648   -115.56886    871.85049    4.3455864    4.3455864    4.3455864    871.85049    935.67067   -11165.371    12845.252    3088.9704    2222.9817   -1201.9014    82.062579 
   15700     206.3007   -115.75659   0.18666521   -115.56993     4547.804    4.3407901    4.3407901    4.3407901     4547.804    316.45853   -6734.0287    20060.982   -1839.9999   -1216.0827   -40.743667    81.791157 
   15800    335.33451   -115.87365   0.30341771   -115.57023   -10643.594    4.3504301    4.3504301    4.3504301   -10643.594   -17548.263   -17620.839    3238.3214   -6582.9884   -1270.1464    338.42043    82.337292 
   15900     259.1523   -115.80461   0.23448645   -115.57012    982.77375    4.3427437    4.3427437    4.3427437    982.77375    12126.115   -10537.622    1359.8286    6973.9383     2410.968    1082.0872    81.901641 
   16000    342.53534   -115.87972   0.30993318   -115.56979   -6208.3605     4.342049     4.342049     4.342049   -6208.3605   -7342.7506   -7224.9248    -4057.406   -1432.4294    791.58381    1091.5286    81.862343 
   16100    283.64741   -115.82707   0.25665014   -115.57042   -10207.253    4.3519543    4.3519543    4.3519543   -10207.253   -7264.1914   -20108.419   -3249.1479    -3524.652   -795.79671   -438.34441    82.423867 
   16200    233.48909   -115.78116   0.21126583    -115.5699    6707.4633    4.3393146    4.3393146    4.3393146    6707.4633    8605.2782   -6728.4463    18245.558    4807.0066   -180.37859    606.30218    81.707778 
   16300    263.08713   -115.80789   0.23804676   -115.56984    2841.8739    4.3447227    4.3447227    4.3447227    2841.8739    3739.9141   -8428.3958    13214.103   -143.45602     994.2761   -252.68919     82.01366 
   16400    168.26184   -115.72309   0.15224685   -115.57085    469.49988    4.3494447    4.3494447    4.3494447    469.49988    6240.7912   -15749.419    10917.127   -1552.8007    125.51496   -395.76163    82.281355 
   16500    349.55153   -115.88559   0.31628157   -115.56931   -653.53981    4.3397646    4.3397646    4.3397646   -653.53981   -7051.6308   -5426.9175    10517.929   -1487.2127    684.38279   -1544.6632    81.733204 
   16600    239.73177   -115.78682   0.21691434   -115.56991    3680.2599    4.3477324    4.3477324    4.3477324    3680.2599    24809.589   -10538.012   -3230.7972    3048.6076    1150.4931    986.61563    82.184217 
   16700    367.03267   -115.90203   0.33209888   -115.56993   -9498.1745    4.3461846    4.3461846    4.3461846   -9498.1745   -13711.716   -7495.0052   -7287.8027   -5868.3883    -1097.977    544.43291    82.096473 
   16800    238.05833   -115.78627   0.21540018   -115.57087    2017.7798     4.342798     4.342798     4.342798    2017.7798    5030.8772   -10334.452    11356.915   -3698.5301    324.26444    1052.9114     81.90471 
   16900    294.36076   -115.83573    0.2663438   -115.56939    1298.7067    4.3477992    4.3477992    4.3477992    1298.7067     2461.583   -8387.4636    9822.0006    4387.0179    1760.2221    1221.2162    82.188003 
   17000    217.74884   -115.76693   0.19702373    -115.5699    2487.0607    4.3431771    4.3431771    4.3431771    2487.0607   -931.71643   -8055.4962    16448.395   -3394.9585     1391.515    701.88246    81.926161 
   17100    260.47802   -115.80596   0.23568598   -115.57028    -2229.197    4.3461013    4.3461013    4.3461013    -2229.197   -6276.9687   -13173.882     12763.26   -5017.1553   -2514.1265    5.7237093    82.091756 
   17200    359.64467   -115.89424   0.32541405   -115.56883   -3863.9115    4.3473853    4.3473853    4.3473853   -3863.9115   -3943.9683   -8624.3912    976.62513    2458.1173    1156.8625   -737.20837    82.164534 
   17300    301.22892   -115.84219   0.27255825   -115.56963    1539.5851    4.3400022    4.3400022    4.3400022    1539.5851    10444.766   -5115.9273   -710.08339    726.32666    1159.0295    163.91401    81.746626 
   17400    385.07902   -115.91884   0.34842759   -115.57041   -10495.419    4.3505876    4.3505876    4.3505876   -10495.419   -5318.1551   -14361.182   -11806.919   -4937.1259   -23.609232   -897.92133    82.346234 
   17500    298.22802   -115.84005   0.26984298    -115.5702    6606.0319    4.3426467    4.3426467    4.3426467    6606.0319    12861.931   -4369.4351      11325.6    2252.0618    -581.0211   -167.47816    81.896149 
   17600    371.23897    -115.9058   0.33590482   -115.56989     3418.602    4.3414644    4.3414644    4.3414644     3418.602    6738.6548   -6812.7592     10329.91     1612.211    1153.2009    808.52718     81.82928 
   17700    218.28926   -115.76903   0.19751271   -115.57152     3731.183    4.3502947    4.3502947    4.3502947     3731.183    13206.874    -14393.07    12379.746   -4260.4687    269.04891     1439.783    82.329604 
   17800     365.6538   -115.90066   0.33085124   -115.56981    3801.9167    4.3412573    4.3412573    4.3412573    3801.9167    4385.1539   -5161.0494    12181.646    527.11958   -2185.3378    398.62881    81.817571 
   17900    329.38102   -115.86753   0.29803086   -115.56949    5202.6184    4.3433923    4.3433923    4.3433923    5202.6184    22147.967   -12059.239    5519.1279    3050.4708    325.58178    99.500292     81.93834 
   18000    404.41353   -115.93587   0.36592186   -115.56995   -8979.5186    4.3490387    4.3490387    4.3490387   -8979.5186   -3048.4615   -13105.724   -10784.371   -3995.9044    1515.2911    876.02432    82.258315 
   18100    321.35248   -115.86148   0.29076648   -115.57072    98.819021    4.3419764    4.3419764    4.3419764    98.819021    10143.294   -11007.309    1160.4716   -7379.7851    2303.6041   -826.49666    81.858232 
   18200    375.62997   -115.90933   0.33987789   -115.56945   -3877.2683    4.3462894    4.3462894    4.3462894   -3877.2683    1719.3283   -15813.067    2461.9338    2626.4514   -1689.9192   -1034.2524    82.102415 
   18300    267.17993   -115.81244   0.24175002   -115.57069   -2804.8906    4.3455414    4.3455414    4.3455414   -2804.8906   -6175.5113   -14955.582    12716.421    1032.2155   -383.15637   -113.86515    82.060033 
   18400    247.44236   -115.79464   0.22389105   -115.57075    146.56697    4.3449226    4.3449226    4.3449226    146.56697   -2701.2584   -13598.197    16739.156   -6756.3505   -682.68951    845.30726    82.024979 
   18500    312.14072   -115.85159   0.28243148   -115.56916   -354.42294    4.3457254    4.3457254    4.3457254   -354.42294   -109.90447     -13711.6    12758.236    2497.3617    463.02289   -69.567632    82.070456 
   18600    277.64314   -115.82079   0.25121735   -115.56957   -2016.4602    4.3432235    4.3432235    4.3432235   -2016.4602   -672.44077   -10788.495    5411.5552    645.21244    1058.1765    1330.5601    81.928792 
   18700    375.34155   -115.90894   0.33961692   -115.56932   -10708.036    4.3479878    4.3479878    4.3479878   -10708.036   -14781.844   -10761.116   -6581.1477    -5899.657   -127.23176     980.5825    82.198698 
   18800    258.70024   -115.80386   0.23407741   -115.56978    4938.6216    4.3440773    4.3440773    4.3440773    4938.6216    20597.605   -9769.3861    3987.6462    1724.0492    163.60461   -929.43537    81.977116 
   18900    351.95067   -115.88796   0.31845236   -115.56951   -741.25275    4.3423986    4.3423986    4.3423986   -741.25275   -7912.5973   -401.00009    6089.8391    2713.5658   -84.227977   -1976.4854    81.882116 
   19000    173.02919   -115.72753   0.15656045   -115.57097    2313.6995    4.3492385    4.3492385    4.3492385    2313.6995    9545.5509   -13782.302     11177.85   -2208.2426    893.42722   -1231.2179    82.269653 
   19100      267.075   -115.81167   0.24165507   -115.57002    7670.4067    4.3411162    4.3411162    4.3411162    7670.4067    5058.2621   -1496.7497    19449.708    -2359.973    -1399.083    107.95728    81.809594 
   19200    239.21929   -115.78633   0.21645064   -115.56988    7141.3314    4.3437441    4.3437441    4.3437441    7141.3314    13771.447   -2618.1209    10270.668     4435.263   -964.30997    -1439.273    81.958253 
   19300    276.74357   -115.82008    0.2504034   -115.56968   -4910.7014    4.3486307    4.3486307    4.3486307   -4910.7014    1245.5419   -14802.848   -1174.7978   -1652.7768    1946.6973    1433.9399    82.235166 
   19400     332.5678   -115.87044   0.30091434   -115.56952   -2383.2764    4.3413898    4.3413898    4.3413898   -2383.2764   -5047.9535    -2371.539    269.66334   -5790.6893    1026.2353      845.456    81.825063 
   19500    248.88468   -115.79508   0.22519609   -115.56989    1379.1311    4.3463393    4.3463393    4.3463393    1379.1311    15680.651   -10216.467   -1326.7901    2355.8614   -882.93571    594.24334    82.105241 
   19600      322.591   -115.86232   0.29188712   -115.57044   -8711.7252     4.346298     4.346298     4.346298   -8711.7252   -12834.828   -15611.656     2311.309    1513.5126   -1835.4917   -343.37081    82.102903 
   19700    175.93786   -115.73046   0.15919227   -115.57127    4186.8357    4.3422189    4.3422189    4.3422189    4186.8357   -1315.1903   -7896.7664    21772.464    -3255.317    2433.1739   -1361.6729    81.871952 
   19800    304.82952   -115.84554   0.27581616   -115.56973   -2028.2504    4.3475431    4.3475431    4.3475431   -2028.2504   -2492.1425    -12618.82    9026.2113    -474.7742    1122.1724   -1524.7861    82.173483 
   19900    222.40762   -115.77158   0.20123909   -115.57034    889.05959    4.3430497    4.3430497    4.3430497    889.05959    3825.9431    -14382.09    13223.325     5834.911    502.25748   -2274.4576    81.918955 
   20000    356.85213   -115.89317    0.3228873   -115.57028   -8289.4367    4.3467682    4.3467682    4.3467682   -8289.4367   -8846.6947   -11514.951    -4506.664    -3920.389   -542.11975    198.31044    82.129549 
   20100    346.06097   -115.88251   0.31312324   -115.56938   -1853.8082     4.346453     4.346453     4.346453   -1853.8082    8458.7179   -12792.815   -1227.3276   -642.17922    1480.5496   -497.55984    82.111685 
   20200    341.66389   -115.87878   0.30914467   -115.56964     -474.871    4.3408779    4.3408779    4.3408779     -474.871     6464.853   -9335.9991    1446.5331     6704.845   -85.559821     220.6478     81.79612 
   20300    282.85659   -115.82705   0.25593459   -115.57112    -1268.576     4.350075     4.350075     4.350075    -1268.576     10538.58   -18507.007    4162.6987   -4187.6303   -594.56562    1131.8785    82.317134 
   20400    313.31052   -115.85344   0.28348994   -115.56995    5874.0103    4.3427694    4.3427694    4.3427694    5874.0103    9818.8719   -9559.4271    17362.586   -686.15257    2547.4794    583.46939    81.903093 
   20500    294.73157   -115.83676   0.26667932   -115.57008    4919.3422    4.3413479    4.3413479    4.3413479    4919.3422    12316.217   -9152.6568    11594.467    774.88789    708.35296   -1146.1327    81.822692 
   20600    316.66471   -115.85678   0.28652489   -115.57026   -3277.8552    4.3513267    4.3513267    4.3513267   -3277.8552    12930.776    -17144.35    -5619.992    3797.7964   -283.59552   -692.86487    82.388211 
   20700    415.34293   -115.94414   0.37581101   -115.56833   -1024.7454    4.3415711    4.3415711    4.3415711   -1024.7454     631.4622   -5648.6711    1942.9727   -7113.5742   -1508.0815   -370.88506    81.835314 
   20800    333.66486   -115.87096   0.30190697   -115.56905    1594.1206    4.3425484    4.3425484    4.3425484    1594.1206    14929.981    -6734.936   -3412.6832   -1847.3745    2901.1253   -377.04912    81.890588 
   20900    367.69315   -115.90254   0.33269649   -115.56984    -9893.412     4.351352     4.351352     4.351352    -9893.412   -9300.2986   -12000.347   -8379.5908    2881.5776    379.79381   -531.95566    82.389646 
   21000    242.06179   -115.78965   0.21902259   -115.57062    9221.5542    4.3393576    4.3393576    4.3393576    9221.5542    12171.391   -5813.8513    21307.123   -6441.6603    1573.1588    924.01764    81.710207 
   21100    363.65561   -115.89906   0.32904324   -115.57002   -764.50721    4.3459686    4.3459686    4.3459686   -764.50721    -6988.337   -7670.2853    12365.101    1102.0475    1203.6318    2072.3968    82.084236 
   21200     196.6979   -115.74965   0.17797639   -115.57168   -113.58342     4.347578     4.347578     4.347578   -113.58342   -1178.0169   -9520.9981    10358.265    1381.8056    379.44798   -509.74337    82.175462 
   21300    360.95067   -115.89664   0.32659575   -115.57005   -2075.9735    4.3417442    4.3417442    4.3417442   -2075.9735   -497.19064    -10269.03       4538.3   -21.537783   -1202.3973    425.30179    81.845103 
   21400    367.61719   -115.90143   0.33262776   -115.56881   -613.09784    4.3478768    4.3478768    4.3478768   -613.09784    7692.6915   -5957.3308   -3574.6542   -4270.2273    763.53559   -666.10929    82.192407 
   21500     294.3529   -115.83611   0.26633669   -115.56977   -3265.5351    4.3436033    4.3436033    4.3436033   -3265.5351    3081.4499   -8932.1785   -3945.8766      3893.65    2262.5588   -1311.7102    81.950283 
   21600    309.19588   -115.84948   0.27976693   -115.56971   -5231.2694    4.3453116    4.3453116    4.3453116   -5231.2694   -2802.6093   -14086.268    1195.0694    152.48566    -64.85902   -1268.5368    82.047013 
   21700    205.41103   -115.75538   0.18586022   -115.56952    9196.9928    4.3473462    4.3473462    4.3473462    9196.9928    23749.091   -9727.8458    13569.733   -4833.5138    13.648157    169.54509    82.162315 
   21800    308.29112   -115.84834   0.27894828   -115.56939    1452.6447    4.3404779    4.3404779    4.3404779    1452.6447   -7153.9345   -4285.2434    15797.112    2643.5409    2838.1673    1944.7862    81.773513 
   21900    126.48314   -115.68604   0.11444461    -115.5716    353.31805    4.3483015    4.3483015    4.3483015    353.31805    14168.775   -16945.968    3837.1465    471.49857    944.59404   -271.49735    82.216492 
   22000    350.98038   -115.88648   0.31757442    -115.5689    -2747.552    4.3458351    4.3458351    4.3458351    -2747.552    694.24403   -10050.891    1113.9912    -543.7843   -2402.0119    1247.8766    82.076669 
   22100    305.17272   -115.84481   0.27612669   -115.56868    2335.4993    4.3407733    4.3407733    4.3407733    2335.4993    10089.571   -2881.7032   -201.36985   -4077.4122    1935.2508   -362.79758    81.790208 
   22200    247.84942   -115.79416   0.22425936    -115.5699   -9994.0907    4.3502431    4.3502431    4.3502431   -9994.0907   -4985.0223   -15712.929   -9284.3211    2468.5935     3473.721   -2298.8829    82.326675 
   22300    290.57258   -115.83317   0.26291618   -115.57025   -3184.0629    4.3436637    4.3436637    4.3436637   -3184.0629   -8066.7938   -11443.422     9958.027   -4247.2802    344.46306   -1817.4005      81.9537 
   22400    255.15745   -115.80067   0.23087182    -115.5698    7749.3852    4.3421586    4.3421586    4.3421586    7749.3852    11285.067   -8070.6552    20033.744   -2982.4598   -1315.8775   -1482.9266    81.868539 
   22500    241.50459   -115.78955   0.21851843   -115.57103   -5721.1833     4.348809     4.348809     4.348809   -5721.1833   -10554.818   -14852.328    8243.5965    3547.3855   -151.26205   -814.02089    82.245283 
   22600    227.19618   -115.77691   0.20557188   -115.57134   -681.85108    4.3423519    4.3423519    4.3423519   -681.85108   -5221.3034   -6295.5469     9471.297   -2496.5985    1173.5674   -558.05496    81.879472 
   22700    397.73271   -115.92914   0.35987691   -115.56927   -181.90837    4.3450542    4.3450542    4.3450542   -181.90837    6213.9164   -6831.4189    71.777393    -740.1294    1344.0325    1378.6911    82.032436 
   22800      356.123   -115.89286   0.32222758   -115.57063   -4157.2054    4.3454979    4.3454979    4.3454979   -4157.2054    3421.0796   -7735.0764   -8157.6194      669.652    2810.2461    289.46278    82.057568 
   22900    260.28031   -115.80713   0.23550709   -115.57163   -2028.9213    4.3436575    4.3436575    4.3436575   -2028.9213   -5423.5714    673.08498   -1336.2775    1142.0803    1975.7475   -1131.4139    81.953354 
   23000    333.78427   -115.87245   0.30201503   -115.57043    3218.4124     4.346946     4.346946     4.346946    3218.4124    16849.262   -14177.135    6983.1105   -5461.3822   -1329.5991   -340.54829     82.13963 
   23100    331.19817   -115.86919   0.29967506   -115.56951    8705.5918    4.3415535    4.3415535    4.3415535    8705.5918    5105.4605    4460.6445     16550.67    37.182176    2093.5955   -1215.8117    81.834317 
   23200     244.2346   -115.79213    0.2209886   -115.57114    1819.8826    4.3463315    4.3463315    4.3463315    1819.8826    11694.248   -11703.069     5468.469    3649.5539    1512.0885   -2750.2061    82.104798 
   23300    343.94367   -115.88121   0.31120746      -115.57    343.12686     4.345853     4.345853     4.345853    343.12686     8874.147   -11707.591    3862.8245     -931.604    83.641494   -430.51149    82.077683 
   23400     442.8443   -115.96942   0.40069483   -115.56873    2622.2629    4.3415103    4.3415103    4.3415103    2622.2629    8055.6497   -299.24531    110.38416   -638.64053   -555.15715    560.80102    81.831874 
   23500     345.3492   -115.88244   0.31247921   -115.56997   -5690.7983    4.3494443    4.3494443    4.3494443   -5690.7983    10318.678   -18170.091   -9220.9819   -1235.3683    3208.6849    395.10931    82.281335 
   23600    280.21935   -115.82358   0.25354835   -115.57003   -336.92496    4.3434443    4.3434443    4.3434443   -336.92496    1793.5661   -11231.016    8426.6753    1872.3563    254.63823   -173.10127    81.941287 
   23700    345.65584   -115.88172   0.31275667   -115.56896    3484.3345    4.3425202    4.3425202    4.3425202    3484.3345    5252.2714   -12065.703    17266.436   -3478.2559   -1835.3554    496.93486    81.888995 
   23800    329.70959   -115.86844   0.29832817   -115.57011   -6302.7257    4.3492819    4.3492819    4.3492819   -6302.7257   -7699.1416   -16412.558    5203.5226    2000.1857   -76.076356   -778.48726    82.272118 
   23900    170.05963   -115.72616   0.15387352   -115.57228    1686.4925     4.340745     4.340745     4.340745    1686.4925    7751.0335   -11482.472    8790.9163    1554.4859    4599.1262   -3303.2023     81.78861 
   24000    410.51587   -115.94144   0.37144339   -115.56999   -7752.2943    4.3457236    4.3457236    4.3457236   -7752.2943   -8094.5108   -11125.363   -4037.0087   -2993.0254    463.20172    51.401092    82.070356 
   24100    354.05675   -115.89062   0.32035799   -115.57026   -6488.9309    4.3477092    4.3477092    4.3477092   -6488.9309    3414.7634   -14742.094   -8139.4621    3081.5653   -761.89299   -560.83773      82.1829 
   24200    227.56015   -115.77719    0.2059012   -115.57129   -284.53061    4.3406263    4.3406263    4.3406263   -284.53061   -122.10178   -4745.8269    4014.3369    1602.9009    1812.6929    491.79848    81.781902 
   24300    264.13497   -115.80993   0.23899487   -115.57093    852.27321    4.3481481    4.3481481    4.3481481    852.27321     5175.728   -11004.636    8385.7278   -937.01097    1078.0441   -762.95404     82.20779 
   24400     268.1049   -115.81241   0.24258695   -115.56982    6792.7851    4.3426927    4.3426927    4.3426927    6792.7851    9755.1541   -8773.2216    19396.423   -1889.2135   -4.0395143    1342.1104    81.898754 
   24500    305.74954   -115.84711   0.27664861   -115.57046   -3472.0556    4.3445396    4.3445396    4.3445396   -3472.0556   -5556.1812    -6501.975    1641.9895    999.47142    236.99563   -205.89792     82.00329 
   24600    168.56146     -115.723   0.15251795   -115.57049    7146.2767    4.3477751    4.3477751    4.3477751    7146.2767    24974.791    -8478.489    4942.5277    717.11742    3111.3877   -1577.3788    82.186638 
   24700    475.77135    -115.9987   0.43048792   -115.56821   -2467.3619    4.3407105    4.3407105    4.3407105   -2467.3619   -1346.1511   -4069.1898   -1986.7448   -345.37546   -1059.8657   -135.38575    81.786661 
   24800    221.12074   -115.77095    0.2000747   -115.57088   -11.909387    4.3479152    4.3479152    4.3479152   -11.909387     8021.628    -8546.698    489.34183    2029.8031   -874.44135   -260.47644    82.194581 
   24900     245.3749   -115.79293   0.22202036   -115.57091   -1422.0692    4.3462974    4.3462974    4.3462974   -1422.0692   -912.26393   -9738.1651    6384.2215    1647.7276     680.5318    491.41244    82.102868 
   25000     262.5002   -115.80776    0.2375157   -115.57024     9201.893    4.3387437    4.3387437    4.3387437     9201.893    7130.1365    357.81843    20117.724   -1651.7525    4301.7476    1049.6476    81.675536 
   25100    260.89308   -115.80637   0.23606155   -115.57031   -4674.0792    4.3516066    4.3516066    4.3516066   -4674.0792   -4627.2689   -11939.954    2544.9857    110.44628   -266.00168    995.22978    82.404109 
   25200    257.81515   -115.80357   0.23327657    -115.5703   -5962.2696    4.3430344    4.3430344    4.3430344   -5962.2696   -6975.4936   -8561.5223    -2349.793   -201.52662    2650.6425   -1790.7878    81.918086 
   25300    266.21278   -115.81084   0.24087492   -115.56997    3113.6643    4.3408456    4.3408456    4.3408456    3113.6643    9523.4759   -2364.0688    2181.5858    349.26714     1379.616   -680.83004    81.794293 
   25400    450.92445   -115.97692   0.40800592   -115.56892    -13320.84    4.3518516    4.3518516    4.3518516    -13320.84   -13552.329   -15330.816   -11079.374    574.92508   -1481.2743    1611.9389     82.41803 
   25500    164.72657   -115.72022   0.14904806   -115.57117    2201.1528    4.3403284    4.3403284    4.3403284    2201.1528    7318.3541   -7886.5473    7171.6516    4291.3131   -1145.6188   -1805.3059    81.765064 
   25600    301.07886   -115.84336   0.27242248   -115.57094   -876.34617    4.3444227    4.3444227    4.3444227   -876.34617   -2261.6395   -11169.129    10801.729    1741.3081    3070.0835   -1714.1207     81.99667 
   25700    298.53237   -115.84001   0.27011837   -115.56989    3197.1822    4.3482805    4.3482805    4.3482805    3197.1822    12644.076   -13254.773    10202.244    -2883.639     4277.325    1337.9695      82.2153 
   25800    310.13601   -115.85041   0.28061758   -115.56979   -1899.9285    4.3417958    4.3417958    4.3417958   -1899.9285    2193.2453   -10474.985    2581.9546    2092.6232   -2140.9525    2966.6827    81.848021 
   25900    293.40577   -115.83594   0.26547971   -115.57046   -1395.5261    4.3474176    4.3474176    4.3474176   -1395.5261    9745.3174   -11155.616   -2776.2792   -896.16067   -327.88876   -1077.9447    82.166366 
   26000    408.71755   -115.93831   0.36981623    -115.5685    1288.5102    4.3445311    4.3445311    4.3445311    1288.5102      13610.7    -6381.498   -3363.6715    1444.5933   -954.29535   -310.55189    82.002811 
   26100    359.55548   -115.89434   0.32533335   -115.56901   -1361.1516    4.3435831    4.3435831    4.3435831   -1361.1516     5072.857   -11058.136     1901.824    239.91695    599.37382    576.42265    81.949142 
   26200    214.10958   -115.76532   0.19373085   -115.57159    874.23148    4.3491097    4.3491097    4.3491097    874.23148    14353.756   -15353.986    3622.9251    2273.7774    193.12485   -2162.5137    82.262345 
   26300    349.48341   -115.88633   0.31621993   -115.57011    7227.9629    4.3393842    4.3393842    4.3393842    7227.9629    5906.6042    1944.5429    13832.742    326.66204     2465.885   -2390.7793    81.711712 
   26400     316.8821   -115.85675   0.28672158   -115.57003     1042.116    4.3473356    4.3473356    4.3473356     1042.116    14933.547   -15854.779    4047.5796   -1341.1934    2995.2262    1508.3269    82.161714 
   26500     326.9825   -115.86645   0.29586063   -115.57059   -8005.8787    4.3479643    4.3479643    4.3479643   -8005.8787   -2598.7948   -10879.795   -10539.046    2460.8384   -714.42776    940.15645    82.197367 
   26600    319.75047   -115.85933   0.28931694   -115.57001    2683.0306    4.3391045    4.3391045    4.3391045    2683.0306    7203.8235   -1613.2368    2458.5052   -3033.5653    88.147617    298.75916    81.695913 
   26700    476.88918   -115.99995   0.43149935   -115.56845   -8421.1776    4.3487994    4.3487994    4.3487994   -8421.1776     -4855.61   -10098.842   -10309.081    994.43741   -1452.5869    650.03677    82.244741 
   26800    207.55889    -115.7593   0.18780364   -115.57149    1042.3821    4.3456013    4.3456013    4.3456013    1042.3821    9065.4508   -9129.7754    3191.4708   -507.64438    826.25397    698.66603    82.063427 
   26900    301.71954   -115.84459   0.27300218   -115.57159     994.1662    4.3410516    4.3410516    4.3410516     994.1662    2136.0152   -8333.0156     9179.499    5467.3318    2133.4235    -180.7367    81.805938 
   27000     301.1831   -115.84248    0.2725168   -115.56997    3779.4212    4.3482876    4.3482876    4.3482876    3779.4212    3648.8914   -4630.9402    12320.313   -1386.5344     3485.809   -2142.5421    82.215704 
   27100    324.26179   -115.86358   0.29339889   -115.57018   -1058.4473    4.3444038    4.3444038    4.3444038   -1058.4473    2900.0735   -7925.7607    1850.3455    740.71022   -916.10449   -211.73507    81.995602 
   27200    283.12303   -115.82673   0.25617567   -115.57056   -69.390229    4.3440781    4.3440781    4.3440781   -69.390229    8127.8002   -8002.8766   -333.09429    1999.7109   -3057.8283   -1064.3005    81.977159 
   27300     350.1809   -115.88587   0.31685104   -115.56902    332.26018    4.3464201    4.3464201    4.3464201    332.26018    10517.125   -7077.3671   -2442.9778   -2798.2144    715.66514    1152.8667    82.109822 
   27400    407.99789   -115.93769   0.36916507   -115.56852   -5001.6694        4.344        4.344        4.344   -5001.6694   -4588.0427   -6239.9977   -4176.9679    1543.3024    81.385914    1560.9673    81.972741 
   27500    122.51823   -115.68219   0.11085707   -115.57133     5815.565    4.3459969    4.3459969    4.3459969     5815.565    24676.846   -15361.818    8131.6673   -1534.3122    945.13148   -320.12605    82.085839 
   27600    337.62918   -115.87518   0.30549398   -115.56968   -1115.1124     4.344104     4.344104     4.344104   -1115.1124   -5265.9837   -7209.1154    9129.7618    3846.1854   -862.11651    165.40812    81.978628 
   27700    269.63622   -115.81354   0.24397252   -115.56957    3292.0962    4.3434896    4.3434896    4.3434896    3292.0962     4059.069   -4557.2545    10374.474   -2880.4114    2344.2988   -2255.4231    81.943849 
   27800    263.77233   -115.81002   0.23866674   -115.57135   -6303.9554    4.3482711    4.3482711    4.3482711   -6303.9554   -634.74112   -14931.262   -3345.8633     2423.301   -1694.0892    1288.2771    82.214767 
   27900     262.6153   -115.80834   0.23761984   -115.57072   -205.57449    4.3417546    4.3417546    4.3417546   -205.57449    882.37707    1151.0514    -2650.152     580.0567   -2123.4603   -621.65207    81.845693 
   28000    320.77727   -115.85933   0.29024602   -115.56908   -2267.8442    4.3455741    4.3455741    4.3455741   -2267.8442   -1118.2123   -3925.3982    -1759.922   -4092.8164    1017.6517    64.136986    82.061884 
   28100    287.81813   -115.83023   0.26042389   -115.56981   -7155.2845    4.3478338    4.3478338    4.3478338   -7155.2845    -10031.46   -10108.536   -1325.8577    1609.8986    561.02574    1710.0073    82.189967 
   28200    116.89927   -115.67722   0.10577291   -115.57145    7604.3228    4.3407795    4.3407795    4.3407795    7604.3228    7094.9964   -953.13673    16671.109    -1158.114    816.76845    1998.4541    81.790557 
   28300    340.60869   -115.87737    0.3081899   -115.56918   -2652.5414    4.3472817    4.3472817    4.3472817   -2652.5414   -12011.227   -6966.8273     11020.43      4047.45   -1160.9006    1647.7382    82.158659 
   28400    254.56431    -115.8001   0.23033514   -115.56976    1008.7115    4.3451141    4.3451141    4.3451141    1008.7115    5821.4152   -7120.5054    4325.2247   -3470.9701    764.50479   -1458.5569    82.035828 
   28500    285.57055   -115.82898   0.25839024   -115.57059   -2779.0166    4.3432254    4.3432254    4.3432254   -2779.0166   -3230.7111   -7358.9148     2252.576    3544.8443   -2345.3999   -971.61649    81.928895 
   28600    319.34364   -115.85936   0.28894884   -115.57041   -1229.5252    4.3467432    4.3467432    4.3467432   -1229.5252    14819.441    -12365.19   -6142.8276    1094.1617   -1003.9875   -1057.5953    82.128131 
   28700    358.85791   -115.89375   0.32470218   -115.56905   -1223.8214    4.3451994    4.3451994    4.3451994   -1223.8214   -153.68159   -3524.7348    6.9522493   -4374.6321    948.77936   -590.25871     82.04066 
   28800    281.06755    -115.8244   0.25431583   -115.57009   -434.09944    4.3449665    4.3449665    4.3449665   -434.09944    6538.6094   -12488.298    4647.3907    930.79047    1698.6095    1364.9906    82.027464 
   28900    208.69267   -115.75944   0.18882951   -115.57061    4967.9953    4.3457653    4.3457653    4.3457653    4967.9953    14827.119   -9737.3648    9814.2316   -1250.3249   -2355.6539    2218.4173    82.072716 
   29000    377.46592   -115.91036   0.34153909   -115.56882    1123.7305    4.3436494    4.3436494    4.3436494    1123.7305   -4481.4668   -59.836944    7912.4952    5321.7115   -2689.1077    3370.3898    81.952896 
   29100    248.82167   -115.79565   0.22513908   -115.57051    2292.0283    4.3474603    4.3474603    4.3474603    2292.0283    19694.161   -9142.6284   -3675.4476    -1608.912    -29.85649    3049.3465    82.168786 
   29200    365.20134    -115.9003   0.33044185   -115.56986   -5352.4322    4.3443479    4.3443479    4.3443479   -5352.4322   -2320.9164   -5766.0651    -7970.315    5541.3762   -899.33397   -714.16353    81.992437 
   29300    352.99574   -115.88873   0.31939796   -115.56934   -381.74166    4.3446872    4.3446872    4.3446872   -381.74166    7365.7478   -4724.8395   -3786.1333   -600.78269    782.53436   -1653.0881    82.011647 
   29400    427.44966   -115.95588   0.38676544   -115.56912   -7783.1024    4.3489827    4.3489827    4.3489827   -7783.1024   -3084.8331   -11572.417   -8692.0574   -2020.6247    234.34275   -248.98467    82.255137 
   29500    297.06143   -115.83924   0.26878742   -115.57046    1110.6477    4.3423557    4.3423557    4.3423557    1110.6477    5265.9893   -10668.509    8734.4627    1743.8489   -64.057354   -1192.8359     81.87969 
   29600    323.44472    -115.8628   0.29265958   -115.57014   -609.49251    4.3467814    4.3467814    4.3467814   -609.49251   -3215.9991   -3771.5061    5159.0277    741.29832   -3043.6155     41.45286    82.130297 
   29700    354.86308   -115.89025   0.32108757   -115.56916    824.06422    4.3465617    4.3465617    4.3465617    824.06422    6651.7909   -8252.0202    4072.4219    1447.8598   -3131.5598    3715.7464    82.117843 
   29800    238.12171   -115.78599   0.21545753   -115.57053    6079.7956     4.343612     4.343612     4.343612    6079.7956    13142.447    5430.4149    -333.4755   -404.65082   -656.00029    3809.1393    81.950779 
   29900    367.82084   -115.90242   0.33281202    -115.5696   -2916.0713    4.3465684    4.3465684    4.3465684   -2916.0713   -1965.6617    29.635869   -6812.1882    7191.7968   -619.01843    345.07983    82.118223 
   30000    316.95704   -115.85608   0.28678939   -115.56929    2385.9889    4.3454655    4.3454655    4.3454655    2385.9889    10994.282    3519.7123   -7356.0276   -2750.1046      1477.73   -30.342152    82.055732 
   30100     388.6765   -115.92078   0.35168267    -115.5691   -3678.5343    4.3455104    4.3455104    4.3455104   -3678.5343    680.74795   -518.95122     -11197.4   -2518.8944    554.51952    457.07222    82.058276 
   30200    240.54413     -115.788   0.21764938   -115.57035    2284.6369    4.3455052    4.3455052    4.3455052    2284.6369    23770.208   -13337.347   -3578.9508   -1902.4005   -1155.4917    -995.3232    82.057983 
   30300    344.10343   -115.88073   0.31135201   -115.56938   -3730.6005    4.3447222    4.3447222    4.3447222   -3730.6005   -6825.9402    -4272.746    -93.11516    3518.1931   -4305.8463    -1831.905    82.013629 
   30400    232.29476   -115.78029   0.21018518    -115.5701    1595.0712    4.3465576    4.3465576    4.3465576    1595.0712    13089.806   -10658.794    2354.2012    1157.6973   -1862.9898    4579.1924    82.117615 
   30500    244.99084   -115.79176   0.22167286   -115.57008    311.20788    4.3448831    4.3448831    4.3448831    311.20788    5152.0197   -4532.4189    314.02285    7.4033422    57.019854    3194.0124    82.022744 
   30600    238.79276   -115.78622    0.2160647   -115.57016   -1118.8016    4.3447244    4.3447244    4.3447244   -1118.8016   -6864.5659    1332.5594    2175.6019    4198.1537   -23.288457    1937.2081    82.013756 
   30700    239.25808    -115.7865   0.21648574   -115.57002   -2930.2361    4.3482549    4.3482549    4.3482549   -2930.2361    -3043.401    2940.0136    -8687.321   -3937.3315    1752.7025    4128.0257    82.213851 
   30800    245.79195    -115.7917   0.22239772    -115.5693    579.68975     4.344404     4.344404     4.344404    579.68975    11048.084   -855.97466   -8453.0397   -1460.0856    444.43985    2068.8113    81.995614 
   30900     250.1495   -115.79512   0.22634052   -115.56878    117.79099    4.3449862    4.3449862    4.3449862    117.79099    2820.5701     4032.518    -6499.715   -3590.9264   -91.744063   -2685.9135    82.028584 
   31000    340.87104   -115.87627   0.30842728   -115.56784   -9817.3903    4.3493718    4.3493718    4.3493718   -9817.3903   -9003.6329   -8479.6838   -11968.854    3279.6742   -3227.0109     -992.842    82.277221 
   31100    274.90309   -115.81695    0.2487381   -115.56821    13.310912    4.3437326    4.3437326    4.3437326    13.310912    6907.5726   -4118.6376   -2749.0023   -1938.0785   -730.27947    2315.1741    81.957604 
   31200    330.93453   -115.86777   0.29943651   -115.56833    237.61323    4.3451931    4.3451931    4.3451931    237.61323    641.28454    2885.7365   -2814.1814    2940.1588   -1214.6621   -1149.6783    82.040299 
   31300    249.91764   -115.79587   0.22613073   -115.56974   -382.34802    4.3479207    4.3479207    4.3479207   -382.34802    4724.1852   -4774.1853   -1097.0439    1228.7588   -169.72567    983.92496    82.194895 
   31400    248.11142    -115.7943   0.22449642   -115.56981    2874.4503    4.3432828    4.3432828    4.3432828    2874.4503   -1987.4562    12961.151   -2350.3442   -5094.0337    2371.5284    6064.6905    81.932145 
   31500    206.23183    -115.7567   0.18660289    -115.5701    7249.5242    4.3456129    4.3456129    4.3456129    7249.5242    24326.728   -374.73495   -2203.4202   -288.11166    2098.2686     3494.212     82.06408 
   31600    306.21901   -115.84641    0.2770734   -115.56934     410.6252     4.344263     4.344263     4.344263     410.6252   -2870.8246    7886.1055   -3783.4053   -2184.6785    12.760695   -67.480996    81.987629 
   31700    316.97689     -115.857   0.28680735   -115.57019   -6193.6237    4.3465291    4.3465291    4.3465291   -6193.6237    -2961.935   -8205.5968   -7413.3394    3616.8447   -2308.5134    2872.4563    82.115999 
   31800    319.58022   -115.85896    0.2891629   -115.56979   -959.40873    4.3439685    4.3439685    4.3439685   -959.40873    10580.807   -2430.2053   -11028.827   -4134.3153    534.24797    2521.8973    81.970959 
   31900    414.83989   -115.94439   0.37535585   -115.56903   -4548.4446     4.344182     4.344182     4.344182   -4548.4446   -887.37763   -4802.1635   -7955.7927    7822.9693   -2066.2765   -3537.4222    81.983044 
   32000    283.50448   -115.82659   0.25652081   -115.57007   -741.90123    4.3467239    4.3467239    4.3467239   -741.90123    1845.4239    6339.4412   -10410.569   -19.900253   -2322.6114    1732.1065     82.12704 
   32100    361.76215   -115.89725      0.32733   -115.56992   -1376.3268    4.3436876    4.3436876    4.3436876   -1376.3268    2754.5038    3807.4563    -10690.94   -3901.3034    129.36649    5155.4846    81.955055 
   32200    280.33245    -115.8242   0.25365069   -115.57055    6896.6241     4.343318     4.343318     4.343318    6896.6241    11295.875    11216.246   -1822.2477   -3309.2128    1570.8301   -911.59926    81.934135 
   32300    398.22936   -115.92995   0.36032629   -115.56962   -2479.0363    4.3462781    4.3462781    4.3462781   -2479.0363   -7462.2558    5342.6341   -5317.4871     1408.257    1848.5944    1874.7019    82.101771 
   32400    288.53953   -115.83188   0.26107663    -115.5708     2223.794     4.345011     4.345011     4.345011     2223.794     6941.185    14.593312   -284.39627    979.30819   -510.99317    3332.7421    82.029987 
   32500    354.16594   -115.89025   0.32045679   -115.56979    1581.4043    4.3422628    4.3422628    4.3422628    1581.4043   -840.62783     6944.694   -1359.8533    -5970.205    -78.37397    763.26528    81.874433 
   32600    374.02662   -115.90785   0.33842714   -115.56942   -3637.3161    4.3467172    4.3467172    4.3467172   -3637.3161   -336.42149   -3608.6307   -6966.8961    3790.1064   -2638.2484   -6272.0965    82.126658 
   32700    268.96279   -115.81337   0.24336319   -115.57001    1249.5731    4.3457618    4.3457618    4.3457618    1249.5731    6493.8326    4501.8949   -7247.0082   -1196.4742   -1332.7356    1975.1584     82.07252 
   32800     371.9736   -115.90627   0.33656953    -115.5697    -2780.765    4.3421269    4.3421269    4.3421269    -2780.765    4611.3539   -4705.0753   -8248.5737   -1493.4743   -273.53759    2578.8164    81.866745 
   32900    271.87929   -115.81615   0.24600209   -115.57015    500.94787    4.3453979    4.3453979    4.3453979    500.94787    12356.369   -47.852181   -10805.673   -1658.9501   -779.39732   -3396.1776      82.0519 
   33000    424.52166   -115.95318   0.38411612   -115.56906   -8990.6851    4.3458164    4.3458164    4.3458164   -8990.6851   -10360.496   -8546.7663   -8064.7931   -525.08335   -444.83003    2172.8936    82.075614 
   33100    204.50936   -115.75616   0.18504436   -115.57112    6560.6785    4.3426478    4.3426478    4.3426478    6560.6785    19427.875    3862.9388   -3608.7781    492.25605    1320.9477     2938.509    81.896217 
   33200    349.89334   -115.88676   0.31659085   -115.57017    -1896.835    4.3432406    4.3432406    4.3432406    -1896.835   -3223.1907    2989.0742   -5456.3886   -728.41163    1991.6951   -445.16784    81.929758 
   33300    274.61012   -115.81876     0.248473   -115.57029   -96.017508    4.3463868    4.3463868    4.3463868   -96.017508   -6367.7866    9534.3226   -3454.5886     3463.696   -1654.4701   -3324.8099    82.107935 
   33400    258.38096   -115.80475   0.23378852   -115.57096    5740.9577    4.3428459    4.3428459    4.3428459    5740.9577    9143.5571    9837.9851   -1758.6691   -2655.3897   -1873.6869    3262.6134    81.907423 
   33500    268.49666   -115.81348   0.24294142   -115.57054    2496.5269    4.3436465    4.3436465    4.3436465    2496.5269    2788.4318    8882.1243   -4180.9755   -2807.0524   -1671.7764     1425.894    81.952727 
   33600    245.66697   -115.79224   0.22228464   -115.56995    927.96969    4.3441459    4.3441459    4.3441459    927.96969   -3227.3687    8968.6078     -2957.33    661.30288   -814.22009   -3632.9875    81.981001 
   33700    349.90946   -115.88615   0.31660544   -115.56954   -5530.0318    4.3457677    4.3457677    4.3457677   -5530.0318   -10720.439    4170.4618   -10040.118    596.77993   -1230.2533     2215.921    82.072851 
   33800    183.51121   -115.73719    0.1660448   -115.57114    3765.8908    4.3426762    4.3426762    4.3426762    3765.8908    9050.4843    6728.6372   -4481.4492   -6699.6334    548.27001    2127.6681    81.897821 
   33900    311.12518   -115.85176    0.2815126   -115.57025   -7733.0743    4.3433075    4.3433075    4.3433075   -7733.0743   -7641.5867   -5616.6377   -9940.9986   -2217.5589    591.75776   -2510.1718    81.933545 
   34000    266.83642   -115.81155    0.2414392   -115.57011   -6708.6952    4.3475825    4.3475825    4.3475825   -6708.6952   -5431.4079   -1850.7254   -12843.952    1892.4185   -1220.6109   -3153.5428    82.175717 
   34100    258.91311    -115.8043   0.23427002   -115.57003   -674.57903    4.3420403    4.3420403    4.3420403   -674.57903    7407.2824   -6320.3284   -3110.6912   -2299.6106   -149.39644    4300.9687    81.861849 
   34200    207.38377   -115.75862   0.18764519   -115.57097    367.09165    4.3425323    4.3425323    4.3425323    367.09165    11121.344   -1665.6484   -8354.4207   -3393.0009    -3019.406   -1085.5422    81.889678 
   34300    262.02217   -115.80753   0.23708317   -115.57045   -4777.8965    4.3477417    4.3477417    4.3477417   -4777.8965   -5558.6354   -405.53088   -8369.5232    2280.1967    -1486.628   -3874.2106    82.184745 
   34400    333.74044   -115.87162   0.30197536   -115.56965   -1012.2804    4.3430514    4.3430514    4.3430514   -1012.2804   -5863.5163    5855.8825   -3029.2075   -1016.9656   -1631.7487    3722.9311    81.919052 
   34500    211.15566   -115.76205   0.19105807     -115.571     7796.605    4.3423318    4.3423318    4.3423318     7796.605    18576.677    7443.4667   -2630.3289   -3839.6014    2030.2966    561.86937    81.878338 
   34600    317.47351   -115.85771    0.2872567   -115.57046    -3941.407    4.3471049    4.3471049    4.3471049    -3941.407   -7382.3311    7210.9226   -11652.812   -2265.7628    817.43277   -4891.4205    82.148639 
   34700    324.06682   -115.86303   0.29322247   -115.56981    3240.5244    4.3424623    4.3424623    4.3424623    3240.5244    1796.8899    11338.873   -3414.1894    1911.1134   -11.326031   -156.49254    81.885719 
   34800    283.72097   -115.82679   0.25671669   -115.57007     4552.483    4.3442495    4.3442495    4.3442495     4552.483    7325.9359    13507.955   -7176.4416    1555.7364    633.88864     2646.396    81.986863 
   34900    274.40086   -115.81897   0.24828366   -115.57069   -393.75155    4.3436752    4.3436752    4.3436752   -393.75155    2207.6703     5461.732   -8850.6569   -5556.0146    -1367.402   -2840.2591    81.954351 
   35000    329.39664   -115.86813   0.29804501   -115.57009   -1848.6864    4.3443631    4.3443631    4.3443631   -1848.6864   -2696.5138    3547.8816   -6397.4268    530.01652   -1245.3938   -2841.5442    81.993299 
   35100    411.72306   -115.94175   0.37253568   -115.56922   -6160.7497    4.3464008    4.3464008    4.3464008   -6160.7497   -8715.2248   -264.65358   -9502.3708   -4869.9854   -3191.4461    2223.9565    82.108725 
   35200    203.82997   -115.75559   0.18442964   -115.57116    4455.4368    4.3398895    4.3398895    4.3398895    4455.4368    13776.532   -1991.8088    1581.5871   -3628.7073    1709.1319   -1023.0999    81.740258 
   35300    351.19922   -115.88828   0.31777243    -115.5705     -9453.94    4.3475553    4.3475553    4.3475553     -9453.94   -885.13248   -11733.812   -15742.876   -72.821367    434.42254   -6834.9232    82.174172 
   35400    328.34379   -115.86746   0.29709236   -115.57037     1402.045    4.3445605    4.3445605    4.3445605     1402.045    3927.2733     5675.766   -5396.9043   -1976.4248    1144.5244    1057.0917    82.004473 
   35500    345.66632   -115.88407   0.31276615    -115.5713    1417.7745    4.3395405    4.3395405    4.3395405    1417.7745    11465.478   -4213.9107   -2998.2438   -547.21955    1279.7635    2199.4118    81.720544 
   35600    272.45622   -115.81876   0.24652411   -115.57224   -4803.7391    4.3486649    4.3486649    4.3486649   -4803.7391    2054.1336   -182.84544   -16282.505   -2942.4799   -1748.5843   -6497.2078    82.237107 
   35700    372.34311   -115.90713   0.33690387   -115.57022    1619.5481    4.3429998    4.3429998    4.3429998    1619.5481    6561.3429    7917.4167   -9620.1152    4351.5923   -286.91578   -1021.2384    81.916132 
   35800    428.04124   -115.95701   0.38730071   -115.56971    3602.0896    4.3410619    4.3410619    4.3410619    3602.0896    3818.4979    12254.641     -5266.87   -6625.6881     -1797.17    1857.9017    81.806522 
   35900    198.68192   -115.75193   0.17977158   -115.57215    2164.6896    4.3470249    4.3470249    4.3470249    2164.6896    8408.4053    9535.0872   -11449.424   -283.96434    1743.3068   -4276.6985    82.144102 
   36000    357.06679   -115.89406   0.32308154   -115.57098    -3117.267    4.3420689    4.3420689    4.3420689    -3117.267    4482.9105   -2984.9839   -10849.728   -3490.7428   -1685.7203   -7045.6522    81.863466 
   36100    324.56253   -115.86464     0.293671   -115.57097    6717.3036    4.3445643    4.3445643    4.3445643    6717.3036    6885.3031    15307.028   -2040.4204    601.48988    146.80269    2138.2391    82.004688 
   36200    380.25314   -115.91473   0.34406103   -115.57067   -7106.5926    4.3441546    4.3441546    4.3441546   -7106.5926   -4399.0902   -8040.7824   -8879.9051   -1821.7377    1587.2837   -1382.0072    81.981492 
   36300    152.95903   -115.71044   0.13840055   -115.57204   -305.82073    4.3419158    4.3419158    4.3419158   -305.82073   -131.18889    869.04831   -1655.3216   -5719.8713   -260.29778   -7727.2995    81.854809 
   36400    404.77948   -115.93642   0.36625298   -115.57017   -6118.3793    4.3490537    4.3490537    4.3490537   -6118.3793   -104.36781   -6900.3523   -11350.418    5899.0215   -68.027024    373.70774    82.259168 
   36500    321.98127   -115.86132   0.29133542   -115.56998    5361.8787     4.338809     4.338809     4.338809    5361.8787    999.72983    13685.474     1400.432   -8455.0288   -2713.7217    740.37608    81.679225 
   36600    231.90942   -115.78147   0.20983652   -115.57164    -5525.663    4.3446079    4.3446079    4.3446079    -5525.663   -11.379559   -7796.2955    -8769.314   -1090.4736    100.53381   -6740.9903    82.007161 
   36700    260.35498   -115.80703   0.23557465   -115.57145    -2992.715    4.3488803    4.3488803    4.3488803    -2992.715   -8791.5664    13880.482   -14067.061   -3404.8057   -2247.6351   -5181.3988    82.249328 
   36800     356.6233   -115.89214   0.32268026   -115.56946    11813.306     4.336778     4.336778     4.336778    11813.306    16329.148    16382.084    2728.6874   -466.45323    448.46988    3049.5969    81.564575 
   36900    295.00805    -115.8377   0.26692948   -115.57077   -3018.6751    4.3469301    4.3469301    4.3469301   -3018.6751    -9538.952    11317.169   -10834.242    255.39351    1854.0429   -2442.3056    82.138728 
   37000    177.75239   -115.73295    0.1608341   -115.57212   -4402.9157    4.3457908    4.3457908    4.3457908   -4402.9157   -2649.2417     462.2009   -11021.706   -2558.7665    -912.2996   -7578.0064    82.074163 
   37100    368.81535   -115.90478   0.33371188   -115.57107     2665.728     4.339327     4.339327     4.339327     2665.728     3049.017    8220.8339    -3272.667    6564.4626    303.53147   -447.90703    81.708483 
   37200    305.29205   -115.84656   0.27623466   -115.57033    361.76259    4.3483932    4.3483932    4.3483932    361.76259    861.57922    7069.1438   -6845.4352   -4957.0895   -809.53716    379.00378    82.221697 
   37300    198.96662   -115.75217   0.18002918   -115.57214    -5433.494    4.3412668    4.3412668    4.3412668    -5433.494   -622.28207   -3939.7571   -11738.443   -394.39281    39.214955   -9212.6254    81.818109 
   37400    251.56554   -115.79927   0.22762178   -115.57165      -4703.6    4.3455387    4.3455387    4.3455387      -4703.6   -8753.3045    3779.5531   -9137.0487   -4051.3055   -3080.0298   -2695.2315     82.05988 
   37500    353.81257   -115.88924   0.32013705    -115.5691    4108.8547    4.3453562    4.3453562    4.3453562    4108.8547    13654.873    5035.7175   -6364.0267    809.05772   -961.86614     622.7619     82.04954 
   37600    301.77871   -115.84401   0.27305572   -115.57095   -1076.5768    4.3395828    4.3395828    4.3395828   -1076.5768    26.453091    2872.5609   -6128.7446   -523.04644    739.59112   -6400.9362    81.722934 
   37700    196.95628   -115.75062   0.17821018   -115.57241   -4599.7731    4.3483024    4.3483024    4.3483024   -4599.7731   -4048.3151    4852.5222   -14603.526   -1331.4896   -1147.7916   -2787.3761    82.216543 
   37800    403.98176   -115.93515   0.36553119   -115.56962    1047.4833    4.3437534    4.3437534    4.3437534    1047.4833   -4040.9746    12344.329   -5160.9044    4871.6705    1523.3695    1731.4514    81.958782 
   37900    304.63496   -115.84533   0.27564011   -115.56969    9671.7766    4.3384938    4.3384938    4.3384938    9671.7766     16125.97    14231.103   -1341.7434   -3443.2539   -1462.8162   -2063.8545    81.661421 
   38000     236.4191   -115.78539   0.21391697   -115.57148    -5878.653     4.349971     4.349971     4.349971    -5878.653   -6545.9453    3932.5574   -15022.571   -1127.3755    70.168847   -8764.2282    82.311231 
   38100    302.75118   -115.84408   0.27393563   -115.57015   -132.45846    4.3416614    4.3416614    4.3416614   -132.45846    3840.6135    740.81724   -4978.8062   -2721.7128   -2366.6281    4074.6491    81.840419 
   38200    343.58662   -115.88033   0.31088439   -115.56944    6390.8333     4.340867     4.340867     4.340867    6390.8333    14537.855    8303.5039   -3668.8594    1771.3442   -714.22714    1590.9903    81.795506 
   38300    309.70097   -115.85091   0.28022395   -115.57068   -7003.6376    4.3488726    4.3488726    4.3488726   -7003.6376    149.60691   -9684.8222   -11475.698    2042.0059   -834.06552   -7782.1429     82.24889 
   38400    203.77282   -115.75532   0.18437793   -115.57095   -968.77848    4.3408429    4.3408429    4.3408429   -968.77848    9119.7211   -3531.0562   -8495.0004   -794.96168   -2385.2657   -449.95566    81.794141 
   38500     417.3697   -115.94728   0.37764487   -115.56963   -5470.7612    4.3448973    4.3448973    4.3448973   -5470.7612   -6308.0429   -2508.6451   -7595.5957    2441.6559     1916.528     2768.225    82.023547 
   38600       262.81   -115.80893   0.23779601   -115.57113     3086.652     4.344146     4.344146     4.344146     3086.652    18663.805   -2168.9237   -7234.9251     -2855.69    258.54723     -2180.03    81.981006 
   38700    277.49151   -115.82247   0.25108015   -115.57139   -4188.2892    4.3420905    4.3420905    4.3420905   -4188.2892    4390.0257   -7761.9683   -9192.9252   -787.81852    44.417386   -7196.3154    81.864691 
   38800     296.7427   -115.83978   0.26849904   -115.57128   -488.23326    4.3463136    4.3463136    4.3463136   -488.23326     3886.518    4940.9625    -10292.18   -175.72216   -3073.8263    3159.5988    82.103783 
   38900    329.09043   -115.86821   0.29776794   -115.57044    5402.0797    4.3410203    4.3410203    4.3410203    5402.0797     12069.84    5564.3097   -1427.9102   -639.76885    869.36261   -953.83651    81.804172 
   39000    310.48803    -115.8514   0.28093609   -115.57047   -824.52702    4.3431944    4.3431944    4.3431944   -824.52702    2967.0244    6500.9642    -11941.57   -1081.4267    476.58633   -5865.7019    81.927143 
   39100      221.048   -115.77127   0.20000888   -115.57126     1669.702    4.3472664    4.3472664    4.3472664     1669.702    7360.0522    7317.3836   -9668.3298   -546.54741   -2164.4072    1877.1762    82.157793 
   39200    373.75531   -115.90778   0.33818166   -115.56959    2026.2431    4.3391743    4.3391743    4.3391743    2026.2431    2764.5357    4664.9252   -1350.7317     7141.698    852.03035    1342.3398    81.699856 
   39300    258.49242   -115.80413   0.23388937   -115.57024    2523.9416    4.3447769    4.3447769    4.3447769    2523.9416    12019.827    8387.3137   -12835.316   -761.16895    212.88606   -2496.9746    82.016731 
   39400     295.3028   -115.83788   0.26719618   -115.57068   -5414.1275    4.3468675    4.3468675    4.3468675   -5414.1275    6130.0961   -10754.045   -11618.433   -2019.7479    2479.1446   -3765.0497    82.135179 
   39500    282.20131   -115.82592   0.25534167   -115.57057    2244.7277    4.3393054    4.3393054    4.3393054    2244.7277    9431.5828     2289.904   -4987.3037    2105.5927   -1475.7242    5874.0108    81.707259 
   39600    324.48739   -115.86391   0.29360301   -115.57031    -4280.835     4.346287     4.346287     4.346287    -4280.835    7258.0529   -9014.9491   -11085.609    1403.8534    658.40265   -2992.5905    82.102279 
   39700    328.94317   -115.86821   0.29763469   -115.57057   -6009.6113    4.3439782    4.3439782    4.3439782   -6009.6113    3427.1997   -8641.3309   -12814.703    759.48636    -2085.977    -5442.446    81.971503 
   39800    243.55681    -115.7915   0.22037532   -115.57113    1308.1909    4.3426909    4.3426909    4.3426909    1308.1909    19448.636   -9672.3587   -5851.7042   -4444.3104    53.240656    6298.1297    81.898651 
   39900    353.21739   -115.88969   0.31959851   -115.57009   -3080.5019    4.3446019    4.3446019    4.3446019   -3080.5019   -195.27862   -109.67341   -8936.5538    5632.0623    1297.1946   -1076.2777    82.006821 
   40000    286.81735   -115.82946   0.25951837   -115.56994    830.45368    4.3427722    4.3427722    4.3427722    830.45368    10446.839   -2997.8964   -4957.5812   -201.42938    118.96589   -3946.8765    81.903252 
   40100    335.64407   -115.87407   0.30369781   -115.57038   -2221.9699    4.3457093    4.3457093    4.3457093   -2221.9699    2579.8104    2490.2412   -11735.961     80.66017    530.27166   -300.58532    82.069541 
   40200    291.44198   -115.83425   0.26370283   -115.57055    5095.7333    4.3419412    4.3419412    4.3419412    5095.7333    3773.6431    13976.578   -2463.0209    -615.8918   -2286.5866    3526.3864    81.856246 
   40300    348.25557    -115.8854   0.31510896   -115.57029    1087.9151    4.3424695    4.3424695    4.3424695    1087.9151    2337.4882    2289.9872     -1363.73   -725.82411    1616.2901   -2052.4363    81.886126 
   40400    347.66746   -115.88486   0.31457682   -115.57028   -1361.7509     4.347399     4.347399     4.347399   -1361.7509    -3607.639    14404.887   -14882.501    717.53464   -3325.7843   -1821.0309    82.165309 
   40500    264.40591   -115.81006   0.23924003   -115.57082    7427.7032     4.340411     4.340411     4.340411    7427.7032    20515.196    1931.4333    -163.5199    818.14306   -323.15344    3895.8169    81.769732 
   40600    334.40101   -115.87305   0.30257306   -115.57047    145.03796    4.3435315    4.3435315    4.3435315    145.03796   -2511.1158    9504.6877    -6558.458    6920.0425    168.94812   -1694.7413    81.946219 
   40700    340.06307   -115.87778   0.30769622   -115.57009    -3231.167    4.3468456    4.3468456    4.3468456    -3231.167    2406.4399    -891.9982   -11207.943   -2661.8925    532.78979   -2455.1132    82.133936 
   40800    314.74136   -115.85539    0.2847846   -115.57061    1573.0595    4.3403701    4.3403701    4.3403701    1573.0595    10678.302     1209.246   -7168.3694    2321.9849    149.39306    2762.8077    81.767419 
   40900    283.86331   -115.82763   0.25684549   -115.57079   -1918.9554    4.3448893    4.3448893    4.3448893   -1918.9554    6155.0796   -5378.1417    -6533.804    685.90822   -756.70915    3224.1417    82.023091 
   41000    303.18264   -115.84489   0.27432603   -115.57057   -4378.5886    4.3446912    4.3446912    4.3446912   -4378.5886    1633.5629   -3113.8073   -11655.521    1291.5315    3109.9313   -5269.8008    82.011875 
   41100    342.75589   -115.88044   0.31013273   -115.57031   -3517.0625    4.3429506    4.3429506    4.3429506   -3517.0625    2390.3527    -4147.238   -8794.3021   -1185.7241   -3899.4671    339.95514    81.913346 
   41200    219.53677    -115.7697   0.19864148   -115.57106    2075.1928     4.344659     4.344659     4.344659    2075.1928    13223.124   -486.13892   -6511.4068    1488.1328    1528.7821     4535.964    82.010052 
   41300    300.30001   -115.84253   0.27171776   -115.57081   -2954.2994    4.3417575    4.3417575    4.3417575   -2954.2994   -6752.8893    6011.2486   -8121.2575    7753.6772   -826.76316   -3739.1611    81.845855 
   41400    337.57261   -115.87565   0.30544279   -115.57021   -3995.8456    4.3456543    4.3456543    4.3456543   -3995.8456   -2261.6765   -3101.0552   -6624.8052   -2787.9809    2198.0101   -838.55351    82.066425 
   41500    219.04982   -115.76912   0.19820088   -115.57092    5503.7775    4.3443126    4.3443126    4.3443126    5503.7775    7998.8693     17737.08   -9224.6163    1013.0353   -526.99499    2406.7578    81.990436 
   41600    292.86088   -115.83581   0.26498668   -115.57082    1205.5012    4.3392887    4.3392887    4.3392887    1205.5012     7823.239   -2889.7883   -1316.9471    3364.0487    84.167321    516.84766    81.706317 
   41700    222.61095   -115.77241   0.20142307   -115.57099    656.44921    4.3482045    4.3482045    4.3482045    656.44921     1124.042    10555.729   -9710.4233    1706.8323    1953.1741   -1755.9143    82.210991 
   41800    365.76391   -115.90039   0.33095087   -115.56944   -2609.7192    4.3432192    4.3432192    4.3432192   -2609.7192   -455.33006    2592.2252   -9966.0527   -1874.8259    -2938.207    3922.4448    81.928546 
   41900     157.2205   -115.71344   0.14225641   -115.57118    8560.4853     4.338675     4.338675     4.338675    8560.4853    21363.753    2749.1173    1568.5852    913.18079    1788.6398    3278.2849    81.671658 
   42000    309.01643   -115.84989   0.27960456   -115.57029   -8476.8067     4.349181     4.349181     4.349181   -8476.8067   -9995.7289   -4035.3611    -11399.33    5856.3427    -1855.846   -2506.9832    82.266393 
   42100    300.03407    -115.8408   0.27147714   -115.56932   -2134.4829    4.3427645    4.3427645    4.3427645   -2134.4829    7108.7819   -2583.9844   -10928.246   -2112.2249    2614.7898    2242.2484    81.902814 
   42200    206.34639   -115.75765   0.18670655   -115.57094     5378.316    4.3400004    4.3400004    4.3400004     5378.316    15471.512    1307.4345   -643.99816    2736.4324   -507.39983    3921.6668    81.746525 
   42300    295.30492   -115.83821    0.2671981   -115.57102   -8465.9133    4.3486865    4.3486865    4.3486865   -8465.9133   -6574.2924   -8430.0167   -10393.431    3253.9541    2141.8547   -655.33823    82.238332 
   42400     227.1389   -115.77623   0.20552005   -115.57071    2402.9057    4.3408975    4.3408975    4.3408975    2402.9057    6049.9275    6531.4071   -5372.6177    1617.5383    574.46951   -1785.5247    81.797229 
   42500    412.15337   -115.94343   0.37292503    -115.5705   -5265.6714    4.3439342    4.3439342    4.3439342   -5265.6714   -5098.2617   -1632.4112   -9066.3414   -1170.4383   -2300.9043    5349.2381    81.969017 
   42600     143.8229   -115.70255   0.13013399   -115.57241    5224.6481     4.345184     4.345184     4.345184    5224.6481    7564.6406    10861.912   -2752.6085    5640.7674    2878.6877     302.3562    82.039787 
   42700    363.92399     -115.899   0.32928607   -115.56971   -4474.3689    4.3410385    4.3410385    4.3410385   -4474.3689    -2672.018   -6534.7853   -4216.3034    7061.5015   -2389.5035   -1164.1124    81.805199 
   42800    295.13632   -115.83717   0.26704554   -115.57013    1687.9427    4.3475323    4.3475323    4.3475323    1687.9427    3971.3964    13375.597   -12283.165   -3801.0386    260.98477    2182.6488    82.172867 
   42900     300.7089   -115.84277   0.27208773   -115.57069    320.01308    4.3418635    4.3418635    4.3418635    320.01308    4338.9157   -553.02199   -2825.8545    6785.4018   -827.18912    1923.1823     81.85185 
   43000    293.07244   -115.83604    0.2651781   -115.57087   -344.97236    4.3405079    4.3405079    4.3405079   -344.97236   -447.34455    211.83369    -799.4062    6236.4647    3507.6574    602.56789    81.775204 
   43100    352.58859   -115.88904   0.31902956   -115.57001   -4156.6389    4.3511614    4.3511614    4.3511614   -4156.6389   -1127.5713     531.0738   -11873.419   -407.12055    717.86131   -664.38805     82.37882 
   43200    392.34799    -115.9243   0.35500471    -115.5693    807.55934    4.3382413    4.3382413    4.3382413    807.55934    2340.6166    2291.4013   -2209.3398   -3084.1001   -1611.4659    4826.3172    81.647166 
   43300    226.63598   -115.77654     0.205065   -115.57148    3590.0316    4.3429283    4.3429283    4.3429283    3590.0316    11366.589    1679.2358   -2275.7301    6397.2435    1499.6446    506.29687    81.912082 
   43400    368.66429   -115.90439   0.33357519   -115.57081   -4733.4245    4.3502174    4.3502174    4.3502174   -4733.4245   -12532.436    6347.3144   -8015.1525    6093.9013     -1241.44    754.40291    82.325216 
   43500    366.65244   -115.90137   0.33175483   -115.56961    8322.7898    4.3368708    4.3368708    4.3368708    8322.7898    17611.041    9089.9346   -1732.6065   -3337.4863   -848.54611    4495.5592    81.569812 
   43600    329.63824   -115.86908   0.29826361   -115.57082   -773.54692    4.3458663    4.3458663    4.3458663   -773.54692   -8169.8678    11071.134    -5221.907     3466.766   -1712.6179    140.44645     82.07844 
   43700    300.04642   -115.84255    0.2714883   -115.57107   -1989.3282    4.3463062    4.3463062    4.3463062   -1989.3282   -6199.3482    4705.5715   -4474.2078    3658.3148    2976.4278     1.719492    82.103363 
   43800    391.30214    -115.9241    0.3540584   -115.57005    3882.8459    4.3394941    4.3394941    4.3394941    3882.8459    6726.3038     7916.128   -2993.8941    1284.1539    36.313348    52.162254    81.717921 
   43900    356.43837   -115.89366   0.32251293   -115.57115   -2784.3656    4.3482759    4.3482759    4.3482759   -2784.3656   -5593.3991    7696.3278   -10456.025    430.25253   -728.97748    1704.4089    82.215041 
   44000    229.33041   -115.77953   0.20750298   -115.57202   -108.26306    4.3406723    4.3406723    4.3406723   -108.26306      1419.21   -2760.4307    1016.4316    9231.1204    2093.3355   -735.36297    81.784499 
   44100    355.34385   -115.89218   0.32152258   -115.57065    -4774.746    4.3436831    4.3436831    4.3436831    -4774.746   -9084.5984    2913.7458   -8153.3855      3538.67   -681.35804    995.24582    81.954801 
   44200    361.17695   -115.89656    0.3268005   -115.56976   -3145.8633    4.3483218    4.3483218    4.3483218   -3145.8633    7478.5366   -5385.2241   -11530.902   -1574.6114   -814.64488    2689.1909    82.217647 
   44300     260.5018   -115.80678    0.2357075   -115.57107   -605.05495    4.3380297    4.3380297    4.3380297   -605.05495   -9016.3002    993.33574    6207.7996    9231.4962   -343.07043   -1936.8912    81.635219 
   44400    290.71166   -115.83392   0.26304202   -115.57088    -7206.912    4.3471218    4.3471218    4.3471218    -7206.912     -8391.48   -2634.5743   -10594.682    4277.5363    2337.0886     509.1053    82.149592 
   44500    310.70114   -115.85117   0.28112892   -115.57004    2615.8645    4.3458133    4.3458133    4.3458133    2615.8645    568.46195    12880.611   -5601.4791   -1590.4826   -405.10328    523.29358    82.075434 
   44600    313.33298    -115.8541   0.28351026   -115.57059     4814.134    4.3379476    4.3379476    4.3379476     4814.134    9934.8715    580.95421    3926.5763    4839.5034    1320.9535    1891.1342    81.630585 
   44700    138.54394   -115.69752   0.12535747   -115.57217     2205.798    4.3480341    4.3480341    4.3480341     2205.798   -8085.8723    20688.344   -5985.0778     7068.077    2959.4501   -1910.9356    82.201328 
   44800    376.28362   -115.90983   0.34046932   -115.56936   -2699.3623     4.343674     4.343674     4.343674   -2699.3623    -4595.396   -1124.2364   -2378.4545   -552.12214   -781.90443     975.4404    81.954287 
   44900    244.01327   -115.79126   0.22078834   -115.57047    9972.4657    4.3410453    4.3410453    4.3410453    9972.4657    13749.103    18968.377   -2800.0827   -1629.4892   -1442.9925    2268.2937    81.805585 
   45000     263.8183   -115.80953   0.23870834   -115.57082   -3519.8374    4.3462676    4.3462676    4.3462676   -3519.8374   -9523.9151    2744.7748   -3780.3719    9134.7314   -270.11482    14.483102    82.101176 
   45100    207.83867   -115.75924    0.1880568   -115.57119   -329.39783    4.3419849    4.3419849    4.3419849   -329.39783    61.990864   -432.95154    -617.2328    3344.7371    760.06898   -252.81631    81.858716 
   45200    345.66538   -115.88333    0.3127653   -115.57057   -2383.4497    4.3448315    4.3448315    4.3448315   -2383.4497    5269.2001    -114.8694    -12304.68    -847.3794   -1250.9048    820.33828    82.019822 
   45300    210.34022   -115.76128   0.19032026   -115.57096    217.62708    4.3444779    4.3444779    4.3444779    217.62708    11804.033   -5816.6512   -5334.5003    5369.7138    48.481547    3544.1595    81.999798 
   45400     232.0149    -115.7806   0.20993196   -115.57067   -6311.4212    4.3417566    4.3417566    4.3417566   -6311.4212   -10778.111   -8626.7574    470.60475    9828.6443    2165.6343   -1237.2026    81.845802 
   45500    365.36438   -115.90004   0.33058937   -115.56945   -9038.5645    4.3479071    4.3479071    4.3479071   -9038.5645   -8568.9873   -2538.8678   -16007.838   -3226.5332    317.74088    774.73334    82.194123 
   45600    253.27012   -115.80009   0.22916413   -115.57093    3906.0841    4.3408158    4.3408158    4.3408158    3906.0841    13118.417    424.01414   -1824.1793    4515.7025   -1062.6045    936.63047     81.79261 
   45700    264.80783   -115.81139   0.23960369   -115.57178   -4803.7783    4.3435555    4.3435555    4.3435555   -4803.7783   -8510.6541   -4968.2667   -932.41429    11232.982   -1002.3352    1786.4152    81.947578 
   45800    244.54229   -115.79221   0.22126701   -115.57094   -893.69879    4.3483698    4.3483698    4.3483698   -893.69879     1695.895    5437.7486   -9814.7399    982.93858    -1369.948      1804.54    82.220366 
   45900    380.99846   -115.91367   0.34473541   -115.56893    3727.8407    4.3397099    4.3397099    4.3397099    3727.8407    7230.1642     4151.193   -197.83522    -1693.042   -2241.9366   -693.97254     81.73011 
   46000    249.21132   -115.79609   0.22549164    -115.5706    3210.1011    4.3446964    4.3446964    4.3446964    3210.1011    2776.4406    6776.6139    77.248731    6696.4737     1753.632    709.50118    82.012168 
   46100    296.61677   -115.83933   0.26838508   -115.57095   -1306.0278    4.3465441    4.3465441    4.3465441   -1306.0278    45.353636     1347.201    -5310.638    5713.9395    2162.4738   -944.71111    82.116849 
   46200    418.06677    -115.9475    0.3782756   -115.56922    4972.4968    4.3399257    4.3399257    4.3399257    4972.4968    4725.9856     9976.417     215.0879   -3041.0163   -944.26555    1143.0537    81.742304 
   46300    270.84548   -115.81533   0.24506668   -115.57027    5557.3121    4.3467342    4.3467342    4.3467342    5557.3121    19893.117    155.98039   -3377.1605    4374.6601    188.21973   -932.38345    82.127623 
   46400    316.21086   -115.85631   0.28611423    -115.5702   -1298.0935    4.3432012    4.3432012    4.3432012   -1298.0935   -2237.5754     4022.118   -5678.8232    6572.7968    1692.4789   -797.03575    81.927527 
   46500    368.20374   -115.90279   0.33315848   -115.56963     747.2821    4.3436563    4.3436563    4.3436563     747.2821    6052.5674   -2284.9019   -1525.8192     1673.477   -43.511813   -534.98121    81.953286 
   46600    388.13315   -115.92119   0.35119103   -115.56999   -1428.9834    4.3450146    4.3450146    4.3450146   -1428.9834    22.601429    6129.7078   -10439.259    1939.4054   -4562.2917    2746.0643    82.030191 
   46700    291.46521   -115.83562   0.26372385   -115.57189   -4025.2689     4.342482     4.342482     4.342482   -4025.2689   -4898.9734   -8515.8344    1339.0011    9501.4441    1274.1078    2191.9663    81.886831 
   46800    299.33576   -115.84266   0.27084528   -115.57182   -2517.0884    4.3468693    4.3468693    4.3468693   -2517.0884    2998.7081   -5319.3159   -5230.6574     638.1596    3005.0186   -1603.2987    82.135283 
   46900    405.71535   -115.93625   0.36709978   -115.56915   -1651.3221    4.3439365    4.3439365    4.3439365   -1651.3221    2576.3455    138.92114   -7669.2331   -95.949579    865.16471    974.97607    81.969143 
   47000    217.52839   -115.76786   0.19682426   -115.57104    2482.9468    4.3415996    4.3415996    4.3415996    2482.9468    6511.7918   -4650.2372    5587.2857    13623.446    854.90276    -778.1685    81.836928 
   47100    314.68667   -115.85549   0.28473511   -115.57076   -5398.3182    4.3477792    4.3477792    4.3477792   -5398.3182   -5839.6318   -4685.4055   -5669.9174    4569.4445   -186.96167    1316.6093    82.186872 
   47200    380.61368   -115.91307   0.34438725   -115.56868    1905.0254     4.343557     4.343557     4.343557    1905.0254    5329.7403    5717.9161   -5332.5801   -3912.3442    1923.0034   -1749.7917    81.947663 
   47300    305.64918   -115.84635    0.2765578    -115.5698    2247.0829     4.341388     4.341388     4.341388    2247.0829    6749.3244     2729.761   -2737.8366     3967.113   -2530.3059   -248.91748    81.824961 
   47400    279.86981   -115.82373   0.25323208    -115.5705   -5496.8064    4.3491745    4.3491745    4.3491745   -5496.8064   -4349.9629   -3475.4285   -8665.0277    9924.4729    2216.7626    401.37607     82.26602 
   47500    286.41034   -115.82844    0.2591501   -115.56929    8509.9915    4.3419759    4.3419759    4.3419759    8509.9915    15439.023    16250.872   -6159.9199   -1959.3731    309.14618    499.92915    81.858205 
   47600    439.62245   -115.96676   0.39777963   -115.56898   -2653.9987     4.342438     4.342438     4.342438   -2653.9987    242.19792    -1072.406    -7131.788   -798.72215    -1192.071    1937.8599    81.884342 
   47700    129.55438   -115.68965   0.11722352   -115.57243    1477.9426    4.3465856    4.3465856    4.3465856    1477.9426   -4357.9899    15703.395   -6911.5772     8371.944     2093.065   -1670.5331    82.119198 
   47800    393.03161   -115.92595   0.35562326   -115.57033   -5284.9581    4.3438394    4.3438394    4.3438394   -5284.9581   -6222.7763   -6668.9279   -2963.1702      4553.81    1197.3151    177.54727    81.963646 
   47900    267.82474   -115.81244   0.24233345   -115.57011    10208.231    4.3421157    4.3421157    4.3421157    10208.231    13845.714    15119.904    1659.0759   -4450.0689    1395.9522   -1329.1151    81.866115 
   48000    278.62741   -115.82311   0.25210793     -115.571   -7476.5488     4.346262     4.346262     4.346262   -7476.5488   -9095.9072   -9354.7712   -3978.9678    6287.5158   -3738.3394     863.6625    82.100861 
   48100    178.22769   -115.73335   0.16126416   -115.57209   -767.20064    4.3427083    4.3427083    4.3427083   -767.20064    -3142.796    -2508.226    3349.4201    9006.2644    2689.7314   -1454.4337    81.899638 
   48200    331.00324   -115.86971   0.29949868   -115.57021    3257.7104    4.3445112    4.3445112    4.3445112    3257.7104    8980.1108   -197.43829    990.45861   -739.46997    609.59393    513.08769    82.001681 
   48300    310.23917   -115.85123   0.28071092   -115.57052   -4361.9269    4.3445732    4.3445732    4.3445732   -4361.9269   -4376.5031   -3094.9057   -5614.3721     4060.845   -685.48177    2662.7233    82.005191 
   48400    157.23567   -115.71418   0.14227014   -115.57191   -5361.8568    4.3431389    4.3431389    4.3431389   -5361.8568   -9272.7128   -7618.6543    805.79682    11418.223    1902.3288   -755.65798       81.924 
   48500    361.84151   -115.89805    0.3274018   -115.57064   -6685.8368    4.3474473    4.3474473    4.3474473   -6685.8368   -8107.4457    499.04653   -12449.111   -373.84089    1576.1961   -667.80822    82.168047 
   48600    272.83481   -115.81667   0.24686667    -115.5698     6508.471    4.3407799    4.3407799    4.3407799     6508.471    12177.714    7123.0914    224.60769    3027.4165    2351.3308    -2420.592    81.790583 
   48700    231.89022     -115.781   0.20981915   -115.57118   -8906.3458    4.3446456    4.3446456    4.3446456   -8906.3458   -14664.544   -7753.1742   -4301.3193    9088.7224   -2093.5868    2288.0827    82.009293 
   48800    227.60041   -115.77753   0.20593763   -115.57159   -3339.2803    4.3472627    4.3472627    4.3472627   -3339.2803   -13401.613    12523.979   -9140.2073    3340.5488    3727.5167   -921.63805    82.157584 
   48900    365.89765    -115.9003   0.33107189   -115.56923      7052.31    4.3400623    4.3400623    4.3400623      7052.31    11480.366    6601.0027    3075.5614   -785.56468   -363.64928    281.18147    81.750026 
   49000    257.93969   -115.80418   0.23338925   -115.57079   -59.549463    4.3446713    4.3446713    4.3446713   -59.549463   -7261.7747    9729.5794    -2646.453    5721.3978   -279.76021     949.1115     82.01075 
   49100    183.54504   -115.73838   0.16607541    -115.5723   -2711.3296     4.347093     4.347093     4.347093   -2711.3296   -3471.5028   -1057.9087   -3604.5773    6151.6587    3741.2328     339.7853    82.147959 
   49200     372.6494    -115.9077   0.33718101   -115.57052    5235.6836    4.3396487    4.3396487    4.3396487    5235.6836     5277.136    14148.439   -3718.5244   -2011.5096    55.131749    1658.9408    81.726656 
   49300    307.23737   -115.84865   0.27799483   -115.57065    5051.7521    4.3451097    4.3451097    4.3451097    5051.7521    13566.239    2192.9604   -603.94296    5122.7013    -11.98847   -1231.6356    82.035574 
   49400    230.38563   -115.78023   0.20845776   -115.57177   -5773.0382    4.3463936    4.3463936    4.3463936   -5773.0382   -8241.3634   -1160.3045   -7917.4467    10242.796   -379.74589   -291.86001    82.108318 
   49500    364.43691   -115.90049   0.32975017   -115.57074   -3022.7053    4.3416601    4.3416601    4.3416601   -3022.7053   -6935.8871   -240.32458   -1891.9042    286.23097    3244.5135    156.28562    81.840348 
   49600    346.67667   -115.88351   0.31368033   -115.56983    3280.2502    4.3456958    4.3456958    4.3456958    3280.2502    10792.249    7232.7441   -8184.2423   -3261.7297    301.13338    689.68067    82.068776 
   49700    333.25714   -115.87299   0.30153807   -115.57145   -7850.0102    4.3437334    4.3437334    4.3437334   -7850.0102   -10124.646   -12557.381   -868.00401      13838.2   -1547.3884    1153.6002    81.957647 
   49800    188.17109   -115.74293   0.17026116   -115.57266    26.637341    4.3440209    4.3440209    4.3440209    26.637341   -3788.9089    6136.2838   -2267.4629     7038.713    5124.8686   -1075.2884    81.973925 
   49900    456.49691   -115.98205     0.413048     -115.569   -4423.7739    4.3466771    4.3466771    4.3466771   -4423.7739   -2533.1951   -202.45655    -10535.67   -3829.7517     2619.716     -613.377    82.124386 
   50000    282.84556   -115.82676   0.25592461   -115.57084    5428.5568    4.3393855    4.3393855    4.3393855    5428.5568    7475.0348     2418.384    6392.2516    5982.4752   -522.72155    751.88754    81.711787 
   50100    291.72672   -115.83597   0.26396047   -115.57201   -7075.6539     4.349201     4.349201     4.349201   -7075.6539   -5809.2417   -4523.9924   -10893.727    8580.2663   -117.42486    724.27964    82.267528 
   50200    395.19087   -115.92781     0.357577   -115.57023    2147.8149    4.3426596    4.3426596    4.3426596    2147.8149    7036.1586    5081.9764   -5674.6904    724.60625     2563.616    1160.5199    81.896883 
   50300    363.09501   -115.89851   0.32853599   -115.56997    7075.6466    4.3399401    4.3399401    4.3399401    7075.6466     14695.28    11100.463   -4568.8026    367.16307    1398.3247   -434.29942    81.743119 
   50400     308.6739   -115.85044   0.27929463   -115.57115   -4918.9787    4.3506683    4.3506683    4.3506683   -4918.9787    1861.1485   -4354.9749    -12263.11    7673.1347    105.79336    595.07682    82.350819 
   50500    296.04005   -115.83802   0.26786326   -115.57015    4036.8207      4.34107      4.34107      4.34107    4036.8207    3607.2943    17486.806   -8983.6377    2384.3906    5930.1835   -727.13283    81.806981 
   50600    431.60066   -115.95971   0.39052134   -115.56919    2106.8772    4.3413197    4.3413197    4.3413197    2106.8772    6556.6934    4310.2598   -4546.3217    493.13983    777.39497   -2.6516514    81.821096 
   50700    287.85577   -115.83157   0.26045795   -115.57111   -4881.8369    4.3504877    4.3504877    4.3504877   -4881.8369   -6967.4407    3189.1717   -10867.242    5323.8434   -315.57497   -254.19355    82.340561 
   50800    264.61896    -115.8107    0.2394328   -115.57126   -675.68611    4.3389668    4.3389668    4.3389668   -675.68611    1135.6117   -3046.0195    -116.6506    5733.7421    4521.3027   -541.52317    81.688137 
   50900     342.8656   -115.88075     0.310232   -115.57052   -1162.4819    4.3466902    4.3466902    4.3466902   -1162.4819   -1433.7339    7453.7784   -9507.4901    230.65872    1137.2706    2850.8703    82.125127 
   51000    281.77206   -115.82592   0.25495328   -115.57097   -209.74706    4.3453159    4.3453159    4.3453159   -209.74706    1610.9867   -839.87193    -1400.356    7364.4943   -1229.6691    715.09628    82.047257 
   51100    217.92262    -115.7685   0.19718097   -115.57132   -1287.9511    4.3417152    4.3417152    4.3417152   -1287.9511   -7874.5391    6503.6075   -2492.9216    9161.1133    744.24884    2276.1966    81.843463 
   51200     301.8315   -115.84355   0.27310349   -115.57044   -1711.8264    4.3488125    4.3488125    4.3488125   -1711.8264    9700.9989    -2261.289   -12575.189   -3084.7906     5282.303    172.40064     82.24548 
   51300    327.08452   -115.86619   0.29595294   -115.57024    2502.0994    4.3402223    4.3402223    4.3402223    2502.0994   -3654.2446    10872.197    288.34588    2076.1495   -83.479364   -856.11972    81.759064 
   51400    309.30172   -115.85055    0.2798627   -115.57069   -8142.5129    4.3460732    4.3460732    4.3460732   -8142.5129   -7302.0404   -9266.6743   -7858.8239    6844.9488    934.17288   -221.64136     82.09016 
   51500    167.40881   -115.72254   0.15147501   -115.57106    4569.0021    4.3477905    4.3477905    4.3477905    4569.0021    5087.1753    18798.973   -10179.142    3232.5046    4364.5912   -1581.1155    82.187512 
   51600    391.05776   -115.92224   0.35383728   -115.56841    2780.3289    4.3378959    4.3378959    4.3378959    2780.3289    2011.2775    10900.751   -4571.0421   -1636.9337    117.94298    1738.5039    81.627665 
   51700     172.3172   -115.72627   0.15591623   -115.57035    2354.2402    4.3482901    4.3482901    4.3482901    2354.2402   -6746.0489    18551.722   -4742.9531    6153.7939   -874.46339   -271.97236    82.215845 
   51800    284.38119   -115.82813   0.25731408   -115.57082   -7410.4261    4.3461424    4.3461424    4.3461424   -7410.4261   -11173.153   -1370.6229   -9687.5025    3992.6947    3291.9505    1677.5397    82.094084 
   51900    249.31658   -115.79667   0.22558688   -115.57108    8477.1315    4.3378081    4.3378081    4.3378081    8477.1315    10681.534    15327.572   -577.71137    -3498.146    4435.6675   -503.53191    81.622707 
   52000    368.59052   -115.90294   0.33350844   -115.56943   -8453.9208    4.3507446    4.3507446    4.3507446   -8453.9208   -10818.742   -4628.4742    -9914.546    3167.2414   -2155.1668   -106.12781    82.355151 
   52100    180.10245   -115.73376   0.16296048    -115.5708   -2665.1643    4.3426367    4.3426367    4.3426367   -2665.1643   -11587.556     7310.715   -3718.6514    6320.2737    4269.2516   -1338.6144    81.895585 
   52200    244.15207   -115.79224   0.22091392   -115.57133    3713.3558    4.3417752    4.3417752    4.3417752    3713.3558     6171.523    9952.6657   -4984.1213     2844.856    6176.3082   -2444.2497    81.846858 
   52300     365.0783   -115.90037   0.33033052   -115.57004   -3205.9722    4.3486183    4.3486183    4.3486183   -3205.9722   -1664.8457    5192.3887    -13145.46   -754.87493   -198.58466   -454.28425    82.234463 
   52400    232.78422    -115.7819   0.21062805   -115.57128   -1657.7633     4.341255     4.341255     4.341255   -1657.7633    -5109.301   -820.84649    956.85746    11570.859    723.21945    49.510276    81.817441 
   52500    321.27211   -115.86198   0.29069376   -115.57129   -4953.6588    4.3461368    4.3461368    4.3461368   -4953.6588   -4307.4727    3190.7864    -13744.29    1980.9168    4742.4965    2308.6377    82.093765 
   52600    378.27651   -115.91213   0.34227253   -115.56986    1491.1337    4.3445092    4.3445092    4.3445092    1491.1337     7228.705    5401.8091    -8157.113   -1553.2299    719.31719   -418.34156    82.001571 
   52700    319.95326   -115.85957   0.28950044   -115.57007    755.65089    4.3414089    4.3414089    4.3414089    755.65089    1127.1033    2940.8908   -1801.0414    3799.0755   -1459.0006    801.19953    81.826144 
   52800    268.45452   -115.81493   0.24290329   -115.57203   -5522.4069    4.3491668    4.3491668    4.3491668   -5522.4069   -8898.9142    8144.1823   -15812.489     8101.301     5064.858   -855.61623    82.265584 
   52900    286.01876   -115.82993   0.25879579   -115.57114    8945.2435     4.339417     4.339417     4.339417    8945.2435    16697.144    13076.929   -2938.3429   -630.73399    1625.5119    1274.2694    81.713565 
   53000    433.79023    -115.9619   0.39250251    -115.5694   -2255.2596    4.3448529    4.3448529    4.3448529   -2255.2596   -1427.4099    3692.9741   -9031.3431    997.42923   -916.68089   -2118.5882     82.02103 
   53100     237.2962   -115.78628   0.21471059   -115.57157   -1418.1566    4.3481921    4.3481921    4.3481921   -1418.1566    10464.003   -4503.9372   -10214.536     3323.591    4195.5815     -420.717     82.21029 
   53200    373.09895   -115.90856   0.33758777   -115.57097    2959.4338    4.3380708    4.3380708    4.3380708    2959.4338    3667.4998    7455.6924   -2244.8908    1318.4193    5211.6931    1763.3889    81.637538 
   53300    394.83705    -115.9281   0.35725686   -115.57085   -442.83761    4.3479351    4.3479351    4.3479351   -442.83761    13957.469   -1128.9323   -14157.049    2006.0701    -3636.747    529.34493    82.195712 
   53400    260.83138   -115.80796   0.23600572   -115.57195    2928.2052    4.3443083    4.3443083    4.3443083    2928.2052    4426.5298    8633.2409   -4275.1552    5272.8978    632.46439    2085.3595    81.990196 
   53500    294.97655   -115.83842   0.26690098   -115.57152    696.65803    4.3405043    4.3405043    4.3405043    696.65803    4957.0481    1466.5952   -4333.6692    4725.9332    5951.1649   -1093.7433    81.775004 
   53600    355.02266   -115.89082   0.32123196   -115.56958   -968.78589     4.346866     4.346866     4.346866   -968.78589    2060.8256    9845.1978   -14812.381   -2847.7778    2254.0323    1465.0191    82.135095 
   53700    374.16688    -115.9082   0.33855406   -115.56964   -6124.9921    4.3450484    4.3450484    4.3450484   -6124.9921   -2340.0463    -10375.33   -5659.6002    7835.8172   -1260.0437   -1866.2174    82.032103 
   53800    248.73855   -115.79636   0.22506387   -115.57129   -1831.6171    4.3420701    4.3420701    4.3420701   -1831.6171    575.41895   -472.76198   -5597.5082    6483.6154    2733.3171    253.62918    81.863537 
   53900    352.26262   -115.88935   0.31873462   -115.57062   -4975.7762    4.3460673    4.3460673    4.3460673   -4975.7762   -4189.5685    1561.1762   -12298.936   -2275.0571    5920.0692   -379.64157    82.089827 
   54000    353.08847   -115.88983   0.31948187   -115.57035   -688.87523     4.342904     4.342904     4.342904   -688.87523   -1991.7306    6908.9076   -6983.8027    2330.8139   -1981.1877   -248.23451    81.910707 
   54100    185.66659   -115.74081   0.16799503   -115.57282    3175.3811    4.3449654    4.3449654    4.3449654    3175.3811    11116.348    4257.7492   -5847.9545    9212.4772    3489.0176    1542.8681    82.027406 
   54200     277.4275   -115.82292   0.25102223    -115.5719    1586.4828    4.3434437    4.3434437    4.3434437    1586.4828   -875.72243    12385.803   -6750.6321    2244.5092    2881.1987   -812.49131    81.941252 
   54300    375.89592   -115.90978   0.34011853   -115.56966   -950.23254    4.3442346    4.3442346    4.3442346   -950.23254    5329.8451    819.65374   -9000.1965   -3741.5658    -1833.956    1787.5789    81.986019 
   54400    269.06613   -115.81461   0.24345669   -115.57115    1315.3192     4.346325     4.346325     4.346325    1315.3192    4148.2076    4715.2292   -4917.4794    5150.5351    1560.4272   -2638.2725    82.104431 
   54500    262.41342   -115.80834   0.23743718    -115.5709    1034.3697    4.3420075    4.3420075    4.3420075    1034.3697    6185.5836    3436.2179   -6518.6922    4386.0212    4122.5439     905.8565    81.859997 
   54600    272.76922   -115.81732   0.24680733   -115.57052    2633.4438    4.3431927    4.3431927    4.3431927    2633.4438    679.80873    12218.234   -4997.7117    2429.0547    1809.9401   -976.27822    81.927047 
   54700     298.2272   -115.84022   0.26984224   -115.57038   -4135.5152    4.3483747    4.3483747    4.3483747   -4135.5152   -9360.9559    8143.8293   -11189.419    1334.9532    -3411.024   -903.78388    82.220645 
   54800     154.1638   -115.71086   0.13949065   -115.57137    2840.8825    4.3403231    4.3403231    4.3403231    2840.8825    6220.9195    4223.9538   -1922.2259    10880.444    5040.4378   -416.27804     81.76476 
   54900    307.92431    -115.8489   0.27861639   -115.57028   -6426.3913     4.344812     4.344812     4.344812   -6426.3913   -12392.952    895.84473   -7782.0665     -573.178    2365.1629   -775.41989    82.018714 
   55000    343.12177    -115.8801   0.31046379   -115.56964   -9456.4618    4.3483343    4.3483343    4.3483343   -9456.4618   -12768.736   -4395.3598   -11205.289    372.99787   -3173.7643    1448.5652    82.218354 
   55100    224.34519   -115.77399   0.20299224     -115.571   -651.18886    4.3400006    4.3400006    4.3400006   -651.18886    -1964.792   -1585.0416     1596.267    9232.1227    2051.7242    -2404.057    81.746539 
   55200    268.69693   -115.81409   0.24312263   -115.57097   -3108.1976    4.3458244    4.3458244    4.3458244   -3108.1976   -5464.6216    5107.5613   -8967.5324    2129.3334    3578.4143    913.51359    82.076067 
   55300    268.60238   -115.81438   0.24303707   -115.57135    2939.2845    4.3448515    4.3448515    4.3448515    2939.2845    3692.9407    14161.543   -9036.6301     1402.864   -183.67965   -794.87029    82.020956 
   55400    329.23451   -115.87023    0.2978983   -115.57233    1511.8336    4.3419194    4.3419194    4.3419194    1511.8336    913.80973    4846.2445   -1224.5536    2823.4254   -966.75768    879.30528    81.855011 
   55500    164.14921   -115.72125   0.14852565   -115.57273    7381.0846    4.3467326    4.3467326    4.3467326    7381.0846    18958.658    11624.976     -8440.38    6908.0479    4598.5691    45.109559    82.127533 
   55600    441.80021   -115.96917   0.39975011   -115.56942   -3326.7282    4.3429122    4.3429122    4.3429122   -3326.7282   -1261.3584   -1618.5309   -7100.2955   -3501.0279    357.48073   -270.01941    81.911174 
   55700     328.6252   -115.86748   0.29734699   -115.57013    3472.1283    4.3444332    4.3444332    4.3444332    3472.1283    7740.9379    7739.6928   -5064.2459    1588.0115   -775.11041    1060.5675    81.997267 
   55800    291.88212   -115.83468   0.26410107   -115.57058   -932.81774    4.3456199    4.3456199    4.3456199   -932.81774    5890.8288    623.55049   -9312.8325    4199.3258    4260.9355   -997.80846    82.064477 
   55900    270.07231   -115.81532    0.2443671   -115.57096    3705.2883    4.3412776    4.3412776    4.3412776    3705.2883     2796.913    12906.802   -4587.8499    4399.8192    5078.9533    1415.2672     81.81872 
   56000    357.91837   -115.89359   0.32385206   -115.56974   -2305.5543    4.3483844    4.3483844    4.3483844   -2305.5543    3145.7274    4941.2101     -15003.6    2112.2304   -3596.4695   -530.19554    82.221196 
   56100    300.98283    -115.8423   0.27233559   -115.56997   -2938.8559    4.3434347    4.3434347    4.3434347   -2938.8559   -4906.8083    3288.7873   -7198.5466    7359.2081    744.39053    1653.3598    81.940741 
   56200    273.13577   -115.81814   0.24713899   -115.57101   -1002.2705    4.3411778    4.3411778    4.3411778   -1002.2705    2108.0205   -837.73682   -4277.0951    5381.5175    5609.4184    326.52812    81.813076 
   56300    415.02867   -115.94663   0.37552666    -115.5711   -8225.2968    4.3510195    4.3510195    4.3510195   -8225.2968   -1101.0856   -5338.7844    -18236.02   -4645.6009   -305.96387    438.45772    82.370762 
   56400    363.33412   -115.90018   0.32875235   -115.57142    2785.2824    4.3377435    4.3377435    4.3377435    2785.2824    2998.6246     2551.049    2806.1735    8354.0186   -81.041788   -165.01625    81.619061 
   56500    243.21518   -115.79228   0.22006621   -115.57222   -794.54124    4.3459901    4.3459901    4.3459901   -794.54124    5784.1308    4881.1814   -13048.936    5474.6292    2661.7147   -396.74951    82.085452 
   56600    314.38804   -115.85525    0.2844649   -115.57079    971.02567    4.3477673    4.3477673    4.3477673    971.02567    5055.2189    9276.2147   -11418.357    1114.2099    1531.2096    1308.9642    82.186194 
   56700    353.66137   -115.88942   0.32000024   -115.56942    7999.9421    4.3390249    4.3390249    4.3390249    7999.9421    13377.477    13737.413   -3115.0641   -825.40362   -2369.6038   -2237.0696    81.691419 
   56800    296.69383    -115.8391   0.26845482   -115.57065   -1498.3365    4.3470261    4.3470261    4.3470261   -1498.3365    3065.2601    3713.0551   -11273.325    6888.0816    5146.0519    970.68661    82.144167 
   56900    310.34025   -115.85129   0.28080238   -115.57049   -3618.7756    4.3454589    4.3454589    4.3454589   -3618.7756    -6367.619    3979.0908   -8467.7986    1594.8461    1108.9085   -1145.3371    82.055358 
   57000    380.56275   -115.91395   0.34434117   -115.56961    2800.0487     4.342142     4.342142     4.342142    2800.0487    9868.8903    7281.8307   -8750.5748   -3337.5405   -5204.7645    2168.5382    81.867603 
   57100    303.99428   -115.84492   0.27506041   -115.56986    16.238304    4.3464559    4.3464559    4.3464559    16.238304    -1034.615    8747.2097   -7663.8798    3608.4948    1499.2906   -606.53423    82.111847 
   57200    171.70349   -115.72737   0.15536093   -115.57201    202.65912    4.3429364    4.3429364    4.3429364    202.65912   -3355.2226    10995.793   -7032.5932     7546.778    4498.6939   -1512.0544     81.91254 
   57300    342.67295   -115.88102   0.31005769   -115.57096   -2491.9635    4.3456254    4.3456254    4.3456254   -2491.9635   -2366.2843    6058.4749   -11168.081    1808.6372   -425.75988   -584.82128    82.064789 
   57400    298.96709   -115.84115   0.27051171   -115.57063      1807.37    4.3451283    4.3451283    4.3451283      1807.37    9738.9694    608.40638   -4925.2658   -817.70027   -2598.7525    -1603.408     82.03663 
   57500    263.15011   -115.80954   0.23810375   -115.57144    -4207.812    4.3404337    4.3404337    4.3404337    -4207.812   -11796.277    235.35988   -1062.5191    7510.2994     5288.031    690.58854    81.771015 
   57600    273.67177   -115.81876   0.24762397   -115.57114   -7726.4863    4.3501464    4.3501464    4.3501464   -7726.4863   -7664.1675    -2913.983   -12601.308   -873.93334    190.69436   -2082.4657    82.321187 
   57700    316.29772   -115.85557   0.28619283   -115.56938    5845.3894    4.3418721    4.3418721    4.3418721    5845.3894    5238.6583    14222.236   -1924.7265    2237.9171   -2433.9303    1205.8706    81.852335 
   57800    242.40173   -115.79022   0.21933018   -115.57089    3465.4442      4.34143      4.34143      4.34143    3465.4442     4664.937    9756.1015   -4024.7059    6273.8132    1453.7407    991.94107    81.827337 
   57900    186.99993   -115.74094   0.16920146   -115.57174   -4539.6868    4.3504247    4.3504247    4.3504247   -4539.6868   -9446.8786    7769.7214   -11941.903     3674.664    1602.7569    1437.4972    82.336986 
   58000    355.97931   -115.89099   0.32209756    -115.5689    1861.4164     4.341091     4.341091     4.341091    1861.4164   -635.81382    13761.775   -7541.7121    -598.2985   -2487.2643   -1203.1787     81.80817 
   58100    312.50737   -115.85224   0.28276324   -115.56948      2968.07    4.3434563    4.3434563    4.3434563      2968.07    7630.4887    5443.0894   -4169.3682   -247.31318    1334.9547   -1725.3512    81.941965 
   58200    225.60381   -115.77573   0.20413107    -115.5716   -5573.0636    4.3479733    4.3479733    4.3479733   -5573.0636   -18346.859    16475.774   -14848.106    4772.0284    6431.8988    479.43102    82.197879 
   58300    335.55757     -115.874   0.30361954   -115.57038   -3069.7826    4.3420072    4.3420072    4.3420072   -3069.7826   -6793.8016    6805.6897   -9221.2358    -472.6911   -3849.7272    646.66567    81.859978 
   58400    256.13096   -115.80196   0.23175267    -115.5702    7745.9297    4.3446425    4.3446425    4.3446425    7745.9297    11259.342    18403.971   -6425.5237    2885.5673   -1143.8161    1179.4247    82.009118 
   58500    336.89098   -115.87641   0.30482604   -115.57158   -6317.6337     4.345116     4.345116     4.345116   -6317.6337    37.198813    -7590.665   -11399.435    4099.1334    3682.0384   -573.08413    82.035933 
   58600    189.08021   -115.74356   0.17108375   -115.57248    1432.3586    4.3441208    4.3441208    4.3441208    1432.3586    2889.4119    5387.1823   -3979.5183    4394.3855   -1220.0009    1646.5259    81.979581 
   58700    464.26954   -115.98951   0.42008084   -115.56943    -4916.144    4.3457421    4.3457421    4.3457421    -4916.144    1121.9427   -4780.6456   -11089.729   -1626.5493   -4379.7887   -561.04172    82.071402 
   58800      281.081   -115.82507     0.254328   -115.57075    2565.2258    4.3428263    4.3428263    4.3428263    2565.2258    3543.8559    6075.2225   -1923.4011    4326.8449    2066.2393   -3.3955206    81.906314 
   58900    273.28428   -115.81833   0.24727336   -115.57105   -4071.4435    4.3463948    4.3463948    4.3463948   -4071.4435    2971.8049   -6596.5144   -8589.6212    5689.6188     4190.671    -1491.392    82.108385 
   59000    357.78903   -115.89392   0.32373503   -115.57018    102.33718    4.3451511    4.3451511    4.3451511    102.33718    4355.1767    9665.3449    -13713.51    71.781533   -2693.3455   -61.327672    82.037923 
   59100    291.66434   -115.83414   0.26390402   -115.57023    6074.0117    4.3416659    4.3416659    4.3416659    6074.0117    18832.734    -236.4609   -374.23764     7598.493    2025.5793   -328.73415    81.840676 
   59200    355.77014   -115.89224    0.3219083   -115.57034   -7632.8898    4.3472191    4.3472191    4.3472191   -7632.8898   -5374.8373   -3307.1303   -14216.702    3161.6127    1967.1131   -807.21162    82.155112 
   59300    310.23386   -115.85038   0.28070611   -115.56967   -139.04021    4.3456148    4.3456148    4.3456148   -139.04021    5107.4966    6744.6108   -12269.228   -942.05219   -3030.1841    1313.4116    82.064191 
   59400     444.2881   -115.97053   0.40200121   -115.56853   -411.39991     4.341551     4.341551     4.341551   -411.39991    3216.7605    664.05739   -5115.0176   -1866.6912   -3380.7888   -1256.1501    81.834175 
   59500      294.511   -115.83815   0.26647975   -115.57167   -605.33773    4.3464691    4.3464691    4.3464691   -605.33773     7155.237    4041.3996    -13012.65    6701.5585    5469.7318    786.75073    82.112599 
   59600    242.18141   -115.79144   0.21913083   -115.57231    4574.6416    4.3449778    4.3449778    4.3449778    4574.6416    16830.201    5439.3043   -8545.5802    4617.7033    1121.6331   -1394.7983    82.028108 
   59700    360.85754   -115.89712   0.32651149   -115.57061    5824.4988    4.3407481    4.3407481    4.3407481    5824.4988    14120.416    9717.7192    -6364.639   -793.54608   -4210.8423   -1038.6143    81.788786 
   59800    348.73264   -115.88596   0.31554062   -115.57042   -3471.0447    4.3477326    4.3477326    4.3477326   -3471.0447   -2216.9891     1358.508    -9554.653    1171.5094    1683.0417   -466.66791    82.184229 
   59900    268.11375   -115.81358   0.24259495   -115.57099   -902.90068    4.3445089    4.3445089    4.3445089   -902.90068    3054.1199    1247.5363   -7010.3582    3698.7149    858.68094    -989.9762    82.001554 
   60000    339.43196   -115.87743   0.30712517    -115.5703   -1149.9941    4.3429413    4.3429413    4.3429413   -1149.9941    3549.8079    1534.8837    -8534.674    2716.7715   -4107.4668    566.30894     81.91282 
   60100    267.58015   -115.81228   0.24211215   -115.57017     192.2536    4.3454201    4.3454201    4.3454201     192.2536    4738.6234    5319.9143   -9481.7768    178.48603   -3768.6426   -1290.6647    82.053159 
   60200    275.93001   -115.82027   0.24966727    -115.5706   -7572.6807    4.3459347    4.3459347    4.3459347   -7572.6807   -6771.8466   -7742.8812   -8203.3144    9053.7804    2599.7695    1106.1329    82.082313 
   60300    209.07143    -115.7602   0.18917222   -115.57103    2160.9564    4.3425283    4.3425283    4.3425283    2160.9564    4677.5865    11916.012   -10110.729    1354.7832   -4984.9175    -142.1027    81.889451 
   60400    375.09178   -115.90845   0.33939093   -115.56906   -7847.4965    4.3465676    4.3465676    4.3465676   -7847.4965   -11191.103    1279.4921   -13630.879    1319.9368   -3641.8713    290.48009    82.118178 
   60500    271.47991   -115.81563   0.24564073   -115.56999   -5123.3585    4.3443018    4.3443018    4.3443018   -5123.3585   -8924.0291   -353.76468   -6092.2818    3685.1404     4354.107   -1039.2426    81.989828 
   60600    231.18961   -115.77998   0.20918522   -115.57079    -600.4658    4.3443188    4.3443188    4.3443188    -600.4658    3569.9405    3493.5837   -8864.9216    1890.3142    -3340.354   -1753.2269     81.99079 
   60700    264.07862   -115.80976   0.23894388   -115.57081    2544.0565    4.3439698    4.3439698    4.3439698    2544.0565    6456.5923    11993.398   -10817.821    152.57391   -5835.6716    703.71862    81.971032 
   60800    286.41528   -115.82933   0.25915456   -115.57018    2458.6316    4.3426865    4.3426865    4.3426865    2458.6316     2664.863    5549.8685   -838.83663    3219.8877   -493.13389   -664.59235    81.898403 
   60900    225.24048   -115.77525   0.20380232   -115.57145   -487.71173    4.3482142    4.3482142    4.3482142   -487.71173   -10067.666    15208.241   -6603.7104    4156.4491    1428.1212     1488.722    82.211542 
   61000    276.85484   -115.82088   0.25050408   -115.57038    5604.5466    4.3401432    4.3401432    4.3401432    5604.5466    9941.1557    11756.607   -4884.1225    -2808.223   -5082.7321   -891.99398    81.754596 
   61100    349.93093   -115.88641   0.31662486   -115.56978   -1061.8496     4.345704     4.345704     4.345704   -1061.8496    -9102.111    9419.2224   -3502.6601   -621.01608    38.867565     742.3864    82.069245 
   61200    264.78339   -115.81027   0.23958158   -115.57068   -2467.2576    4.3476249    4.3476249    4.3476249   -2467.2576   -3546.6038    6473.7175   -10328.886    3570.8907    3475.3229   -1011.3639    82.178119 
   61300    227.61498   -115.77726   0.20595082   -115.57131    3079.4021    4.3402444    4.3402444    4.3402444    3079.4021    4436.6213     7693.897   -2892.3119       5864.5   -1310.2181    -1400.401    81.760312 
   61400    300.32687   -115.84189   0.27174206   -115.57015    745.43707    4.3463329    4.3463329    4.3463329    745.43707   -1149.8742    16710.667   -13324.482   -528.29596   -3541.4243    731.53003     82.10488 
   61500    355.39583   -115.89147   0.32156961    -115.5699    -9773.342    4.3486748    4.3486748    4.3486748    -9773.342   -9887.3424   -7457.7723   -11974.911    3913.7055    424.68177    1100.8007    82.237672 
   61600    234.19904   -115.78336   0.21190821   -115.57145     516.7485    4.3382862    4.3382862    4.3382862     516.7485   -10184.641    10849.118    885.76841    5225.9203    774.97179    2193.5455    81.649699 
   61700    401.31537   -115.93331   0.36311858   -115.57019   -9653.2545    4.3495921    4.3495921    4.3495921   -9653.2545   -5399.3766   -5660.4167    -17899.97   -2620.1091   -4479.3419   -1661.0738    82.289721 
   61800    310.78586    -115.8514   0.28120558    -115.5702    2046.0957    4.3435899    4.3435899    4.3435899    2046.0957    265.38147    9846.5392   -3973.6335    1487.6851    2985.9681   -69.439027    81.949523 
   61900    317.82609   -115.85885   0.28757572   -115.57128   -1800.0302     4.342354     4.342354     4.342354   -1800.0302     552.3721     278.8043    -6231.267    7666.4701    1485.0986   -472.06981    81.879595 
   62000    204.24844   -115.75671   0.18480828    -115.5719    5717.8935    4.3477774    4.3477774    4.3477774    5717.8935    5396.6975    23749.279   -11992.296    2401.4947   -2785.7752    808.47318     82.18677 
   62100    461.39803   -115.98683   0.41748263   -115.56935     1741.965    4.3406347    4.3406347    4.3406347     1741.965    8082.3024    3445.2402   -6301.6477   -1888.6452   -125.91361   -1436.4245    81.782372 
   62200    313.72203   -115.85543   0.28386228   -115.57157    840.88817    4.3483448    4.3483448    4.3483448    840.88817   -628.64771     14542.36   -11391.047    1977.0886    1519.8318   -453.55392    82.218948 
   62300    354.50122   -115.89094   0.32076015   -115.57018   -1019.7451    4.3439021    4.3439021    4.3439021   -1019.7451     520.2838    5332.6216   -8912.1408    2858.2292   -3028.1811    1599.8857    81.967197 
   62400    361.10325   -115.89644   0.32673381    -115.5697    2749.4027    4.3421625    4.3421625    4.3421625    2749.4027    3968.8842    14749.805   -10470.481   -1520.7324    -5259.914    1778.2806    81.868761 
   62500    352.75271   -115.88952   0.31917807   -115.57035   -502.06517    4.3494316    4.3494316    4.3494316   -502.06517    3976.9432    6433.5515    -11916.69    2061.8885    2346.3479   -606.81438    82.280612 
   62600    243.85748   -115.79196   0.22064737   -115.57131    458.64854    4.3420552    4.3420552    4.3420552    458.64854    1963.8182     6950.836   -7538.7086    6944.6279   -618.83714    -2951.992    81.862694 
   62700     299.4747   -115.84213     0.270971   -115.57116   -433.89251    4.3412301    4.3412301    4.3412301   -433.89251   -2704.9742    7328.7301   -5925.4334    4020.5333   -2084.4942   -490.13204    81.816032 
   62800    412.29674   -115.94253   0.37305475   -115.56947   -10491.225    4.3526432    4.3526432    4.3526432   -10491.225    -14109.17   -5423.7546   -11940.751   -3554.2065    675.79721   -160.25761    82.463014 
   62900    241.11848   -115.78863   0.21816907   -115.57046    1958.7851    4.3382221    4.3382221    4.3382221    1958.7851    2935.2092    184.27779    2756.8684    2840.0188   -940.77543    989.36938     81.64608 
   63000    262.70744    -115.8085   0.23770321   -115.57079   -4287.5784    4.3458043    4.3458043    4.3458043   -4287.5784   -12337.471    6343.8927   -6869.1568    3846.7865   -3138.0402   -548.32572    82.074926 
   63100    287.68635   -115.83104   0.26030466   -115.57074   -90.896176    4.3482335    4.3482335    4.3482335   -90.896176     6040.225    2982.5876   -9295.5012    1486.4002   -2999.9081    849.25938    82.212634 
   63200     270.6856   -115.81597   0.24492202   -115.57104    6200.1768    4.3392146    4.3392146    4.3392146    6200.1768    10851.085    7702.5571    46.887899    1624.1498    1245.2196    928.97828     81.70213 
   63300    222.00731   -115.77274   0.20087688   -115.57187    507.61009    4.3480518    4.3480518    4.3480518    507.61009    5709.8886    5960.8963   -10147.955    2439.9895   -4091.9259    273.94944     82.20233 
   63400     327.2283   -115.86615   0.29608305   -115.57006   -2355.3842    4.3449482    4.3449482    4.3449482   -2355.3842   -1503.8354    4571.5662   -10133.883   -743.73175   -1171.7992   -1269.5778    82.026428 
   63500    375.95644   -115.90962   0.34017329   -115.56944   -923.82312    4.3425645    4.3425645    4.3425645   -923.82312    1975.5519    2515.2096   -7262.2308   -1279.7887    2282.1073   -1592.6196    81.891504 
   63600    176.96463   -115.73123   0.16012131   -115.57111    2408.8111     4.348358     4.348358     4.348358    2408.8111    8221.2736    10491.072   -11485.912    3173.5523   -1582.4058   -333.85504    82.219699 
   63700    252.81752   -115.80037    0.2287546   -115.57162   -555.47423    4.3404679    4.3404679    4.3404679   -555.47423   -2857.2477    10724.835   -9534.0101    3034.5438   -4737.1367    288.52474    81.772948 
   63800    304.81155   -115.84688    0.2757999   -115.57108   -451.10875    4.3464804    4.3464804    4.3464804   -451.10875   -2395.9827    11128.934   -10086.277      1889.19   -1943.7008    1265.1312    82.113238 
   63900    249.51185   -115.79627   0.22576357   -115.57051   -3009.3911    4.3471414    4.3471414    4.3471414   -3009.3911    -4130.088    4303.9808    -9202.066    395.26829    332.82251    186.07334    82.150704 
   64000    224.20364   -115.77352   0.20286416   -115.57066   -1791.0377    4.3382109    4.3382109    4.3382109   -1791.0377   -8789.4414    4374.1395   -957.81128      2919.77   -7883.9986    558.59096     81.64545 
   64100    331.93451   -115.87032   0.30034132   -115.56997    -8609.724    4.3517336    4.3517336    4.3517336    -8609.724   -11761.432    636.70747   -14704.448   -738.00924    203.67025   -290.14763    82.411326 
   64200    300.76337   -115.84231   0.27213701   -115.57017   -267.02852    4.3418584    4.3418584    4.3418584   -267.02852    198.41281    1794.5853   -2794.0837    2045.4156     1738.373    -1452.001    81.851559 
   64300    159.81861   -115.71686   0.14460724   -115.57225    2962.9344    4.3409656    4.3409656    4.3409656    2962.9344    3322.7704    9303.1108   -3737.0781    5821.9672   -2522.1068    -1360.942    81.801077 
   64400    327.52391   -115.86717   0.29635052   -115.57082   -6571.4513    4.3520107    4.3520107    4.3520107   -6571.4513   -170.06316    278.27472   -19822.566    323.03137   -1024.5837   -271.88363    82.427072 
   64500    380.48288   -115.91308   0.34426891   -115.56882    3008.6291    4.3395638    4.3395638    4.3395638    3008.6291    -1095.572    11252.108   -1130.6487    -1628.963    484.48142    736.48713    81.721859 
   64600    317.24792   -115.85805   0.28705258   -115.57099   -789.54453    4.3449512    4.3449512    4.3449512   -789.54453    7574.6121    895.13131   -10838.377    1628.1309   -2689.5949    369.74412      82.0266 
   64700     311.0759   -115.85325   0.28146802   -115.57178   -1285.5567    4.3488271    4.3488271    4.3488271   -1285.5567   -7623.7059    18327.094   -14560.058    226.59768   -5975.1147    1291.8203    82.246308 
   64800    431.10523    -115.9595   0.39007307   -115.56942    6308.7237    4.3388826    4.3388826    4.3388826    6308.7237    15377.909    7676.2937    -4128.031   -1233.4001    2254.3835    692.92425    81.683381 
   64900    257.28013   -115.80376   0.23279246   -115.57096    5852.6049    4.3471639    4.3471639    4.3471639    5852.6049    1648.2161     27168.99   -11259.391     2916.905    204.96865   -189.72848    82.151982 
   65000     297.7133    -115.8414   0.26937725   -115.57202   -2334.5089    4.3438439    4.3438439    4.3438439   -2334.5089   -1866.8698    3445.7683   -8582.4251    5004.6514   -2900.4246   -2736.7206    81.963901 
   65100    364.85213   -115.90128   0.33012588   -115.57115    3240.2929    4.3423759    4.3423759    4.3423759    3240.2929    3252.1073    11135.105   -4666.3335   -1201.0227    -566.5246   -720.91703    81.880834 
   65200    441.15834   -115.96896   0.39916934   -115.56979   -6621.5289    4.3486552    4.3486552    4.3486552   -6621.5289   -9564.1867     684.1054   -10984.505   -3418.8382     2212.646    777.04892    82.236557 
   65300    204.05906   -115.75689   0.18463693   -115.57226    1620.6254    4.3393789    4.3393789    4.3393789    1620.6254   -4513.1428    11111.866    -1736.847    1868.1066   -3907.5962    2060.0301    81.711411 
   65400     373.5429   -115.90904   0.33798947   -115.57105   -7048.2533    4.3483847    4.3483847    4.3483847   -7048.2533   -8223.6492   -574.55038    -12346.56    7072.9756   -4354.0938   -658.83957    82.221213 
   65500    322.61759   -115.86166   0.29191118   -115.56974     4746.041    4.3453193    4.3453193    4.3453193     4746.041    11836.736    11133.531   -8732.1442   -1799.5115    2297.0107   -1207.0769    82.047448 
   65600    316.90219   -115.85786   0.28673976   -115.57112   -1759.3687    4.3388889    4.3388889    4.3388889   -1759.3687   -3360.5438    1489.8972   -3407.4594   -435.90086   -3652.5297    1003.6963    81.683737 
   65700    278.91804   -115.82398   0.25237091   -115.57161   -6608.1356     4.350286     4.350286     4.350286   -6608.1356   -5275.2841    2226.6542   -16775.777    965.85376   -3004.7262   -525.40702     82.32911 
   65800    418.63486   -115.94832   0.37878962   -115.56953    2262.6113    4.3432971    4.3432971    4.3432971    2262.6113    3207.6212     11042.44   -7462.2277    1059.2523     1748.671   -921.28099    81.932954 
   65900    318.04923   -115.85864   0.28777763   -115.57086    3359.7179    4.3408508    4.3408508    4.3408508    3359.7179    7567.7274    10624.209   -8112.7826    210.46071    1357.5781   -1991.2827    81.794589 
   66000     193.4697   -115.74756   0.17505545   -115.57251   -4231.7777    4.3489769    4.3489769    4.3489769   -4231.7777   -9035.8949    10859.302    -14518.74    2143.1757   -5164.6961    1081.4373    82.254809 
   66100    329.86596   -115.86886   0.29846965   -115.57039    2725.4568    4.3421581    4.3421581    4.3421581    2725.4568     11211.35    7086.2035   -10121.184    2259.5335   -2171.5446    204.58319     81.86851 
   66200    342.00905   -115.87971   0.30945698   -115.57025    2985.3027    4.3434543    4.3434543    4.3434543    2985.3027    8118.7202    7621.4002   -6784.2125   -21.466626    189.40769    -877.9394    81.941853 
   66300    170.56541   -115.72709   0.15433117   -115.57276   -3804.8646    4.3465254    4.3465254    4.3465254   -3804.8646   -10550.487    12438.356   -13302.462   -1192.5994   -5495.9239    221.67018    82.115791 
   66400    314.97301   -115.85589    0.2849942    -115.5709   -6733.5608    4.3431764    4.3431764    4.3431764   -6733.5608   -11948.555   -499.09354   -7753.0339   -724.44139    -1749.986   -3144.1684    81.926122 
   66500    261.79805   -115.80706   0.23688038   -115.57018    5252.3983    4.3452273    4.3452273    4.3452273    5252.3983    10494.964    12832.528   -7570.2969    4406.7269    1401.3223    619.60216    82.042237 
   66600     272.6302   -115.81743   0.24668153   -115.57075    -4475.295    4.3439118    4.3439118    4.3439118    -4475.295   -2928.6219    379.58835   -10876.851    555.14234   -1431.2659   -842.68206    81.967746 
   66700    99.301649   -115.66276  0.089850219   -115.57291   -230.96538    4.3434669    4.3434669    4.3434669   -230.96538    7234.2419   -1785.7505   -6141.3875    4219.3594   -3317.9324    383.17054    81.942564 
   66800     392.5718   -115.92663   0.35520721   -115.57142   -3672.8407    4.3458821    4.3458821    4.3458821   -3672.8407    3850.4489   -2566.7752   -12302.196   -2725.5671    1618.9946   -327.41728    82.079334 
   66900    280.39744   -115.82562   0.25370949   -115.57191    953.79754    4.3437468    4.3437468    4.3437468    953.79754    8752.1603    1655.5173    -7546.285    3173.5574   -1773.9558    906.18269    81.958405 
   67000    206.50641   -115.75922   0.18685134   -115.57237   -7340.7026    4.3436773    4.3436773    4.3436773   -7340.7026   -9751.9005   -3012.2868   -9257.9204    430.34969   -5504.8881    1687.9432    81.954474 
   67100    291.43383   -115.83514   0.26369546   -115.57145   -3173.2354    4.3483228    4.3483228    4.3483228   -3173.2354    1513.0075    2731.3103   -13764.024    1623.2827   -205.25431   -2239.0556    82.217702 
   67200    278.95874   -115.82188   0.25240773   -115.56948    7950.0014    4.3414034    4.3414034    4.3414034    7950.0014    18994.784    10070.436   -5215.2164    3026.2009    2988.6478    936.82318    81.825829 
   67300    242.65238   -115.79074   0.21955697   -115.57118   -3276.7774    4.3434943    4.3434943    4.3434943   -3276.7774   -2445.1284    3322.6555   -10707.859     2053.686    -2221.996   -109.78792    81.944113 
   67400    236.94478   -115.78574   0.21439262   -115.57135   -2631.2915     4.349672     4.349672     4.349672   -2631.2915   -10181.371     13203.45   -10915.953    889.13961    -3567.252   -125.24019    82.294259 
   67500    433.37258   -115.96083   0.39212462   -115.56871     4279.878    4.3390338    4.3390338    4.3390338     4279.878    12537.594    2975.1775   -2673.1373   -4009.6813    4456.3548   -986.00661    81.691921 
   67600    297.62165    -115.8394   0.26929432   -115.57011     2356.441    4.3448837    4.3448837    4.3448837     2356.441   -206.33469    16805.804   -9530.1466    2369.0407    -1892.101   -381.08188     82.02278 
   67700    214.69626   -115.76623   0.19426169   -115.57197   -1508.0094    4.3493471    4.3493471    4.3493471   -1508.0094    10599.435   -2547.5998   -12575.863    1442.5374   -5370.8704    1115.5819    82.275815 
   67800    395.84921   -115.92897   0.35817268    -115.5708    7489.4725    4.3363402    4.3363402    4.3363402    7489.4725    11633.184    10899.408   -64.174918    156.90916   -786.92205     54.40388    81.539877 
   67900    353.71051   -115.89104    0.3200447   -115.57099    1382.5604    4.3485961    4.3485961    4.3485961    1382.5604    13708.873    4582.4382    -14143.63   -557.74447    1120.0488    875.82207    82.233203 
   68000    307.64267   -115.84978   0.27836155   -115.57142   -7280.0743     4.346375     4.346375     4.346375   -7280.0743   -6485.4364   -4363.7589   -10991.028    3600.8283    -4176.067   -1789.8121    82.107262 
   68100    355.72863    -115.8933   0.32187074   -115.57143    288.80734    4.3396594    4.3396594    4.3396594    288.80734    4584.2218    1865.3236   -5583.1234   -549.44911   -1599.0446    191.21961    81.727259 
   68200    395.53652   -115.92814   0.35788976   -115.57025   -2745.8002    4.3487767    4.3487767    4.3487767   -2745.8002      13366.3   -7275.0931   -14328.608   -453.93744    3646.9711   -462.30248    82.243454 
   68300    269.44758   -115.81569   0.24380183   -115.57189   -3715.5555    4.3432608    4.3432608    4.3432608   -3715.5555     72.46187    1014.0044   -12233.133   -1288.7131   -6231.2416   -7.1154221    81.930898 
   68400     318.9778   -115.86091   0.28861782   -115.57229   -3338.6928    4.3425143    4.3425143    4.3425143   -3338.6928    2211.0978   -3813.7272   -8413.4489    1093.6943    -6015.227    -918.6623    81.888664 
   68500    382.03166   -115.91649   0.34567027   -115.57082   -2576.7495    4.3477697    4.3477697    4.3477697   -2576.7495    416.87078     3312.933   -11460.052    960.99725     1268.038   -1353.2044    82.186332 
   68600    363.07416   -115.89902   0.32851713    -115.5705   -807.13767     4.340253     4.340253     4.340253   -807.13767     1351.607    4924.2558   -8697.2758   -1070.9585     1089.731    2454.3631    81.760803 
   68700    185.80757   -115.74103   0.16812259   -115.57291    3369.8344    4.3476703    4.3476703    4.3476703    3369.8344    20037.838    2913.3107   -12841.646   -1121.8625    -4065.906   -1835.9929    82.180696 
   68800    379.69812    -115.9148   0.34355884   -115.57125    4625.2993    4.3410626    4.3410626    4.3410626    4625.2993    9925.9421    8120.8121   -4170.8564   -402.75479    453.50276    423.77235    81.806564 
   68900    339.58505   -115.87818   0.30726369   -115.57092    1786.8356    4.3445019    4.3445019    4.3445019    1786.8356     13136.52    4849.9104   -12625.923    488.26247    1135.6326   -1356.0607    82.001155 
   69000    255.96992   -115.80373   0.23160696   -115.57212     690.3702    4.3467475    4.3467475    4.3467475     690.3702    6516.1934    7310.2643   -11755.347     1494.566    -3975.545   -235.25773    82.128379 
   69100    305.40555    -115.8473   0.27633736   -115.57096    3119.7059    4.3408397    4.3408397    4.3408397    3119.7059    6317.8582    11438.336   -8397.0766    891.16921   -3138.2309    405.61451    81.793964 
   69200    293.43499   -115.83572   0.26550614   -115.57021    249.06854    4.3454703    4.3454703    4.3454703    249.06854    12576.513   -1122.9682    -10706.34   -3043.6334    2257.2334   -831.53499    82.056001 
   69300    244.34934    -115.7927   0.22109241   -115.57161   -4199.4211    4.3459672    4.3459672    4.3459672   -4199.4211   -2101.9745    6487.4646   -16983.753    1657.8997   -963.16132    2479.4485    82.084155 
   69400    224.50337   -115.77472   0.20313537   -115.57158   -1048.2276    4.3419789    4.3419789    4.3419789   -1048.2276    4215.8642    1273.4482   -8633.9952    365.39632   -6710.0807   -899.07382    81.858374 
   69500     334.0502    -115.8725   0.30225564   -115.57024   -6011.6586    4.3450245    4.3450245    4.3450245   -6011.6586    -7485.198   -3221.1416   -7328.6361    3354.5162    3718.3199     1216.477    82.030751 
   69600    294.34361   -115.83676   0.26632828   -115.57043   -8297.9636    4.3457263    4.3457263    4.3457263   -8297.9636   -7116.6339   -377.42814   -17399.829   -1238.1796   -621.44237    -2.711773    82.070508 
   69700    141.05791   -115.69999   0.12763216   -115.57235    3477.7482    4.3435928    4.3435928    4.3435928    3477.7482    15130.665     1523.387   -6220.8079    325.99267   -6190.0087   -819.63737    81.949688 
   69800    311.56927   -115.85396   0.28191442   -115.57205    970.85832    4.3418368    4.3418368    4.3418368    970.85832    8119.3138    1092.1865   -6298.9253   -1535.5233   -3543.9817    622.94581    81.850337 
   69900    310.46115   -115.85247   0.28091177   -115.57156   -3261.8709    4.3483957    4.3483957    4.3483957   -3261.8709    -979.6591     244.5187   -9050.4724    1116.5193    3330.4958    446.76686    82.221835 
   70000    263.27165   -115.80983   0.23821372   -115.57161    2659.8424    4.3423027    4.3423027    4.3423027    2659.8424    11397.993    3672.6857   -7091.1519    1043.0072   -2823.5212    1392.2103    81.876689 
   70100    317.86305   -115.85909   0.28760917   -115.57148    1124.1329    4.3422254    4.3422254    4.3422254    1124.1329    1080.4522    7072.0199   -4780.0733    266.34527   -3351.3476   -1426.9176    81.872317 
   70200    260.56065    -115.8062   0.23576075   -115.57044    4222.7263    4.3478691    4.3478691    4.3478691    4222.7263     9012.437    10179.783   -6524.0408    520.43701    2453.6328    1627.4208    82.191966 
   70300     352.1028   -115.88887   0.31859001   -115.57028   -2266.1632    4.3424343    4.3424343    4.3424343   -2266.1632    3537.1381    259.77069   -10595.398   -548.79589   -974.03305     606.6259    81.884134 
   70400    171.73015   -115.72779   0.15538504    -115.5724    7442.9395     4.341735     4.341735     4.341735    7442.9395    4620.9307    23037.382   -5329.4942    1579.4304   -2724.1649    404.95421    81.844583 
   70500    431.48696   -115.96017   0.39041847   -115.56976   -9327.5287    4.3492067    4.3492067    4.3492067   -9327.5287   -10889.877   -7059.8496   -10032.859   -1010.4398   -997.11505   -701.23421    82.267847 
   70600    318.45671   -115.85826   0.28814632   -115.57011    2546.7104    4.3393786    4.3393786    4.3393786    2546.7104    3735.1669    10848.967   -6944.0027    1245.1327    4162.6654   -89.508453    81.711398 
   70700    279.12069   -115.82436   0.25255427   -115.57181   -969.05975    4.3462484    4.3462484    4.3462484   -969.05975    5957.7814    3169.9721   -12034.933    581.25041    -5925.368    1747.2384    82.100092 
   70800    310.78067   -115.85415   0.28120088   -115.57295   -1227.5476    4.3443509    4.3443509    4.3443509   -1227.5476    11539.168   -4431.4512    -10790.36   -618.48557   -143.74797   -1099.9664    81.992604 
   70900    354.65059   -115.89308   0.32089531   -115.57218    12.437057    4.3430099    4.3430099    4.3430099    12.437057    6144.8249    1204.7553    -7312.269   -2538.9994    2770.5506    1776.8762    81.916703 
   71000     351.2655   -115.88863   0.31783241    -115.5708   -2717.1157    4.3474677    4.3474677    4.3474677   -2717.1157     9496.161   -517.81907   -17129.689    1532.0486   -1527.9503   -760.24754    82.169205 
   71100    284.63717   -115.82915   0.25754569    -115.5716   -2660.3832    4.3424905    4.3424905    4.3424905   -2660.3832    685.51929    728.98223   -9395.6511    2784.1177   -7156.6685    702.65025    81.887317 
   71200    328.27254   -115.86866   0.29702789   -115.57163    747.14506    4.3436091    4.3436091    4.3436091    747.14506    18781.325   -5496.2397    -11043.65    1467.8421     18.20333   -1104.6282    81.950613 
   71300    339.17529   -115.87779   0.30689293    -115.5709   -4869.2102    4.3488049    4.3488049    4.3488049   -4869.2102    3106.5135    374.19957   -18088.344   -3520.3027    1891.4599   -606.14759     82.24505 
   71400    243.51445   -115.79151   0.22033699   -115.57118    136.75336      4.33769      4.33769      4.33769    136.75336    4453.1016    5394.4686   -9437.3101    1662.9945   -8160.0724    294.96156    81.616042 
   71500    346.56449   -115.88383   0.31357883   -115.57025   -8318.7357    4.3496281    4.3496281    4.3496281   -8318.7357   -5819.6327   -3709.8291   -15426.745    735.76028   -384.55158   -1458.7683    82.291765 
   71600    310.08744   -115.84999   0.28057363   -115.56942    1376.7551    4.3443145    4.3443145    4.3443145    1376.7551    7476.7572     7951.812   -11298.304   -1179.9953   -487.09741    1760.9484    81.990547 
   71700    259.44127   -115.80499   0.23474791   -115.57025    2340.6982     4.338965     4.338965     4.338965    2340.6982    7419.0264    9711.3482    -10108.28    1107.7922   -4023.9885   -1652.5172    81.688035 
   71800    269.85824   -115.81598    0.2441734    -115.5718   -3445.6937    4.3501425    4.3501425    4.3501425   -3445.6937    6542.2189    -352.1452   -16527.155    3035.6086   -3198.1132   -550.95861    82.320964 
   71900    344.50191   -115.88224   0.31171257   -115.57053    5046.3328    4.3416313    4.3416313    4.3416313    5046.3328    17243.314   -1097.1051   -1007.2105    93.903829    2421.4932    333.13534     81.83872 
   72000    338.32674   -115.87693   0.30612515    -115.5708    755.14204    4.3432211    4.3432211    4.3432211    755.14204    10721.007     2219.764   -10675.345   -4711.8551   -1468.4721    -34.91002    81.928654 
   72100    274.04343    -115.8202   0.24796025   -115.57224    -3794.131    4.3484899    4.3484899    4.3484899    -3794.131    3094.2928   -790.82529    -13685.86    781.73786   -5191.6625   -399.40128    82.227181 
   72200    272.16639   -115.81797   0.24626187   -115.57171    8206.2573    4.3401807    4.3401807    4.3401807    8206.2573     23837.77    639.21311    141.78935    1564.3086    2304.0126   -2121.1791    81.756714 
   72300    334.91722   -115.87413   0.30304014   -115.57109   -1462.7713    4.3454917    4.3454917    4.3454917   -1462.7713    7494.8836   -797.73471   -11085.463    6056.4007    2586.2486    2015.1627    82.057217 
   72400    218.60235   -115.77008     0.197796   -115.57228   -4014.1103    4.3450192    4.3450192    4.3450192   -4014.1103   -9457.2344    10583.742   -13168.839   -3162.0245   -3105.1371    173.75163    82.030454 
   72500    293.58642   -115.83676   0.26564316   -115.57111   -2166.9076    4.3426864    4.3426864    4.3426864   -2166.9076     833.4764   -2080.3874   -5253.8117    5131.4784   -4889.4489    -185.6763    81.898397 
   72600    347.42125   -115.88398   0.31435405   -115.56963   -3722.2971    4.3464618    4.3464618    4.3464618   -3722.2971    3486.8039   -2813.7428   -11839.952    199.22145    4583.8532   -1581.3753    82.112183 
   72700    276.36578   -115.82047   0.25006157   -115.57041   -4339.8102    4.3423492    4.3423492    4.3423492   -4339.8102   -5491.4482    3238.7406   -10766.723    190.37371   -318.81219   -972.42455    81.879321 
   72800    250.89864   -115.79806   0.22701836   -115.57105   -4476.5981    4.3459268    4.3459268    4.3459268   -4476.5981    4825.5826   -6150.5189   -12104.858    3186.9615   -5195.2741    1554.0657    82.081865 
   72900     372.2783    -115.9064   0.33684523   -115.56955     1526.769     4.343241     4.343241     4.343241     1526.769    10546.687    1577.9359   -7544.3157   -901.15715     1310.124   -132.71558    81.929778 
   73000    307.36577    -115.8485   0.27811101   -115.57039    1785.9261    4.3432051    4.3432051    4.3432051    1785.9261    5493.2787    9469.3981   -9604.8986    5601.0189   -193.70994    358.88721    81.927749 
   73100    226.34462   -115.77677   0.20480137   -115.57197   -768.94896     4.345984     4.345984     4.345984   -768.94896    7338.5706    6994.4992   -16639.917   -3525.4264   -2657.6831   -2523.9666    82.085107 
   73200    274.97022      -115.82   0.24879883   -115.57121    8228.7911    4.3414826    4.3414826    4.3414826    8228.7911    15778.706    14901.383   -5993.7157    2097.0811   -2332.7193     490.3562    81.830308 
   73300    442.18117   -115.97041   0.40009481   -115.57032   -4046.5566    4.3453531    4.3453531    4.3453531   -4046.5566    3253.6597   -2197.0401   -13196.289   -1931.7524    239.01276    1554.9283    82.049362 
   73400    218.88405   -115.77144   0.19805089   -115.57339   -916.69558     4.343888     4.343888     4.343888   -916.69558    346.58746     9925.433   -13022.107     5736.228   -4919.9621   -437.56594    81.966397 
   73500    324.06208   -115.86601   0.29321818   -115.57279   -4749.6072    4.3451531    4.3451531    4.3451531   -4749.6072    -1011.645    3037.2056   -16274.382   -2426.3167   -2403.6953   -1601.1301    82.038033 
   73600    333.90431   -115.87302   0.30212363    -115.5709    2852.9653    4.3440953    4.3440953    4.3440953    2852.9653    13787.162    882.29682    -6110.563   -47.740275    1925.9383   -434.70196    81.978135 
   73700     250.4821   -115.79843   0.22664147   -115.57179   -3243.2923    4.3450327    4.3450327    4.3450327   -3243.2923   -5104.7436    14184.271   -18809.405   -2112.6118   -4508.3073    2220.0334    82.031217 
   73800      258.608   -115.80629   0.23399396   -115.57229   -3268.4854    4.3439551    4.3439551    4.3439551   -3268.4854    3083.4981    463.25551    -13352.21    5572.9513   -3622.5842   -630.96848    81.970197 
   73900    330.77792   -115.87034   0.29929481   -115.57104     1126.256    4.3438884    4.3438884    4.3438884     1126.256    8352.8299    333.26865   -5307.3306    3215.3717    -473.1177   -927.94169    81.966419 
   74000    366.87916   -115.90262   0.33195998   -115.57066    -671.1819    4.3443576    4.3443576    4.3443576    -671.1819    13767.933   -3245.9372   -12535.542   -2127.5252   -671.85782   -711.67498    81.992988 
   74100    228.79275   -115.77887   0.20701648   -115.57185    885.95549     4.344333     4.344333     4.344333    885.95549    13382.769    981.35718    -11706.26    2832.8129   -4188.9366    313.05765    81.991593 
   74200    322.46839   -115.86218   0.29177618    -115.5704   -144.24422    4.3437619    4.3437619    4.3437619   -144.24422    14220.326   -8910.3089   -5742.7497   -2672.1632    513.30032   -411.34099    81.959263 
   74300    379.04838   -115.91213   0.34297094   -115.56916    5192.7892    4.3431797    4.3431797    4.3431797    5192.7892    10112.779    14537.234   -9071.6452    1876.9807    463.74189   -96.468945    81.926309 
   74400    250.74567    -115.7988   0.22687996   -115.57192    1039.9947    4.3457938    4.3457938    4.3457938    1039.9947    11409.815    1287.2229   -9577.0544   -3479.7346   -5064.4206   -171.02527    82.074333 
   74500    255.13433     -115.803    0.2308509   -115.57215    3107.7322    4.3414547    4.3414547    4.3414547    3107.7322     6592.031    13803.335   -11072.169     4510.154    -592.3067    -441.4654    81.828731 
   74600    348.19547   -115.88494   0.31505457   -115.56989   -612.65303    4.3479058    4.3479058    4.3479058   -612.65303    8839.5457    460.19524     -11137.7    1907.2539     1328.722   -129.38144    82.194051 
   74700    307.79362   -115.84905   0.27849814   -115.57055    2112.9208    4.3423914    4.3423914    4.3423914    2112.9208    8997.5612    5443.4912   -8102.2899    113.88627   -2242.1088    -1276.914    81.881711 
   74800    297.52745   -115.84071   0.26920909    -115.5715   -4988.7183    4.3441027    4.3441027    4.3441027   -4988.7183   -8579.2623    9648.3072     -16035.2   -3712.9578   -6779.3559    905.28816    81.978553 
   74900    320.08045     -115.861   0.28961552   -115.57139   -3154.9943    4.3463408    4.3463408    4.3463408   -3154.9943    4867.2586   -5302.8957   -9029.3459    1836.1084    2211.9866   -833.65641    82.105328 
   75000    333.74777   -115.87314     0.301982   -115.57116    5008.6907     4.341526     4.341526     4.341526    5008.6907    9647.2798    12356.648   -6977.8553    75.098832    448.00473    527.91575    81.832765 
   75100    229.34999   -115.77988   0.20752069   -115.57236    176.08778    4.3462411    4.3462411    4.3462411    176.08778    12586.569    4863.1259   -16921.431    2493.2813   -5493.7634   -1857.6523    82.099674 
   75200    265.41332   -115.81158   0.24015155   -115.57143   -1432.0124    4.3436068    4.3436068    4.3436068   -1432.0124    3733.3983   -430.89629   -7598.5391   -1193.8236   -1507.7129   -1469.5925    81.950481 
   75300    414.95114   -115.94558   0.37545651   -115.57012   -956.44402     4.343988     4.343988     4.343988   -956.44402    7995.8275   -4506.2916    -6358.868    76.166494     562.6199    895.27083    81.972059 
   75400     284.2203   -115.82896    0.2571685   -115.57179      558.344    4.3448755    4.3448755    4.3448755      558.344    7495.9269    6211.2357   -12032.131   -933.88301   -1979.7934   -229.34885     82.02231 
   75500    214.18207   -115.76649   0.19379644   -115.57269   -961.73718    4.3421975    4.3421975    4.3421975   -961.73718    4739.1134    1929.9675   -9554.2924   -1313.5438   -3991.8009    375.13966     81.87074 
   75600    340.90439   -115.87915   0.30845745   -115.57069   -1804.0194    4.3467546    4.3467546    4.3467546   -1804.0194   -2709.2457    4988.5052   -7691.3178    1950.8457    1490.1626   -1517.9884    82.128781 
   75700    290.71595    -115.8335    0.2630459   -115.57045    2819.4342     4.344043     4.344043     4.344043    2819.4342    6345.5859    11577.884   -9465.1669   -1598.1952   -3589.9941    1761.6576    81.975173 
   75800    272.56324   -115.81802   0.24662094    -115.5714   -2778.6999    4.3412137    4.3412137    4.3412137   -2778.6999   -6873.7613     10159.35   -11621.688    1464.0878   -519.98212    70.675151    81.815107 
   75900    250.37026   -115.79846   0.22654027   -115.57192   -2922.1607    4.3491445    4.3491445    4.3491445   -2922.1607    -2303.735    3263.7753   -9726.5223   -2849.1181    1780.7463     39.87149    82.264321 
   76000     395.0524   -115.92767   0.35745171   -115.57022    3621.8673    4.3402279    4.3402279    4.3402279    3621.8673    9132.6461    8350.9306   -6617.9749     3174.478   -2566.0369   -1102.7471    81.759381 
   76100    189.35743   -115.74329   0.17133458   -115.57196    6283.4357    4.3440093    4.3440093    4.3440093    6283.4357    15165.817    10908.287   -7223.7977   -1835.8953   -3121.7425   -108.11348    81.973267 
   76200    247.74254   -115.79535   0.22416265   -115.57118   -4049.5438    4.3486162    4.3486162    4.3486162   -4049.5438   -1821.8277    7319.0847   -17645.889    3255.2321   -32.648097    1254.3365    82.234346 
   76300    375.90956   -115.90954   0.34013087   -115.56941     2841.147    4.3397664    4.3397664    4.3397664     2841.147    7746.5469    838.80435   -61.910171   -3924.5691    1586.8144   -498.39643    81.733303 
   76400    241.55826   -115.78958   0.21856699   -115.57102    2416.8832    4.3468376    4.3468376    4.3468376    2416.8832    9251.6256    8273.6003   -10274.576   -3020.2337     -3580.27   -240.03624    82.133483 
   76500    252.18404   -115.80045   0.22818142   -115.57227   -6166.3619    4.3439633    4.3439633    4.3439633   -6166.3619    2832.9674   -4274.1809   -17057.872   -921.60295   -448.95557   -858.43836    81.970664 
   76600    258.27558    -115.8059   0.23369317   -115.57221    500.35543    4.3430927    4.3430927    4.3430927    500.35543    4529.5934    1841.8497   -4870.3768   -466.28667    738.78811    1131.2883     81.92139 
   76700    387.29797    -115.9202   0.35043534   -115.56976   -4933.5316    4.3465756    4.3465756    4.3465756   -4933.5316    4643.4597   -5368.3051   -14075.749    4526.5919   -1720.0377   -1048.0952    82.118633 
   76800    198.95098   -115.75114   0.18001502   -115.57112     -2932.97    4.3433663    4.3433663    4.3433663     -2932.97    -3896.678    10015.683   -14917.915   -7215.2852   -5297.4666   -1418.3665     81.93687 
   76900    311.49874    -115.8531   0.28185061   -115.57125   -4522.5226    4.3445088    4.3445088    4.3445088   -4522.5226    400.74431   -1243.8626    -12724.45    3641.7281    519.43481    1149.1021    82.001548 
   77000    378.52975   -115.91282   0.34250167   -115.57032     296.1566    4.3459672    4.3459672    4.3459672     296.1566    9800.0655    4399.3014   -13310.897   -4857.4349    112.46097    1480.0742    82.084157 
   77100    230.11752   -115.78008   0.20821517   -115.57187    5581.7529     4.340666     4.340666     4.340666    5581.7529    13726.341    12051.921   -9033.0031    2753.9173   -4086.2046    264.63282    81.784145 
   77200    287.00316   -115.83147   0.25968649   -115.57179   -4798.2078    4.3478682    4.3478682    4.3478682   -4798.2078    5635.0538   -2096.0401   -17933.637   -3869.4713    2068.7559   -1968.3595    82.191919 
   77300    372.94359   -115.90745   0.33744719      -115.57    4122.5054    4.3438366    4.3438366    4.3438366    4122.5054    -549.3623    18810.667   -5893.7883    4141.6506    2452.7322    245.43118    81.963491 
   77400    378.12947   -115.91242   0.34213949   -115.57028    110.54634    4.3426405    4.3426405    4.3426405    110.54634    11956.176    -1961.125   -9663.4116     775.0228   -3420.5137    65.452834    81.895801 
   77500    234.44242   -115.78442   0.21212842   -115.57229   -1584.8787    4.3464666    4.3464666    4.3464666   -1584.8787   -6918.6848     17195.42   -15031.371   -1693.0135    -3209.329    465.02504    82.112454 
   77600    310.90561   -115.85287   0.28131393   -115.57155    2805.5693    4.3439437    4.3439437    4.3439437    2805.5693    14973.106    1914.5571   -8470.9556   -1499.9769    2293.0668   -1986.6952    81.969552 
   77700    411.58625   -115.94288   0.37241188   -115.57047    588.68801    4.3422083    4.3422083    4.3422083    588.68801    6662.6098     3459.463   -8356.0087   -704.29437    602.32859   -1563.7935    81.871352 
   77800    252.91199   -115.80079   0.22884008   -115.57195   -4727.3287    4.3479565    4.3479565    4.3479565   -4727.3287   -2643.5085    2919.3257   -14457.803    5741.1439    423.30377    690.72221    82.196925 
   77900    335.76494   -115.87503   0.30380717   -115.57123   -2218.0343     4.343215     4.343215     4.343215   -2218.0343     -3578.07    8185.5092   -11261.542   -4926.8822    1149.6122    2201.6067    81.928307 
   78000     406.2551    -115.9382   0.36758815   -115.57061    2984.5804    4.3425027    4.3425027    4.3425027    2984.5804    11012.763    487.03255   -2546.0545    2442.5846    34.737719   -1867.3821    81.888006 
   78100     292.5964   -115.83693   0.26474737   -115.57218   -1654.3465    4.3471805    4.3471805    4.3471805   -1654.3465    808.59403    7532.0526   -13303.686   -2524.1705   -129.56589   -2870.1935    82.152925 
   78200    233.53451   -115.78346   0.21130694   -115.57216    1381.4046    4.3420519    4.3420519    4.3420519    1381.4046    8258.5248    3383.1523   -7497.4634    5764.3996    176.91368    754.44847    81.862503 
   78300    359.47269   -115.89613   0.32525845   -115.57087    1535.9041    4.3441444    4.3441444    4.3441444    1535.9041    1882.9244     7302.146   -4577.3581   -3518.1439   -1542.7686    2009.5729    81.980914 
   78400    342.84473    -115.8802   0.31021311   -115.56999   -1518.9858    4.3465987    4.3465987    4.3465987   -1518.9858   -1195.4281     4248.505   -7610.0344    2098.0359   -2745.3189    770.85044    82.119942 
   78500     232.3569   -115.78098   0.21024141   -115.57074   -2233.0395    4.3423053    4.3423053    4.3423053   -2233.0395   -4179.4341    9269.2656    -11788.95    390.02103    1001.9797   -3622.6034    81.876837 
   78600    288.82617   -115.83141   0.26133599   -115.57008   -1330.1699    4.3456427    4.3456427    4.3456427   -1330.1699   -4094.1071    9898.7818   -9795.1845   -1206.9521    3706.2285    217.59335    82.065771 
   78700    331.83753   -115.86923   0.30025357   -115.56898    977.79263    4.3446867    4.3446867    4.3446867    977.79263    7464.3932     5319.806   -9850.8213    1841.3076   -1282.3553   -1245.7914    82.011623 
   78800    269.63917    -115.8142   0.24397519   -115.57022    -3456.902    4.3429145    4.3429145    4.3429145    -3456.902   -3298.1522    7208.8937   -14281.447   -658.97405   -4589.2002   -894.59953    81.911302 
   78900     209.5707   -115.76068   0.18962397   -115.57105   -2203.9336     4.347773     4.347773     4.347773   -2203.9336   -3924.7539    13936.339   -16623.386    4847.0946    1664.6212   -704.69984     82.18652 
   79000    342.86715   -115.87909    0.3102334   -115.56886    2481.4211    4.3420081    4.3420081    4.3420081    2481.4211    4210.8344    12485.723   -9252.2942   -2665.9554    1003.2794   -2019.8325    81.860027 
   79100    268.00279   -115.81232   0.24249455   -115.56982    422.34676    4.3446263    4.3446263    4.3446263    422.34676    -29.15803    10701.587    -9405.389    1492.5273   -3440.7442    2042.6227    82.008199 
   79200    271.64436   -115.81707   0.24578953   -115.57128    -6924.126    4.3472474    4.3472474    4.3472474    -6924.126   -6686.7176    2215.3763   -16301.037   -2852.3808    1147.1246    719.97073    82.156715 
   79300    241.09942    -115.7901   0.21815182   -115.57195    7091.8722    4.3398256    4.3398256    4.3398256    7091.8722    11558.828    10047.516   -330.72802    3100.0011    3397.2641   -313.69149     81.73665 
   79400    332.57694   -115.87143    0.3009226   -115.57051   -1890.8809    4.3471555    4.3471555    4.3471555   -1890.8809    4211.9612    2386.8632   -12271.467    1361.2045    180.22101   -3077.3158    82.151504 
   79500    210.27705   -115.76163    0.1902631   -115.57136   -2117.0763    4.3465404    4.3465404    4.3465404   -2117.0763   -5259.4125    12694.375   -13786.191    1715.5599   -668.29998   -947.64182    82.116637 
   79600    232.88046   -115.78198   0.21071513   -115.57126    5323.1122    4.3394299    4.3394299    4.3394299    5323.1122    6953.8787    17274.415   -8258.9568    2772.6541    2173.8481   -374.92403    81.714296 
   79700    398.20179   -115.92964   0.36030135   -115.56934   -6856.1955    4.3509729    4.3509729    4.3509729   -6856.1955   -8042.7133    3100.9968    -15626.87   -2553.6223   -179.46531   -159.01621    82.368116 
   79800    267.69133   -115.81178   0.24221274   -115.56957    1505.3775    4.3410674    4.3410674    4.3410674    1505.3775     5152.647    9024.2511   -9660.7656    4328.5726    165.66657    47.818245    81.806836 
   79900    344.93934   -115.88194   0.31210836   -115.56983   -8785.7007    4.3463127    4.3463127    4.3463127   -8785.7007   -11915.568    4638.2841   -19079.818   -4315.4479    1384.3131    1628.2016    82.103731 
   80000    298.11225   -115.83966   0.26973823   -115.56992    6080.3537    4.3449314    4.3449314    4.3449314    6080.3537    9339.4639    14787.047   -5885.4502    4490.4839   -1130.8959    605.15927    82.025477 
   80100    386.89372   -115.91956   0.35006957   -115.56949    -2241.544    4.3434626    4.3434626    4.3434626    -2241.544     1353.299    4161.2556   -12239.187   -886.70694     69.72323   -2015.2116    81.942323 
   80200    194.83699   -115.74869   0.17629261   -115.57239     3172.129    4.3464574    4.3464574    4.3464574     3172.129    4652.3668    18767.502   -13903.481    5281.8539    3146.7043    -1297.194    82.111935 
   80300    336.02972   -115.87459   0.30404675   -115.57055    1796.9597    4.3433295    4.3433295    4.3433295    1796.9597    11946.495   -2652.1326    -3903.483   -3285.8416    1788.8605    89.399594    81.934787 
   80400    408.58166   -115.93876   0.36969327   -115.56906   -583.76483    4.3439339    4.3439339    4.3439339   -583.76483    3906.1699   -101.53001   -5555.9344   -944.25257   -3021.2389    429.26205    81.968996 
   80500    275.27235   -115.81948   0.24907221   -115.57041   -1032.7725    4.3474212    4.3474212    4.3474212   -1032.7725    15264.791   -6944.4914   -11418.617    1628.2569   -1383.7145   -1371.9411    82.166569 
   80600    348.45775   -115.88625   0.31529189   -115.57096   -4484.9234    4.3423272    4.3423272    4.3423272   -4484.9234   -6471.0756    3020.9602   -10004.655    304.70948    4456.0487    1832.4348    81.878077 
   80700    312.82707   -115.85341    0.2830525   -115.57036    4683.2529     4.343738     4.343738     4.343738    4683.2529     23071.01   -4453.2437   -4568.0078    3945.6649     517.1635    2710.6162     81.95791 
   80800    385.99752   -115.91951   0.34925867   -115.57025   -8420.0723    4.3493889    4.3493889    4.3493889   -8420.0723   -10218.047    3776.4827   -18818.653   -822.46108   -3977.1876    1531.0671    82.278189 
   80900    164.04624   -115.72045   0.14843249   -115.57201    6753.9387     4.338787     4.338787     4.338787    6753.9387    13009.156    12559.368   -5306.7078    6744.5605     2007.516   -600.14923    81.677981 
   81000    373.62282   -115.90769   0.33806178   -115.56963   -7344.8112    4.3492581    4.3492581    4.3492581   -7344.8112   -5444.2301    -731.3201   -15858.883   -927.74603    3572.0949   -2385.1833    82.270768 
   81100    349.01296   -115.88509   0.31579426    -115.5693    2346.5728     4.343163     4.343163     4.343163    2346.5728     11368.68   -314.24166   -4014.7201    147.98453   -750.68372   -941.75637    81.925368 
   81200    288.53077   -115.83195    0.2610687   -115.57088   -1426.2781    4.3441535    4.3441535    4.3441535   -1426.2781    6584.0834   -1183.1443   -9679.7734    1304.5749   -1318.2454   -1120.5197     81.98143 
   81300    261.16731   -115.80754   0.23630967   -115.57123    33.876798    4.3462309    4.3462309    4.3462309    33.876798    12437.096   -3647.7894   -8687.6764    1357.2786    1487.5759    992.88191    82.099098 
   81400    367.29371    -115.9017   0.33233507   -115.56937    1803.9667    4.3430913    4.3430913    4.3430913    1803.9667    7547.2969    262.61523    -2398.012    1229.8417    1783.8343    471.44235    81.921311 
   81500    243.04544     -115.791   0.21991262   -115.57109    4566.2345    4.3453042    4.3453042    4.3453042    4566.2345    16683.329    8666.2207   -11650.846   -762.05448     663.9983    1863.9929    82.046593 
   81600    178.72517   -115.73419   0.16171429   -115.57248    400.64722    4.3442002    4.3442002    4.3442002    400.64722    -760.0776     14228.81   -12266.791    1825.2946    1206.0045     1487.906    81.984072 
   81700    301.27285   -115.84363   0.27259801   -115.57103    -1853.074    4.3441322    4.3441322    4.3441322    -1853.074    1436.2494    3689.5147   -10684.986    1172.8121   -1449.9428    1102.9434    81.980226 
   81800     304.0493   -115.84509    0.2751102   -115.56998   -591.31727    4.3460333    4.3460333    4.3460333   -591.31727    10489.167    960.04614   -13223.165    3718.2841   -210.30818   -876.28424      82.0879 
   81900    237.31968    -115.7859   0.21473183   -115.57117   -7491.6836    4.3438866    4.3438866    4.3438866   -7491.6836   -7246.5508    4793.7827   -20022.283     -853.928    2520.6834   -2300.4281    81.966321 
   82000    263.80498   -115.80956   0.23869629   -115.57086   -5537.0998    4.3455724    4.3455724    4.3455724   -5537.0998    2332.4173   -8291.5578   -10652.159    3837.7939    1299.2627     1174.573    82.061788 
   82100     367.5276   -115.90186    0.3325467   -115.56932   -2320.9434    4.3459188    4.3459188    4.3459188   -2320.9434    7372.4407   -391.97368   -13943.297   -1996.2316   -13.052085   -819.40881     82.08141 
   82200    270.60048   -115.81549     0.244845   -115.57064    1944.5639    4.3405742    4.3405742    4.3405742    1944.5639    8743.2728    6416.5793   -9326.1604    3182.3011   -669.70184     381.7186    81.778953 
   82300    156.39291   -115.71398   0.14150759   -115.57247   -712.28061    4.3502819    4.3502819    4.3502819   -712.28061    10682.651    6979.6192   -19799.112    3203.8508    1848.6569    1175.8603    82.328876 
   82400    360.72385   -115.89609   0.32639052    -115.5697    7464.5445    4.3399501    4.3399501    4.3399501    7464.5445    17180.854    7944.6682   -2731.8886    1060.0794   -2027.9242     3719.952    81.743686 
   82500    292.70251   -115.83469   0.26484338   -115.56984    5723.1582    4.3451578    4.3451578    4.3451578    5723.1582    17481.946    9593.8044   -9906.2756   -280.96144    1757.2168    1409.9708    82.038302 
   82600    281.41739   -115.82573   0.25463237    -115.5711   -4463.4476    4.3474769    4.3474769    4.3474769   -4463.4476    10623.812   -4949.3921   -19064.763    -1327.834    3261.5451   -798.91703    82.169728 
   82700    324.55562   -115.86437   0.29366475    -115.5707    2111.2208    4.3412937    4.3412937    4.3412937    2111.2208    6228.0287    9951.4415   -9845.8079    2980.4297    1057.6215    2.4343993    81.819631 
   82800     442.1613   -115.96893   0.40007684   -115.56885   -1489.4789    4.3463687    4.3463687    4.3463687   -1489.4789    11053.403   -5553.5682   -9968.2719   -2179.6985   -857.49915   -121.18909    82.106906 
   82900    283.48958   -115.82739   0.25650733   -115.57089   -3777.6643    4.3455847    4.3455847    4.3455847   -3777.6643   -5607.4501    13746.066   -19471.609    1836.9029    3377.8795    691.33299    82.062482 
   83000     250.8058   -115.79856   0.22693436   -115.57163   -507.88316    4.3428817    4.3428817    4.3428817   -507.88316   -2579.0532    15940.447   -14885.044   -273.03065    4960.2033   -145.19199    81.909451 
   83100    422.26721   -115.95124   0.38207625   -115.56916   -1440.6808    4.3468212    4.3468212    4.3468212   -1440.6808   -1661.2512    7791.6339   -10452.425    5372.7616    -2636.241    3.7850605    82.132553 
   83200    323.47619   -115.86362   0.29268805   -115.57093   -2164.0829    4.3435482    4.3435482    4.3435482   -2164.0829   -3943.2414    11663.538   -14212.545   -1377.9599    2706.3775     1415.608    81.947163 
   83300    293.84707   -115.83801     0.265879   -115.57213   -4483.7709    4.3439767    4.3439767    4.3439767   -4483.7709   -4983.6594    2324.9268    -10792.58     544.2397    2133.5932    2675.0353    81.971418 
   83400    369.93273   -115.90526   0.33472291   -115.57054   -1517.4292    4.3484141    4.3484141    4.3484141   -1517.4292    9984.1535   -3522.1376   -11014.304   -648.08799    1204.1238    97.501954    82.222878 
   83500    386.64001   -115.91951      0.34984   -115.56967    5136.0146    4.3385387    4.3385387    4.3385387    5136.0146     5964.451    11626.016   -2182.4233    2516.8514    3784.9726    -2543.157    81.663956 
   83600    199.41004   -115.75252    0.1804304   -115.57209   -828.35258    4.3498382    4.3498382    4.3498382   -828.35258    7142.8338    8198.5559   -17826.447    3609.9938    720.18355   -1914.1065    82.303692 
   83700    288.34494   -115.83127   0.26090057   -115.57037    5582.5355     4.343234     4.343234     4.343234    5582.5355     15261.07    10606.127   -9119.5909   -196.20939   -256.14508    2306.1149    81.929382 
   83800    385.67837    -115.9177   0.34896989   -115.56873    5437.7001    4.3410228    4.3410228    4.3410228    5437.7001    8832.6684     12336.23   -4855.7983   -142.99391   -1324.5339    127.35878    81.804314 
   83900    274.95003   -115.81992   0.24878056   -115.57114   -4862.1429    4.3498674    4.3498674    4.3498674   -4862.1429    10056.809   -2681.7612   -21961.476    -1827.773    4425.1842   -294.16036    82.305346 
   84000    259.99342   -115.80608   0.23524751   -115.57083   -641.47489    4.3412179    4.3412179    4.3412179   -641.47489   -1387.2891    11653.122   -12190.257    3359.4239   -2951.2024    2603.9335    81.815342 
   84100    340.60983   -115.87788   0.30819093   -115.56969    1477.8179    4.3447868    4.3447868    4.3447868    1477.8179    6878.9193    9472.9788   -11918.444   -2188.0155   -2299.7845    636.51598    82.017291 
   84200    277.27063   -115.82107    0.2508803   -115.57019   -2942.0473    4.3464881    4.3464881    4.3464881   -2942.0473   -6527.1274    12528.706   -14827.721    1416.1466    3067.0363    123.29687    82.113672 
   84300    115.05899    -115.6763   0.10410779   -115.57219   -1879.4186    4.3418614    4.3418614    4.3418614   -1879.4186   -6640.1392    19890.775   -18888.891    635.44965   -910.73032   -1574.3755     81.85173 
   84400    342.49476   -115.88075   0.30989646   -115.57085   -5269.9248    4.3458825    4.3458825    4.3458825   -5269.9248   -4025.1879    1428.3162   -13212.903    4821.8528     -493.887    54.561918    82.079354 
   84500    292.56396   -115.83555   0.26471802   -115.57083   -1642.3688    4.3454949    4.3454949    4.3454949   -1642.3688     232.5944    3901.3158   -9061.0166   -1730.6443   -1095.5888   -345.11988    82.057397 
   84600    228.67762   -115.77899   0.20691232   -115.57207   -5633.3192    4.3409707    4.3409707    4.3409707   -5633.3192   -7506.9828    7273.3395   -16666.314   -1424.5356    2484.8286   -532.01726    81.801366 
   84700    210.51956   -115.76294   0.19048252   -115.57246   -2327.5267    4.3491693    4.3491693    4.3491693   -2327.5267    12218.015   -362.62513    -18837.97    2946.0523    -2085.656    1553.1332    82.265727 
   84800    345.34088   -115.88201   0.31247169   -115.56954    5710.4705    4.3410451    4.3410451    4.3410451    5710.4705    10211.276    13949.234   -7029.0984    332.08254   -1153.9639    604.07381    81.805574 
   84900    220.86833   -115.77093   0.19984631   -115.57108    2852.2136    4.3444608    4.3444608    4.3444608    2852.2136    10402.175    11867.413   -13712.948    1889.3597    2409.3978    1201.7152    81.998827 
   85000    205.10074   -115.75704   0.18557946   -115.57146    591.41273    4.3466448    4.3466448    4.3466448    591.41273     17074.41    3075.4303   -18375.602   -2694.6356   -857.29627   -1123.1513    82.122558 
   85100    415.34053    -115.9448   0.37580884   -115.56899    1452.2205     4.341803     4.341803     4.341803    1452.2205    6302.6447    5174.2031   -7120.1862    5065.5448    393.67494    -1437.347    81.848428 
   85200    318.42111   -115.85811   0.28811411      -115.57    2412.3722    4.3459851    4.3459851    4.3459851    2412.3722    16705.583    3146.0966   -12614.563   -1559.2192   -645.11811    1104.3911    82.085168 
   85300    248.48531   -115.79664   0.22483473    -115.5718   -3770.8603    4.3447451    4.3447451    4.3447451   -3770.8603   -5978.3736    7305.8851   -12640.092   -464.10847     1237.732    1405.9106    82.014929 
   85400    301.60044   -115.84465   0.27289441   -115.57175    1359.2597    4.3427469    4.3427469    4.3427469    1359.2597    1793.2181    14916.212   -12631.651   -2980.3575   -887.78675    3.3679702    81.901823 
   85500    375.77368   -115.91039   0.34000792   -115.57038   -106.12208    4.3463896    4.3463896    4.3463896   -106.12208    3085.6538    5005.8763   -8409.8963    4651.4278    1332.2365   -1288.8848     82.10809 
   85600    223.57289   -115.77453   0.20229345   -115.57224   -651.54903    4.3426591    4.3426591    4.3426591   -651.54903   -4195.0981    15881.158   -13640.707    3140.8966    1503.7162    1593.9703    81.896855 
   85700     340.1007   -115.87892   0.30773026   -115.57119   -7058.1945    4.3450624    4.3450624    4.3450624   -7058.1945   -2902.3756   -5397.0885    -12875.12    -1594.706   -5490.6924    1951.7581    82.032899 
   85800    366.47272   -115.90142   0.33159221   -115.56982    554.37736    4.3464723    4.3464723    4.3464723    554.37736    7345.4004    2514.6047   -8196.8731    2009.8205    2287.3551   -1443.4844     82.11278 
   85900    415.26752    -115.9462   0.37574278   -115.57046   -3693.1451      4.34112      4.34112      4.34112   -3693.1451   -1619.5934    1463.2606   -10923.103   -2064.1136    2591.9058   -2840.0391    81.809808 
   86000    163.30939   -115.72052   0.14776577   -115.57275     2069.151    4.3468907    4.3468907    4.3468907     2069.151    9216.9503    9315.2825    -12324.78    5638.1445   -1377.3794   -194.80448    82.136494 
   86100    459.51198   -115.98554   0.41577609   -115.56976   -2304.1393    4.3436047    4.3436047    4.3436047   -2304.1393     3030.087   -45.493553   -9897.0112   -5207.1938   -3508.6254    3126.8546    81.950362 
   86200    263.51781   -115.80882   0.23843645   -115.57039    10870.021    4.3426075    4.3426075    4.3426075    10870.021    14888.806    18530.188   -808.92975    4686.7656    2099.5749    1922.6257    81.893934 
   86300    320.70727   -115.86213   0.29018268   -115.57195   -5360.5463    4.3464169    4.3464169    4.3464169   -5360.5463    2503.9904   -2122.4104   -16463.219   -255.56764    1864.7285   -1188.6828    82.109638 
   86400    286.68085   -115.83117   0.25939486   -115.57177    1117.1222    4.3430154    4.3430154    4.3430154    1117.1222    1881.9262    9310.7586   -7841.3182    2898.4729   -2882.8345   -1651.2102    81.917013 
   86500    405.93113   -115.93704   0.36729502   -115.56974    740.53978    4.3447176    4.3447176    4.3447176    740.53978    3040.3121    2390.3591   -3209.0518   -1365.4703   -129.73158    1040.7489     82.01337 
   86600    292.38857   -115.83548   0.26455932   -115.57092   -1926.3269    4.3444485    4.3444485    4.3444485   -1926.3269    1666.2319    7310.5806   -14755.793   -778.00425    1548.0611   -376.03586    81.998133 
   86700    226.04621   -115.77629   0.20453137   -115.57176   -491.49553     4.343006     4.343006     4.343006   -491.49553   -5522.5397    14605.041   -10556.988    3012.0453    1006.4228   -466.91772    81.916481 
   86800    376.12985   -115.91032   0.34033019   -115.56999   -3026.3898    4.3465819    4.3465819    4.3465819   -3026.3898    1813.9227    3213.7214   -14106.814   -1642.6984   -352.37226   -2168.9041    82.118988 
   86900    256.22073   -115.80284    0.2318339   -115.57101    5864.4901    4.3419405    4.3419405    4.3419405    5864.4901    15034.294    9742.9771   -7183.8007    4928.2828     2234.877    645.18805    81.856204 
   87000    298.27642   -115.84054   0.26988677   -115.57065   -4975.3435    4.3455562    4.3455562    4.3455562   -4975.3435   -4412.1181    5363.5647   -15877.477   -3274.2144   -1654.9941    1624.5063    82.060868 
   87100     264.8295   -115.80942    0.2396233    -115.5698   -87.978813    4.3461274    4.3461274    4.3461274   -87.978813    11052.853    1498.9881   -12815.778    3697.3181   -2234.1433    309.25775    82.093232 
   87200    383.83065   -115.91617   0.34729804   -115.56887    1307.2552    4.3403632    4.3403632    4.3403632    1307.2552    4303.6377    5481.1774   -5863.0496    -3409.845    1672.5129     175.6195    81.767026 
   87300    202.86737   -115.75474   0.18355866   -115.57118   -439.37979    4.3483248    4.3483248    4.3483248   -439.37979    7427.7146    6275.8259    -15021.68    2121.9513   -650.38556    -1762.836    82.217813 
   87400    264.27061   -115.80967   0.23911761   -115.57055   -576.04801    4.3420297    4.3420297    4.3420297   -576.04801   -4651.9469     14340.79   -11416.988    574.92585   -2964.3148     32.59142    81.861252 
   87500     300.5175   -115.84176   0.27191455   -115.56985   -36.790134    4.3445208    4.3445208    4.3445208   -36.790134     5978.451    4340.1347   -10428.956   -890.32852    427.71556   -765.19884    82.002225 
   87600    307.48744   -115.84851    0.2782211   -115.57029   -4743.6319    4.3466815    4.3466815    4.3466815   -4743.6319   -2595.5207    812.94938   -12448.324    4071.4538     1863.363    819.28156    82.124635 
   87700    235.88292   -115.78455   0.21343182   -115.57111   -876.09833    4.3420878    4.3420878    4.3420878   -876.09833    -4894.643    14654.286   -12387.938    -3713.815   -5688.1739    457.82673    81.864534 
   87800    350.91484   -115.88769   0.31751512   -115.57018   -3430.3863    4.3450686    4.3450686    4.3450686   -3430.3863   -4772.7815    4514.0865   -10032.464    2372.8837   -2256.0467    729.99585     82.03325 
   87900    315.08211   -115.85648   0.28509291   -115.57139   -774.21895    4.3452286    4.3452286    4.3452286   -774.21895    5085.4547    3815.6081    -11223.72   -2756.1987    1006.4545   -1065.0892    82.042314 
   88000    240.09928   -115.78982   0.21724687   -115.57257    5437.5147    4.3405503    4.3405503    4.3405503    5437.5147    4858.1986    19886.585   -8432.2393    5567.3644   -2907.2984   -1779.1509    81.777605 
   88100    291.17837    -115.8349   0.26346431   -115.57143   -36.236436    4.3480722    4.3480722    4.3480722   -36.236436    8127.0442    4233.9899   -12469.743   -3186.2017   -2209.6862    2399.4864    82.203485 
   88200    368.46629   -115.90289   0.33339604    -115.5695    2856.6873    4.3414971    4.3414971    4.3414971    2856.6873     11614.89   -2445.2878   -599.53981    1451.7845    615.90719    594.46516    81.831131 
   88300     281.0463   -115.82492    0.2542966   -115.57062    328.85523    4.3452481    4.3452481    4.3452481    328.85523     5162.929    8313.9261   -12490.289   -1510.2693    1053.0957    63.764455    82.043418 
   88400     307.8419   -115.84888   0.27854182   -115.57034   -2131.9518    4.3457038    4.3457038    4.3457038   -2131.9518    2955.6881   -882.94718   -8468.5963    1430.1652   -1850.3177   -1890.9676    82.069229 
   88500    315.40389   -115.85462   0.28538407   -115.56924    3200.8556    4.3414639    4.3414639    4.3414639    3200.8556    3755.0818     8914.767   -3067.2819    286.39238   -414.96402    2929.8438     81.82925 
   88600    328.88132   -115.86727   0.29757873   -115.56969   -5041.0274    4.3474384    4.3474384    4.3474384   -5041.0274    8520.4482   -11023.981   -12619.549   -728.97892   -653.48572    3598.4657    82.167545 
   88700    192.47916   -115.74483   0.17415919   -115.57068    975.76176     4.343512     4.343512     4.343512    975.76176   -5632.5409    16401.232   -7841.4061    6778.3529   -1828.5264   -1253.9145    81.945116 
   88800    365.90292   -115.90038   0.33107665   -115.56931   -3798.0268    4.3429937    4.3429937    4.3429937   -3798.0268    6245.1547   -7294.3409   -10344.894   -3466.2848   -260.70631   -887.49525    81.915783 
   88900    316.00394   -115.85573   0.28592701    -115.5698   -3323.1683    4.3476544    4.3476544    4.3476544   -3323.1683   -7163.5834    6366.6583     -9172.58    1555.5095    1516.4312   -174.86317    82.179795 
   89000    269.60779   -115.81502   0.24394679   -115.57107   -2771.0418      4.34166      4.34166      4.34166   -2771.0418    -8929.714    8641.3159   -8024.7273   -1343.7713   -870.29434    2240.3916    81.840343 
   89100    279.30524   -115.82392   0.25272125    -115.5712   -69.541829    4.3446231    4.3446231    4.3446231   -69.541829   -486.48577    11309.754   -11031.894     2929.047   -2415.1366    245.27226    82.008019 
   89200    334.65446   -115.87293   0.30280239   -115.57013    1668.2061    4.3447397    4.3447397    4.3447397    1668.2061    7496.9163    6106.5462   -8598.8442   -333.27887     1375.732    1143.8102    82.014621 
   89300    276.66191   -115.82142   0.25032951   -115.57109    1096.5002     4.342208     4.342208     4.342208    1096.5002    7941.2868    1695.0597   -6346.8459    422.44956   -2805.6437   -836.19885    81.871332 
   89400    181.23752   -115.73584   0.16398752   -115.57185    2901.9438    4.3469864    4.3469864    4.3469864    2901.9438    5749.0314    15244.572   -12287.772   -115.90947   -2776.5507     1213.238    82.141921 
   89500    392.03606   -115.92375   0.35472246   -115.56902    367.47244    4.3421271    4.3421271    4.3421271    367.47244    10785.745   -1976.5244   -7706.8034   -1337.6798   -373.83137    1020.2585    81.866759 
   89600    291.95919   -115.83374   0.26417081   -115.56956    1165.8361    4.3444846    4.3444846    4.3444846    1165.8361    233.10018     10027.89   -6763.4818    625.88943    627.37657   -241.60675    82.000178 
   89700    246.24789   -115.79354   0.22281027   -115.57073   -3984.2785    4.3469698    4.3469698    4.3469698   -3984.2785    1505.8269    3182.9924   -16641.655   -919.49969   -2775.0846   -643.13054    82.140977 
   89800    246.75132   -115.79374   0.22326578   -115.57048    4954.0795    4.3407814    4.3407814    4.3407814    4954.0795    5672.5688    11566.854   -2377.1839    3450.4326    185.57226    333.60799    81.790665 
   89900     328.4512   -115.86622   0.29718955   -115.56903   -629.85784    4.3462738    4.3462738    4.3462738   -629.85784    12533.414    -47.76987   -14375.218   -918.31367    1607.1758    2164.1072    82.101528 
   90000    240.13786    -115.7879   0.21728179   -115.57062   -5492.6469    4.3461628    4.3461628    4.3461628   -5492.6469   -3985.4061    5670.8238   -18163.358    1458.9299   -2217.4934   -3205.4737    82.095236 
   90100    215.48952   -115.76661   0.19497944   -115.57163    1748.7549    4.3400876    4.3400876    4.3400876    1748.7549   -4923.7223    14923.803   -4753.8158    1173.7757    88.014497    303.77447    81.751455 
   90200    400.99585   -115.93236   0.36282947   -115.56953   -5686.2636    4.3482872    4.3482872    4.3482872   -5686.2636    364.43231     1414.805   -18838.028   -1846.7775    187.53366    786.15738    82.215682 
   90300    283.58018   -115.82716   0.25658931   -115.57057   -225.11663    4.3422595    4.3422595    4.3422595   -225.11663   -1526.9485    11003.362   -10151.763    1178.3871     765.1294    1631.5389    81.874249 
   90400    257.56262   -115.80519   0.23304807   -115.57214   -3789.8131    4.3439056    4.3439056    4.3439056   -3789.8131   -1866.3018    8746.2828    -18249.42    1486.3008   -2523.5429    -1847.263    81.967398 
   90500    277.36443    -115.8229   0.25096516   -115.57194    2711.1915    4.3463595    4.3463595    4.3463595    2711.1915    15558.552     4180.815   -11605.793    1576.1073   -1027.9236   -1834.2621    82.106383 
   90600    395.99311   -115.92825   0.35830289   -115.56994    2651.3572     4.340442     4.340442     4.340442    2651.3572    8619.5709    7749.0519    -8414.551   -4152.3649    1453.9991    4160.2349    81.771484 
   90700    281.35816    -115.8262   0.25457878   -115.57163   -3116.2424    4.3480317    4.3480317    4.3480317   -3116.2424    3035.1884    5420.5331   -17804.449   -582.10714   -1086.6521    457.88106    82.201192 
   90800    273.21546   -115.81826   0.24721109   -115.57105    1975.4127    4.3433558    4.3433558    4.3433558    1975.4127    5502.7466    10354.196   -9930.7042   -2067.6665    50.653492    1799.5212    81.936278 
   90900    459.59187   -115.98478   0.41584838   -115.56894    858.85482    4.3413336    4.3413336    4.3413336    858.85482    6387.2238    2237.3361   -6047.9955    3524.7867   -1486.1849   -1634.4721    81.821884 
   91000    270.11863   -115.81468   0.24440901   -115.57027     1642.593    4.3491736    4.3491736    4.3491736     1642.593    6914.9259    8543.1681   -10530.315   -1304.4746   -2624.0769    1068.2869     82.26597 
   91100    330.32687   -115.86949   0.29888669    -115.5706   -3397.6833    4.3412371    4.3412371    4.3412371   -3397.6833   -154.14142    3555.4581   -13594.366   -328.31701   -1030.6226    3404.3575    81.816428 
   91200    276.62284   -115.82116   0.25029415   -115.57086    7104.5119    4.3428718    4.3428718    4.3428718    7104.5119    7976.6144    13974.693   -637.77203   -576.87388    2735.5767     1219.776    81.908886 
   91300    458.17779   -115.98411   0.41456889   -115.56954   -7243.1844    4.3490926    4.3490926    4.3490926   -7243.1844    -6208.243   -3163.1149   -12358.195   -437.94847   -615.98228    -2110.205    82.261374 
   91400    257.14151    -115.8039   0.23266704   -115.57123    1481.3094    4.3388739    4.3388739    4.3388739    1481.3094   -6081.8482      17581.2   -7055.4239     1415.426    -2175.058   -2438.5579    81.682885 
   91500     333.2481    -115.8724   0.30152988   -115.57087   -4035.9717     4.347181     4.347181     4.347181   -4035.9717   -5876.5391     1301.253   -7532.6289   -1578.7996    1120.5387    3696.3711    82.152953 
   91600    423.87697   -115.95359   0.38353279   -115.57006   -1116.3861    4.3445299    4.3445299    4.3445299   -1116.3861    5180.5844   -648.55155   -7881.1912     443.0852    1102.2312    2793.3049    82.002741 
   91700     227.7349    -115.7775   0.20605932   -115.57144    5517.0131    4.3411355    4.3411355    4.3411355    5517.0131    3477.0901    16713.764   -3639.8145   -2404.2174   -2192.2197   -1183.9714    81.810683 
   91800    330.47672   -115.86938   0.29902228   -115.57036   -6017.0878    4.3486672    4.3486672    4.3486672   -6017.0878    4267.0515   -8563.0452    -13755.27    1407.8446   -2262.7421   -3132.1171    82.237239 
   91900    272.11787   -115.81601   0.24621797    -115.5698    7618.2128    4.3410654    4.3410654    4.3410654    7618.2128    6442.5497    18895.472   -2483.3831   -5344.0629    277.39974    1147.4724    81.806724 
   92000    413.80712   -115.94449   0.37442138   -115.57007   -4309.6307    4.3438778    4.3438778    4.3438778   -4309.6307    1236.7012   -3790.1349   -10375.459    502.61303    546.98704    1350.2691     81.96582 
   92100    186.53225   -115.74035    0.1687783   -115.57157    60.530924    4.3490335    4.3490335    4.3490335    60.530924    6735.9489    9802.5604   -16356.916   -266.24317    59.509277    372.79249     82.25802 
   92200    355.03062   -115.89031   0.32123917   -115.56907    2410.1029    4.3378309    4.3378309    4.3378309    2410.1029    5567.4565    5718.0488   -4055.1968   -1529.9833   -328.37275   -2198.7565    81.623997 
   92300    299.84368   -115.84034   0.27130486   -115.56904   -451.44219    4.3478501    4.3478501    4.3478501   -451.44219     8949.032    6429.0313    -16732.39      78.4594   -1398.2324   -629.72361     82.19089 
   92400    205.53307   -115.75635   0.18597064   -115.57038   -1837.1292    4.3460174    4.3460174    4.3460174   -1837.1292    3519.1442    8916.0471   -17946.579   -3699.2679   -2723.4187    1408.0031    82.086997 
   92500    256.45085    -115.8019   0.23204211   -115.56985    1483.2212    4.3384371    4.3384371    4.3384371    1483.2212    3048.9349    12592.171   -11191.443    2848.3112    696.49006    -2187.554    81.658223 
   92600     307.1094   -115.84687   0.27787904   -115.56899   -3832.2678    4.3495789    4.3495789    4.3495789   -3832.2678   -2520.2814    4624.3124   -13600.834   -1689.6964    359.20903   -629.43935    82.288975 
   92700    276.40241   -115.82029   0.25009471   -115.57019   -5035.2133    4.3423272    4.3423272    4.3423272   -5035.2133   -3393.2023    5843.0677   -17555.505    592.25423   -2551.7482   -2166.6455    81.878076 
   92800    174.21993    -115.7295   0.15763785   -115.57186   -540.85221    4.3426253    4.3426253    4.3426253   -540.85221    -1043.677    14678.295   -15257.175   -2187.0822    1058.0138    1162.5503    81.894943 
   92900    286.12927   -115.82897   0.25889578   -115.57008    -888.8201     4.348058     4.348058     4.348058    -888.8201    6419.0431    3660.1008   -12745.604   -1369.4668    1169.1092    861.83975    82.202683 
   93000    287.75493   -115.83035    0.2603667   -115.56999    1320.7752    4.3401659    4.3401659    4.3401659    1320.7752   -675.83503    12305.945    -7667.784   -1474.8588   -1566.5907   -678.15389    81.755879 
   93100    164.47735   -115.72097   0.14882256   -115.57215   -820.15885    4.3464824    4.3464824    4.3464824   -820.15885    7474.7849    10072.891   -20008.152   -2467.8273   -874.21799    692.62948    82.113349 
   93200    334.60936   -115.87325   0.30276158   -115.57049    -2839.897    4.3458697    4.3458697    4.3458697    -2839.897    2417.2894    458.34842   -11395.329    1492.0535    995.84707    348.05377    82.078628 
   93300    323.59274   -115.86194   0.29279352   -115.56914     4525.054    4.3393215    4.3393215    4.3393215     4525.054    2421.9583    11080.375    72.828583   -5356.9658    110.39437    503.74408    81.708172 
   93400     272.5073   -115.81723   0.24657033   -115.57066   -7150.1439    4.3502791    4.3502791    4.3502791   -7150.1439    4246.9007   -3389.4284   -22307.904    3266.9089   -2472.7706     -2508.22    82.328722 
   93500    196.55288   -115.74911   0.17784518   -115.57126    5962.8366    4.3410163    4.3410163    4.3410163    5962.8366    6553.0849    17641.133   -6305.7085   -7876.8874    450.95957    123.03034    81.803944 
   93600    398.93604   -115.93034   0.36096571   -115.56938    -929.2439      4.34365      4.34365      4.34365    -929.2439    5590.8856   -1638.2317   -6740.3856    593.03211    1445.9056    2215.0275    81.952927 
   93700     259.7223   -115.80556   0.23500219   -115.57056   -218.80223    4.3477488    4.3477488    4.3477488   -218.80223   -366.16482    10585.382   -10875.624   -1779.7245    -280.6912    2723.7995    82.185144 
   93800    260.02003    -115.8061   0.23527158   -115.57083   -372.81692    4.3410008    4.3410008    4.3410008   -372.81692     4331.277    3655.7932    -9105.521    580.16442   -280.78577   -1898.6927    81.803069 
   93900    416.53207   -115.94696   0.37688697   -115.57007   -2336.0804    4.3456592    4.3456592    4.3456592   -2336.0804   -3436.5938    5888.9114   -9460.5588   -842.51452   -993.44475   -2497.1562    82.066702 
   94000    343.24426   -115.88159   0.31057462   -115.57101    2655.0127     4.345012     4.345012     4.345012    2655.0127     11382.03    2346.3348   -5763.3266    -2280.939   -1368.9973    1549.9007    82.030041 
   94100    319.81987   -115.86134   0.28937974   -115.57196    520.25032    4.3408254    4.3408254    4.3408254    520.25032    5473.2549    7613.9221   -11526.426    2743.5754   -776.91481    1007.8706    81.793151 
   94200     248.5327   -115.79652   0.22487761   -115.57164    3595.5753    4.3486522    4.3486522    4.3486522    3595.5753     15461.66    9105.0697   -13780.004   -7586.5655    1040.8861   -787.81887    82.236389 
   94300    496.68938   -116.01786   0.44941499   -115.56845   -433.08356    4.3415618    4.3415618    4.3415618   -433.08356    4851.6017    556.71069   -6707.5631    1376.1388   -1752.4895   -3027.6835     81.83479 
   94400    242.80006   -115.79047    0.2196906   -115.57078    3445.4123    4.3441011    4.3441011    4.3441011    3445.4123    9327.5277    11377.024   -10368.315    -4082.636   -1269.3265    1739.2427    81.978466 
   94500    367.97411   -115.90397   0.33295071   -115.57102   -8807.2089    4.3472142    4.3472142    4.3472142   -8807.2089   -4687.8917    -3673.756   -18059.979     4981.964    4096.3959    239.41354    82.154834 
   94600    355.62259   -115.89223   0.32177479   -115.57045    2814.5254    4.3413794    4.3413794    4.3413794    2814.5254    10227.253    251.92578   -2035.6022   -5805.6383    257.16394    540.87557    81.824473 
   94700    368.60151   -115.90379   0.33351839   -115.57028   -4048.5777    4.3464624    4.3464624    4.3464624   -4048.5777   -820.30211   -587.20491   -10738.226   -3106.6603   -3743.0414   -947.06932    82.112217 
   94800    223.40791   -115.77394   0.20214417    -115.5718   -2091.6074    4.3437259    4.3437259    4.3437259   -2091.6074    1809.7115    9201.2513   -17285.785   -252.54656   -251.45917   -3779.1549    81.957225 
   94900    308.48658   -115.84986   0.27912514   -115.57073   -484.35866    4.3452626    4.3452626    4.3452626   -484.35866    -221.0746    7630.2904   -8862.2918   -4121.9476    3549.2421   -693.06727    82.044236 
   95000    364.99995   -115.89967   0.33025962   -115.56941    2915.7289    4.3440442    4.3440442    4.3440442    2915.7289    6697.3799    10982.752   -8932.9455    1104.4349    -716.7525   -128.74214    81.975242 
   95100    220.47778   -115.77069   0.19949293   -115.57119   -759.40119    4.3436734    4.3436734    4.3436734   -759.40119     3947.839    8398.1172    -14624.16    -4604.455   -1376.0869    768.36252    81.954252 
   95200     333.6671   -115.87192     0.301909   -115.57001   -5244.5049    4.3454879    4.3454879    4.3454879   -5244.5049   -2828.5125    3479.8945   -16384.897    2697.7512    1650.7015   -1852.8371    82.056999 
   95300    309.65067   -115.84971   0.28017843   -115.56953    5430.4434    4.3450455    4.3450455    4.3450455    5430.4434    15822.662    8142.2729   -7673.6044   -3400.6929    893.84795    1468.9752    82.031942 
   95400    292.57075   -115.83541   0.26472417   -115.57068    2765.2088    4.3406717    4.3406717    4.3406717    2765.2088    4188.1592    13992.582   -9885.1149    1616.8876    -121.3456    1822.3154    81.784466 
   95500    151.16625   -115.70886    0.1367784   -115.57208   -1171.9337    4.3485251    4.3485251    4.3485251   -1171.9337    30.976774    14059.079   -17605.857   -2316.6264    1190.2436   -2101.6669    82.229176 
   95600    320.97226   -115.86016   0.29042244   -115.56974      2749.23    4.3415314    4.3415314    4.3415314      2749.23    6420.5197    11556.468   -9729.2981   -2737.3286    586.65503   -1927.4437    81.833072 
   95700    315.89381   -115.85592   0.28582735   -115.57009   -528.41121    4.3448885    4.3448885    4.3448885   -528.41121    5128.4316   -1803.4709   -4910.1943    393.96305   -967.17833    1088.6352    82.023049 
   95800    152.23781   -115.70939   0.13774797   -115.57164   -645.22725    4.3449461    4.3449461    4.3449461   -645.22725   -5625.3068    16041.221   -12351.596   -3099.5341     1286.618    1241.4085    82.026308 
   95900    340.41213   -115.87784   0.30801205   -115.56982   -8280.4916    4.3447654    4.3447654    4.3447654   -8280.4916   -8729.6812   -956.88548   -15154.908    3532.7725    461.35622   -2522.6415    82.016078 
   96000    217.47846   -115.76709   0.19677908   -115.57031    8084.2435    4.3433725    4.3433725    4.3433725    8084.2435    10433.581    16954.542   -3135.3926    -7457.217   -1902.9928    1913.7654    81.937221 
   96100    314.86784   -115.85625   0.28489904   -115.57135   -7717.1408    4.3445488    4.3445488    4.3445488   -7717.1408   -9548.0834    1753.1232   -15356.462    3499.8918    1917.6716    2589.7229    82.003813 
   96200    163.44507   -115.71978   0.14788853   -115.57189    19.289416    4.3450891    4.3450891    4.3450891    19.289416    3747.0554    8729.2329    -12418.42   -5450.6822    4549.6729    585.69041     82.03441 
   96300    416.87755    -115.9457   0.37719957    -115.5685   -2973.9933    4.3446091    4.3446091    4.3446091   -2973.9933    5578.5096   -3281.7864   -11218.703   -449.86126   -1453.0557   -2035.3662    82.007226 
   96400    275.02646   -115.81933   0.24884972   -115.57048    1191.1546    4.3433589    4.3433589    4.3433589    1191.1546    8203.1089    5433.9618   -10063.607   -58.989898   -3548.4505    660.96242     81.93645 
   96500    225.95187   -115.77632     0.204446   -115.57187   -1763.8876     4.344388     4.344388     4.344388   -1763.8876    1717.9011    4757.8294   -11767.393   -1990.6947    3547.6977    1279.7231    81.994704 
   96600    411.87627   -115.94304    0.3726743   -115.57036   -4658.9126    4.3459663    4.3459663    4.3459663   -4658.9126   -3540.1263    1280.0075   -11716.619    1762.2259    2813.9196    2539.6484    82.084106 
   96700    262.91479   -115.80788   0.23789083   -115.56999     10216.44    4.3411243    4.3411243    4.3411243     10216.44    22712.859    10134.944   -2198.4836   -6726.1474   -402.06303    2948.8663    81.810052 
   96800    350.58969   -115.88787   0.31722092   -115.57065   -7181.7134    4.3467621    4.3467621    4.3467621   -7181.7134    251.90242     -5409.81   -16387.233    4435.4551   -661.88473   -2349.4334    82.129206 
   96900    203.91209   -115.75602   0.18450395   -115.57151    7884.3534    4.3432961    4.3432961    4.3432961    7884.3534    13343.387    14160.928   -3851.2552   -5455.3243    2784.5214    113.75823    81.932899 
   97000    488.35615    -116.0108   0.44187491   -115.56893   -3072.9108     4.344724     4.344724     4.344724   -3072.9108    2366.3565   -3254.2227   -8330.8663    1285.7366    2274.5259    2560.3454    82.013735 
   97100    296.86736   -115.83948   0.26861182   -115.57086    3758.0382    4.3422326    4.3422326    4.3422326    3758.0382    7800.4045     10118.56     -6644.85   -3296.4988    793.45299    2857.6551    81.872727 
   97200    291.87952   -115.83529   0.26409872   -115.57119    -3490.657    4.3466596    4.3466596    4.3466596    -3490.657   -5309.5679     7027.019   -12189.422    1313.7335    157.83141   -2626.9803    82.123395 
   97300    394.82375   -115.92695   0.35724483   -115.56971    4098.5795     4.342136     4.342136     4.342136    4098.5795     16950.27    3561.2539   -8215.7856     453.7165   -2461.7364   -1410.7911    81.867262 
   97400    336.78871   -115.87505    0.3047335   -115.57031    4013.8018    4.3442981    4.3442981    4.3442981    4013.8018    9660.3874    6541.1831   -4160.1651   -5312.3643    2070.6735    3149.3731    81.989615 
   97500    303.53838   -115.84553   0.27464791   -115.57088   -2406.2772    4.3456265    4.3456265    4.3456265   -2406.2772    7774.4236    1236.6229   -16229.878    2812.7272    4015.6073     935.5529    82.064849 
   97600    301.08853   -115.84244   0.27243123   -115.57001    1873.5048     4.342799     4.342799     4.342799    1873.5048    5601.2489    7893.4593   -7874.1939   -2579.4102    1546.4223    1442.4926    81.904771 
   97700    398.36514   -115.92977   0.36044915   -115.56932   -1077.4398    4.3439314    4.3439314    4.3439314   -1077.4398    6078.6686   -3223.3609   -6087.6272    4419.2557   -1868.0822   -713.49176    81.968854 
   97800    277.26192   -115.82199   0.25087241   -115.57112   -2668.3275    4.3454784    4.3454784    4.3454784   -2668.3275    5215.4566    1551.6687   -14772.108   -4859.7247    2135.8313    1589.1315    82.056463 
   97900    217.84605   -115.76886   0.19711168   -115.57175   -612.35824    4.3430109    4.3430109    4.3430109   -612.35824    2617.5482    7798.8356   -12253.458    2138.0473    2836.9055    -473.2054    81.916757 
   98000     341.8896   -115.87928   0.30934889   -115.56993   -2017.2548    4.3451905    4.3451905    4.3451905   -2017.2548    7139.8892    272.96415   -13464.618   -98.829665   -1776.2586    1224.7661    82.040155 
   98100    297.75147    -115.8397   0.26941179   -115.57029   -3238.4702    4.3451319    4.3451319    4.3451319   -3238.4702   -3927.1788    8939.5706   -14727.802   -108.06068    1205.1618    1396.1566    82.036832 
   98200    228.75351   -115.77821   0.20698098   -115.57123   -558.70269    4.3425882    4.3425882    4.3425882   -558.70269    2414.2212    9999.6759   -14090.005    1891.2595      3047.71   -2608.3409    81.892841 
   98300     319.1427   -115.85887   0.28876702    -115.5701   -1711.8204    4.3458156    4.3458156    4.3458156   -1711.8204   -2499.5169    12880.951   -15516.896   -2716.3986    851.02838    3063.9178    82.075564 
   98400    299.05487    -115.8409   0.27059113   -115.57031     2544.779    4.3422176    4.3422176    4.3422176     2544.779    12565.459    8547.1352   -13478.257    2485.8577   -653.78531    -45.99718    81.871875 
   98500    219.27405   -115.77014   0.19840377   -115.57174    2658.9968    4.3439088    4.3439088    4.3439088    2658.9968    4348.5805    16901.386   -13272.976   -3294.9706    3444.8834   -694.39972    81.967578 
   98600     224.7519   -115.77437   0.20336025   -115.57101    2776.0729    4.3463042    4.3463042    4.3463042    2776.0729    13126.683      10202.9   -15001.364    3921.1936     780.2375   -1465.6816    82.103249 
   98700    355.79397   -115.89082   0.32192986   -115.56889    1738.0753    4.3402797    4.3402797    4.3402797    1738.0753     5844.615    7087.3691   -7717.7583    -2814.424   -2093.4889    3049.8253    81.762311 
   98800    231.36098   -115.77978   0.20934028   -115.57044   -2664.2819    4.3474797    4.3474797    4.3474797   -2664.2819   -2252.4234    9681.1398   -15421.562    3503.7781    719.64811    2175.0783    82.169886 
   98900     280.9921   -115.82448   0.25424756   -115.57024   -3426.7362    4.3439331    4.3439331    4.3439331   -3426.7362   -606.93608    1075.5851   -10748.858   -1674.3685    2058.6307     -3803.06     81.96895 
   99000    259.41545   -115.80454   0.23472455   -115.56981    3862.9684    4.3411367    4.3411367    4.3411367    3862.9684    3329.6697    14375.692   -6116.4562    2128.8492    1671.7835    2521.7879    81.810749 
   99100     325.2881   -115.86399    0.2943275   -115.56967    -8930.527    4.3490796    4.3490796    4.3490796    -8930.527    1427.2365   -12639.787   -15579.031   -1166.8118    537.63248    3927.7643     82.26064 
   99200     199.8722   -115.75141   0.18084857   -115.57056   0.26596744    4.3425324    4.3425324    4.3425324   0.26596744   -8602.5492    17285.829   -8682.4823    91.034818    2528.7118    943.48476    81.889684 
   99300    339.98334   -115.87711   0.30762407   -115.56948   -447.25265    4.3420962    4.3420962    4.3420962   -447.25265    7380.6547   -2217.7913   -6504.6213     4608.738   -1125.7569   -2443.5709    81.865013 
   99400    339.69771   -115.87763   0.30736563   -115.57026   -3287.6651    4.3481088    4.3481088    4.3481088   -3287.6651   -10371.902    8601.7921   -8092.8859   -2038.8472    1272.5614    299.10477    82.205565 
   99500     284.9338   -115.82938   0.25781409   -115.57156   -692.36826    4.3409445    4.3409445    4.3409445   -692.36826   -2213.2394    8084.0126   -7947.8781    1644.4789    2848.5159    2940.7702    81.799885 
   99600    315.34514   -115.85694   0.28533091   -115.57161     2551.525    4.3442078    4.3442078    4.3442078     2551.525    5695.4876    10186.064   -8226.9766   -1521.2262   -1822.6005    2089.1387    81.984504 
   99700    319.05661   -115.85868   0.28868913   -115.56999    5917.2927    4.3455463    4.3455463    4.3455463    5917.2927    10019.259    10528.861   -2796.2426    3474.5588   -631.91035    776.15367     82.06031 
   99800    364.74398   -115.89949   0.33002802   -115.56946   -428.29214    4.3414958    4.3414958    4.3414958   -428.29214    7591.3352    73.148485   -8949.3601   -2952.9184    4477.1256   -1069.6218    81.831057 
   99900    229.32908   -115.77859   0.20750177   -115.57109    4400.2405    4.3465337    4.3465337    4.3465337    4400.2405    3221.6831     20072.88   -10093.842    3738.1419    4079.4312    186.94619    82.116261 
  100000    428.15556   -115.95643   0.38740415   -115.56902     1347.162    4.3418439    4.3418439    4.3418439     1347.162    10056.673   -751.78954    -5263.398    944.57489   -3519.1444     2925.735    81.850743 
Loop time of 21.5682 on 1 procs for 100000 steps with 8 atoms

Pair  time (%) = 6.72062 (31.1598)
Kspce time (%) = 5.24261 (24.3071)
Neigh time (%) = 0 (0)
Comm  time (%) = 1.03952 (4.8197)
Outpt time (%) = 0.0235281 (0.109087)
Other time (%) = 8.54195 (39.6043)

Nlocal:    8 ave 8 max 8 min
Histogram: 1 0 0 0 0 0 0 0 0 0
Nghost:    2189 ave 2189 max 2189 min
Histogram: 1 0 0 0 0 0 0 0 0 0
Neighs:    2056 ave 2056 max 2056 min
Histogram: 1 0 0 0 0 0 0 0 0 0

Total # of neighbors = 2056
Ave neighs/atom = 257
Neighbor list builds = 0
Dangerous builds = 0
unfix 20
unfix 21
print "seeds:7845416"
seeds:7845416
