LAMMPS (16 Mar 2018)
# ---- initialize simulations
clear
units metal
dimension 3
boundary p p p
atom_style charge
atom_modify map array
# ---- create atoms
read_data /home/manuelesp/repos/pypospack/dev/MgO_iterative_sampler/rank_3/MgO_NaCl_sch.lmps_min_pos/lammps.structure
  triclinic box = (0 0 0) to (12.3195 12.3195 12.3195) with tilt (0 0 0)
  1 by 1 by 1 MPI processor grid
  reading atoms ...
  214 atoms
# ---- define interatomic potential
include potential.mod
mass 1 24.305
mass 2 15.999

group Mg type 1
107 atoms in group Mg
group O type 2
107 atoms in group O

set group Mg charge 1.713768000698136
  107 settings made for charge
set group O charge -1.713768000698136
  107 settings made for charge

variable R_cut equal 10.0

pair_style buck/coul/long ${R_cut}
pair_style buck/coul/long 10
pair_coeff 1 1 0.0 0.5 0.0 ${R_cut}
pair_coeff 1 1 0.0 0.5 0.0 10
pair_coeff 1 2 1027.6516591691873 0.2934831246256318 0.0 ${R_cut}
pair_coeff 1 2 1027.6516591691873 0.2934831246256318 0.0 10
pair_coeff 2 2 21120.842859678647 0.18037284948043203 60.17316407089181 ${R_cut}
pair_coeff 2 2 21120.842859678647 0.18037284948043203 60.17316407089181 10

kspace_style pppm 1.0e-5

neighbor 1.0 bin
neigh_modify every 1 delay 0 check yes
# ---- define settings
compute eng all pe/atom
compute eatoms all reduce sum c_eng

# ---- run minimization
reset_timestep 0
thermo 1
thermo_style custom step pe lx ly lz xy xz yz press pxx pyy pzz pxy pxz pyz c_eatoms
min_style cg
minimize 1e-20 1e-20 1000 100000
PPPM initialization ...
  using 12-bit tables for long-range coulomb (../kspace.cpp:321)
  G vector (1/distance) = 0.340724
  grid = 18 18 18
  stencil order = 5
  estimated absolute RMS force accuracy = 0.000116182
  estimated relative force accuracy = 8.06841e-06
  using double precision FFTs
  3d grid and FFT values/proc = 15625 5832
Neighbor list info ...
  update every 1 steps, delay 0 steps, check yes
  max neighbors/atom: 2000, page size: 100000
  master list distance cutoff = 11
  ghost atom cutoff = 11
  binsize = 5.5, bins = 3 3 3
  1 neighbor lists, perpetual/occasional/extra = 1 0 0
  (1) pair buck/coul/long, perpetual
      attributes: half, newton on
      pair build: half/bin/newton/tri
      stencil: half/bin/3d/newton/tri
      bin: standard
Per MPI rank memory allocation (min/avg/max) = 6.738 | 6.738 | 6.738 Mbytes
Step PotEng Lx Ly Lz Xy Xz Yz Press Pxx Pyy Pzz Pxy Pxz Pyz c_eatoms 
       0   -3294.1469      12.3195      12.3195      12.3195            0            0            0   -2141.3857   -1747.3027   -1747.3027   -2929.5516   -358.86915  0.015072688  0.015072687   -3294.1469 
       1   -3309.4029      12.3195      12.3195      12.3195            0            0            0    1627.2187    1383.9043    1383.9043    2113.8473   -23.063526 -0.0039805375 -0.0039805372   -3309.4029 
       2   -3310.9656      12.3195      12.3195      12.3195            0            0            0    5519.6597    5234.5998    5234.5998    6089.7796   -29.598699  0.010945517  0.010945517   -3310.9656 
       3   -3311.3213      12.3195      12.3195      12.3195            0            0            0    4836.5227    4628.8454    4628.8454    5251.8773   -32.022482  0.015598823  0.015598822   -3311.3213 
       4   -3311.4892      12.3195      12.3195      12.3195            0            0            0    5587.5009    5325.2461    5325.2461    6112.0105    21.742897 0.0016613176 0.0016613173   -3311.4892 
       5   -3311.5305      12.3195      12.3195      12.3195            0            0            0    5775.1322    5558.4728    5558.4728    6208.4509    16.356444 -0.0022089132 -0.0022089131   -3311.5305 
       6   -3311.5462      12.3195      12.3195      12.3195            0            0            0    5895.1918    5639.1264    5639.1264    6407.3225   0.38504376 -0.0020024688 -0.0020024691   -3311.5462 
       7   -3311.5502      12.3195      12.3195      12.3195            0            0            0    5969.9198    5716.6916    5716.6916     6476.376     8.431696 -0.0030434292 -0.0030434294   -3311.5502 
       8   -3311.5515      12.3195      12.3195      12.3195            0            0            0    5998.5985    5727.5521    5727.5521    6540.6915    12.431035 -0.001743872 -0.0017438717   -3311.5515 
       9   -3311.5516      12.3195      12.3195      12.3195            0            0            0    5995.0068    5734.0735    5734.0735    6516.8735    14.292822 -0.00030147993 -0.00030148038   -3311.5516 
      10   -3311.5517      12.3195      12.3195      12.3195            0            0            0    6000.3149    5735.6851    5735.6851    6529.5745    18.950021 0.0028342229 0.0028342226   -3311.5517 
      11   -3311.5517      12.3195      12.3195      12.3195            0            0            0    6002.9551    5746.3772    5746.3772    6516.1108    22.738614 0.0016148425 0.0016148431   -3311.5517 
      12   -3311.5517      12.3195      12.3195      12.3195            0            0            0    6002.7271    5742.8047    5742.8047     6522.572    26.129444 -0.006379004 -0.0063790045   -3311.5517 
      13    -3311.552      12.3195      12.3195      12.3195            0            0            0     6001.637    5742.6438    5742.6438    6519.6234    27.636954 0.00060417675 0.00060417645    -3311.552 
      14    -3311.552      12.3195      12.3195      12.3195            0            0            0    6001.8246    5743.0026    5743.0026    6519.4686    28.954012 -0.0067866513 -0.0067866516    -3311.552 
      15    -3311.552      12.3195      12.3195      12.3195            0            0            0    6001.3315    5742.4363    5742.4363     6519.122    29.343808 -0.009906908 -0.0099069081    -3311.552 
      16    -3311.552      12.3195      12.3195      12.3195            0            0            0    6001.1387    5742.5817    5742.5817    6518.2525    29.620753 -0.0033863455 -0.0033863449    -3311.552 
      17    -3311.552      12.3195      12.3195      12.3195            0            0            0    6001.1387    5742.5817    5742.5817    6518.2525    29.620753 -0.0033863453 -0.0033863453    -3311.552 
Loop time of 0.778655 on 1 procs for 17 steps with 214 atoms

46.6% CPU use with 1 MPI tasks x no OpenMP threads

Minimization stats:
  Stopping criterion = linesearch alpha is zero
  Energy initial, next-to-last, final = 
        -3294.14689398     -3311.55200744     -3311.55200744
  Force two-norm initial, final = 41.7575 0.00354895
  Force max component initial, final = 6.8921 0.000539158
  Final line search alpha, max atom move = 0.000976562 5.26522e-07
  Iterations, force evaluations = 17 52

MPI task timing breakdown:
Section |  min time  |  avg time  |  max time  |%varavg| %total
---------------------------------------------------------------
Pair    | 0.4945     | 0.4945     | 0.4945     |   0.0 | 63.51
Kspace  | 0.28167    | 0.28167    | 0.28167    |   0.0 | 36.17
Neigh   | 0          | 0          | 0          |   0.0 |  0.00
Comm    | 0.0013452  | 0.0013452  | 0.0013452  |   0.0 |  0.17
Output  | 0.00051045 | 0.00051045 | 0.00051045 |   0.0 |  0.07
Modify  | 0          | 0          | 0          |   0.0 |  0.00
Other   |            | 0.0006266  |            |       |  0.08

Nlocal:    214 ave 214 max 214 min
Histogram: 1 0 0 0 0 0 0 0 0 0
Nghost:    4645 ave 4645 max 4645 min
Histogram: 1 0 0 0 0 0 0 0 0 0
Neighs:    65510 ave 65510 max 65510 min
Histogram: 1 0 0 0 0 0 0 0 0 0

Total # of neighbors = 65510
Ave neighs/atom = 306.121
Neighbor list builds = 0
Dangerous builds = 0

# ---- define output variables ----
variable natoms equal "count(all)"
variable tot_energy equal "c_eatoms"
variable a11 equal "xhi-xlo"
variable a22 equal "yhi-ylo"
variable a33 equal "zhi-zlo"
variable tilt_xy equal "xy"
variable tilt_xz equal "xz"
variable tilt_yz equal "yz"
variable tot_press equal "press"
variable press_xx equal "pxx"
variable press_yy equal "pyy"
variable press_zz equal "pzz"
variable press_xy equal "pxy"
variable press_xz equal "pxz"
variable press_yz equal "pyz"

# ---- output ----
print "pypospack:output_section:begin"
pypospack:output_section:begin
print "tot_energy = ${tot_energy}"
tot_energy = -3311.55200743648
print "num_atoms = ${natoms}"
num_atoms = 214
print "a11 = ${a11}"
a11 = 12.3195
print "a22 = ${a22}"
a22 = 12.3195
print "a33 = ${a33}"
a33 = 12.3195
print "a12 = ${tilt_xy}"
a12 = 0
print "a13 = ${tilt_xz}"
a13 = 0
print "a23 = ${tilt_yz}"
a23 = 0
print "tot_press = ${tot_press}"
tot_press = 6001.13866207914
print "pxx = ${press_xx}"
pxx = 5742.58174538853
print "pyy = ${press_yy}"
pyy = 5742.5817454762
print "pzz = ${press_zz}"
pzz = 6518.25249537268
print "pxy = ${press_xy}"
pxy = 29.6207531871959
print "pxz = ${press_xz}"
pxz = -0.00338634530752714
print "pyz = ${press_yz}"
pyz = -0.00338634525031936
print "pypospack:output_section:done"
pypospack:output_section:done
print "pypospack:lammps_sim:done"
pypospack:lammps_sim:done
Total wall time: 0:00:00
