LAMMPS (10 Feb 2015)
# ---- initialize simulations
clear
units metal
dimension 3
boundary p p p
atom_style charge
atom_modify map array
# ---- create atoms
read_data /Users/eugeneragasa/pyflamestk_git/pypospack/tests/tests_integration/workflow/WorkflowLammpsThermalExpansion/param_1256/MgO_NaCl_unit.npt.T1800/lammps.structure
  triclinic box = (0 0 0) to (4.2565 4.2565 4.2565) with tilt (0 0 0)
  1 by 1 by 1 MPI processor grid
  reading atoms ...
  8 atoms
# ---- define interatomic potential
include potential.mod
mass 1 24.305
mass 2 15.999

group Mg type 1
4 atoms in group Mg
group O type 2
4 atoms in group O

set group Mg charge 1.66039996869
  4 settings made for charge
set group O charge -1.66039996869
  4 settings made for charge

variable R_cut equal 10.0

pair_style buck/coul/long ${R_cut}
pair_style buck/coul/long 10
pair_coeff 1 1 0.0 0.5 0.0 ${R_cut}
pair_coeff 1 1 0.0 0.5 0.0 10
pair_coeff 1 2 1528.2261267 0.282600919639 0.0 ${R_cut}
pair_coeff 1 2 1528.2261267 0.282600919639 0.0 10
pair_coeff 2 2 6677.06285722 0.138925130231 8.13419383626 ${R_cut}
pair_coeff 2 2 6677.06285722 0.138925130231 8.13419383626 10

kspace_style pppm 1.0e-5

neighbor 1.0 bin
neigh_modify every 1 delay 0 check yes
# ---- define settings
compute eng all pe/atom
compute eatoms all reduce sum c_eng
# ---- run minimization
reset_timestep 0
fix 1 all box/relax iso 0.0 vmax 0.001
thermo 10
thermo_style custom step pe lx ly lz xy xz yz press pxx pyy pzz pxy pxz pyz c_eatoms
min_style cg
minimize 1e-25 1e-25 5000 10000
PPPM initialization ...
  G vector (1/distance) = 0.352851
  grid = 8 8 8
  stencil order = 5
  estimated absolute RMS force accuracy = 3.9608e-05
  estimated relative force accuracy = 2.75062e-06
  using double precision FFTs
  3d grid and FFT values/proc = 3375 512
Neighbor list info ...
  1 neighbor list requests
  update every 1 steps, delay 0 steps, check yes
  master list distance cutoff = 11
Memory usage per processor = 4.06549 Mbytes
Step PotEng Lx Ly Lz Xy Xz Yz Press Pxx Pyy Pzz Pxy Pxz Pyz eatoms 
       0   -110.92329       4.2565       4.2565       4.2565            0            0            0    120138.29    120138.29    120138.29    120138.29 1.5343687e-10 -1.0407196e-10 -1.3145771e-10   -110.92329 
      10   -111.05478     4.299065     4.299065     4.299065            0            0            0    61836.089    61836.089    61836.089    61836.089 1.0666232e-10 -5.0344756e-11 -1.3613158e-10   -111.05478 
      20   -111.10767      4.34163      4.34163      4.34163            0            0            0    10591.608    10591.608    10591.608    10591.608 -1.2465538e-10 -9.1160209e-12 2.8254225e-10   -111.10767 
      25   -111.10952     4.351169     4.351169     4.351169            0            0            0   -6.6622077   -6.6622077   -6.6622077   -6.6622077 -1.5540302e-10 -3.5403029e-11 3.0098099e-10   -111.10952 
Loop time of 0.015183 on 1 procs for 25 steps with 8 atoms

Minimization stats:
  Stopping criterion = linesearch alpha is zero
  Energy initial, next-to-last, final = 
        -110.923293971     -111.109518965     -111.109518965
  Force two-norm initial, final = 17.348 0.0010058
  Force max component initial, final = 17.348 0.0010053
  Final line search alpha, max atom move = 0.00777135 7.8125e-06
  Iterations, force evaluations = 25 41

Pair  time (%) = 0.00405812 (26.7281)
Kspce time (%) = 0.00265336 (17.4759)
Neigh time (%) = 0 (0)
Comm  time (%) = 0.000549793 (3.62112)
Outpt time (%) = 3.17097e-05 (0.20885)
Other time (%) = 0.00788999 (51.966)

Nlocal:    8 ave 8 max 8 min
Histogram: 1 0 0 0 0 0 0 0 0 0
Nghost:    2189 ave 2189 max 2189 min
Histogram: 1 0 0 0 0 0 0 0 0 0
Neighs:    2344 ave 2344 max 2344 min
Histogram: 1 0 0 0 0 0 0 0 0 0

Total # of neighbors = 2344
Ave neighs/atom = 293
Neighbor list builds = 0
Dangerous builds = 0
unfix 1
# ---- define output variables ----
variable natoms equal "count(all)"
variable tot_energy equal "c_eatoms"
variable length_x equal "lx"
variable length_y equal "ly"
variable length_z equal "lz"
variable tilt_xy equal "xy"
variable tilt_xz equal "xz"
variable tilt_yz equal "yz"
variable tot_press equal "press"
variable press_xx equal "pxx"
variable press_yy equal "pyy"
variable press_zz equal "pzz"
variable press_xy equal "pxy"
variable press_xz equal "pxz"
variable press_yz equal "pyz"

# ---- output ----
print "pypospack:output_section:begin"
pypospack:output_section:begin
print "tot_energy = ${tot_energy}"
tot_energy = -111.109518965105
print "num_atoms = ${natoms}"
num_atoms = 8
print "xx = ${length_x}"
xx = 4.35116899821938
print "yy = ${length_y}"
yy = 4.35116899821938
print "zz = ${length_z}"
zz = 4.35116899821938
print "xy = ${tilt_xy}"
xy = 0
print "xz = ${tilt_xz}"
xz = 0
print "yz = ${tilt_yz}"
yz = 0
print "tot_press = ${tot_press}"
tot_press = -6.66220766530753
print "pxx = ${press_xx}"
pxx = -6.66220766529406
print "pyy = ${press_yy}"
pyy = -6.66220766581444
print "pzz = ${press_zz}"
pzz = -6.6622076648141
print "pxy = ${press_xy}"
pxy = -1.55403020158447e-10
print "pxz = ${press_xz}"
pxz = -3.54030294322521e-11
print "pyz = ${press_yz}"
pyz = 3.00980987063428e-10
print "pypospack:output_section:done"
pypospack:output_section:done
print "pypospack:lammps_sim:done"
pypospack:lammps_sim:done
#------------------------------------------------------------------------------
# RUN THERMOSTAT
# running using an NPT Nose-Hoover style thermostat
#------------------------------------------------------------------------------
variable tempdamp equal 0.1
variable pressdamp equal 1.0
# set initial velocities
velocity all create 1800 4940154 mom yes dist gaussian loop all
# fix for Nose-Hoover style thermostat
fix 20 all npt temp 1800 1800 0.1 aniso 0.0 0.0 1.0 drag 1.0 couple xyz
variable boxx equal lx
variable boxy equal ly
variable boxz equal lz
variable boxp equal press
variable boxt equal temp
# calculate averages every 10000 steps
reset_timestep 0
fix 21 all ave/time 10 10 100 v_boxx v_boxy v_boxz v_boxp v_boxt file lattice.out
thermo_style custom step temp pe ke etotal press lx ly lz press pxx pyy pzz pxy pxz pyz vol
thermo_modify flush yes
thermo 100
run 100000
PPPM initialization ...
  G vector (1/distance) = 0.351894
  grid = 8 8 8
  stencil order = 5
  estimated absolute RMS force accuracy = 4.14019e-05
  estimated relative force accuracy = 2.8752e-06
  using double precision FFTs
  3d grid and FFT values/proc = 3375 512
Memory usage per processor = 3.06549 Mbytes
Step Temp PotEng KinEng TotEng Press Lx Ly Lz Press Pxx Pyy Pzz Pxy Pxz Pyz Volume 
       0         1800   -111.10953    1.6286778   -109.48085    21108.359     4.351169     4.351169     4.351169    21108.359     8616.409    27820.006    26888.662   -8787.3894   -432.10975   -6821.2916    82.379254 
     100    628.58187   -109.85268   0.56875408   -109.28393    37217.093    4.3737518    4.3737518    4.3737518    37217.093    6208.2215    60730.154    44712.905    15295.935    1355.9403   -8419.5241    83.668581 
     200    831.87055   -109.57962   0.75269396   -108.82693   -37157.863     4.421865     4.421865     4.421865   -37157.863   -59309.904   -34500.692   -17662.992    -2531.256   -7626.7144   -27433.602    86.460241 
     300    1927.6747   -110.18102    1.7442006   -108.43682   -19624.286     4.421149     4.421149     4.421149   -19624.286    -63874.53   -10123.805    15125.478   -12044.944   -1982.2563    26498.385    86.418247 
     400    1265.4597   -109.27998    1.1450145   -108.13497     15120.24    4.3945825    4.3945825    4.3945825     15120.24    4718.8797    38758.102    1883.7391     17609.31   -4138.7548   -23049.263    84.869741 
     500    1762.6608   -109.54105    1.5948925   -107.94616   -11862.343    4.3941085    4.3941085    4.3941085   -11862.343   -32904.744    12350.261   -15032.547    138.97788   -10799.743   -15792.515    84.842279 
     600    1646.0939   -109.35506    1.4894204   -107.86564    19716.113    4.4220908    4.4220908    4.4220908    19716.113   -37300.457    60897.389    35551.406   -5816.3274    4106.1245    1800.3173    86.473487 
     700    2060.9565   -109.67518    1.8647967   -107.81039    -21706.39    4.4362489    4.4362489    4.4362489    -21706.39    -54906.97    2977.9841   -13190.183    10078.648   -7457.0144   -51445.411    87.306728 
     800    1587.2134   -109.23661    1.4361441   -107.80047   -514.24917    4.4215218    4.4215218    4.4215218   -514.24917   -37208.076    31021.229    4644.0995    3297.3219    12187.997    8263.5691    86.440111 
     900    1679.9723   -109.33873    1.5200742   -107.81866    150.04111    4.4130358    4.4130358    4.4130358    150.04111   -46679.597      25094.4     22035.32   -2331.1418   -7473.7187   -4106.6172    85.943364 
    1000    2030.9588   -109.66509    1.8376542   -107.82743    28751.058    4.4062908    4.4062908    4.4062908    28751.058     3035.053    90649.494   -7431.3719   -5851.2206    9450.4487   -1785.1688     85.54989 
    1100    1869.3368   -109.54164    1.6914153   -107.85022     -43287.5    4.4296893    4.4296893    4.4296893     -43287.5   -72482.406   -53.745106    -57326.35   -18210.602   -1335.5673   -226.54012    86.920017 
    1200    2417.3032    -110.0248    2.1872267   -107.83757   -28820.409    4.4160906    4.4160906    4.4160906   -28820.409   -48518.681   -19259.934   -18682.611    946.34322   -6998.1093   -30227.351    86.121963 
    1300    1742.9034   -109.42317    1.5770156   -107.84616    25095.069    4.3921771    4.3921771    4.3921771    25095.069    4852.4083    53398.348    17034.451    3339.6454    6978.4355   -1487.1493    84.730454 
    1400    2061.2247   -109.72646    1.8650394   -107.86142    13841.876    4.4128377    4.4128377    4.4128377    13841.876   -49951.046    102843.74   -11367.069    5343.6898   -15422.819    12196.959    85.931789 
    1500    1165.1167       -108.9    1.0542221   -107.84578    18519.164    4.4296418    4.4296418    4.4296418    18519.164   -45223.661    87769.817    13011.334    10919.742     7770.805   -28520.593    86.917221 
    1600    1453.6207   -109.16175    1.3152666   -107.84649    -34407.07    4.4326843    4.4326843    4.4326843    -34407.07   -27064.155   -20430.093   -55726.962   -5228.6338   -11533.589    19100.648    87.096438 
    1700    2616.2756   -110.18619    2.3672611   -107.81893   -15102.407    4.4162701    4.4162701    4.4162701   -15102.407   -35252.859   -2526.6096   -7527.7524   -7959.4045    1083.1646   -19998.402    86.132466 
    1800    1680.0873   -109.35096    1.5201783   -107.83078    3919.7133    4.4059324    4.4059324    4.4059324    3919.7133   -17977.829    25086.033    4650.9359    5861.5425   -8425.3611    -31577.51    85.529018 
    1900    1476.7412   -109.17777    1.3361865   -107.84158    24362.245    4.4117667    4.4117667    4.4117667    24362.245   -32073.301    48145.617    57014.418    -5197.572   -2341.3616    36909.381    85.869242 
    2000    2329.1697   -109.92126    2.1074817   -107.81378   -27902.867    4.4279742    4.4279742    4.4279742   -27902.867   -36975.001   -34532.329   -12201.273   -8325.6882   -13061.556   -25538.361    86.819093 
    2100    1420.5479     -109.081    1.2853416   -107.79566    21987.862    4.4129789    4.4129789    4.4129789    21987.862    8690.7421    62256.453   -4983.6094    19877.995   -18887.183    1645.2537     85.94004 
    2200    1636.9365   -109.26791    1.4811345   -107.78678    15704.121     4.408124     4.408124     4.408124    15704.121    1878.2826    12949.692    32284.389   -14738.043   -2721.7069      19351.2    85.656716 
    2300    1751.0608   -109.37727    1.5843966   -107.79287    6557.3755    4.4246758    4.4246758    4.4246758    6557.3755    9249.3066     12540.53     -2117.71   -3426.6703   -1506.3063   -12609.845    86.625226 
    2400    1609.9984   -109.24454    1.4567604   -107.78778    19720.516    4.4235854    4.4235854    4.4235854    19720.516    27850.476    59995.219   -28684.146      13826.5   -3091.4097    26782.581    86.561194 
    2500    1665.6503   -109.29208    1.5071154   -107.78496    5733.8644    4.4209437    4.4209437    4.4209437    5733.8644    45522.868   -7352.8744     -20968.4   -26597.738   -2624.6835   -15408.586    86.406211 
    2600    2015.1186   -109.59905    1.8233216   -107.77573   -9271.9157    4.4222497    4.4222497    4.4222497   -9271.9157        11392    -3497.118   -35710.629    11571.942   -9222.0023    24792.134    86.482806 
    2700    1694.0178   -109.31042    1.5327829   -107.77763    28010.081    4.4185884    4.4185884    4.4185884    28010.081    15249.022    83282.455   -14501.233   -622.84875    4441.5739    2090.7265    86.268184 
    2800    1734.9343    -109.3632     1.569805   -107.79339   -11267.506     4.425523     4.425523     4.425523   -11267.506    14236.486   -13817.955   -34221.049    -22285.36   -1411.4016   -1534.0421    86.674991 
    2900    2275.7618   -109.82868    2.0591571   -107.76952   -35993.635    4.4306669    4.4306669    4.4306669   -35993.635   -22525.226   -25688.134   -59767.544   -13546.073   -4818.5127     23225.77    86.977574 
    3000    2246.2407   -109.78435    2.0324458    -107.7519    11974.558    4.4296404    4.4296404    4.4296404    11974.558    -19403.63    31732.659    23594.644   -12728.925    2354.2792    11093.342     86.91714 
    3100    1143.5277   -108.79947    1.0346879   -107.76478   -2209.6016    4.4446712    4.4446712    4.4446712   -2209.6016    22182.089   -42580.821    13769.927   -9138.6087   -18348.104    35421.681    87.804936 
    3200    2210.9202   -109.72903    2.0004871   -107.72854   -3707.4036    4.4509871    4.4509871    4.4509871   -3707.4036   -22854.995    -4325.656     16058.44   -1983.2588   -6291.4051   -9245.2367    88.179781 
    3300    1763.5752   -109.34229    1.5957199   -107.74657   -26021.096    4.4317778    4.4317778    4.4317778   -26021.096    5881.2128   -67163.046   -16781.456   -23416.327   -20441.518     43378.78    87.043018 
    3400    1619.7009   -109.22217    1.4655395   -107.75663    6739.2113    4.3970145    4.3970145    4.3970145    6739.2113    49602.607   -35879.633    6494.6598   -6449.0156    7300.2665    10582.647    85.010722 
    3500    2120.3958   -109.70849    1.9185787   -107.78992    40504.735    4.3936037    4.3936037    4.3936037    40504.735    7712.2981    55162.433    58639.476    14384.809   -8295.0001   -8438.2683    84.813042 
    3600    1664.3689    -109.3382    1.5059559   -107.83225   -25130.227    4.4304402    4.4304402    4.4304402   -25130.227    1388.0099   -13627.157   -63151.534   -14924.298    15442.212    20985.397    86.964224 
    3700     1687.308   -109.32103    1.5267118   -107.79432   -6394.4957    4.4333919    4.4333919    4.4333919   -6394.4957   -5595.3913     -1507.15   -12080.946   -16094.084    22749.692   -10457.027    87.138156 
    3800    2020.3477   -109.59317    1.8280531   -107.76512    13590.422    4.4130484    4.4130484    4.4130484    13590.422    6795.9892    34778.113   -802.83647    504.98235   -8520.7221    8556.8638      85.9441 
    3900    2002.6555   -109.59218    1.8120448   -107.78013    -17828.23    4.4064738    4.4064738    4.4064738    -17828.23   -27789.033    442.00169   -26137.659   -13551.769    10086.522   -631.97412    85.560551 
    4000    1382.5973   -109.05321    1.2510031    -107.8022    13144.506    4.4141674    4.4141674    4.4141674    13144.506    27322.751    13165.812   -1055.0435    483.08651   -3912.9005   -21333.627    86.009496 
    4100    2111.3292   -109.71433     1.910375   -107.80395   -10565.487    4.4375865    4.4375865    4.4375865   -10565.487   -10849.765    8554.5473   -29401.242    12658.951    96.492935   -14079.665    87.385725 
    4200    1737.3037   -109.33507    1.5719489   -107.76312   -21410.524     4.441727     4.441727     4.441727   -21410.524   -34888.583     -37256.7    7913.7125   -14889.935    23797.951   -9444.2174    87.630558 
    4300    1729.7309   -109.30558    1.5650968   -107.74049    27791.382    4.4107076    4.4107076    4.4107076    27791.382    22099.612    35842.922    25431.613     7643.127    6992.0619   -7449.3962    85.807411 
    4400    2070.8006   -109.63216    1.8737039   -107.75845     18255.46    4.4066454    4.4066454    4.4066454     18255.46   -18452.571    32311.941    40907.011    12479.676    4402.8338   -420.67909    85.570547 
    4500    1821.9573   -109.44825    1.6485452    -107.7997   -18572.734    4.4234589    4.4234589    4.4234589   -18572.734   -62369.133   -5094.6746    11745.605    9758.6454    1194.5394   -16269.071    86.553772 
    4600    1786.1834   -109.40429    1.6161763   -107.78812    16352.853    4.4325221    4.4325221    4.4325221    16352.853    5257.2462     24563.66    19237.653    15867.588    -6791.309   -27367.779    87.086879 
    4700     1315.035   -108.97151    1.1898713   -107.78164    6370.3327    4.4229807    4.4229807    4.4229807    6370.3327   -28268.844   -15835.908    63215.751    26615.869   -3913.8262   -7171.0531      86.5257 
    4800    1703.6319    -109.3063    1.5414819   -107.76482   -14197.385    4.4007836    4.4007836    4.4007836   -14197.385    -48395.34   -21209.434    27012.617    6310.1153   -5491.0531   -26543.691    85.229521 
    4900    2318.4128   -109.87634    2.0977486   -107.77859    41564.832    4.4078565    4.4078565    4.4078565    41564.832   -10323.734    106494.51    28523.714   -13706.051    7003.4993   -20656.901     85.64112 
    5000    904.03638   -108.62512   0.81799112   -107.80713    11177.222     4.438121     4.438121     4.438121    11177.222   -22232.072    10170.282    45593.458    25705.327   -20164.578   -4734.3927    87.417306 
    5100    1220.8128   -108.87228    1.1046171   -107.76767    4529.1454    4.4446847    4.4446847    4.4446847    4529.1454   -24207.159     16545.81    21248.786   -19907.125   -12471.381   -32006.743    87.805736 
    5200    2406.4261   -109.91034    2.1773849   -107.73296    13289.256    4.4307781    4.4307781    4.4307781    13289.256   -28430.986    70144.187   -1845.4316    9464.3496   -2728.3463   -17946.206    86.984123 
    5300     1208.083   -108.85006    1.0930989   -107.75696     28170.83    4.4023236    4.4023236    4.4023236     28170.83   -46145.892    24055.105    106603.28    7125.7066    2255.0436   -28997.598    85.319029 
    5400    1541.5451   -109.18172    1.3948224    -107.7869    26869.398    4.4060482    4.4060482    4.4060482    26869.398    33425.263     23632.66     23550.27    2572.9095    2990.1033    -28200.61    85.535761 
    5500     1881.067   -109.49592    1.7020289   -107.79389     7561.582    4.4258732    4.4258732    4.4258732     7561.582   -55420.867   -18467.624    96573.237   -8846.3789   -1752.0625    6624.1585    86.695569 
    5600    1638.5092   -109.27607    1.4825576   -107.79351   -36857.123    4.4288893    4.4288893    4.4288893   -36857.123   -64208.567    -32092.01   -14270.792   -26052.434   -2516.4366   -16694.194    86.872929 
    5700    1770.5028   -109.38104    1.6019882   -107.77906   -3629.6658    4.4102873    4.4102873    4.4102873   -3629.6658   -38462.754    42338.286   -14764.529    11753.113    12456.874   -13335.094    85.782886 
    5800    2143.2105   -109.71593    1.9392219    -107.7767   -18430.173    4.4008609    4.4008609    4.4008609   -18430.173   -35840.972   -47608.328    28158.781   -31117.204   -1193.4957    9634.9903    85.234012 
    5900    1115.5709   -108.82877     1.009392   -107.81938   -22821.132    4.4071607    4.4071607    4.4071607   -22821.132   -78390.849    30016.366   -20088.913   -17498.111     3058.459    -16402.96     85.60057 
    6000    1944.8082   -109.58235    1.7597033   -107.82265    786.29275    4.4119095    4.4119095    4.4119095    786.29275   -46307.143    53170.291   -4504.2703    74.832293     28102.14    5569.4914     85.87758 
    6100    2163.3329   -109.76574     1.957429   -107.80831   -8308.6898    4.4302984    4.4302984    4.4302984   -8308.6898   -13057.135    -56642.18    44773.245    5509.4847   -14521.061   -5993.4167    86.955879 
    6200    734.58226   -108.47399   0.66466546   -107.80933   -17543.469    4.4227936    4.4227936    4.4227936   -17543.469   -48245.884    46667.896   -51052.418    12537.297   -673.59853   -15516.286    86.514724 
    6300    2161.0208   -109.74101     1.955337   -107.78567    30598.791    4.3895625    4.3895625    4.3895625    30598.791   -3542.1506    17839.735    77498.789   -9496.9901     5666.078   -1659.3804    84.579224 
    6400    2400.0127   -109.98337    2.1715819   -107.81179     20802.76     4.391462     4.391462     4.391462     20802.76    7454.1537     36850.02    18104.105    5788.9452   -4443.1442    35560.866    84.689075 
    6500    1586.3691   -109.28478    1.4353801    -107.8494    3191.3695    4.4197837    4.4197837    4.4197837    3191.3695   -29784.467   -11316.308    50674.884    18052.601    25096.914   -19441.375    86.338209 
    6600    1668.6515   -109.32473    1.5098309    -107.8149   -51327.007    4.4423485    4.4423485    4.4423485   -51327.007   -38857.172   -54888.092   -60235.757    1202.8757   -14040.418    24018.016    87.667349 
    6700    1799.4127   -109.40606    1.6281464   -107.77791    7727.9772    4.4132263    4.4132263    4.4132263    7727.9772   -40829.172    13967.478    50045.625   -7947.5075    6406.1636    17622.395    85.954494 
    6800    2245.8223   -109.80378    2.0320672   -107.77171     9043.806    4.3887916    4.3887916    4.3887916     9043.806   -23317.257     20321.99    30126.685    5558.3131    23144.649   -1914.0599    84.534676 
    6900    932.48749   -108.66439   0.84373428   -107.82066    7349.7867    4.4038165    4.4038165    4.4038165    7349.7867    49534.745   -13557.993   -13927.392    3827.7033   -22944.864    62095.714    85.405853 
    7000    2476.0474   -110.03417    2.2403797   -107.79379   -22770.654    4.4333289    4.4333289    4.4333289   -22770.654   -38393.843   -38563.886    8645.7665     10820.58   -32.035746   -10761.176    87.134444 
    7100    1281.1454   -108.93882    1.1592073   -107.77961   -37523.692    4.4444037    4.4444037    4.4444037   -37523.692   -24877.195   -41948.837   -45745.044   -11711.966    7529.5222    49552.644    87.789084 
    7200    2247.1358   -109.78785    2.0332557   -107.75459   -16191.266    4.4103498    4.4103498    4.4103498   -16191.266    -14600.63   -14880.045   -19093.124   -9226.5852   -22313.848    22941.048    85.786532 
    7300    2212.6139   -109.75675    2.0020195   -107.75473    32025.293    4.3958766    4.3958766    4.3958766    32025.293    51748.542    27383.398    16943.939    470.50737    19096.357     14456.31     84.94474 
    7400    1497.9718   -109.14613    1.3553964   -107.79074   -1105.3674    4.4156241    4.4156241    4.4156241   -1105.3674    19013.812   -19814.248   -2515.6667   -18882.984    2666.5079    51792.764    86.094673 
    7500    1729.9896   -109.34036    1.5653309   -107.77503    11768.625    4.4395155    4.4395155    4.4395155    11768.625   -40013.646    27861.932    47457.588   -4190.4952   -6212.3717   -38807.163    87.499731 
    7600    1407.9803   -109.03651    1.2739702   -107.76254   -39224.795    4.4429113    4.4429113    4.4429113   -39224.795   -7229.4307   -49653.906    -60791.05   -2795.1459    1540.6891    63849.291    87.700673 
    7700    2382.7159   -109.91556    2.1559314   -107.75963    1622.1776    4.3947965    4.3947965    4.3947965    1622.1776    6672.4373    35776.511   -37582.416   -7806.1815    3267.0031    9822.2876    84.882138 
    7800     1460.405   -109.08367    1.3214051   -107.76226    85625.668    4.3719625    4.3719625    4.3719625    85625.668    107917.45    54003.009    94956.539    10419.687    4028.5969   -22377.596    83.565937 
    7900    1953.0762    -109.5792    1.7671844   -107.81201   -4510.2248    4.4147968    4.4147968    4.4147968   -4510.2248   -1307.7655    14520.213   -26743.122   -14888.428   -10236.175    35603.197     86.04629 
    8000    1565.1469   -109.19138    1.4161778    -107.7752   -27796.032    4.4417499    4.4417499    4.4417499   -27796.032   -83889.728   -3123.6942     3625.325    3179.7791   -15885.011   -24224.509    87.631914 
    8100    1845.0895   -109.40799    1.6694758   -107.73852   -12706.148    4.4264317    4.4264317    4.4264317   -12706.148   -30514.645   -6612.9115   -990.88565    1144.8914    13033.512    14688.853    86.728391 
    8200    1734.5669   -109.30366    1.5694726   -107.73418    24558.056    4.4028886    4.4028886    4.4028886    24558.056   -11102.233    84715.525    60.876331    736.17441   -19936.275   -20874.231    85.351879 
    8300    1247.0299   -108.89517    1.1283388   -107.76683    2513.2178    4.3991335    4.3991335    4.3991335    2513.2178    22322.793   -2375.5947   -12407.545    6725.0133   -3631.2667   -35033.506    85.133686 
    8400    2332.8973   -109.88339    2.1108545   -107.77254    24458.253    4.4101611    4.4101611    4.4101611    24458.253    10645.673    30722.005    32007.083   -2371.9923    -2515.047     6773.092    85.775518 
    8500    717.48717   -108.44803   0.64919747   -107.79883   -7335.2396    4.4361462    4.4361462    4.4361462   -7335.2396    5012.6586    24373.025   -51391.402    17233.362   -10650.229   -36382.622    87.300667 
    8600    2328.5406   -109.85376    2.1069124   -107.74684   -9978.9895    4.4440888    4.4440888    4.4440888   -9978.9895   -11877.344   -19796.216    1736.5919   -13375.486   -16110.801   -12346.843    87.770419 
    8700    1505.7909   -109.09071    1.3624713   -107.72824   -439.13782    4.4285764    4.4285764    4.4285764   -439.13782    23788.806    19654.583   -44760.803   -7872.9895    5427.2904   -1818.4569    86.854523 
    8800    1917.2444   -109.46442     1.734763   -107.72965   -15516.587    4.4136021    4.4136021    4.4136021   -15516.587   -41672.553    15900.576   -20777.785   -14371.064   -12922.318   -17347.786    85.976453 
    8900    1884.5283   -109.45011    1.7051608   -107.74495    2631.8796    4.4176358    4.4176358    4.4176358    2631.8796    1828.1381    31924.844   -25857.344   -9540.1083    7693.0432    36001.915    86.212398 
    9000    2102.5522   -109.66219    1.9024335   -107.75976    -27072.86    4.4223369    4.4223369    4.4223369    -27072.86   -30929.684   -15165.545   -35123.351   -18438.317    7636.3527   -33311.073    86.487922 
    9100    2099.9254   -109.65328    1.9000566   -107.75322    14009.127    4.4152577    4.4152577    4.4152577    14009.127    51621.569   -56.852189   -9537.3356   -13880.519   -9115.4473    43321.051    86.073242 
    9200     1994.435   -109.56865    1.8046067   -107.76404   -15982.141    4.4157366    4.4157366    4.4157366   -15982.141   -33388.421    33376.171   -47934.175    -12021.16    8973.0681   -6938.0173    86.101256 
    9300    1685.0302   -109.29442    1.5246507   -107.76977   -10450.447    4.4226239    4.4226239    4.4226239   -10450.447    72057.312   -48237.648   -55171.004   -8991.7838   -4189.5604      22286.5    86.504764 
    9400    2007.5161   -109.58844    1.8164427   -107.77199    10980.676    4.4180179    4.4180179    4.4180179    10980.676    68900.414   -19124.679   -16833.707   -439.92897   -1678.4562    36775.573    86.234771 
    9500    2133.6568   -109.70069    1.9305775   -107.77011   -19569.255    4.4172502    4.4172502    4.4172502   -19569.255    35682.168   -44538.806   -49851.128   -1058.1179    6625.3733   -4190.2916    86.189827 
    9600    1210.5879   -108.87331    1.0953654   -107.77794    2948.5609    4.4131153    4.4131153    4.4131153    2948.5609    113922.17   -49554.403   -55522.084   -209.41974    13096.661    67925.973    85.948008 
    9700     2436.099   -109.96097    2.2042336   -107.75673   -1045.4519    4.4182987    4.4182987    4.4182987   -1045.4519    5190.7456   -16661.881    8334.7798     10121.11   -2990.0811   -28421.018    86.251215 
    9800     981.3775   -108.66843   0.88797099   -107.78046   -36011.574    4.4298408    4.4298408    4.4298408   -36011.574    19043.706   -47087.617   -79990.813   -8184.5709    368.88423    67068.436    86.928936 
    9900    2153.0648   -109.70752    1.9481383   -107.75938     18482.81    4.4198827    4.4198827    4.4198827     18482.81    9309.4069    1845.6747    44293.349    2221.0124    6322.7944   -26917.052    86.344011 
   10000    1703.2656   -109.31562    1.5411505   -107.77447    6147.8803    4.4083145    4.4083145    4.4083145    6147.8803    49398.792    -32871.83    1916.6796   -278.00497    -2442.301    54653.233     85.66782 
   10100    1849.9208   -109.45883    1.6738472   -107.78499    29971.606    4.4236059    4.4236059    4.4236059    29971.606    24661.758   -3351.5043    68604.564   -8091.2462   -5090.8426   -14144.542    86.562398 
   10200    1449.5865   -109.08747    1.3116163   -107.77586    -17339.73    4.4343043    4.4343043    4.4343043    -17339.73    19831.753    -37736.32   -34114.624    11639.322    1755.6278    27915.006    87.191966 
   10300     1779.526   -109.36914    1.6101525   -107.75899    13075.261    4.4164007    4.4164007    4.4164007    13075.261    32131.638   -39734.734    46828.879   -13681.674    19655.317    3038.9164    86.140108 
   10400    2200.3554    -109.7514    1.9909278   -107.76048    7190.8455    4.4121616    4.4121616    4.4121616    7190.8455    44996.977    -46496.89    23072.449    14338.603   -6127.2295    1537.2515    85.892299 
   10500    1147.3093   -108.83089    1.0381095   -107.79278    24573.087    4.4217666    4.4217666    4.4217666    24573.087    56264.345   -34146.862    51601.778    15638.299   -2648.9914    31643.663    86.454466 
   10600    2116.7111   -109.68048    1.9152447   -107.76524   -9217.4621    4.4388282    4.4388282    4.4388282   -9217.4621    24251.411   -26520.545   -25383.252    9490.9085    11308.334    -34848.44      87.4591 
   10700    1446.8663    -109.0518     1.309155   -107.74265    11548.091     4.436621     4.436621     4.436621    11548.091   -2789.8724    15761.528    21672.616    16660.849    7611.8959    50224.178    87.328698 
   10800    2034.5298   -109.58048    1.8408853    -107.7396    4913.9603    4.4170232    4.4170232    4.4170232    4913.9603    12000.042   -6444.5068    9186.3457   -26618.472    14387.277   -18081.356    86.176539 
   10900    1913.1417     -109.497    1.7310508   -107.76595    27494.053    4.4047046    4.4047046    4.4047046    27494.053   -24034.923    40845.826    65671.257    29126.732    11948.616    10916.975    85.457533 
   11000    1977.6348   -109.59902    1.7894056   -107.80961   -10501.699    4.4198026    4.4198026    4.4198026   -10501.699   -22494.948   -23813.987    14803.836   -8723.3841    16780.692    9887.8703    86.339319 
   11100    1382.4207   -109.05874    1.2508433    -107.8079   -6542.6521    4.4341924    4.4341924    4.4341924   -6542.6521   -47036.072    1963.5459    25444.569   -8991.3684    7093.6268   -15620.316    87.185369 
   11200    2306.3809   -109.86443    2.0868619   -107.77756   -9929.9128    4.4271243    4.4271243    4.4271243   -9929.9128    10327.124   -59988.942    19872.079    38882.575    11178.275    674.43011     86.76911 
   11300    1734.5862   -109.35455      1.56949   -107.78506    1959.1506    4.4155588    4.4155588    4.4155588    1959.1506   -33356.525    -22336.13    61570.108   -46307.846    19364.773   -6498.6227    86.090854 
   11400    1794.3515   -109.42481    1.6235669   -107.80125    12356.716    4.4282549    4.4282549    4.4282549    12356.716    26227.848   -31289.616    42131.915    36883.147    2050.4633   -1519.0002    86.835604 
   11500    2356.1249   -109.89394    2.1318713   -107.76207   -33180.938    4.4590157    4.4590157    4.4590157   -33180.938   -35700.783    -58581.66   -5260.3722   -27061.051    16347.854   -7837.9845     88.65781 
   11600    1328.0349   -108.95431    1.2016339   -107.75268   -29663.403     4.436436     4.436436     4.436436   -29663.403   -76053.993   -50015.467    37079.252    5654.9275    7295.1406   -9472.1473    87.317773 
   11700    2347.6738   -109.84105    2.1242246   -107.71683    32389.805    4.3977958    4.3977958    4.3977958    32389.805    50338.603   -24819.835    71650.645    13518.634     20293.02   -21823.999    85.056043 
   11800    1972.0104   -109.56624    1.7843164   -107.78192   -6229.1696    4.4153325    4.4153325    4.4153325   -6229.1696   -58514.701   -29860.268    69687.461   -13096.351   -1637.1855    -358.2748    86.077617 
   11900    1410.3861   -109.07841     1.276147   -107.80226   -22111.367    4.4542605    4.4542605    4.4542605   -22111.367   -23267.779   -50493.687    7427.3656     17608.01    12342.407   -12178.627    88.374471 
   12000    1820.2884   -109.39175    1.6470352   -107.74472   -45478.045    4.4590659    4.4590659    4.4590659   -45478.045   -22670.228   -52676.789   -61087.119   -8936.0272   -32363.027    13562.254    88.660806 
   12100    1405.6669   -109.01833     1.271877   -107.74645   -5583.4859    4.4043211    4.4043211    4.4043211   -5583.4859    -28724.47   -20909.299    32883.311    28417.168     2989.388    13873.276    85.435214 
   12200    1968.9141   -109.50242    1.7815148   -107.72091     69525.29    4.3741212    4.3741212    4.3741212     69525.29    88160.877    43570.483    76844.509   -12773.495   -11634.426   -10813.919     83.68978 
   12300    1396.0471   -109.08085    1.2631727   -107.81768   -13234.428    4.4204602    4.4204602    4.4204602   -13234.428    8847.6049   -44962.818   -3588.0705    18784.786   -36298.916    5666.6603    86.377863 
   12400     1837.606   -109.43018    1.6627045   -107.76748   -8551.5414    4.4651008    4.4651008    4.4651008   -8551.5414   -6105.0236   -26133.969    6584.3689   -6381.1192    28353.222   -2199.1866    89.021271 
   12500    1464.4475   -109.06831    1.3250629   -107.74325   -36440.339    4.4479377    4.4479377    4.4479377   -36440.339   -52834.422   -10802.209   -45684.386   -525.14276   -77869.596    485.44159    87.998663 
   12600    2288.3253   -109.77051    2.0705248   -107.69998    48292.243    4.3839381    4.3839381    4.3839381    48292.243    21282.631    9524.0635    114070.03     16819.61    37870.555    15690.548    84.254525 
   12700    1501.0841   -109.10926    1.3582125   -107.75104    7345.6406    4.3824538    4.3824538    4.3824538    7345.6406    2016.8365    69345.684   -49325.599   -17413.127   -96651.304   -6291.9952    84.168973 
   12800    2186.2251   -109.76864    1.9781424   -107.79049   -18290.771    4.4218598    4.4218598    4.4218598   -18290.771   -14534.001   -35710.232   -4628.0818    13478.881    965.22732    15566.722    86.459936 
   12900    1708.4113   -109.32553    1.5458064   -107.77973   -21651.234    4.4461495    4.4461495    4.4461495   -21651.234    13807.909   -32281.121   -46480.491   -847.62078   -33824.139    7250.9525    87.892576 
   13000    1536.8141   -109.14642    1.3905417   -107.75588    3657.4632    4.4257496    4.4257496    4.4257496    3657.4632    12810.103    44249.866   -46087.579    -8140.231   -45356.531    2185.8139    86.688305 
   13100    1986.2895   -109.53138    1.7972365   -107.73415    27824.644    4.3928491    4.3928491    4.3928491    27824.644    82727.164   -1988.7841    2735.5518    25501.452    9849.5594    12092.488     84.76935 
   13200    1636.1247   -109.25345       1.4804   -107.77305   -21961.142    4.3981637    4.3981637    4.3981637   -21961.142   -56886.433    38136.632   -47133.626   -3816.2707   -91815.879    662.81573     85.07739 
   13300     2241.837   -109.81519    2.0284612   -107.78673    6144.4717    4.4224585    4.4224585    4.4224585    6144.4717   -4720.3677    32697.866   -9544.0834        14560    36272.787    5849.4612    86.495058 
   13400    1614.6636    -109.2387    1.4609816   -107.77772   -46335.605    4.4559904    4.4559904    4.4559904   -46335.605    -67172.66    26563.964   -98398.118    9744.4923   -49454.504   -7382.3887    88.477482 
   13500    1689.8441   -109.23849    1.5290065   -107.70948    14383.432    4.4415873    4.4415873    4.4415873    14383.432    18968.621    39959.495    -15777.82   -11275.955    6718.6356    20014.432    87.622293 
   13600    1459.2973   -109.00231    1.3204029   -107.68191    45092.162    4.4095139    4.4095139    4.4095139    45092.162    43489.322    73928.736    17858.428   -29371.316    -26450.59   -859.68813    85.737761 
   13700    1811.6652   -109.35263    1.6392327    -107.7134    33050.837     4.416769     4.416769     4.416769    33050.837    78465.755    30005.114   -9318.3586    -15742.66    -12320.08    1916.4424     86.16166 
   13800     978.2659   -108.62727   0.88515554   -107.74212    31289.697    4.4319827    4.4319827    4.4319827    31289.697    43033.602    60773.118   -9937.6305   -31907.083    7462.2961   -2070.8868    87.055093 
   13900    2009.0788   -109.53588    1.8178567   -107.71802    14623.949    4.4415159    4.4415159    4.4415159    14623.949   -22064.931    75720.709   -9783.9298   -30399.507   -21135.025     435.7346    87.618069 
   14000    1417.8948   -108.99981     1.282941   -107.71687   -43790.583    4.4452945    4.4452945    4.4452945   -43790.583   -17565.149   -23595.104   -90211.497    299.42441    21808.019    6134.7783    87.841879 
   14100    2402.5365    -109.8779    2.1738655   -107.70403   -5316.0145    4.4198724    4.4198724    4.4198724   -5316.0145   -16032.978   -12673.884    12758.819    9544.2071   -16459.315   -8961.4964    86.343407 
   14200    1645.4467   -109.20795    1.4888347   -107.71912    21049.279    4.3961608    4.3961608    4.3961608    21049.279    58532.761    29787.401   -25172.326    15260.024    10284.368    9052.4921    84.961217 
   14300    2023.6406   -109.60632    1.8310326   -107.77529    15374.294    4.4136414    4.4136414    4.4136414    15374.294    53823.351    8797.5678   -16498.038    12101.394    5492.4956    3609.1379     85.97875 
   14400    1984.6794   -109.55106    1.7957796   -107.75528   -29973.198    4.4451162    4.4451162    4.4451162   -29973.198   -8604.3518   -38949.957   -42365.284    22028.568   -2476.3818    23863.596     87.83131 
   14500    1014.2606    -108.6841   0.91772428   -107.76638    -31957.74    4.4226335    4.4226335    4.4226335    -31957.74    34723.502   -52796.938   -77799.784   -2306.4064    30503.547    23504.706     86.50533 
   14600    2722.5717   -110.19461    2.4634401   -107.73117    23225.563    4.3937788    4.3937788    4.3937788    23225.563    26055.472    28434.575     15186.64    14323.329   -11526.442    4483.3876    84.823186 
   14700    1455.4167   -109.10243    1.3168916   -107.78553   -8492.4782    4.4094341    4.4094341    4.4094341   -8492.4782    33273.492   -58986.484    235.55728    8383.1148   -3572.7786    20050.715    85.733106 
   14800    1787.8179   -109.40423    1.6176552   -107.78658   -40234.694    4.4297613    4.4297613    4.4297613   -40234.694   -23331.159   -43342.719   -54030.203   -191.93527    8111.9373   -20998.468    86.924253 
   14900    2171.5886   -109.73398     1.964899   -107.76908   -38163.318    4.4268519    4.4268519    4.4268519   -38163.318   -23608.402   -24870.388   -66011.163    11356.811   -40151.535    6879.2577    86.753096 
   15000    1590.8131   -109.20986    1.4394011   -107.77046    14525.447    4.4001517    4.4001517    4.4001517    14525.447    70571.782    -37779.31     10783.87    3976.8266    29566.516    -10484.89    85.192809 
   15100    1634.2534   -109.26058    1.4787068   -107.78187   -218.03846    4.3799422    4.3799422    4.3799422   -218.03846   -1443.6178    14288.594   -13499.092    5872.1945   -48734.062   -13484.094    84.024343 
   15200     2572.451   -110.13727    2.3276078   -107.80966     5938.672    4.4004318    4.4004318    4.4004318     5938.672    35993.818   -3249.5006   -14928.302    1390.6371   -11990.244    3287.3056    85.209083 
   15300    1016.7681   -108.75186   0.91999317   -107.83187    14180.959     4.431811     4.431811     4.431811    14180.959    37003.684   -1043.6244    6582.8181    -2593.856   -5413.5293   -10739.381    87.044971 
   15400    2006.2412   -109.59814    1.8152892   -107.78285   -46363.479    4.4398474    4.4398474    4.4398474   -46363.479   -52681.037    -829.6045   -85579.795   -8740.0939   -45816.017    20941.457    87.519362 
   15500    2436.1237   -109.97242    2.2042559   -107.76817    14371.258    4.3892094    4.3892094    4.3892094    14371.258    62551.204   -20684.394    1246.9662    1671.6013    8948.0071    4025.3762    84.558817 
   15600    907.36886   -108.60386   0.82100641   -107.78285    22322.407    4.3659409    4.3659409    4.3659409    22322.407   -19081.503    79254.189     6794.536   -6484.2157   -50780.382   -11229.874    83.221121 
   15700    1983.8436   -109.61455    1.7950233   -107.81952   -11747.726    4.3975406    4.3975406    4.3975406   -11747.726    17145.067   -7114.2536   -45273.991    13683.572    -16805.38    40819.756     85.04124 
   15800    1873.3852   -109.51049    1.6950783   -107.81541   -10836.268    4.4324459    4.4324459    4.4324459   -10836.268   -56080.362   -4373.0156    27944.574   -12467.588   -17405.639    491.75747    87.082386 
   15900    1752.9675   -109.35974    1.5861218   -107.77362   -56061.752    4.4475277    4.4475277    4.4475277   -56061.752   -81944.448   -39355.095   -46885.713   -8129.6811   -35085.119    23664.077    87.974331 
   16000    2158.1732   -109.70831    1.9527604   -107.75555   -2003.9424    4.4005026    4.4005026    4.4005026   -2003.9424    12545.077    14179.831   -32736.735   -2051.5209   -3128.5265    53708.464    85.213195 
   16100    1763.7406   -109.34626    1.5958695   -107.75039    47800.728    4.3720127    4.3720127    4.3720127    47800.728   -37616.029    142190.62    38827.594   -15071.948   -47315.726   -10930.957    83.568814 
   16200    1900.0032   -109.50998    1.7191628   -107.79082    7569.0302    4.4095554    4.4095554    4.4095554    7569.0302     16428.24    24131.099   -17852.248    2964.1803    12460.559    21833.993    85.740185 
   16300    1143.2184   -108.82753    1.0344081   -107.79313   -18708.769    4.4416461    4.4416461    4.4416461   -18708.769   -36860.263    13933.999   -33200.043    7853.8093   -52407.105    3206.2075    87.625771 
   16400    2333.5641   -109.86529    2.1114578   -107.75383   -13912.608    4.4375877    4.4375877    4.4375877   -13912.608   -42911.276    -12023.85    13197.302    -10152.83    8556.8355   -19258.369    87.385797 
   16500    1708.2611   -109.31164    1.5456705   -107.76597    19530.923    4.3894341    4.3894341    4.3894341    19530.923    16613.442    55139.486    -13160.16    5176.4074   -29127.391    15984.526    84.571806 
   16600    1520.6289   -109.15676     1.375897   -107.78087     17650.61    4.3700495    4.3700495    4.3700495     17650.61   -9620.1196    17583.046    44988.904   -2035.2234   -48154.002   -9459.6729    83.456289 
   16700    2243.4742   -109.84307    2.0299426   -107.81312    1478.2563    4.4008952    4.4008952    4.4008952    1478.2563   -2841.4247    -17831.41    25107.604    10027.041    14152.971   -17929.629    85.236003 
   16800    1739.6487   -109.39062    1.5740707   -107.81655   -34420.608    4.4255455    4.4255455    4.4255455   -34420.608   -87786.305    16872.821   -32348.339     2094.461   -60756.148    11050.079    86.676311 
   16900    2118.3674   -109.69179    1.9167434   -107.77505   -52523.958     4.434953     4.434953     4.434953   -52523.958   -34282.941   -82073.123   -41215.811   -3973.0055    17370.423    5905.3686    87.230239 
   17000    1464.9729   -109.09953    1.3255383   -107.77399   -43268.833    4.4074169    4.4074169    4.4074169   -43268.833    -58101.57   -40097.555   -31607.375    18778.081   -50648.552   -26423.082    85.615498 
   17100    2478.3978   -110.00492    2.2425064   -107.76242     32290.96    4.3688359    4.3688359    4.3688359     32290.96    16849.852    47451.812    32571.216     -1861.73   -16305.133   -1534.0133    83.386778 
   17200    2311.0252   -109.90719    2.0910642   -107.81613    -4076.837    4.3888586    4.3888586    4.3888586    -4076.837   -29045.328   -21765.805    38580.621   -11345.367   -4075.5317    1697.7033    84.538542 
   17300    642.87945   -108.44016   0.58169084   -107.85847   -27408.681     4.416612     4.416612     4.416612   -27408.681   -44929.835   -41183.779    3887.5724    12331.666   -77014.711   -18775.526    86.152469 
   17400    2844.0043   -110.38371    2.5733149   -107.81039   -5878.4725    4.4235489    4.4235489    4.4235489   -5878.4725    8091.7237    277.27123   -26004.413   -9235.1226    17400.263   -1035.8612    86.559053 
   17500    1393.9447     -109.083    1.2612704   -107.82173   -23956.275    4.4127171    4.4127171    4.4127171   -23956.275   -60957.426     21658.34   -32569.738    3969.8038   -47398.757    5682.2439    85.924748 
   17600     1382.287   -109.07009    1.2507223   -107.81936    6323.1377    4.3720832    4.3720832    4.3720832    6323.1377    41946.082    -22858.58   -118.08955    15541.211   -29188.841   -38195.641    83.572858 
   17700    2214.0405   -109.82492    2.0033103   -107.82161    39315.564    4.3739255    4.3739255    4.3739255    39315.564     15716.66    82547.639    19682.392   -6631.0184    3006.3288    7602.4932    83.678548 
   17800     2033.122   -109.66819    1.8396115   -107.82858   -7683.7564    4.4080804    4.4080804    4.4080804   -7683.7564   -28023.858    15760.569    -10787.98   -4860.0289   -33082.603   -10937.826    85.654173 
   17900    1736.9719    -109.3762    1.5716487   -107.80456    13014.201    4.4210036    4.4210036    4.4210036    13014.201    26646.077    40337.299   -27940.774    34511.336    10640.827   -35240.146    86.409721 
   18000    1824.6841   -109.44951    1.6510125   -107.79849   -7557.0694    4.4052036    4.4052036    4.4052036   -7557.0694   -70196.504    70137.286   -22611.991   -14166.927   -31853.971    18261.014    85.486581 
   18100    1766.2104   -109.40593    1.5981043   -107.80782    3921.2866    4.3713356    4.3713356    4.3713356    3921.2866   -4504.8018    27930.329   -11661.668   -20428.033   -13722.891   -16942.634    83.529995 
   18200    1879.3794   -109.53289     1.700502   -107.83239     20071.51    4.3787157    4.3787157    4.3787157     20071.51    4834.6025    30607.888    24772.038    10158.032    2990.7316   -20150.111    83.953779 
   18300    1880.8706   -109.51913    1.7018513   -107.81728   -49823.727    4.4180758    4.4180758    4.4180758   -49823.727   -101027.37   -37999.813   -10443.995    -29376.57    -36502.65    11640.993     86.23816 
   18400    1253.2676   -108.94812    1.1339829   -107.81414    2496.5774    4.3994973    4.3994973    4.3994973    2496.5774     13779.13    23568.853   -29858.251   -2524.3065    22326.086   -48045.797    85.154805 
   18500    2130.8748    -109.7241    1.9280603   -107.79604    30091.789    4.3867649    4.3867649    4.3867649    30091.789     4735.803    122.91923    85416.645    -10852.36   -7044.6981    5764.2906    84.417614 
   18600    2013.0933    -109.6188    1.8214891   -107.79731    3194.9119    4.3958944    4.3958944    4.3958944    3194.9119   -3020.4352   -25174.227    37779.398   -13674.705   -4373.4525   -13767.115    84.945769 
   18700    1405.3603   -109.08887    1.2715995   -107.81727   -5295.2004    4.3870663    4.3870663    4.3870663   -5295.2004    10205.542    -17850.47   -8240.6731    2931.8292    29868.471   -48956.049    84.435014 
   18800    1815.4567   -109.46893    1.6426634   -107.82627   -3296.2632    4.3986048    4.3986048    4.3986048   -3296.2632    10542.061    1950.5386   -22381.389   -6286.6287   -22303.862    46220.376    85.102993 
   18900    1850.1596   -109.48418    1.6740632   -107.81012   -25971.575    4.4007227    4.4007227    4.4007227   -25971.575   -23859.666   -32838.113   -21216.946   -2017.1333    -28235.02   -39922.436    85.225982 
   19000    1706.3252   -109.34984    1.5439189   -107.80592    -23918.34    4.3920853    4.3920853    4.3920853    -23918.34   -8683.8456   -7607.9188   -55463.257   -6153.3552    47096.107    -13894.91    84.725142 
   19100    1307.9117   -109.00482     1.183426    -107.8214   -17065.967     4.389091     4.389091     4.389091   -17065.967   -28072.772    30961.151   -54086.282    5624.1195   -51004.924     31560.95    84.551976 
   19200    2216.6566   -109.82669    2.0056774   -107.82102   -1862.5644    4.3913744    4.3913744    4.3913744   -1862.5644   -14218.844    -10792.12    19423.271   -5598.4918     3356.486   -20990.235    84.684007 
   19300    1725.7957   -109.38653    1.5615362     -107.825    -6699.068    4.3955629    4.3955629    4.3955629    -6699.068   -24811.793    44059.407   -39344.818    6137.0651    4508.1991    270.99825    84.926551 
   19400    1242.6114    -108.9502    1.1243409   -107.82586    -12136.46    4.3989126    4.3989126    4.3989126    -12136.46   -65839.745     2352.941    27077.424    5884.9961   -61666.827    27094.492     85.12086 
   19500    2591.3718   -110.14026    2.3447277   -107.79553    9549.1863    4.3987517    4.3987517    4.3987517    9549.1863     27820.91   -32955.478    33782.127   -7869.0878    26004.957    13356.021    85.111517 
   19600    1695.6505   -109.34792    1.5342602   -107.81366   -4960.7425    4.3943906    4.3943906    4.3943906   -4960.7425   -44285.805     34610.92   -5207.3427    6838.8481   -65971.433   -3533.4547    84.858623 
   19700    1301.0261   -108.99907    1.1771957   -107.82187   -16866.411    4.4038813    4.4038813    4.4038813   -16866.411    24278.063   -27481.569   -47395.728   -5386.6878    13048.805    23683.605    85.409627 
   19800    2019.7899    -109.6328    1.8275483   -107.80525   -16295.186    4.3966305    4.3966305    4.3966305   -16295.186    4035.4841    -35897.02   -17024.023   -767.53912   -18400.997   -36608.831    84.988448 
   19900    2162.2488   -109.76136    1.9564481   -107.80492   -5881.2481     4.388543     4.388543     4.388543   -5881.2481   -28371.642   -7233.0697    17960.967    870.47106   -43324.141    32535.087    84.520308 
   20000    910.59133    -108.6573   0.82392217   -107.83338     1073.273    4.3905812    4.3905812    4.3905812     1073.273    59658.556   -78125.705    21686.968   -310.04258    24524.218   -13197.631    84.638124 
   20100    2172.4218   -109.79213    1.9656529   -107.82648   -5896.0806    4.4023445    4.4023445    4.4023445   -5896.0806    223.14183   -34319.834     16408.45   -4344.0974   -12252.506   -31956.326    85.320242 
   20200    2253.9838   -109.85422    2.0394519   -107.81477    33754.438    4.3870452    4.3870452    4.3870452    33754.438   -9469.7433   -1417.6247    112150.68    4984.9025   -21449.739    712.25635    84.433797 
   20300    1427.7409   -109.12642      1.29185   -107.83457   -20787.823    4.3858173    4.3858173    4.3858173   -20787.823    33923.251   -53004.668    -43282.05    575.85792    23957.516    -33917.41    84.362921 
   20400    2047.8855   -109.66514    1.8529699   -107.81217   -10600.395    4.3991775    4.3991775    4.3991775   -10600.395    -53514.62    28208.969   -6495.5335   -5315.7547   -31924.143    22276.388    85.136239 
   20500    1537.0682   -109.19865    1.3907716   -107.80788    10524.803    4.3992052    4.3992052    4.3992052    10524.803   -15509.378    32795.854    14287.934    1876.6817   -24440.938    -41956.68    85.137847 
   20600    1968.9265   -109.57866     1.781526   -107.79714    10400.555    4.4025152    4.4025152    4.4025152    10400.555     156.8975   -18682.195    49726.961    1928.0471    10703.405   -8758.7081    85.330168 
   20700    1738.8543   -109.38132    1.5733519   -107.80797    2426.0535    4.3879191    4.3879191    4.3879191    2426.0535   -74889.186    68320.857     13846.49   -1863.4538   -52333.686    14177.942    84.484263 
   20800    1825.2004   -109.46522    1.6514797   -107.81374     19435.47    4.3828726    4.3828726    4.3828726     19435.47    2836.4777    17967.373    37502.559    3815.6124     12581.46   -39248.254    84.193106 
   20900    2093.7907   -109.70976    1.8945059   -107.81525   -303.39913    4.3963955    4.3963955    4.3963955   -303.39913   -27032.969    18893.454    7229.3172    616.52897   -30480.498   -18275.705     84.97482 
   21000    2056.9656   -109.67405    1.8611857   -107.81287   -10139.613    4.4044356    4.4044356    4.4044356   -10139.613   -62575.732    24446.068    7710.8248    6623.4386    1887.5653   -5459.6949     85.44188 
   21100    1326.6997   -109.01873    1.2004258    -107.8183   -33347.532    4.4070291    4.4070291    4.4070291   -33347.532   -39825.148   -78083.167     17865.72    842.14608    14142.679   -31145.092    85.592905 
   21200    2759.2538    -110.2868    2.4966309   -107.79016    11292.032    4.3946374    4.3946374    4.3946374    11292.032    -22470.39    19910.925    36435.559   -9927.2838   -13708.097   -1131.4048    84.872918 
   21300    1262.4558   -108.96106    1.1422965   -107.81876   -4058.7845    4.3917406    4.3917406    4.3917406   -4058.7845   -73006.744    68963.854   -8133.4641    14442.661    23518.644   -7656.1686    84.705196 
   21400    1741.0326   -109.39681    1.5753229   -107.82148    6296.2796    4.4034615    4.4034615    4.4034615    6296.2796   -49480.675    45510.924    22858.589   -14094.329   -5492.5352    -21441.94    85.385204 
   21500     2391.408   -109.96049    2.1637962    -107.7967   -13487.634    4.4181272    4.4181272    4.4181272   -13487.634   -40696.744    6580.2641   -6346.4209    4116.3673   -7944.5467    32141.232    86.241172 
   21600    1380.6844   -109.07619    1.2492723   -107.82692   -26290.727    4.3890074    4.3890074    4.3890074   -26290.727   -30920.052   -68431.985    20479.855    -9302.569    12935.743   -15998.821    84.547144 
   21700    1573.2212   -109.23538    1.4234836   -107.81189    24875.176    4.3638195    4.3638195    4.3638195    24875.176   -24132.697    48795.292    49962.932   -9634.5516   -40612.229   -3879.9526    83.099867 
   21800    2226.4808   -109.83392    2.0145666   -107.81935    1317.0417    4.3884062    4.3884062    4.3884062    1317.0417   -17832.414    8283.6459    13499.893     608.1952    9568.3844    30554.095    84.512404 
   21900    1685.9413   -109.34616    1.5254751   -107.82069   -36560.887    4.4150015    4.4150015    4.4150015   -36560.887   -44039.166   -59755.529   -5887.9645    -13862.17   -21648.019   -50948.714     86.05826 
   22000    1867.4542   -109.50043    1.6897118   -107.81072   -20628.671    4.4161865    4.4161865    4.4161865   -20628.671   -68179.254   -6342.6462    12635.887     7970.692   -12723.788    14287.021    86.127574 
   22100    1366.5495   -109.05432    1.2364827   -107.81784    9674.5742    4.3752131    4.3752131    4.3752131    9674.5742   -7588.4546   -29108.148    65720.326   -4675.9632    14220.337   -18495.365    83.752473 
   22200    2229.2408   -109.83348    2.0170639   -107.81641    13413.535    4.3668608    4.3668608    4.3668608    13413.535    27861.495   -33468.625    45847.733    -6520.865   -3935.3668   -33739.101    83.273737 
   22300    2371.5362   -109.97287    2.1458158   -107.82705    28524.864    4.3919748    4.3919748    4.3919748    28524.864   -33745.233    2993.8173    116326.01      13323.2    13177.941    9861.1047    84.718744 
   22400    1029.9795   -108.77725   0.93194708    -107.8453   -35356.702    4.4180289    4.4180289    4.4180289   -35356.702    -27473.43   -55775.789   -22820.887   -670.44126    10117.123   -34886.006    86.235415 
   22500    1837.1369    -109.4729    1.6622801   -107.81062   -9888.0837    4.4088669    4.4088669    4.4088669   -9888.0837   -9082.7283   -12605.054   -7976.4689    6891.4421    -15190.37    7367.7443    85.700027 
   22600    2178.8611   -109.76088    1.9714793    -107.7894    13395.467    4.3756328    4.3756328    4.3756328    13395.467   -12561.096    7615.0108    45132.487    12630.669   -9636.1834   -11361.898    83.776574 
   22700    1665.4326    -109.3204    1.5069184   -107.81348    3080.1786    4.3761308    4.3761308    4.3761308    3080.1786    15159.913   -566.69036   -5352.6871   -7044.4736    9923.3685   -46998.405    83.805184 
   22800    1900.2111   -109.55349    1.7193509   -107.83414    4140.4778    4.3891547    4.3891547    4.3891547    4140.4778   -11898.667    35313.885   -10993.784    11841.504    -41904.08    29214.214    84.555657 
   22900    1955.9109     -109.595    1.7697493   -107.82525   -11677.145    4.4161259    4.4161259    4.4161259   -11677.145   -43194.191   -40305.514    48468.269    4693.1346    14257.425   -6075.8929    86.124027 
   23000    1669.9405   -109.33382    1.5109973   -107.82282   -44991.718     4.406693     4.406693     4.406693   -44991.718   -67477.901    -20025.14   -47472.113   -25536.357   -41836.251   -27452.747    85.573321 
   23100    2188.4128   -109.76328    1.9801219   -107.78315    43389.923    4.3666922    4.3666922    4.3666922    43389.923   -4835.9201    69351.025    65654.663    19130.914   -15526.376    17154.416    83.264092 
   23200    1747.2014   -109.38714    1.5809046   -107.80624   -12611.561     4.383119     4.383119     4.383119   -12611.561    10152.603   -39051.545   -8935.7401    -12734.69    591.18958    224.67571    84.207308 
   23300     1351.502   -109.03892    1.2228674   -107.81606   -35738.429    4.4097344    4.4097344    4.4097344   -35738.429   -53558.545   -28479.665   -25177.077   -20509.958   -52257.088   -9664.3613    85.750626 
   23400    2827.7154   -110.35395    2.5585763   -107.79538    12871.045    4.4124863    4.4124863    4.4124863    12871.045   -12411.667    39878.386    11146.415    5217.9489    13421.652    9354.7121    85.911267 
   23500    1284.1446   -109.01793     1.161921   -107.85601   -699.65909    4.3861552    4.3861552    4.3861552   -699.65909   -168.90649     46371.92   -48301.991   -14565.576   -34596.502   -14534.146    84.382419 
   23600    1250.4379   -108.96719    1.1314225   -107.83577    28288.932    4.3607132    4.3607132    4.3607132    28288.932    21079.363     73248.48   -9461.0478   -14453.224   -27085.948   -8459.1791    82.922537 
   23700    2328.3399   -109.94221    2.1067309   -107.83548    1848.6145    4.3950698    4.3950698    4.3950698    1848.6145   -15254.373    22328.764    -1528.547    22401.164    1934.1111    12807.987    84.897975 
   23800    1691.9254   -109.34078    1.5308897   -107.80989   -34038.349    4.4138883    4.4138883    4.4138883   -34038.349   -62576.404    23183.968    -62722.61   -8667.1002   -42094.012    -31461.49    85.993181 
   23900    1993.6489   -109.59064    1.8038954   -107.78674   -8630.0607    4.4004161    4.4004161    4.4004161   -8630.0607   -15786.171   -23807.818    13703.807    11531.136    20390.954   -22950.407    85.208171 
   24000    1492.0689   -109.14052    1.3500553   -107.79046   -30682.907    4.3943714    4.3943714    4.3943714   -30682.907   -75473.848     24460.15   -41035.024    18362.167     -61598.4    22253.403    84.857507 
   24100    1968.6397   -109.57037    1.7812666    -107.7891    15607.759    4.3788621    4.3788621    4.3788621    15607.759    14865.613    55707.921   -23750.257   -9773.1585   -2610.3517   -48901.796    83.962197 
   24200    1633.8726   -109.29734    1.4783622   -107.81898    5746.9946    4.3895823    4.3895823    4.3895823    5746.9946     11406.08   -23756.614    29591.518    14361.402    4272.8333   -22660.858    84.580371 
   24300    2003.7603   -109.62033    1.8130444   -107.80729     -19857.1    4.4036116    4.4036116    4.4036116     -19857.1   -32194.354   -28010.721    633.77473    14700.948    -33828.52    13870.081    85.393932 
   24400    1460.2582   -109.12344    1.3212723   -107.80216     24596.62    4.3968597    4.3968597    4.3968597     24596.62    17268.665   -12506.838    69028.033   -2176.0214    11490.024   -35416.521    85.001744 
   24500    1977.5167   -109.58639    1.7892987   -107.79709   -2283.8661    4.3950028    4.3950028    4.3950028   -2283.8661   -11221.177   -10604.463    14974.041    23419.414    14929.026   -4978.3472    84.894092 
   24600    2487.5712   -110.04751    2.2508067    -107.7967    41269.418    4.3807594    4.3807594    4.3807594    41269.418    44937.685   -10056.704    88927.275   -16372.585   -16083.314    24362.818    84.071387 
   24700    586.74807   -108.37576   0.53090198   -107.84486    197.54495    4.3838032    4.3838032    4.3838032    197.54495    6869.8635    1002.5538   -7279.7825    42642.477     43929.04   -33995.628    84.246751 
   24800    2454.5533    -110.0497    2.2209314   -107.82877   -5302.6933    4.3985518    4.3985518    4.3985518   -5302.6933   -45199.025    21479.187    7811.7575    6072.6035   -546.29583    16440.045    85.099915 
   24900    1849.7145   -109.48766    1.6736605     -107.814   -32963.168    4.4159994    4.4159994    4.4159994   -32963.168   -30036.898   -45920.397    -22932.21    9938.9876    8481.1819   -22325.001     86.11663 
   25000    1245.3037   -108.93801    1.1267769   -107.81123   -45827.829    4.4016131    4.4016131    4.4016131   -45827.829    -53765.32   -30470.026    -53248.14    42876.902    39587.349   -17908.323    85.277722 
   25100    2359.4204   -109.92083    2.1348531   -107.78598    38358.471     4.372512     4.372512     4.372512    38358.471    41139.851    27703.315    46232.247   -11465.493   -31507.472    14151.172    83.597451 
   25200    1928.1718   -109.56465    1.7446504      -107.82    2004.4042    4.3739455    4.3739455    4.3739455    2004.4042   -17273.643   -20053.189    43340.045    42519.664    15770.532    -14373.67    83.679697 
   25300    1368.0533   -109.08342    1.2378433   -107.84557    11265.136    4.3899937    4.3899937    4.3899937    11265.136   -12567.811   -9119.5865    55482.806    16556.084    30777.569   -9993.2032    84.604152 
   25400    2118.9573   -109.73805    1.9172771   -107.82078   -26940.452    4.4162863    4.4162863    4.4162863   -26940.452    20062.561   -61964.618   -38919.299    5197.9397   -13273.116    25752.896    86.133414 
   25500    1721.7502    -109.3689    1.5578758   -107.81102   -19985.428    4.3981051    4.3981051    4.3981051   -19985.428   -49408.182   -50930.692    40382.591    65692.491     2597.797   -2354.7987    85.073989 
   25600    2100.1608   -109.67679    1.9002696   -107.77652     41097.36    4.3667609    4.3667609    4.3667609     41097.36    81530.731    14334.462    27426.888   -27919.437      27824.3   -877.33596    83.268021 
   25700    1320.9752   -109.00735    1.1952461   -107.81211    -23792.52    4.3801754    4.3801754    4.3801754    -23792.52   -4362.6236   -68123.474    1108.5384     52338.38   -20341.906    47669.916    84.037769 
   25800    2009.1528   -109.63771    1.8179237   -107.81978   -8951.9967    4.3903082    4.3903082    4.3903082   -8951.9967   -18839.437   -34380.148    26363.594    23570.968    826.62192   -20123.234    84.622338 
   25900    1561.2695   -109.23338    1.4126694   -107.82071   -22299.148    4.3999705    4.3999705    4.3999705   -22299.148   -3165.0165   -36620.387    -27112.04   -30781.061     24540.01    30749.307    85.182285 
   26000    1849.7996    -109.4767    1.6737376   -107.80296   -17434.208    4.3981727    4.3981727    4.3981727   -17434.208   -19856.244   -12187.648   -20258.731    51482.989   -19278.305    14690.607    85.077915 
   26100    1814.6122   -109.43859    1.6418993   -107.79669    515.05107     4.383287     4.383287     4.383287    515.05107   -23699.264    4561.8559    20682.561   -40515.623     -2571.32   -11333.756     84.21699 
   26200    1574.8524   -109.23376    1.4249595    -107.8088   -9074.7727     4.382819     4.382819     4.382819   -9074.7727    24710.298   -39559.937   -12374.679   -16612.522    32137.423    38127.299    84.190019 
   26300    2326.8165   -109.91009    2.1053524   -107.80473   -14334.941    4.3915595    4.3915595    4.3915595   -14334.941   -16051.794   -3708.4156   -23244.614    24712.467   -28576.164   -15245.601    84.694717 
   26400    1383.3949   -109.06374    1.2517248   -107.81202    13160.632    4.3918006    4.3918006    4.3918006    13160.632    29761.814    3453.8367    6266.2461   -26587.883   -1440.6908    18478.785    84.708666 
   26500    1624.2178   -109.27612    1.4696264   -107.80649    23369.078    4.3935595    4.3935595    4.3935595    23369.078    41221.831    16278.861    12606.542   -18995.008    39409.286    15894.062    84.810483 
   26600    2231.2429   -109.80419    2.0188754   -107.78532   -1736.4726    4.4017552    4.4017552    4.4017552   -1736.4726   -9287.4814   -5537.7868    9615.8503    10991.606   -38921.578   -11937.579    85.285984 
   26700    1081.0395   -108.77837   0.97814727   -107.80022   -27810.832    4.3923947    4.3923947    4.3923947   -27810.832   -4317.6886   -44761.202   -34353.606   -27574.553    28251.662    41104.267    84.743045 
   26800    2034.0199    -109.6417    1.8404239   -107.80128    23043.844    4.3766436    4.3766436    4.3766436    23043.844    6243.5722    43213.096    19674.864    2091.1877     26897.37   -5390.0354     83.83465 
   26900    2334.3508   -109.92177    2.1121696    -107.8096    17236.139    4.3788734    4.3788734    4.3788734    17236.139    47460.024   -4673.3513    8921.7445   -7450.5245   -15033.637    11974.618    83.962849 
   27000    917.68685   -108.66907   0.83034235   -107.83873   -19463.248    4.3934412    4.3934412    4.3934412   -19463.248   -49573.058    35021.382   -43838.066   -30427.696     51847.58    25172.148    84.803634 
   27100     2665.756   -110.21043     2.412032    -107.7984   -10475.078    4.4061705    4.4061705    4.4061705   -10475.078    -20938.35     21888.96   -32375.844    34916.382   -18482.346   -10188.757    85.542883 
   27200    1292.5162    -108.9868    1.1694958    -107.8173   -37120.058    4.3982353    4.3982353    4.3982353   -37120.058   -15889.305   -22638.826   -72832.044   -30461.911    29523.904    40942.421     85.08155 
   27300    1332.9342   -109.03895    1.2060669   -107.83289    13847.752    4.3638603    4.3638603    4.3638603    13847.752   -23216.621    54721.598    10038.278   -23633.121    43460.582    3267.4484    83.102198 
   27400    2636.4818    -110.1962    2.3855441   -107.81065    31961.084    4.3639704    4.3639704    4.3639704    31961.084    22436.242    64012.124    9434.8849    10955.761   -37521.604    8962.0505    83.108489 
   27500    1007.1104   -108.75961   0.91125462   -107.84835   -39390.257    4.4035146    4.4035146    4.4035146   -39390.257   -61625.639   -25841.964   -30703.169   -28665.091    50353.003    25526.716     85.38829 
   27600    2152.4047   -109.75567     1.947541   -107.80813    -38470.98    4.4082789    4.4082789    4.4082789    -38470.98   -72685.804   -27391.954   -15335.181   -14757.247    11699.597   -2679.8958    85.665747 
   27700    2450.9226   -110.02273    2.2176463   -107.80508    20056.585    4.3727471    4.3727471    4.3727471    20056.585     25914.95     22210.69    12044.114    15992.045    3281.5471   -6502.9448    83.610933 
   27800    730.93031   -108.49292    0.6613611   -107.83155    5701.1389    4.3601455    4.3601455    4.3601455    5701.1389   -32942.683     51647.55   -1601.4507    -53515.97    63315.124    21481.992    82.890153 
   27900    2469.3542   -110.05701    2.2343235   -107.82268    3115.4736    4.3884042    4.3884042    4.3884042    3115.4736   -24604.737    12476.965    21474.192    30538.732   -20531.382   -17979.886    84.512288 
   28000    1343.7081   -109.01701    1.2158153    -107.8012   -45787.512    4.4218725    4.4218725    4.4218725   -45787.512   -71323.691    2413.5853    -68452.43   -14546.584    37865.284    11564.147    86.460682 
   28100    1429.5859   -109.10571    1.2935194   -107.81219   -32561.071    4.3922022    4.3922022    4.3922022   -32561.071   -62867.939   -23316.797   -11498.476   -65890.443    14988.098    15475.914    84.731904 
   28200    2588.9252   -110.11389    2.3425139   -107.77138    46950.416    4.3481216    4.3481216    4.3481216    46950.416    42277.956    81843.867    16729.424     30974.95   -23123.255   -11026.589    82.206286 
   28300    1004.0049   -108.74454   0.90844472   -107.83609   -13901.659     4.364741     4.364741     4.364741   -13901.659   -33664.408   -23802.205    15761.635    -57789.56    37850.987    16566.836    83.152524 
   28400    2025.2233   -109.67091    1.8324646   -107.83844   -21827.036    4.4057341    4.4057341    4.4057341   -21827.036   -21190.198   -38930.869   -5360.0403   -14627.487   -2783.6916    5606.6706    85.517472 
   28500     2442.445   -110.01903    2.2099756   -107.80906   -14110.544    4.4114667    4.4114667    4.4114667   -14110.544   -26377.574   -24334.536    8380.4775   -6296.6902    4649.7988    5456.5805    85.851723 
   28600    1063.0738    -108.7769   0.96189153     -107.815    621.86593    4.3797513    4.3797513    4.3797513    621.86593   -37252.669    8014.6155    31103.652   -64744.141    23230.971     16894.31    84.013358 
   28700    2458.1516   -109.98638    2.2241873   -107.76219    23324.255    4.3717849    4.3717849    4.3717849    23324.255    23279.312    31201.242    15492.212    40760.182   -20458.198    1033.7557    83.555753 
   28800    1260.5485    -108.9352    1.1405708   -107.79463   -14845.077    4.3956751    4.3956751    4.3956751   -14845.077   -75427.086   -26320.078    57211.932   -71584.919    21521.916    -490.0013    84.933058 
   28900     2142.181   -109.70479    1.9382904    -107.7665    -29615.72    4.4119349    4.4119349    4.4119349    -29615.72   -13839.435   -27872.836    -47134.89    7300.1367    14597.024    27181.106    85.879061 
   29000    2025.3176   -109.61322      1.83255   -107.78067   -12146.456    4.3847953    4.3847953    4.3847953   -12146.456   -19662.499    -20711.45    3934.5827   -23443.467   -20352.922   -16266.229    84.303961 
   29100    1421.2998   -109.07148    1.2860219   -107.78546    8525.5404    4.3583322    4.3583322    4.3583322    8525.5404    1238.7888    9954.9125     14382.92   -32282.052    39797.082    6055.2616    82.786777 
   29200    2172.5215   -109.76725    1.9657431   -107.80151    8705.2202    4.3713142    4.3713142    4.3713142    8705.2202    46147.604    22.036409   -20053.979    14453.843    3927.2105      34396.5    83.528768 
   29300    1661.4117   -109.31426    1.5032803   -107.81098   -23131.707    4.3965163    4.3965163    4.3965163   -23131.707   -17049.556   -73498.152    21152.587   -52756.668   -5760.8634   -34977.015    84.981825 
   29400    1548.8249   -109.20674    1.4014093   -107.80533   -10643.262    4.3979071    4.3979071    4.3979071   -10643.262    23634.397   -17550.861   -38013.323    5902.8485    39977.717    25826.558    85.062501 
   29500    2126.3477   -109.72452    1.9239641   -107.80056    11223.409    4.3731762    4.3731762    4.3731762    11223.409     16444.73   -3304.0674    20529.563   -15592.151    3532.0899    7802.3885    83.635553 
   29600     1288.107   -108.97308    1.1655063   -107.80757    17623.818    4.3615536    4.3615536    4.3615536    17623.818    50170.288   -37751.493    40452.658   -33917.424    14067.484   -35033.219    82.970485 
   29700    2172.6946   -109.77149    1.9658998   -107.80559    6269.2054    4.3762523    4.3762523    4.3762523    6269.2054    26551.675    16468.147   -24212.206    23610.416     44971.25    16875.676    83.812165 
   29800    1308.3295   -108.99797     1.183804   -107.81417    6892.6554    4.3920191    4.3920191    4.3920191    6892.6554    40498.224   -53173.531    33353.273   -59624.371   -21983.725   -9110.9054    84.721312 
   29900    1930.0967   -109.55187    1.7463921   -107.80548   -21754.083    4.3991166    4.3991166    4.3991166   -21754.083     1781.796   -56855.951   -10188.094    30470.259    24786.801   -23584.451      85.1327 
   30000    2454.3287   -110.01545    2.2207282   -107.79472    21715.757    4.3745445    4.3745445    4.3745445    21715.757    42823.726    16735.713    5587.8313   -20626.505   -18590.716     6127.014    83.714084 
   30100    1046.3889   -108.76616   0.94679471   -107.81937     -2031.19    4.3623143    4.3623143    4.3623143     -2031.19     6224.778   -45294.021    32975.673   -23463.133   -22191.451   -25991.818    83.013905 
   30200    2079.1786   -109.68694    1.8812845   -107.80565   -2558.3421    4.3829632    4.3829632    4.3829632   -2558.3421    19531.672   -38302.434    11095.736    40192.666    6774.1559   -7541.5132    84.198327 
   30300    1674.9814   -109.31563    1.5155584   -107.80007    -8082.893    4.4020947    4.4020947    4.4020947    -8082.893    20855.647   -12000.805   -33103.521   -42065.968   -25105.503    17394.363    85.305719 
   30400     1923.943   -109.52608    1.7408241   -107.78525   -33013.051    4.4073242    4.4073242    4.4073242   -33013.051   -21988.049   -39761.637   -37289.467    7041.0302   -6869.9871    -40066.49      85.6101 
   30500     2096.319   -109.68208    1.8967935   -107.78528    478.00514    4.3788502    4.3788502    4.3788502    478.00514    37992.207   -10648.496   -25909.696    16006.032     8472.675    46681.394    83.961515 
   30600    1730.4374   -109.35961    1.5657361   -107.79388     7629.785    4.3597976    4.3597976    4.3597976     7629.785   -15431.612    21178.911    17142.055   -28495.434    -42409.06    -9593.211    82.870315 
   30700    2047.6865   -109.65857    1.8527898   -107.80578   -4931.9059    4.3767516    4.3767516    4.3767516   -4931.9059    8931.1451   -27718.374    3991.5108   -15639.604    3865.4488    23333.259    83.840855 
   30800    1585.3214   -109.24886    1.4344321   -107.81442   -22799.291    4.3983435    4.3983435    4.3983435   -22799.291   -6523.0976   -19733.534    -42141.24    14320.097    11957.709    41530.789    85.087826 
   30900    1523.5417   -109.18319    1.3785325   -107.80466   -27309.275    4.3983493    4.3983493    4.3983493   -27309.275   -68540.783   -4097.9167   -9289.1258   -28129.694   -51566.624   -19321.837    85.088164 
   31000    2051.5438   -109.65394    1.8562799   -107.79766     1671.515     4.381977     4.381977     4.381977     1671.515    32902.206    -43466.06    15578.399   -18426.509     17677.06    59381.669    84.141506 
   31100    2217.9455   -109.80341    2.0068437   -107.79657    14483.477    4.3717258    4.3717258    4.3717258    14483.477   -12301.581     31381.33    24370.681    7151.0196   -20188.209   -1049.8873    83.552363 
   31200    1067.3201   -108.79082   0.96573365   -107.82509   -13722.277     4.374212     4.374212     4.374212   -13722.277   -24110.436    83.901034   -17140.297   -41016.678   -23708.264     13184.47    83.694994 
   31300     1888.151   -109.53742    1.7084387   -107.82898   -8324.0082    4.3860394    4.3860394    4.3860394   -8324.0082    41306.034   -33243.069    -33034.99   -1546.0401    19534.207    51882.386     84.37574 
   31400      2200.88   -109.80884    1.9914025   -107.81744    1644.1551    4.3872605    4.3872605    4.3872605    1644.1551   -7468.7347    22882.204   -10481.004   -7073.4949   -11989.609   -24805.521    84.446228 
   31500    1202.8802   -108.91407    1.0883913   -107.82568    11208.427    4.3804412    4.3804412    4.3804412    11208.427    21796.132     14999.31   -3170.1609   -34157.503   -22883.287    43817.733    84.053066 
   31600    2248.9517   -109.83106    2.0348988   -107.79616    582.45131    4.3921365    4.3921365    4.3921365    582.45131   -2807.4886    8859.0534   -4304.2108    7880.2724    48760.274    13243.266    84.728101 
   31700    2136.8551   -109.71779    1.9334714   -107.78432   -18540.658     4.395017     4.395017     4.395017   -18540.658   -31083.614   -4033.5228   -20504.836   -25832.778   -22252.899    -7718.921    84.894916 
   31800    1242.7734   -108.92468    1.1244875    -107.8002    1400.8341    4.3778008    4.3778008    4.3778008    1400.8341   -5559.6869    17616.754   -7854.5652   -21610.544    16188.748    40274.095    83.901164 
   31900    2205.2958   -109.79583     1.995398   -107.80044    16650.948    4.3707569    4.3707569    4.3707569    16650.948   -682.91291    19272.753    31363.003    3249.2017    55280.255    -9449.376    83.496823 
   32000    1893.8174   -109.53171    1.7135658   -107.81815    23621.495    4.3693763    4.3693763    4.3693763    23621.495    39876.643   -30206.195    61194.037   -31341.183   -26679.566    10290.196    83.417727 
   32100    1590.9846   -109.27634    1.4395563   -107.83678    5662.9344    4.3826571    4.3826571    4.3826571    5662.9344   -11539.637    46184.618   -17656.178   -9334.0437    22961.117    33193.202    84.180691 
   32200     1822.419   -109.47549     1.648963   -107.82653   -18575.487    4.3911713    4.3911713    4.3911713   -18575.487   -5029.3151   -22947.218   -27749.927   -5084.3071    3596.7562   -41058.646    84.672258 
   32300    1863.8384   -109.50194    1.6864401    -107.8155    27848.483    4.3769115    4.3769115    4.3769115    27848.483    12646.301    14721.053    56178.097   -33809.908   -7680.3557   -5870.3392    83.850043 
   32400    2141.6184   -109.74198    1.9377813    -107.8042    16518.068    4.3806272    4.3806272    4.3806272    16518.068     23776.66    16086.895     9690.648    7644.1876      13450.7   -7342.0753    84.063777 
   32500    1133.1865   -108.85219    1.0253309   -107.82686   -17224.226    4.3827508    4.3827508    4.3827508   -17224.226    38542.149   -77775.197   -12439.629    -33184.71    2027.2787   -54676.721    84.186091 
   32600     1763.671   -109.41237    1.5958066   -107.81657    14231.385    4.3818561    4.3818561    4.3818561    14231.385    35972.537    368.67936    6352.9391   -15223.365   -2129.8744    21158.304    84.134544 
   32700     2103.115   -109.71684    1.9029426   -107.81389     7872.028    4.3849216    4.3849216    4.3849216     7872.028    23088.239    27639.564    -27111.72    4321.4727   -3689.2268   -1071.3486    84.311244 
   32800    1812.9484    -109.4558    1.6403938   -107.81541    11485.954    4.3806591    4.3806591    4.3806591    11485.954    26465.322   -25028.382    33020.923   -63827.534    3698.8594   -11303.303    84.065611 
   32900    1204.5152   -108.91628    1.0898707   -107.82641    1208.4841    4.3862514    4.3862514    4.3862514    1208.4841    15440.525   -4001.4483   -7813.6249    24219.634   -21065.539    40391.848    84.387975 
   33000    1982.4462   -109.59727    1.7937589   -107.80351   -6935.6386    4.3959278    4.3959278    4.3959278   -6935.6386   -24909.318   -14150.363    18252.765   -38241.355   -5274.2786   -9004.0959    84.947703 
   33100    1893.2565   -109.51799    1.7130582   -107.80494   -59.348165    4.3873009    4.3873009    4.3873009   -59.348165     -13638.8   -22255.092    35715.848   -48672.393    13739.535    12914.701    84.448564 
   33200    1863.4628   -109.48296    1.6861003   -107.79686    13322.057    4.3776681    4.3776681    4.3776681    13322.057   -5036.3411    9866.9426     35135.57    25046.523   -30760.791    26452.321    83.893535 
   33300     1553.815   -109.22034    1.4059245   -107.81441   -17008.485    4.3834196    4.3834196    4.3834196   -17008.485   -64288.365   -43705.385    56968.293   -78533.105    8237.4148   -15926.526    84.224636 
   33400    2296.5784   -109.88595    2.0779924   -107.80796    14730.697    4.3836497    4.3836497    4.3836497    14730.697    26222.911   -4292.4812    22261.661      8605.23    21835.315    20022.267    84.237901 
   33500    1841.0562   -109.48684    1.6658263   -107.82102   -843.54871    4.3824441    4.3824441    4.3824441   -843.54871   -30460.533   -10746.922    38676.808   -34747.829   -24999.411    15867.919    84.168419 
   33600    1023.2351   -108.76418   0.92584462   -107.83833   -26626.532    4.3840162    4.3840162    4.3840162   -26626.532   -52726.325   -9504.1656   -17649.104   -54481.993    19032.145   -10853.328     84.25903 
   33700    2648.7223   -110.21242    2.3966196    -107.8158    9189.4644    4.3786446    4.3786446    4.3786446    9189.4644   -1218.3702   -10530.607     39317.37    32326.612    22766.138    13227.642    83.949691 
   33800    1521.9766   -109.20842    1.3771164   -107.83131   -11396.201    4.3862523    4.3862523    4.3862523   -11396.201   -49042.788   -43414.883    58269.068    -38875.69   -19473.545     5799.937    84.388024 
   33900    1680.9659   -109.33969    1.5209732   -107.81871   -8359.0455    4.3877729    4.3877729    4.3877729   -8359.0455   -8122.4653    137.28662   -17091.958   -16455.917    2872.0759   -19921.761    84.475822 
   34000    2165.9981   -109.76817    1.9598406   -107.80833   -11337.358    4.3874934    4.3874934    4.3874934   -11337.358   -20075.944   -35882.848     21946.72    34586.251    16742.498    9196.0858    84.459677 
   34100     1475.942   -109.15334    1.3354633   -107.81788   -18976.646     4.381909     4.381909     4.381909   -18976.646   -48910.086   -47848.277    39828.424   -51334.164    -16451.18   -9067.2903    84.137587 
   34200    2120.2805   -109.73307    1.9184743    -107.8146    15524.853    4.3691254    4.3691254    4.3691254    15524.853    33946.609    13301.153   -673.20231    17440.988   -6145.5233   -10052.438    83.403355 
   34300    1548.6888   -109.23304    1.4012862   -107.83176   -25575.439    4.3823088    4.3823088    4.3823088   -25575.439   -47202.626   -74277.753    44754.062     24341.78    11953.941    10593.212    84.160622 
   34400    1542.7797   -109.22405    1.3959395   -107.82811   -1805.5464     4.387769     4.387769     4.387769   -1805.5464   -17355.978    -5748.333    17687.672   -62276.833   -21106.349   -2702.3665    84.475595 
   34500    2647.9735   -110.20156    2.3959421   -107.80562   -488.84354     4.390935     4.390935     4.390935   -488.84354    30840.132   -14399.136   -17907.526    32210.093    3534.6371    5812.4885     84.65859 
   34600    815.40775   -108.56731   0.73779807   -107.82952   -34234.007    4.3895216    4.3895216    4.3895216   -34234.007   -41322.938   -100221.18    38842.096    -63981.04    7123.8491    7956.7706    84.576863 
   34700    2275.8406   -109.86124    2.0592284   -107.80201    22278.131    4.3728624    4.3728624    4.3728624    22278.131    52961.628    1623.7788    12248.985    1572.3192   -22777.002   -8850.0162     83.61755 
   34800    1888.2617   -109.52109    1.7085389   -107.81255   -11881.098    4.3801233    4.3801233    4.3801233   -11881.098   -5594.4161   -36024.109    5975.2318   -42077.819    18438.758   -2422.3102    84.034767 
   34900    1289.9271   -108.99581    1.1671532   -107.82866    -12952.68    4.3912942    4.3912942    4.3912942    -12952.68   -39181.166   -32575.573    32898.697   -23156.325   -4271.6593    4128.4264    84.679368 
   35000    2453.8548   -110.02792    2.2202994   -107.80762    4471.9863    4.3921755    4.3921755    4.3921755    4471.9863    40185.033   -9857.6118   -16911.462    23440.457     -2864.02   -28724.095    84.730359 
   35100    1395.5883   -109.07731    1.2627577   -107.81455   -18077.078      4.39168      4.39168      4.39168   -18077.078   -37012.152   -44948.878    27729.796   -70389.838     11919.84   -8172.7356    84.701688 
   35200     1795.827   -109.42202     1.624902   -107.79712      11432.3    4.3843824    4.3843824    4.3843824      11432.3    1406.6919     11546.54    21343.667    27446.896    4000.0373   -6725.2632    84.280147 
   35300    1799.4152   -109.43352    1.6281487   -107.80537   -22506.188    4.3858266    4.3858266    4.3858266   -22506.188   -9656.4695   -25160.692   -32701.403   -22636.317    -33688.86   -32604.005    84.363457 
   35400    1751.5364   -109.40172    1.5848269   -107.81689   -13466.542    4.3846603    4.3846603    4.3846603   -13466.542     -36821.4   -22426.233    18848.007   -45213.524    21375.297    2519.0538    84.296171 
   35500    1834.9736   -109.47154    1.6603227   -107.81121    21936.134    4.3847931    4.3847931    4.3847931    21936.134    23723.318    58438.626   -16353.544    11817.357   -21366.382    -684.5503    84.303832 
   35600    1437.9195   -109.10662    1.3010598   -107.80556   -24517.029     4.402629     4.402629     4.402629   -24517.029   -9167.0832   -590.36159   -63793.642   -21540.996     -39069.4   -25443.012    85.336784 
   35700    2482.2742   -110.02085    2.2460139   -107.77483   -3899.1294    4.3971503    4.3971503    4.3971503   -3899.1294    2303.8707    23276.615   -37277.873   -6090.0202    31059.035    21970.011    85.018596 
   35800    1608.0099   -109.24294    1.4549611   -107.78798   -23068.562    4.3853091    4.3853091    4.3853091   -23068.562   -6286.8869    18489.175   -81407.974    2790.1811    -60390.36   -25019.393    84.333596 
   35900    1671.1099   -109.31561    1.5120554   -107.80355    13799.684      4.37818      4.37818      4.37818    13799.684    41865.218    429.79763   -895.96215   -20341.105    8592.8181   -12830.588     83.92297 
   36000    1975.5306   -109.59436    1.7875016   -107.80686    3218.4283      4.38309      4.38309      4.38309    3218.4283    -25248.45    58490.117   -23586.383    321.27272   -27302.719    12563.849    84.205635 
   36100    2056.6481   -109.66838    1.8608985   -107.80748   -17409.772    4.4018418    4.4018418    4.4018418   -17409.772   -7062.5974    2628.3794   -47795.098   -1959.4857   -27631.022   -8866.9438    85.291019 
   36200    1763.9784   -109.39161    1.5960847   -107.79552   -23832.329    4.4026849    4.4026849    4.4026849   -23832.329   -617.55443   -50188.772    -20690.66   -13855.537    -3415.792    21136.882    85.340035 
   36300    1447.2789   -109.10415    1.3095284   -107.79462    6754.6277    4.3780864    4.3780864    4.3780864    6754.6277   -19785.434    70689.744   -30640.426    6127.1415   -66010.131   -7604.0821    83.917586 
   36400    2538.6955   -110.06617     2.297065   -107.76911    21501.905    4.3829765    4.3829765    4.3829765    21501.905    12739.872    23222.348    28543.494   -21240.858    33474.095   -4243.9951    84.199093 
   36500    757.29397   -108.47972    0.6852155    -107.7945   -46530.738    4.4063842    4.4063842    4.4063842   -46530.738   -70563.279    -6494.417   -62534.519   -7073.7038   -80974.732    27957.456    85.555335 
   36600     2577.252   -110.10572    2.3319517   -107.77377   -7143.6251    4.3985209    4.3985209    4.3985209   -7143.6251    -20947.39    11024.045   -11507.531    14920.319   -581.42132   -11624.536    85.098121 
   36700    2084.7978   -109.67994    1.8863689   -107.79358   -2223.7113    4.3821797    4.3821797    4.3821797   -2223.7113   -22561.249    12645.453    3244.6622   -20467.411   -24989.513   -9135.1589    84.153185 
   36800     1079.172   -108.80047   0.97645754   -107.82401   -13105.414    4.3785259    4.3785259    4.3785259   -13105.414    -24382.23    10006.959   -24940.971    3786.2898   -68883.816    28161.097     83.94286 
   36900     2903.542   -110.42086    2.6271858   -107.79367    1844.2595    4.3975399    4.3975399    4.3975399    1844.2595   -17305.546     21137.45    1700.8746    5767.9314    8302.8706   -18573.312    85.041198 
   37000     1307.867   -108.97588    1.1833855    -107.7925   -60946.819    4.4186229    4.4186229    4.4186229   -60946.819    -78283.44    -28362.04   -76194.977   -6488.3151    -77198.78    21262.987      86.2702 
   37100    2031.9376   -109.61944    1.8385398    -107.7809     8426.715    4.3907023    4.3907023    4.3907023     8426.715    6760.7426   -26756.891    45276.294    2600.0723    24617.902    28005.636    84.645133 
   37200    1822.3009   -109.42747    1.6488561   -107.77862    35621.895    4.3652194    4.3652194    4.3652194    35621.895    2338.7341    71409.243    33117.707    4297.2495   -26468.814   -16778.012    83.179868 
   37300    1609.4896   -109.26585    1.4563001   -107.80955   -1382.7941    4.3749603    4.3749603    4.3749603   -1382.7941   -1009.3976   -14674.812    11535.828   -20813.035   -35978.836    23964.104    83.737954 
   37400    2105.0729   -109.72012    1.9047142   -107.81541   -6940.1466     4.397291     4.397291     4.397291   -6940.1466    10650.505   -9282.7789   -22188.166    4421.3199    35142.794    27426.537    85.026757 
   37500    1524.3008   -109.19314    1.3792194   -107.81392   -2900.2785    4.4129095    4.4129095    4.4129095   -2900.2785   -20450.056    32107.764   -20358.544    -5405.521   -25254.863   -1673.0071    85.935988 
   37600    2190.6525   -109.76758    1.9821484   -107.78544   -23269.414    4.4066632    4.4066632    4.4066632   -23269.414   -6237.8196    -72791.22    9220.7983   -23087.895   -2530.3175    10398.196    85.571583 
   37700     1237.261   -108.90702    1.1194997   -107.78752    22828.534    4.3740741    4.3740741    4.3740741    22828.534    12762.605    30394.194    25328.802    7039.6079    32227.018    7425.3983    83.687078 
   37800    1892.8122   -109.50748    1.7126562   -107.79482    30799.788    4.3722985    4.3722985    4.3722985    30799.788    63702.137     16272.05    12425.179   -13273.947   -38668.507    -14851.19    83.585206 
   37900    2110.8906   -109.70005    1.9099782   -107.79008   -11440.454    4.4001973    4.4001973    4.4001973   -11440.454    7249.9855    14602.431   -56173.779   -8861.7213    35934.291   -7756.3733    85.195461 
   38000     1447.302   -109.09629    1.3095492   -107.78674    11413.996    4.3989496    4.3989496    4.3989496    11413.996    21020.226    69068.623    -55846.86     279.0193    13074.483    14283.921     85.12301 
   38100    1984.8577    -109.5682     1.795941   -107.77226   -2173.1714    4.3961409    4.3961409    4.3961409   -2173.1714    24790.214    4006.4165   -35316.145   -3624.9731   -10834.168   -37564.118    84.960059 
   38200    1262.8397   -108.94063    1.1426439   -107.79799   -5960.6545    4.3798894    4.3798894    4.3798894   -5960.6545   -40696.807    36493.992   -13679.148    1596.8085    80488.844   -3871.1852    84.021305 
   38300    2456.8066   -110.00655    2.2229703   -107.78358    31529.539    4.3747707    4.3747707    4.3747707    31529.539    2584.2754    37055.758    54948.584    1775.4879   -36828.494    8756.1761    83.727069 
   38400    1068.4746   -108.77815   0.96677828   -107.81137   -13184.155    4.3976627    4.3976627    4.3976627   -13184.155   -34647.867    41683.845   -46588.444   -9344.5277    70405.778    -45995.78    85.048321 
   38500    2008.9805   -109.59752    1.8177678   -107.77975   -7897.9517    4.4082468    4.4082468    4.4082468   -7897.9517   -47675.528     15245.03    8736.6434    11.444436    28058.677    24028.102    85.663875 
   38600    1773.2226   -109.38648    1.6044491   -107.78203   -9347.6715    4.3894456    4.3894456    4.3894456   -9347.6715    47478.585   -40222.573   -35299.026    2547.9144   -5293.0454   -43722.258     84.57247 
   38700    1345.2216   -108.99951    1.2171848   -107.78232    18060.523    4.3680996    4.3680996    4.3680996    18060.523   -16658.014    49669.022    21170.562   -400.97703    70633.619   -27202.872    83.344622 
   38800    2592.2079   -110.12546    2.3454842   -107.77997    20349.478    4.3826729    4.3826729    4.3826729    20349.478    31331.341    31169.143   -1452.0513   -27.538642   -27794.269    10956.137    84.181603 
   38900     934.7391   -108.64749   0.84577158   -107.80172   -12018.817    4.4033993    4.4033993    4.4033993   -12018.817    30343.985    1306.2993   -67706.735    8027.1333    60174.018    -50335.19    85.381587 
   39000    2567.3042    -110.0734    2.3229508   -107.75045    6435.9758    4.4093317    4.4093317    4.4093317    6435.9758    16176.938    35253.762   -32122.772   -4967.0852   -10570.945      13552.2    85.727133 
   39100    1442.2531   -109.08829    1.3049809   -107.78331   -12106.681    4.3884372    4.3884372    4.3884372   -12106.681    11430.582     10924.42   -58675.045    19901.846    24785.595   -43603.326    84.514195 
   39200    1665.9612   -109.29138    1.5073967   -107.78398    26801.622    4.3588437    4.3588437    4.3588437    26801.622    47235.081    53074.613   -19904.826   -2155.3861    44817.545   -21380.451    82.815933 
   39300    2261.4063    -109.8441    2.0461679   -107.79793     35666.96      4.36592      4.36592      4.36592     35666.96    38290.666    36475.132    32235.081   -10835.884   -40492.547    2989.8337    83.219923 
   39400    899.30858   -108.63841    0.8137133    -107.8247   -11595.499    4.4017592    4.4017592    4.4017592   -11595.499    51307.272   -20416.964   -65676.804     40833.88    45117.636   -55358.069    85.286216 
   39500    2642.1252   -110.14849    2.3906504   -107.75784   -6506.5531    4.4151748    4.4151748    4.4151748   -6506.5531    9782.6383   -11607.662   -17694.636   -10783.504   -8402.9577    35670.259    86.068393 
   39600    1480.0848   -109.11984    1.3392119   -107.78063   -25979.249    4.3901439    4.3901439    4.3901439   -25979.249   -2536.9368   -43029.735   -32371.075    34171.416   -1368.1296   -71842.888    84.612842 
   39700    1658.8947   -109.27995    1.5010028   -107.77895     16654.92     4.350903     4.350903     4.350903     16654.92     66253.99    5313.0002   -21602.229     10663.24    24305.147    30298.654    82.364147 
   39800    2048.1196   -109.64671    1.8531816   -107.79353    32320.815    4.3506268    4.3506268    4.3506268    32320.815    58194.116    35162.913    3605.4147    4498.2554    -15364.82    22828.573    82.348462 
   39900     1716.327   -109.36926    1.5529687   -107.81629   -14290.109    4.3872533    4.3872533    4.3872533   -14290.109   -2368.3044   -39768.482   -733.54084    27504.426    9529.4942   -55935.564    84.445817 
   40000     1593.147   -109.23672    1.4415129    -107.7952   -28772.239    4.4090237    4.4090237    4.4090237   -28772.239   -25596.966     2488.238   -63207.989   -16054.523    16671.044    69250.456    85.709169 
   40100    2088.4202   -109.66671    1.8896464   -107.77707   -17505.205    4.3990139    4.3990139    4.3990139   -17505.205   -23564.426   -15787.163   -13164.026    25650.157   -29892.694   -32398.388    85.126738 
   40200    1731.2859   -109.36193    1.5665038   -107.79543    6720.5708    4.3601971    4.3601971    4.3601971    6720.5708      29500.5   -19485.557     10146.77    29441.138    32619.766    22725.325      82.8931 
   40300    1358.9528   -109.03745    1.2296091   -107.80784    11101.508    4.3447174    4.3447174    4.3447174    11101.508    5172.4582    60054.453   -31922.387   -8722.0506   -8935.1503    32020.854    82.013359 
   40400    2536.1812   -110.10121    2.2947901   -107.80642    2536.5933    4.3814385    4.3814385    4.3814385    2536.5933   -24963.896    9032.0131    23541.663    10716.287    -32233.61   -10753.485    84.110491 
   40500    1185.0828   -108.88301    1.0722878   -107.81072   -27092.069    4.4023908    4.4023908    4.4023908   -27092.069   -12547.591   -30171.005    -38557.61    17505.844     27474.48    54368.925    85.322932 
   40600    1717.7326   -109.34001    1.5542406   -107.78577    7994.2042    4.3929345    4.3929345    4.3929345    7994.2042   -45608.447    68649.332    941.72695   -7842.7365   -11611.514   -7631.3876    84.774292 
   40700    1916.6574   -109.50584    1.7342319   -107.77161   -7101.5193    4.3822852    4.3822852    4.3822852   -7101.5193    40860.018   -22115.738   -40048.837   -8824.6232   -3609.0195    37543.677    84.159262 
   40800    1364.5845   -109.01701    1.2347048   -107.78231    22222.037    4.3632577    4.3632577    4.3632577    22222.037    26593.862    67995.853   -27923.603    7535.4876    35956.865    23327.383    83.067776 
   40900    2441.5635   -109.98423    2.2091779   -107.77505    42959.416    4.3702644    4.3702644    4.3702644    42959.416    40535.562    68604.924     19737.76   -3391.8231     -7923.24    2110.4476    83.468602 
   41000    928.00782    -108.6478   0.83968097   -107.80812    -31468.49    4.3921441    4.3921441    4.3921441    -31468.49    19429.051   -22831.666   -91002.853   -1471.8439    25915.404    35595.835    84.728544 
   41100    2256.7968   -109.82423    2.0419972   -107.78224    12619.387    4.3852552    4.3852552    4.3852552    12619.387   -11617.197    47172.309    2303.0482    15451.471     25991.13   -9396.9753    84.330488 
   41200    1542.8933   -109.18438    1.3960423   -107.78834    10718.198    4.3733424    4.3733424    4.3733424    10718.198    48023.114    19771.534   -35640.055    10693.045   -25713.227    33291.919    83.645085 
   41300    2028.5063   -109.61616    1.8354351   -107.78073    1700.0509    4.3769109    4.3769109    4.3769109    1700.0509     27000.12     652.2852   -22552.253   -2668.6782     22039.36   -171.51836    83.850007 
   41400    1877.1573   -109.48053    1.6984914   -107.78204    6817.9774    4.3790287    4.3790287    4.3790287    6817.9774   -25819.093    19688.984    26584.041    43644.597   -17424.725    10497.128    83.971785 
   41500     1407.566   -109.06391    1.2735953   -107.79031   -8243.5578    4.3843913    4.3843913    4.3843913   -8243.5578    16568.414    1145.2548   -42444.342   -14511.941   -25486.673    26700.465    84.280659 
   41600     2600.607   -110.12558    2.3530839    -107.7725   -12514.843    4.3840955    4.3840955    4.3840955   -12514.843   -34858.122   -22783.547    20097.139    40674.053    2751.9814    -23260.77      84.2636 
   41700    1096.6398   -108.79701   0.99226276   -107.80474   -415.87508    4.3704177    4.3704177    4.3704177   -415.87508   -2100.5099     -11020.9    11873.784     19785.12   -30766.665    49881.577    83.477383 
   41800    2348.9744   -109.90799    2.1254014   -107.78259    17635.145    4.3703498    4.3703498    4.3703498    17635.145    14447.934    5760.0852    32697.416    4153.1391   -2838.0431    7633.7771    83.473493 
   41900    1398.6244   -109.06203    1.2655048   -107.79652   -11555.781    4.3903674    4.3903674    4.3903674   -11555.781   -17591.855   -59621.442    42545.953    40085.421   -4135.4284    14616.055    84.625762 
   42000    1714.6828   -109.33782    1.5514811   -107.78634   -6870.6791    4.3908713    4.3908713    4.3908713   -6870.6791    13461.101   -14946.358    -19126.78   -5912.6604   -28844.811    48857.156    84.654903 
   42100    1983.3375   -109.56979    1.7945655   -107.77523    8273.6275    4.3773156    4.3773156    4.3773156    8273.6275    23138.166   -52937.982    54620.699     25129.03    14339.448   -31514.545    83.873272 
   42200    2001.8653   -109.59397    1.8113298   -107.78264   -10022.144     4.370551     4.370551     4.370551   -10022.144    23799.306   -43806.356   -10059.382    3399.2419     -10464.2    39849.712    83.485022 
   42300     2059.695   -109.65198    1.8636554   -107.78832    4444.6553    4.3700277    4.3700277    4.3700277    4444.6553    18286.173   -25569.861    20617.654    4235.3652   -9169.0729   -17514.437    83.455042 
   42400    853.49825   -108.59243   0.77226315   -107.82017   -42350.136    4.3854131    4.3854131    4.3854131   -42350.136   -29647.789   -115158.44    17755.824    19235.113   -3062.5051   -45800.845    84.339599 
   42500    2798.4818   -110.31924    2.5321251   -107.78712    16785.373    4.3804062    4.3804062    4.3804062    16785.373    42894.709    16271.167   -8809.7568   -13180.049    11422.318    14381.772    84.051052 
   42600    1148.6801   -108.84805    1.0393499    -107.8087    1056.1768     4.375141     4.375141     4.375141    1056.1768     14742.86   -42905.638    31331.309    35795.408   -10643.235   -43659.728    83.748333 
   42700    2183.8873   -109.75733    1.9760271    -107.7813   -4263.7133    4.3835838    4.3835838    4.3835838   -4263.7133    6931.4949   -20708.706    986.07113   -5956.8393    6472.0129   -490.58612    84.234098 
   42800    1373.3733   -109.02958     1.242657   -107.78692    3980.3521    4.3834691    4.3834691    4.3834691    3980.3521    778.44796    26796.146   -15633.537    6941.7126     9505.546    29877.074     84.22749 
   42900    2134.8072   -109.70449    1.9316184   -107.77287   -1406.6015    4.3827335    4.3827335    4.3827335   -1406.6015   -24395.356   -12474.232    32649.783    43005.499    -11675.89   -33679.096    84.185094 
   43000    1586.0491   -109.22478    1.4350906   -107.78969   -23665.672    4.3790348    4.3790348    4.3790348   -23665.672   -4779.5634    15999.851   -82217.302   -21279.411    9764.6853     51527.64    83.972132 
   43100    1563.5007     -109.224    1.4146883   -107.80932   -14145.437    4.3686775    4.3686775    4.3686775   -14145.437   -22742.537   -14532.303   -5161.4713    40534.873    13709.336    31642.384     83.37771 
   43200    2506.3134   -110.06169     2.267765   -107.79393    9367.8752    4.3747731    4.3747731    4.3747731    9367.8752   -24285.674   -8455.3721    60844.672    5359.1775   -11173.433   -7791.9945    83.727205 
   43300    946.91995   -108.67829   0.85679307   -107.82149   -21679.016    4.3795478    4.3795478    4.3795478   -21679.016   -1131.3838   -22297.197   -41608.467    -6005.324    7803.7441    67068.352    84.001648 
   43400    2677.1821   -110.20512    2.4223706   -107.78275    24728.574    4.3854398    4.3854398    4.3854398    24728.574     5174.997    30823.847    38186.879    13247.141    3632.3332   -35375.273     84.34114 
   43500    978.34103   -108.69022   0.88522353   -107.80499   -38802.625    4.3910605    4.3910605    4.3910605   -38802.625   -5231.2583   -31895.826   -79280.792    -17013.02   -1451.4486    17861.948    84.665846 
   43600    2177.7158   -109.75775     1.970443    -107.7873    15059.143     4.366339     4.366339     4.366339    15059.143   -3593.9271    47311.559    1459.7968   -6641.3653    4775.2511    49909.189    83.243889 
   43700    1804.1796    -109.4238    1.6324596   -107.79134   -4350.9529    4.3661881    4.3661881    4.3661881   -4350.9529    12941.392   -1149.3749   -24844.876    18168.877   -3476.6447   -44803.696    83.235254 
   43800    1327.4878   -109.00188    1.2011389   -107.80074   -22817.981    4.3816652    4.3816652    4.3816652   -22817.981    27004.016   -27394.154   -68063.805   -12766.347    4390.4784    78463.891    84.123548 
   43900    2514.8804   -110.05366    2.2755166   -107.77814    537.79659    4.3885242    4.3885242    4.3885242    537.79659   -25411.247    47750.866   -20726.229    26731.443   -10581.661   -24378.874    84.519223 
   44000    854.02929   -108.58362   0.77274365   -107.81088   -25250.762    4.3844925    4.3844925    4.3844925   -25250.762    34933.998   -21590.639   -89095.644    3068.1001   -6712.6622    17928.934    84.286495 
   44100    2520.9271   -110.05336    2.2809878   -107.77237     12171.75    4.3718019    4.3718019    4.3718019     12171.75    7566.5422    24900.776    4047.9328   -15191.665    3921.4635    25565.991    83.556726 
   44200    1505.6853   -109.15137    1.3623757   -107.78899   -21099.546    4.3729543    4.3729543    4.3729543   -21099.546   -58989.466    49164.637   -53473.808     5636.867   -9884.6482   -15258.502    83.622821 
   44300    1840.5868   -109.45012    1.6654016   -107.78472   -5565.1782    4.3786272    4.3786272    4.3786272   -5565.1782    3982.7816   -17266.422   -3411.8938   -4126.7299    1632.6553    10595.386    83.948686 
   44400    1551.6949   -109.19693    1.4040062   -107.79292     -30913.1    4.3849516    4.3849516    4.3849516     -30913.1   -93857.526     13297.04   -12178.813   -44625.312    3269.1372    4824.6008    84.312977 
   44500    1747.8892   -109.36924    1.5815269   -107.78772   -14688.152    4.3833001    4.3833001    4.3833001   -14688.152    10196.742   -25314.151   -28947.045    8445.9769   -9326.1804   -20032.528    84.217745 
   44600    2248.9643   -109.81391    2.0349102     -107.779    4813.3771    4.3740821    4.3740821    4.3740821    4813.3771   -10747.736   -18866.468    44054.336    3957.3032    6948.6012    10623.758    83.687535 
   44700    1609.9396   -109.24538    1.4567071   -107.78867   -13353.442    4.3734835    4.3734835    4.3734835   -13353.442   -45190.537    34815.646   -29685.436   -9523.1735    13022.807   -9397.8219    83.653182 
   44800    1555.7875    -109.2009    1.4077092   -107.79319    4018.9993    4.3748658    4.3748658    4.3748658    4018.9993    26930.487   -50941.057    36067.568    32469.613   -11662.448   -33995.579     83.73253 
   44900    2141.2127   -109.72648    1.9374142   -107.78907   -4448.3225    4.3822929    4.3822929    4.3822929   -4448.3225   -45080.245    35214.484   -3479.2065    17327.787    20734.934    10843.585    84.159704 
   45000    1744.7261     -109.377    1.5786648   -107.79834   -7240.4569    4.3814525    4.3814525    4.3814525   -7240.4569   -12400.703    9922.7783   -19243.446    2516.2179   -3930.6239   -7443.8323    84.111296 
   45100    2227.7013   -109.79503    2.0156709   -107.77936    12797.549    4.3756236    4.3756236    4.3756236    12797.549   -11892.826   -3169.9433    53455.417    47614.263    5565.2959   -11242.031    83.776047 
   45200    1001.2602   -108.70221   0.90596124   -107.79625   -25639.062    4.3805605    4.3805605    4.3805605   -25639.062   -75011.879    62651.259   -64556.564   -10749.536    40685.199     19681.65    84.059933 
   45300    2459.7063   -110.00694    2.2255939   -107.78134    10164.414    4.3768915    4.3768915    4.3768915    10164.414   -20236.187    10620.129      40109.3    1478.2873   -25848.947    2776.6786    83.848894 
   45400     1665.121   -109.30338    1.5066364   -107.79674   -14089.011    4.3797231    4.3797231    4.3797231   -14089.011   -52467.502    39189.942   -28989.474    9841.7331    78741.578   -8939.7127    84.011734 
   45500     1637.251   -109.27172    1.4814191    -107.7903   -21531.052    4.3840029    4.3840029    4.3840029   -21531.052   -49813.235    14687.934   -29467.856   -23248.235   -12636.666    30711.389    84.258261 
   45600    2058.4604   -109.64648    1.8625382   -107.78394    10760.186    4.3728289    4.3728289    4.3728289    10760.186   -30943.299    38888.826    24335.029   -7137.7848    27669.232   -24181.042    83.615626 
   45700    1400.0738   -109.07103    1.2668162   -107.80422   -2109.0655     4.371335     4.371335     4.371335   -2109.0655    -16267.56    55263.989   -45323.626    2262.9272    62315.624    13453.455    83.529959 
   45800    2484.9308   -110.03702    2.2484176    -107.7886    25403.372    4.3725629    4.3725629    4.3725629    25403.372    10787.157    31418.305    34004.654   -9013.0473   -27012.674    6396.6758    83.600372 
   45900    1128.5163   -108.83452    1.0211053   -107.81341   -6753.6965    4.3814509    4.3814509    4.3814509   -6753.6965   -9151.6736    27281.313   -38390.729   -14071.924    87937.553   -13290.398    84.111202 
   46000    2437.9637   -109.99319    2.2059208   -107.78727   -1438.5976    4.3873146    4.3873146    4.3873146   -1438.5976    17966.763   -3042.1712   -19240.385     10170.22    -25186.29    9242.1543    84.449353 
   46100    1306.7612   -108.98283     1.182385   -107.80045   -13715.778    4.3751409    4.3751409    4.3751409   -13715.778   -49396.353    41252.219     -33003.2   -18378.368    79563.292   -2200.6485    83.748327 
   46200    1783.3676   -109.40936    1.6136284   -107.79573    7951.6186    4.3705393    4.3705393    4.3705393    7951.6186     12579.57    14328.582    -3053.297   -17425.531    23713.051   -14353.635    83.484352 
   46300     2240.623    -109.8199    2.0273628   -107.79254    812.46392    4.3772429    4.3772429    4.3772429    812.46392    17322.864     13793.39   -28678.862    19864.824    30861.484   -15165.074    83.869092 
   46400    1489.4244   -109.15111    1.3476625   -107.80345   -7341.9662     4.379185     4.379185     4.379185   -7341.9662   -51830.939    38760.631   -8955.5905   -35252.099    64920.716     8279.679    83.980773 
   46500    1872.7312   -109.48636    1.6944866   -107.79188    2361.1405    4.3820678    4.3820678    4.3820678    2361.1405    26033.414   -19329.416    379.42337   -6278.3884   -26225.754   -43915.349    84.146739 
   46600    1508.8716   -109.16103    1.3652587   -107.79577   -13084.185    4.3778624    4.3778624    4.3778624   -13084.185   -32798.931    39340.268   -45793.893    5580.9836    81132.504    5203.1819    83.904707 
   46700    1829.4711   -109.44231    1.6553439   -107.78697    11792.629    4.3732408    4.3732408    4.3732408    11792.629   -661.60127   -93.998712    36133.486   -26400.818   -22523.005   -8534.9904    83.639261 
   46800    1861.6145   -109.47807    1.6844279   -107.79364   -13437.972    4.3802594    4.3802594    4.3802594   -13437.972    -18179.94    3722.7282   -25856.704   -378.49296    11505.035    -26517.85    84.042602 
   46900    1984.7487   -109.57983    1.7958423   -107.78399    4382.1772    4.3820567    4.3820567    4.3820567    4382.1772   -6109.7004   -696.79017    19953.022   -2523.3478    37057.828    19479.559    84.146096 
   47000     1152.467     -108.841    1.0427763   -107.79822   -25066.608    4.3850841    4.3850841    4.3850841   -25066.608    -27760.26   -33799.739   -13639.826   -20004.419    -39903.43   -8263.2224     84.32062 
   47100    2583.4603   -110.11622    2.3375692   -107.77865    10106.257    4.3794085    4.3794085    4.3794085    10106.257    24049.765    24039.505   -17770.497    7047.6584   -17005.838     5218.477    83.993635 
   47200    1328.1142     -109.006    1.2017057    -107.8043      8231.82    4.3689089    4.3689089    4.3689089      8231.82    39790.639   -40341.489    25246.311   -3818.7951    10358.286    30047.999    83.390959 
   47300    1887.3597   -109.51391    1.7077227   -107.80619   -11177.854    4.3746542    4.3746542    4.3746542   -11177.854   -33303.459    24390.716   -24620.818   -20934.016   -57646.725    47.346606    83.720377 
   47400    1647.7581   -109.29827    1.4909261   -107.80734    14204.558    4.3773742    4.3773742    4.3773742    14204.558    50492.978    19990.483   -27869.788    14866.127    24091.833    9646.8373    83.876642 
   47500    1479.0089   -109.16073    1.3382384   -107.82249   -8636.4191    4.3788333    4.3788333    4.3788333   -8636.4191    14829.175   -19305.671   -21432.761   -30094.867    640.46998    27564.304    83.960541 
   47600     2910.194   -110.42359    2.6332046   -107.79039    15399.366    4.3824502    4.3824502    4.3824502    15399.366    36831.804    36965.868   -27599.575    10332.104   -5290.6695   -16563.834     84.16877 
   47700    744.13152   -108.49836   0.67330584   -107.82505   -16280.064    4.3784714    4.3784714    4.3784714   -16280.064    48973.548   -36528.418   -61285.323     5403.595    31887.837    26536.066    83.939726 
   47800    2527.3532   -110.07359    2.2868023   -107.78678    769.21197    4.3849822    4.3849822    4.3849822    769.21197   -17698.966    41509.309   -21502.707    4680.3618   -33363.958   -5754.3402    84.314742 
   47900    1351.0309   -109.01729    1.2224411   -107.79485   -15283.131    4.3832797    4.3832797    4.3832797   -15283.131    38434.208   -19230.739   -65052.863    5430.9816   -22757.662    20256.181    84.216572 
   48000    1853.3437    -109.4619    1.6769444   -107.78496    8246.0819    4.3705518    4.3705518    4.3705518    8246.0819    35556.898    11767.993   -22586.645    14898.721   -4715.1914    13947.356    83.485069 
   48100    1876.3791   -109.49439    1.6977873    -107.7966    1393.4171    4.3720457    4.3720457    4.3720457    1393.4171   -19194.322     68252.07   -44877.496   -2887.1225   -78324.583   -6834.7603    83.570707 
   48200    1843.7978   -109.46127     1.668307   -107.79297    6937.9456    4.3753164    4.3753164    4.3753164    6937.9456    69255.865   -25229.658    -23212.37    3616.2618    24966.058    23109.866    83.758402 
   48300    1809.5571   -109.42865    1.6373253   -107.79132   -3416.3145    4.3858827    4.3858827    4.3858827   -3416.3145   -28761.434    44000.024   -25487.533    6200.8798   -64175.473   -5518.0243    84.366693 
   48400    1781.1092   -109.40293     1.611585   -107.79135   -18627.337    4.3882279    4.3882279    4.3882279   -18627.337   -9255.7984   -1757.3365   -44868.876   -14135.142    13852.932    14299.636    84.502107 
   48500    1519.8619   -109.17641     1.375203   -107.80121    13652.474    4.3720836    4.3720836    4.3720836    13652.474     55263.88   -10000.459   -4305.9975    19032.946    6558.8684    10996.512    83.572882 
   48600     3010.351   -110.50235    2.7238289   -107.77852    24438.461     4.372684     4.372684     4.372684    24438.461    16471.599    47870.841    8972.9423   -23819.112   -4768.8893     3168.344    83.607317 
   48700    673.38207   -108.43602   0.60929024   -107.82673   -33430.027    4.3795255    4.3795255    4.3795255   -33430.027    11443.661   -46969.679   -64764.062   -16430.236    23909.738    31396.992    84.000365 
   48800    2562.9444   -110.10739    2.3190059   -107.78838    1616.2962    4.3896845    4.3896845    4.3896845    1616.2962    21008.984    21271.486   -37431.581    2132.9928     -11149.8   -2627.4206    84.586282 
   48900    1361.3277   -109.02055    1.2317579   -107.78879   -46857.205    4.3996235    4.3996235    4.3996235   -46857.205   -41384.769    -68932.38   -30254.466   -42326.476   -19692.788    14374.053    85.162135 
   49000    2428.9815   -109.96245    2.1977935   -107.76466    6419.0274    4.3752936    4.3752936    4.3752936    6419.0274    47387.042   -20621.583   -7508.3767    17383.541     21849.92    21249.668    83.757095 
   49100    1500.4109   -109.13478    1.3576033   -107.77717   -73.479999    4.3655909    4.3655909    4.3655909   -73.479999   -23685.891     29945.69   -6480.2382   -31016.632    -55810.09   -5250.3855    83.201108 
   49200    1339.8123   -109.01234    1.2122903   -107.80005   -8743.9633    4.3766512    4.3766512    4.3766512   -8743.9633    26617.524   -68221.306    15371.892   -31577.892    4652.5379    29024.043    83.835087 
   49300    2346.8511   -109.90435    2.1234802   -107.78087    13502.107     4.393654     4.393654     4.393654    13502.107    37891.752    1288.0052    1326.5633    18816.378   -18269.053   -3985.5488    84.815953 
   49400     1259.382   -108.92795    1.1395153   -107.78843   -32355.904    4.4022737    4.4022737    4.4022737   -32355.904   -31940.789   -56441.738   -8685.1856   -37508.311   -28805.119    7051.0835    85.316127 
   49500    2674.4232   -110.17706    2.4198743   -107.75719    16115.966    4.3816606    4.3816606    4.3816606    16115.966    12072.743    2674.8598    33600.294    6953.8417    19464.319    17836.563    84.123281 
   49600    923.05816   -108.63098   0.83520242   -107.79578   -23309.979    4.3659995    4.3659995    4.3659995   -23309.979   -70086.944    16060.084   -15903.077   -17774.331   -14416.791    -19182.04    83.224469 
   49700    2263.3262   -109.84642    2.0479051   -107.79852    17341.416    4.3651172    4.3651172    4.3651172    17341.416    10463.983   -7460.6152     49020.88   -31786.574   -13750.309     1647.579    83.174028 
   49800    1512.4328   -109.18464     1.368481   -107.81616   -12984.891    4.3909504    4.3909504    4.3909504   -12984.891   -35476.316     17052.95   -20531.306    31630.906    12725.702    3519.6024     84.65948 
   49900    1698.4852   -109.31546    1.5368251   -107.77863   -39577.536    4.4108734    4.4108734    4.4108734   -39577.536   -66959.406   -10909.972   -40863.231    -23418.16   -12764.444   -22427.984    85.817087 
   50000    1988.0718   -109.54955    1.7988492    -107.7507   -11184.528    4.3893036    4.3893036    4.3893036   -11184.528   -4811.6392   -45467.876    16725.931    19255.266    3460.3958    35227.882    84.564263 
   50100    1503.2185   -109.12409    1.3601437   -107.76395   -13584.848    4.3685671    4.3685671    4.3685671   -13584.848   -66638.264    35305.761   -9422.0412    1544.9958   -5727.2673   -9527.6103     83.37139 
   50200    2537.3668   -110.06715    2.2958628   -107.77129    29672.247    4.3603802    4.3603802    4.3603802    29672.247    39254.836   -2132.9051     51894.81    412.80741   -4052.7517    5806.1194    82.903541 
   50300     1399.737   -109.08347    1.2665114   -107.81696   -690.16748    4.3773758    4.3773758    4.3773758   -690.16748    16383.981   -28234.234     9779.751    30112.812    -5411.144    30123.211    83.876733 
   50400    1801.3941   -109.42397    1.6299392   -107.79403   -23984.539    4.3996346    4.3996346    4.3996346   -23984.539    -59945.36    35969.777   -47978.036   -9138.0602    6579.9867   -16080.368     85.16278 
   50500    1874.6072   -109.47765     1.696184   -107.78146   -16330.822    4.3876695    4.3876695    4.3876695   -16330.822     13295.42   -56727.489    -5560.398    7392.5532   -2643.4664   -18333.503    84.469847 
   50600    1891.6115   -109.48117    1.7115699    -107.7696    6380.8921    4.3700411    4.3700411    4.3700411    6380.8921   -21927.317    67215.128   -26145.134    14118.549   -38673.822    20792.586    83.455806 
   50700     1706.787   -109.33012    1.5443368   -107.78578   -9951.1063    4.3649039    4.3649039    4.3649039   -9951.1063   -6861.2672   -12101.824   -10890.228   -27255.582    13935.019    -47752.28    83.161835 
   50800    2029.4324   -109.63245    1.8362731   -107.79618    5639.3252    4.3717075    4.3717075    4.3717075    5639.3252    690.83472     12194.76    4032.3811   -14209.468   -20820.078    -5680.074    83.551314 
   50900    1559.8556   -109.21141    1.4113901   -107.80002   -22620.516    4.3915478    4.3915478    4.3915478   -22620.516   -42747.098    45604.036   -70718.487    2551.1672   -36585.832   -1147.6086     84.69404 
   51000    1736.2394   -109.35825    1.5709859   -107.78726   -16238.457    4.3888471    4.3888471    4.3888471   -16238.457   -27393.058   -25954.952    4632.6385   -39037.263    18173.676   -29253.005     84.53788 
   51100    1865.5456   -109.47248    1.6879849    -107.7845    -10547.79    4.3736581    4.3736581    4.3736581    -10547.79   -40398.684    44748.083   -35992.771    -10678.92   -80936.887     12313.04    83.663205 
   51200    2462.4437   -110.01056    2.2280708   -107.78249    27440.375    4.3644386    4.3644386    4.3644386    27440.375    35015.531    42420.122    4885.4712     3593.576    31081.118    2308.9418    83.135244 
   51300     845.6871   -108.58433   0.76519546   -107.81913    -7942.149     4.368742     4.368742     4.368742    -7942.149   -17875.306    11048.276   -16999.416   -37760.867   -73368.391   -11149.532    83.381401 
   51400    2389.5696   -109.97131    2.1621327   -107.80918   -9372.5202    4.3872256    4.3872256    4.3872256   -9372.5202   -4599.3423    12492.447   -36010.665    12620.612   -22127.883    7254.3396    84.444215 
   51500    1403.8667   -109.06964    1.2702481   -107.79939    5454.0505    4.3940075    4.3940075    4.3940075    5454.0505    5608.0789     22207.32   -11453.247   -7290.7925   -57885.249   -12032.955    84.836427 
   51600    1655.9892     -109.251    1.4983738   -107.75263    8747.6214    4.4001463    4.4001463    4.4001463    8747.6214     6737.629    8399.3754     11105.86   -15590.259   -37085.267   -2915.0328    85.192498 
   51700    1980.3444   -109.51883    1.7918572   -107.72698   -20663.826    4.3975221    4.3975221    4.3975221   -20663.826   -40501.515      13164.8   -34654.763    11030.694   -30718.054    3567.0128    85.040162 
   51800    1003.7561    -108.6794   0.90821966   -107.77118   -23181.577    4.3691327    4.3691327    4.3691327   -23181.577   -53934.035    18610.947   -34221.644   -29326.061   -79330.851   -28932.267    83.403777 
   51900    2707.4496   -110.20947    2.4497573   -107.75971    37958.672    4.3489938    4.3489938    4.3489938    37958.672    42221.148     37754.87    33899.999    5149.5222    26058.052    12326.643     82.25577 
   52000    1120.5021   -108.82486    1.0138538     -107.811   -8135.5538    4.3657365    4.3657365    4.3657365   -8135.5538   -54027.559    71683.008    -42062.11   -3098.6118   -105157.79    2112.4993    83.209431 
   52100    2322.9436   -109.88797    2.1018482   -107.78612   -7557.9483    4.3946107    4.3946107    4.3946107   -7557.9483    11602.433   -42106.141     7829.863   -27662.135    31434.612   -21412.265     84.87137 
   52200    1039.7751   -108.72724   0.94081037   -107.78643   -46333.957    4.4020797    4.4020797    4.4020797   -46333.957   -66793.935    2421.6128    -74629.55    7952.3975   -93615.709    14763.137    85.304848 
   52300    2248.1749   -109.81227    2.0341959   -107.77807    4873.4804    4.3697328    4.3697328    4.3697328    4873.4804    36475.893   -8883.4636   -12971.988   -10987.167    3128.0331    20663.715    83.438145 
   52400    1944.5924   -109.53486    1.7595081   -107.77535    30876.903    4.3424526    4.3424526    4.3424526    30876.903    1674.0854    67046.958    23909.667   -8259.9734   -66971.703   -13385.622    81.885169 
   52500    1506.7155   -109.17406    1.3633079   -107.81075    2903.8093    4.3580046    4.3580046    4.3580046    2903.8093     23212.92    35453.138    -49954.63    13602.381   -51699.954    27564.943    82.768111 
   52600    2131.6345   -109.72128    1.9287477   -107.79253   -3645.8823     4.389539     4.389539     4.389539   -3645.8823   -15181.456   -7091.5356    11335.345    4120.1835     15950.58    15704.597    84.577868 
   52700    1392.4477   -109.04975     1.259916   -107.78983   -24638.513    4.3956641    4.3956641    4.3956641   -24638.513   -52798.827    27618.706   -48735.419    -5470.783   -101249.33   -15045.033    84.932417 
   52800    2160.9801   -109.72099    1.9553002   -107.76569    16955.506    4.3732595    4.3732595    4.3732595    16955.506    50354.846   -18145.203    18656.876    6627.9705    36933.832    51703.599     83.64033 
   52900    1360.2154   -109.01482    1.2307514   -107.78407   -17324.597    4.3583972    4.3583972    4.3583972   -17324.597    -74450.98    71047.954   -48570.765    4702.3513   -105421.01    -6375.155    82.790485 
   53000    2386.3143   -109.93758    2.1591873    -107.7784    18375.604    4.3587051    4.3587051    4.3587051    18375.604    16524.215    11283.666    27318.932   -13158.528    8872.8223    21539.574    82.808029 
   53100    1443.3288    -109.1115    1.3059542   -107.80554    -23325.78    4.3774352    4.3774352    4.3774352    -23325.78   -45083.842    20891.149   -45784.647    221.16292   -67307.843    30499.639    83.880145 
   53200    1972.7737   -109.57044    1.7850071   -107.78543   -24855.352    4.3903972    4.3903972    4.3903972   -24855.352    -60705.69    20824.207   -34684.571    2062.2195   -44852.229   -12302.319    84.627488 
   53300    1539.7018    -109.1783    1.3931546   -107.78514   -17163.094    4.3820676    4.3820676    4.3820676   -17163.094    34343.764   -39887.427   -45945.619   -8466.7496   -12200.054    41835.242    84.146723 
   53400    1295.7341   -108.97223    1.1724074   -107.79982   -12177.195    4.3713505    4.3713505    4.3713505   -12177.195   -23294.874    46334.778   -59571.489    1770.4666    -97466.25    2780.3846    83.530847 
   53500    3116.7278   -110.59109    2.8200808   -107.77101     33598.02    4.3615559    4.3615559    4.3615559     33598.02    32381.496    32005.565        36407   -2214.6696    27663.529    1105.0038     82.97062 
   53600    543.16266    -108.3166   0.49146499   -107.82514   -30678.018    4.3725642    4.3725642    4.3725642   -30678.018   -46933.886     16793.06   -61893.228   -2300.4883   -112200.97    41460.337    83.600444 
   53700    2592.0597   -110.14742    2.3453501   -107.80207   -3008.3342    4.3768961    4.3768961    4.3768961   -3008.3342   -1036.3038   -21558.919     13570.22   -756.89119    23143.711    218.25448    83.849159 
   53800    1566.8374   -109.23642    1.4177074   -107.81871   -3841.5161    4.3693658    4.3693658    4.3693658   -3841.5161   -43175.462    51482.185   -19831.271    342.96476   -77734.171   -3380.6806    83.417127 
   53900    1554.3262   -109.22016     1.406387   -107.81377   -8998.4285    4.3718584    4.3718584    4.3718584   -8998.4285   -14907.108   -5354.4911   -6733.6868   -4893.4647   -28047.785    46992.013    83.559967 
   54000    2027.9016   -109.62571     1.834888   -107.79083    1959.7814    4.3750842    4.3750842    4.3750842    1959.7814   -43347.025    20342.908    28883.461   -2528.1856   -34760.868   -13109.406    83.745072 
   54100    1337.7082   -108.99892    1.2103865   -107.78854    2007.4627    4.3798463    4.3798463    4.3798463    2007.4627   -33392.689    56944.309   -17529.232    12647.528   -62019.826    19482.897    84.018828 
   54200    2056.3303   -109.61945    1.8606108   -107.75884    6386.5655    4.3859919    4.3859919    4.3859919    6386.5655    20278.739   -5884.4821    4765.4397     2144.752    24530.399    31635.188    84.372996 
   54300    1826.6865   -109.41915    1.6528243   -107.76633   -8742.4403    4.3783165    4.3783165    4.3783165   -8742.4403    -33585.49    29759.843   -22401.675    6048.6808   -83839.537   -31651.274    83.930819 
   54400    1750.1581   -109.34895    1.5835798   -107.76537    15889.716    4.3634288    4.3634288    4.3634288    15889.716    37102.504    14768.976   -4202.3313    3681.5508    47158.543    65489.447    83.077551 
   54500    1566.8446   -109.19965     1.417714   -107.78194    5643.5861    4.3663443    4.3663443    4.3663443    5643.5861    3027.9486    39227.332   -25324.523    3284.8749   -43679.137   -22799.452     83.24419 
   54600    1952.8397   -109.54577    1.7669704    -107.7788   -997.68638    4.3769957    4.3769957    4.3769957   -997.68638     26501.14    1327.6123   -30821.812    3763.7381    -3172.098     35733.64    83.854883 
   54700    1423.8586   -109.08019    1.2883372   -107.79186   -6515.3089    4.3840818    4.3840818    4.3840818   -6515.3089    27143.587    14114.874   -60804.388    3155.9072    20445.058    38467.332     84.26281 
   54800    2629.2271   -110.14269    2.3789799   -107.76371    3332.2047    4.3829369    4.3829369    4.3829369    3332.2047    2612.4305    5744.1277    1640.0558    6176.5907   -35338.185    -11237.12    84.196815 
   54900      839.076   -108.54963    0.7592136   -107.79041    -13201.33    4.3682298    4.3682298    4.3682298    -13201.33     50728.69   -14950.476   -75382.203   -6200.7942    31452.989    98849.662    83.352076 
   55000    2328.4957   -109.87508    2.1068719   -107.76821    23281.151     4.366296     4.366296     4.366296    23281.151    -10805.28    47352.542     33296.19    6778.5812    7005.0185    -39086.42    83.241426 
   55100    1094.6737   -108.77885   0.99048373   -107.78837   -23656.259    4.3841947    4.3841947    4.3841947   -23656.259    38456.018   -43913.367   -65511.429   -5360.4201   -9426.6365    117153.04    84.269319 
   55200    2458.2441   -109.98548     2.224271    -107.7612    12559.765    4.3836101    4.3836101    4.3836101    12559.765   -7509.0467     47724.84   -2536.4998   -1979.3285    26863.052   -15584.651    84.235615 
   55300     1328.942   -108.97434    1.2024547   -107.77189   -33464.259    4.3900037    4.3900037    4.3900037   -33464.259     47679.83   -51953.145   -96119.463    8687.9162   -4615.3098    100912.81    84.604736 
   55400    1988.0504   -109.56065    1.7988298   -107.76182   -16592.956    4.3768369    4.3768369    4.3768369   -16592.956   -7448.0414   -7919.7346   -34411.092   -8537.3211    13544.308     22244.54    83.845754 
   55500    1541.3975   -109.16468    1.3946889      -107.77    20900.896    4.3502522    4.3502522    4.3502522    20900.896    4153.3304    41620.463    16928.895        12518    21156.526    47554.555    82.327194 
   55600    1824.9001   -109.44719     1.651208   -107.79599   -13463.549    4.3674981    4.3674981    4.3674981   -13463.549    37075.398    -49458.39   -28007.657    9762.8748   -7339.1077    76266.614    83.310201 
   55700    2120.1721   -109.69697    1.9183763   -107.77859     8892.333    4.3861814    4.3861814    4.3861814     8892.333    5999.6934    9165.7336    11511.572   -8522.6612    12303.413   -19597.986    84.383936 
   55800    977.46576   -108.67139   0.88443156   -107.78696   -24923.967    4.3997284    4.3997284    4.3997284   -24923.967    8700.6793   -31931.095   -51541.484    17697.223    7457.9109     91195.49    85.168227 
   55900      2950.86   -110.42881    2.6700001   -107.75881    8668.3942       4.3812       4.3812       4.3812    8668.3942   -6327.0043   -8741.7863    41073.973   -9695.4666   -3567.0054   -35504.007    84.096753 
   56000    1000.5321   -108.69024   0.90530245   -107.78494    12842.838     4.346935     4.346935     4.346935    12842.838    98584.462   -48157.983   -11897.963   -2949.4421    8225.1126    117682.68    82.139007 
   56100    2612.7214   -110.12777    2.3640452   -107.76373    29315.905    4.3581951    4.3581951    4.3581951    29315.905    6611.6903    31353.392    49982.632    8463.1424     3799.472   -28786.577     82.77897 
   56200    872.50891   -108.58352    0.7894644   -107.79406   -42861.502    4.3842691    4.3842691    4.3842691   -42861.502    21666.472   -70924.376   -79326.603    -6825.949   -13753.749    107998.67    84.273614 
   56300    2565.1508   -110.08941    2.3210024    -107.7684    273.77715     4.390471     4.390471     4.390471    273.77715    5665.8711   -23524.423    18679.884   -3062.5295    5328.9395    -20839.34    84.631751 
   56400    1469.3656    -109.1077    1.3295129   -107.77818   -28433.092    4.3849568    4.3849568    4.3849568   -28433.092    18354.333   -54100.919   -49552.691    1767.6858   -15028.871    90264.436    84.313275 
   56500    1471.0397   -109.10376    1.3310277   -107.77273   -2287.6637     4.363662     4.363662     4.363662   -2287.6637    11006.124     848.6011   -18717.716    -9737.974   -16610.922    23902.222    83.090871 
   56600    1963.0391    -109.5453     1.776199    -107.7691    5830.4949    4.3588917    4.3588917    4.3588917    5830.4949    58349.337   -25385.599   -15472.253   -5072.1626    5039.5863    36094.891    82.818665 
   56700    1475.6661   -109.13359    1.3352137   -107.79838   -13480.361    4.3750782    4.3750782    4.3750782   -13480.361    35697.102   -40582.401   -35555.784    8092.1366   -18508.754    84585.105    83.744728 
   56800    2278.7048   -109.83302      2.06182    -107.7712   -19421.843    4.3937684    4.3937684    4.3937684   -19421.843   -36627.245   -1686.0598   -19952.224   -12707.595    -13492.71    97.435786     84.82258 
   56900    907.69662   -108.61093   0.82130298   -107.78963   -38982.663    4.3872297    4.3872297    4.3872297   -38982.663    52238.718   -78606.355   -90580.353   -9598.2785    4520.7485    104798.42    84.444452 
   57000    2728.9726   -110.21604    2.4692317   -107.74681    33603.564    4.3558554    4.3558554    4.3558554    33603.564    45941.583    40437.142    14431.967    10044.509   -9097.4827   -27543.791    82.645718 
   57100    805.91044   -108.51663   0.72920471   -107.78742   -22303.546    4.3652423    4.3652423    4.3652423   -22303.546    46690.623   -57226.346   -56374.913   -6220.8012   -10345.708    139114.06    83.181179 
   57200     2936.734   -110.39936    2.6572186   -107.74214    9507.3649    4.3843938    4.3843938    4.3843938    9507.3649   -3867.2577    8511.0513    23878.301   -11522.588   -3260.1148   -37125.793    84.280803 
   57300    1002.9768    -108.6745   0.90751446   -107.76699   -29154.945    4.3931028    4.3931028    4.3931028   -29154.945    93350.774   -89736.595   -91079.015    3969.8557    3943.8842    118620.14    84.784036 
   57400    2582.4493   -110.06316    2.3366544   -107.72651    9541.2381    4.3852803    4.3852803    4.3852803    9541.2381   -2308.7112   -312.29476     31244.72   -14662.272   -16059.687   -34062.506    84.331936 
   57500    1008.0669   -108.67715   0.91212016   -107.76503   -6740.1265    4.3688314    4.3688314    4.3688314   -6740.1265     80929.22   -57968.946   -43180.653   -11947.394    3881.6838    127157.79     83.38652 
   57600    3235.4139   -110.66608    2.9274705   -107.73861    35306.569    4.3660757    4.3660757    4.3660757    35306.569    28239.533    36884.572    40795.602     6573.427    2680.9361   -41062.515    83.228826 
   57700    613.31307    -108.3498   0.55493855   -107.79486   -23561.128    4.3800232    4.3800232    4.3800232   -23561.128    45832.018    -27403.13   -89112.273   -12537.316    -5690.671    117476.77    84.029008 
   57800     2368.897   -109.91279    2.1434278   -107.76936    -3733.215     4.387211     4.387211     4.387211    -3733.215   -20509.183    38301.726   -28992.188   -11375.048    3457.1236   -17003.144    84.443373 
   57900    1444.3974   -109.08554    1.3069211   -107.77862   -13092.248    4.3810648    4.3810648    4.3810648   -13092.248    66672.391   -20732.776    -85216.36    681.28701    5532.2726    104601.38    84.088969 
   58000    2208.7303   -109.76471    1.9985056    -107.7662    1122.1307    4.3675938    4.3675938    4.3675938    1122.1307    9910.4192   -12298.885    5754.8581   -13467.309   -11287.816    10731.352    83.315679 
   58100    1329.9248   -108.98334    1.2033439   -107.77999    10412.549    4.3657316    4.3657316    4.3657316    10412.549    30448.382    10595.533   -9806.2688   -12772.426    3807.6995    41911.645    83.209152 
   58200    1958.3526   -109.54637    1.7719586   -107.77441   -2070.8506    4.3826815    4.3826815    4.3826815   -2070.8506    43006.916   -41184.541   -8034.9276     22334.55    3052.9527     45919.16    84.182095 
   58300    1693.6552   -109.29671    1.5324548   -107.76425   -16112.914    4.3895199    4.3895199    4.3895199   -16112.914   -26845.807   -9007.2527   -12485.681   -22098.696    11717.486    -6444.819    84.576766 
   58400     1746.119   -109.34356    1.5799251   -107.76364   -1086.6419    4.3795422    4.3795422    4.3795422   -1086.6419    21833.026   -20951.782   -4141.1698    7339.5715   -1076.1183    72388.737    84.001326 
   58500     2122.403   -109.68425    1.9203949   -107.76385    109.61378    4.3678963    4.3678963    4.3678963    109.61378   -17597.009   -13510.119     31435.97    47431.355    2481.6625    -27708.58     83.33299 
   58600    1453.0282   -109.09312    1.3147304   -107.77839    1025.1973    4.3623768    4.3623768    4.3623768    1025.1973    46604.383   -3915.2172   -39613.574   -30872.076    1971.7968    62590.505    83.017476 
   58700    1815.1653   -109.41592    1.6423997   -107.77352   -15976.291    4.3822691    4.3822691    4.3822691   -15976.291   -18643.241   -41952.173    12666.541    70141.787    6322.5774   -9278.6778    84.158334 
   58800    1654.8263    -109.2713    1.4973216   -107.77398   -34720.597    4.3906026    4.3906026    4.3906026   -34720.597   -17757.886    -43503.58   -42900.325   -520.92279    1571.7927    6683.9023    84.639364 
   58900    2561.7518   -110.07019    2.3179269   -107.75226    6695.8502    4.3740508    4.3740508    4.3740508    6695.8502    8037.2215    -9442.226    21492.555    26048.724   -4310.1787    34479.802    83.685741 
   59000    895.21979   -108.59432   0.81001368    -107.7843   -24733.473    4.3676255    4.3676255    4.3676255   -24733.473    -37620.58   -50777.613    14197.774    61056.103    4616.3422   -24987.704    83.317491 
   59100    2388.6149   -109.92872    2.1612689   -107.76745    24420.486    4.3660989    4.3660989    4.3660989    24420.486    53461.013    43562.111   -23761.665   -22223.594   -4728.4849   -12884.874    83.230155 
   59200    1255.9561   -108.93591    1.1364155   -107.79949   -8706.4308    4.3778227    4.3778227    4.3778227   -8706.4308   -28455.556   -43321.185    45657.449    95755.213    9270.5587    9245.6841    83.902425 
   59300    2350.3992   -109.89282    2.1266906   -107.76613     15712.35    4.3848123    4.3848123    4.3848123     15712.35    48077.129    17126.332   -18066.412   -34086.921   -5238.3438   -29134.716    84.304938 
   59400    1401.9598   -109.04025    1.2685227   -107.77172   -2248.8573    4.3822994    4.3822994    4.3822994   -2248.8573   -10827.306   -30661.734    34742.468    105435.16   -589.67424     11980.71    84.160079 
   59500    2278.8802   -109.82333    2.0619787   -107.76135    9435.8198    4.3731393    4.3731393    4.3731393    9435.8198    40222.853    2759.0173   -14674.411   -11869.775    2941.8912   -3631.3122    83.633436 
   59600     1132.306   -108.80736    1.0245342   -107.78282    19198.749    4.3608574    4.3608574    4.3608574    19198.749    18943.029   -5383.5736    44036.793    82320.583    3120.1258   -14345.624    82.930763 
   59700    2059.4419   -109.65062    1.8634263    -107.7872    1913.2449    4.3748601    4.3748601    4.3748601    1913.2449    7204.1634   -19940.364    18475.935    39475.757   -6479.6008    19190.661    83.732198 
   59800    1629.4498   -109.24439    1.4743604   -107.77003   -16785.332    4.3956743    4.3956743    4.3956743   -16785.332   -17625.601   -46857.401    14127.006    68378.638   -2222.6269   -3899.8852    84.933013 
   59900    1651.6587    -109.2547    1.4944555   -107.76024   -30065.002    4.3911865    4.3911865    4.3911865   -30065.002   -33430.749   -76107.235    19342.976    57744.493   -1609.6634   -12047.809    84.673138 
   60000    2055.7552   -109.61415    1.8600906   -107.75406    13025.266    4.3624085    4.3624085    4.3624085    13025.266    4564.1058    16655.221    17856.472    14456.079    10075.921    5954.0496    83.019284 
   60100    1668.2715   -109.28271    1.5094871   -107.77323    3798.5042    4.3546626    4.3546626    4.3546626    3798.5042   -23572.545   -23488.684    58456.743    104523.65     8980.053   -9611.0122    82.577841 
   60200    2278.2576   -109.83027    2.0614154   -107.76885    9404.5119     4.372786     4.372786     4.372786    9404.5119   -2611.1008    43382.305   -12557.668   -42874.351   -4975.8296   -3338.9037    83.613169 
   60300    769.28396   -108.49305   0.69606429   -107.79699   -17523.257    4.3916304    4.3916304    4.3916304   -17523.257    -27930.86   -28190.165    3551.2548    98954.067    8950.4475     8553.455    84.698818 
   60400    2940.1273   -110.40641     2.660289   -107.74612    3181.9678    4.3967343    4.3967343    4.3967343    3181.9678   -63.732187    44153.937   -34544.301   -32455.322   -698.78968   -9749.6344    84.994468 
   60500    880.25743   -108.57539   0.79647542   -107.77891   -15107.939    4.3773939    4.3773939    4.3773939   -15107.939   -87057.853   -21829.302    63563.337    83157.981   -10528.651    1315.2753     83.87777 
   60600    3088.8903   -110.52062    2.7948928   -107.72573    44658.414    4.3656212    4.3656212    4.3656212    44658.414    46207.872    59061.034    28706.336   -30376.226    8036.1532    862.09215    83.202839 
   60700    490.22978   -108.22421    0.4435702   -107.78064    -37514.82    4.3821399    4.3821399    4.3821399    -37514.82   -88974.475   -59986.532    36416.547    94424.894   -28392.538    6763.0882    84.150888 
   60800    2622.9783   -110.13517    2.3733259   -107.76184    1775.7433    4.3857084    4.3857084    4.3857084    1775.7433   -13444.972    6563.0974    12209.105   -12947.349    6091.3465   -7393.9808    84.356637 
   60900    1332.3039   -108.97476    1.2054966   -107.76926   -20694.174    4.3952286    4.3952286    4.3952286   -20694.174   -59839.466   -3212.8397    969.78409    67638.352   -13761.844    1861.5252    84.907179 
   61000    1869.0796   -109.44625    1.6911825   -107.75506   -6368.0458    4.3899985    4.3899985    4.3899985   -6368.0458    -32014.89    27446.501   -14535.748    27691.491   -5366.6008   -3747.5501    84.604433 
   61100    1882.9814   -109.45793    1.7037611   -107.75417    22404.971    4.3673051    4.3673051    4.3673051    22404.971    44132.938    -2014.737     25096.71     29281.51   -1032.1232   -8089.7483    83.299154 
   61200    1028.7783   -108.71819   0.93086025   -107.78733   -14456.883    4.3651081    4.3651081    4.3651081   -14456.883   -58295.225    797.70211    14126.874    68669.845   -40448.482    572.28063    83.173506 
   61300    2879.3412   -110.36687    2.6052885   -107.76158    25540.535    4.3738773    4.3738773    4.3738773    25540.535    23085.528    41816.754    11719.322   -15445.212   -2486.6961    4411.9357    83.675784 
   61400    984.49929    -108.6895   0.89079564   -107.79871   -24896.966    4.3861788    4.3861788    4.3861788   -24896.966   -56904.996   -51581.269    33795.367    84171.323   -6099.1346   -11016.314    84.383784 
   61500    2343.4065    -109.8764    2.1203634   -107.75604   -10653.586    4.3905423    4.3905423    4.3905423   -10653.586   -17637.866    21527.779   -35850.672   -26093.522   -28953.297    10983.912    84.635874 
   61600    1146.4334   -108.81765     1.037317   -107.78033   -19362.945    4.3707013    4.3707013    4.3707013   -19362.945   -34871.324   -76263.658    53046.148     100717.6    10064.888    21970.761    83.493635 
   61700    2655.5312   -110.15811    2.4027804   -107.75533     30907.67    4.3553186    4.3553186    4.3553186     30907.67    4525.2491    66318.116    21879.646   -22178.299   -18936.782    -17165.14     82.61517 
   61800    1286.4016   -108.95685    1.1639632   -107.79289   -21330.571    4.3716679    4.3716679    4.3716679   -21330.571   -35044.692   -55213.471    26266.451    88708.329   -21065.832    28093.645    83.549044 
   61900    1950.2885   -109.54599     1.764662   -107.78133   -12751.524    4.3862715    4.3862715    4.3862715   -12751.524   -4533.0047   -38955.485    5233.9164    24382.201    19074.949   -2716.4974    84.389135 
   62000    1498.3806   -109.12138    1.3557662   -107.76561   -14265.229    4.3954744    4.3954744    4.3954744   -14265.229    -23872.23   -24604.962    5681.5063    43783.583   -31709.913    3701.2456    84.921425 
   62100    1805.3985    -109.3912    1.6335625   -107.75763   -19681.382    4.3914691    4.3914691    4.3914691   -19681.382   -5542.4423   -53852.571    350.86712    60686.003    8232.4856    17140.044    84.689486 
   62200    2547.1352   -110.05569    2.3047014   -107.75099    17797.882     4.365806     4.365806     4.365806    17797.882    14382.972    37256.328    1754.3463    1000.1316   -11356.568   -11277.848    83.213404 
   62300    757.91418   -108.48258   0.68577668    -107.7968   -6055.8261    4.3542697    4.3542697    4.3542697   -6055.8261   -47815.139   -23498.695    53146.356    96043.666   -33277.739      12574.5    82.555495 
   62400     2700.617   -110.22821     2.443575   -107.78463    24396.788    4.3684578    4.3684578    4.3684578    24396.788    38185.343    34248.688    756.33337   -31187.599    16399.444    10495.503    83.365133 
   62500    1101.9077    -108.8002    0.9970292   -107.80317   -41484.478    4.3984311    4.3984311    4.3984311   -41484.478   -105114.77   -36675.616    17336.955    93623.101   -24342.732     581.7507    85.092912 
   62600    2495.0791   -110.01943       2.2576   -107.76183   -1441.2851    4.3899852    4.3899852    4.3899852   -1441.2851   -17624.605    40209.293   -26908.544   -14173.498   -14192.848    14417.623    84.603663 
   62700    1228.8586   -108.87976    1.1118971   -107.76787    4518.7738    4.3669302    4.3669302    4.3669302    4518.7738   -29561.967   -16141.608    59259.896    73450.401    18796.812    3575.2054    83.277704 
   62800    2010.9879   -109.59109    1.8195841   -107.77151    926.24412    4.3627858    4.3627858    4.3627858    926.24412    -29116.08    11140.769    20754.044      27236.4   -16409.588   -3862.3055     83.04083 
   62900    1811.7144   -109.42615    1.6392773   -107.78687    9776.8337    4.3707845    4.3707845    4.3707845    9776.8337   -6876.9854    29825.529    6381.9576     33550.11   -2303.5368    15365.135    83.498406 
   63000    1458.1193   -109.12748     1.319337   -107.80814   -36517.817    4.3892263    4.3892263    4.3892263   -36517.817    -90128.02   -40981.847    21556.417    66073.472    30698.634    1055.5436    84.559792 
   63100    2467.9418   -110.00272    2.2330456   -107.76967   -2713.8626    4.3901507    4.3901507    4.3901507   -2713.8626    33180.818   -20920.611   -20401.794   -8948.8635   -12318.995   -13606.236    84.613235 
   63200    793.75209   -108.50508   0.71820357   -107.78687   -33458.061    4.3798007    4.3798007    4.3798007   -33458.061   -45374.178   -61199.832    6199.8263     95066.06    19017.958     676.0228      84.0162 
   63300    2647.6992   -110.15971    2.3956939   -107.76402    29945.839    4.3640938    4.3640938    4.3640938    29945.839    31097.337    43470.696    15269.485   -30287.584    19413.068    10688.019    83.115542 
   63400    1329.0913   -109.00092    1.2025897   -107.79833   -17455.689    4.3672517    4.3672517    4.3672517   -17455.689   -36790.508   -57864.273    42287.715    95416.731   -11502.939    -34301.76    83.296099 
   63500    2341.7938   -109.91318    2.1189042   -107.79428     1295.438    4.3796719    4.3796719    4.3796719     1295.438   -22692.408    34236.416   -7657.6937    6888.4032    11655.658    12760.649     84.00879 
   63600    1365.0043   -109.03817    1.2350846   -107.80308   -10058.945    4.3794567    4.3794567    4.3794567   -10058.945   -46182.001   -19393.745    35398.911    32752.936    7783.5025   -7172.1693    83.996405 
   63700    1514.8745   -109.17144    1.3706903   -107.80075   -621.36369    4.3789307    4.3789307    4.3789307   -621.36369   -22428.117   -24097.036    44661.063    52215.387   -14904.937   -22525.002    83.966147 
   63800    2339.9397    -109.8937    2.1172266   -107.77647   -2795.0958    4.3800769    4.3800769    4.3800769   -2795.0958   -5414.1238    20465.487    -23436.65   -8910.9843   -11716.341    37704.732    84.032098 
   63900    1271.3185   -108.93279    1.1503157   -107.78248   -593.69603    4.3761822    4.3761822    4.3761822   -593.69603   -15869.246   -41347.601    55435.758    61206.187    5575.4554   -23437.083    83.808136 
   64000    1993.3684   -109.56813    1.8036416   -107.76448    -7845.061    4.3803649    4.3803649    4.3803649    -7845.061    1968.9165    21902.411    -47406.51   -15033.608   -57063.616    24054.955    84.048676 
   64100    1483.3066   -109.12558     1.342127   -107.78346    -12709.28    4.3800362    4.3800362    4.3800362    -12709.28   -15230.058   -23626.343    728.56231    50094.644    6206.2925    21558.955    84.029757 
   64200    2347.1665   -109.89952    2.1237655   -107.77575    4030.2832     4.372431     4.372431     4.372431    4030.2832   -27376.599    25980.868    13486.581    19364.891   -37273.675   -8440.7741    83.592804 
   64300    1416.4106   -109.07478     1.281598   -107.79318   -3532.1125    4.3734356    4.3734356    4.3734356   -3532.1125   -18711.299    34174.574   -26059.613    13850.599   -43981.634    26304.522    83.650433 
   64400    1865.2335   -109.46216    1.6877025   -107.77446   -12905.131    4.3861243    4.3861243    4.3861243   -12905.131   -32737.434   -28727.087    22749.128    47081.046    9248.2389    8128.6675    84.380636 
   64500    1915.5827   -109.49406    1.7332595    -107.7608   -19337.941    4.3934237    4.3934237    4.3934237   -19337.941   -49599.631    38541.094   -46955.287   -16600.716   -77585.965   -3383.5834    84.802619 
   64600    1848.8231   -109.42424     1.672854   -107.75139   -2485.4161    4.3817748    4.3817748    4.3817748   -2485.4161   -14205.907   -11709.574    18459.232    57500.894     21850.84    11071.633    84.129858 
   64700    1872.3356   -109.45439    1.6941286   -107.76026    841.33607    4.3645515    4.3645515    4.3645515    841.33607   -32601.432    44425.736   -9300.2961    7137.3184   -71015.874   -7461.2657    83.141691 
   64800     1908.071   -109.50028    1.7264627   -107.77382    11971.384    4.3639977    4.3639977    4.3639977    11971.384    281.66696    29065.975    6566.5094    8882.1399   -6630.4984   -3314.1661    83.110051 
   64900    1566.1026   -109.20667    1.4170425   -107.78963   -13872.173    4.3812313    4.3812313    4.3812313   -13872.173    -27174.48   -28750.405    14308.367    51083.345   -22582.484    16951.713     84.09856 
   65000    1960.6062   -109.55026    1.7739977   -107.77627   -12497.908    4.3949749    4.3949749    4.3949749   -12497.908   -47565.225    29122.627   -19051.127   -19874.226   -55259.551   -17895.201    84.892477 
   65100     1912.858   -109.50777    1.7307941   -107.77698   -9658.8055    4.3803994    4.3803994    4.3803994   -9658.8055   -28649.144   -4748.4227    4421.1497    25248.971    16715.681   -2715.2965    84.050659 
   65200    1596.8118   -109.22811    1.4448289   -107.78328    218.58428    4.3583552    4.3583552    4.3583552    218.58428   -55125.782     58644.28   -2862.7446    21475.772   -87898.081    12584.502     82.78809 
   65300    2430.4958    -109.9733    2.1991637   -107.77413     20442.39     4.366099     4.366099     4.366099     20442.39    7745.2751    31414.584    22167.311   -28606.635    23978.417   -18334.476    83.230161 
   65400    1055.4936   -108.74898   0.95503279   -107.79395   -45053.952    4.3891552    4.3891552    4.3891552   -45053.952   -97557.488   -10209.854   -27394.512    28727.156   -76001.904    8944.5563    84.555683 
   65500    2317.3031   -109.86371    2.0967445   -107.76697   -6852.8371    4.3870681    4.3870681    4.3870681   -6852.8371   -41642.547    27418.751   -6334.7156   -7867.0044    12035.195    -316.8698    84.435122 
   65600    1622.1208   -109.24616     1.467729   -107.77843   -15780.717    4.3756815    4.3756815    4.3756815   -15780.717   -46443.782     25250.88    -26149.25    2474.8492   -1703.8005   -14315.775    83.779374 
   65700    2141.9797   -109.71139    1.9381083   -107.77328    17320.107    4.3592991    4.3592991    4.3592991    17320.107   -23470.873    47891.775     27539.42    18903.132   -26860.518    10261.008    82.841888 
   65800      1625.17   -109.26379     1.470488    -107.7933   -5503.5146    4.3673993    4.3673993    4.3673993   -5503.5146   -27601.475    38744.038   -27653.106   -17126.996    76306.853   -6977.9918    83.304545 
   65900    2066.0546   -109.64562    1.8694096   -107.77621   -8955.3375      4.38734      4.38734      4.38734   -8955.3375    -24040.53   -6199.4857    3374.0031    16952.021   -35420.982    796.08696    84.450824 
   66000    1245.7515   -108.91269    1.1271822   -107.78551    -24722.91    4.3879804    4.3879804    4.3879804    -24722.91   -75822.434    41547.036   -39893.331   -255.34202    96803.214    5776.7782    84.487807 
   66100    2736.0516   -110.23971     2.475637   -107.76408    13652.779    4.3725466    4.3725466    4.3725466    13652.779    10266.034   -7992.3178    38684.621    -3204.247   -29205.296   -8858.7213    83.599432 
   66200    1146.0108   -108.83849    1.0369346   -107.80156     -899.789    4.3555786    4.3555786    4.3555786     -899.789   -37415.251    62597.739   -27881.855    13018.584    100880.53    15352.439    82.629962 
   66300      2071.74   -109.67709    1.8745539   -107.80253    20445.649    4.3636819    4.3636819    4.3636819    20445.649   -18640.048    49918.151    30058.844    5197.3882   -15286.451   -8893.2232    83.092009 
   66400    1916.0811   -109.52684    1.7337105   -107.79313   -8017.6167    4.3831381    4.3831381    4.3831381   -8017.6167   -39568.914    49866.251   -34350.187   -8391.9234    36475.849    5172.5649     84.20841 
   66500    1397.8425    -109.0583    1.2647972    -107.7935   -2863.5214    4.3825863    4.3825863    4.3825863   -2863.5214   -17980.365    33776.312   -24386.512    24681.455    56695.436    13159.374    84.176612 
   66600    2074.1318   -109.64894    1.8767181   -107.77222     8436.246    4.3771192    4.3771192    4.3771192     8436.246    7566.9487    32566.628   -14824.839   -5337.7377   -18099.593    9145.1343     83.86198 
   66700    1323.1002   -108.98601    1.1971688   -107.78884    1870.8808    4.3633086    4.3633086    4.3633086    1870.8808   -18054.548    69720.165   -46052.975     4556.223    102020.12   -6057.2967    83.070686 
   66800    2533.6522   -110.05897    2.2925017   -107.76647    24525.581    4.3649739    4.3649739    4.3649739    24525.581    78257.579   -4976.3695    295.53546    7271.5269   -27005.029    20776.382    83.165835 
   66900    850.13281   -108.57513   0.76921803   -107.80591   -34857.673    4.3809603    4.3809603    4.3809603   -34857.673   -70974.467    53462.452   -87061.005   -5350.9908    107705.41    1686.5875    84.082952 
   67000    3028.4716   -110.50709    2.7402247   -107.76686    4393.0883    4.3814995    4.3814995    4.3814995    4393.0883    27646.786   -21876.528    7409.0068   -10137.172   -42602.593    7092.1962    84.114002 
   67100    840.51748   -108.56276   0.76051788   -107.80224   -34043.223    4.3787498    4.3787498    4.3787498   -34043.223   -49412.876     32245.02   -84961.811    786.46628    104007.11    14496.294    83.955737 
   67200    2091.3003      -109.68    1.8922525   -107.78775    11549.614    4.3660766    4.3660766    4.3660766    11549.614    13022.971    8207.1461    13418.725    1170.5378   -831.60293   -14138.223    83.228878 
   67300    1647.1959   -109.28677    1.4904174   -107.79635   -8661.9579    4.3717047    4.3717047    4.3717047   -8661.9579   -33948.073    5933.5657    2028.6339   -6599.4862    62719.753    12507.376    83.551153 
   67400     1578.933   -109.23317    1.4286518   -107.80452   -23793.065    4.3793889    4.3793889    4.3793889   -23793.065    7891.0138   -12504.533   -66765.676    5096.7587    46652.037    21397.762    83.992507 
   67500    2386.7576   -109.93951    2.1595884   -107.77992    14325.207    4.3772349    4.3772349    4.3772349    14325.207    13967.595    24400.957    4607.0682    3946.8587     13894.96   -11235.322    83.868632 
   67600    1346.9193   -109.01519    1.2187208   -107.79647   -16709.814    4.3784788    4.3784788    4.3784788   -16709.814   -56743.481    52255.922   -45641.882   -878.27255     96373.35    4498.6852     83.94015 
   67700    2238.5617   -109.79649    2.0254977   -107.77099    15024.043    4.3703554    4.3703554    4.3703554    15024.043     34264.05   -30139.675    40947.756    1038.1399   -26047.551    24896.965    83.473815 
   67800    741.77211    -108.4749   0.67117099   -107.80373   -18353.032    4.3758221    4.3758221    4.3758221   -18353.032   -46383.282    39956.915   -48632.729     2437.882       119652   -11363.448     83.78745 
   67900    2961.7515   -110.43884     2.679855   -107.75898      11538.9    4.3843876    4.3843876    4.3843876      11538.9    10287.267   -9350.6413    33680.075    6669.3301   -47741.674    90.127276    84.280447 
   68000    869.74543   -108.57787   0.78696394   -107.79091   -29509.069     4.386706     4.386706     4.386706   -29509.069   -38939.073    15237.052   -64825.185    7608.1264    106834.51    10854.094    84.414218 
   68100    2791.7007   -110.28613    2.5259895   -107.76014   -1521.2557    4.3801637    4.3801637    4.3801637   -1521.2557     35691.24   -21960.183   -18294.825   -11549.265   -26834.817   -4313.1748    84.037096 
   68200    1167.0198   -108.84214     1.055944    -107.7862   -11083.981    4.3681542    4.3681542    4.3681542   -11083.981   -37409.509    72525.806   -68368.239   -2420.4178    77695.646     -2282.18    83.347749 
   68300    2375.0127   -109.92732    2.1489614   -107.77836    12549.146    4.3675444    4.3675444    4.3675444    12549.146     52809.62    8312.1357   -23474.319    -1211.694     2437.486    22532.204    83.312851 
   68400    1356.9054   -109.02473    1.2277565   -107.79697   -9687.8113    4.3798825    4.3798825    4.3798825   -9687.8113   -9297.5499    41096.964   -60862.848   -5467.1213    76431.044    1476.5806    84.020911 
   68500    1829.6754   -109.43239    1.6555288   -107.77686    -23550.36    4.3907776    4.3907776    4.3907776    -23550.36    -39152.28    8526.8201   -40025.621    -6239.424    12448.143    2209.7989    84.649484 
   68600    1519.9315   -109.14731     1.375266   -107.77204    -8058.608    4.3872619    4.3872619    4.3872619    -8058.608   -32305.867    52545.252   -44415.209    4233.0501    39104.173    21253.037    84.446312 
   68700    1828.1335   -109.42306    1.6541336   -107.76893    7918.5394    4.3776792    4.3776792    4.3776792    7918.5394   -17121.915    54964.344   -14086.811   -7448.7197    57534.287   -6503.8424    83.894171 
   68800    2203.0808   -109.74321    1.9933938   -107.74982     5846.963    4.3827441    4.3827441    4.3827441     5846.963    -5992.204    11240.015    12293.078    2611.0517    19574.527   -8737.8478    84.185701 
   68900    1113.0303   -108.77956    1.0070932   -107.77247   -14935.222    4.3860117    4.3860117    4.3860117   -14935.222   -44875.265    37536.599   -37466.999    5268.7483    78557.566    32990.289    84.374137 
   69000    2219.3862   -109.76018    2.0081473   -107.75203    25716.871    4.3764205    4.3764205    4.3764205    25716.871    42293.325    1282.7221    33574.567    -1031.617   -12357.602   -28701.375    83.821829 
   69100     1381.184   -109.03074    1.2497243   -107.78101   -2185.0472    4.3746916    4.3746916    4.3746916   -2185.0472   -35033.814    48414.369   -19935.696   -78.052912    103962.47    2619.4756    83.722529 
   69200    2857.8188   -110.34839    2.5858145   -107.76258    18770.752    4.3775977    4.3775977    4.3775977    18770.752    35826.234   -12039.287    32525.311    8634.7592   -30772.538    13758.981    83.889487 
   69300    686.14897   -108.41966   0.62084201   -107.79882   -1964.6294    4.3776727    4.3776727    4.3776727   -1964.6294   -27666.832    43991.696   -22218.752     -3034.28    100244.41   -32817.011    83.893798 
   69400    2497.4942   -110.04276    2.2597852   -107.78297    9965.5864    4.3791118    4.3791118    4.3791118    9965.5864   -3964.8998   -2022.8396    35884.499    15696.882    -17622.04   -117.18986    83.976561 
   69500    1693.2633   -109.33282    1.5321003   -107.80072    14757.366    4.3739518    4.3739518    4.3739518    14757.366    -7481.657    37734.827    14018.929    7042.8965    66907.842    1203.5033    83.680056 
   69600    1698.8304   -109.33637    1.5371374   -107.79924    -8497.576    4.3761104    4.3761104    4.3761104    -8497.576    13016.433    12307.511   -50816.672    1178.3065     38951.11   -31981.541    83.804009 
   69700    1962.4141   -109.55893    1.7756335    -107.7833   -5370.1686    4.3772862    4.3772862    4.3772862   -5370.1686   -28064.722     25023.91   -13069.693   -2518.6783    6249.3451    6835.6688    83.871581 
   69800    1237.3115   -108.91687    1.1195454   -107.79732   -10750.017    4.3759082    4.3759082    4.3759082   -10750.017   -15984.749    36155.986   -52421.289    3846.3379    84076.226   -14948.399    83.792398 
   69900    2521.6637   -110.04437    2.2816543   -107.76272   -8116.5856    4.3874398    4.3874398    4.3874398   -8116.5856    38797.827   -34728.959   -28418.625    -1678.501   -4185.8011   -35577.738    84.456583 
   70000    1418.1519   -109.04743    1.2831737   -107.76426   -24933.102    4.3917016    4.3917016    4.3917016   -24933.102    -51584.98     44713.81   -67928.135   -2869.7793    92828.032    11473.821    84.702939 
   70100    2127.1978   -109.66711    1.9247332   -107.74238    2335.1679    4.3817107    4.3817107    4.3817107    2335.1679    22931.448   -12591.428   -3334.5166   -3489.3463   -34211.849   -32637.904    84.126169 
   70200    1084.2617    -108.7511   0.98106278   -107.77004   -15695.036    4.3710696    4.3710696    4.3710696   -15695.036   -60507.814    69088.719   -55666.013    -8003.492    107417.07   -22418.428    83.514746 
   70300    2665.8764   -110.16578     2.412141   -107.75364    36157.281     4.369818     4.369818     4.369818    36157.281      36314.1    42633.501    29524.242     2196.125   -35110.414    11573.167    83.443028 
   70400    1011.4336   -108.70891   0.91516642   -107.79374   -24169.307    4.3852923    4.3852923    4.3852923   -24169.307   -47425.258    53873.485    -78956.15   -12126.188    73355.918   -33568.911    84.332628 
   70500    2325.1301   -109.86081    2.1038266   -107.75699   -6522.7085    4.3897147    4.3897147    4.3897147   -6522.7085   -25515.918    27924.878   -21977.085    3507.9762     1681.223      3115.69    84.588027 
   70600    1215.1333   -108.87486    1.0994781   -107.77538   -26437.384    4.3844082    4.3844082    4.3844082   -26437.384   -58803.064    34688.724   -55197.814    1599.6767    31064.805    15478.941    84.281635 
   70700    2262.7603   -109.81254    2.0473931   -107.76514    9895.8516    4.3714543    4.3714543    4.3714543    9895.8516    1814.5499    43607.448   -15734.443   -11557.807    44636.699   -30482.727    83.536798 
   70800    1450.6097   -109.09178    1.3125422   -107.77924    18066.433    4.3692066    4.3692066    4.3692066    18066.433    22898.757    51656.277   -20355.735   -87.341149   -22037.828    47499.415    83.408008 
   70900     1991.016   -109.57065    1.8015131   -107.76914   -17087.352    4.3935701    4.3935701    4.3935701   -17087.352   -54173.207    38275.483   -35364.333     3190.604     61365.52    -13365.98    84.811097 
   71000    1818.0851   -109.40018    1.6450416   -107.75514   -1987.1972    4.3934044    4.3934044    4.3934044   -1987.1972   -3743.9219    20749.172   -22966.842   -6713.5305   -37022.476    15522.967    84.801503 
   71100    1432.9954   -109.06401    1.2966044   -107.76741    -5790.126    4.3782644    4.3782644    4.3782644    -5790.126   -2571.5617    34149.067   -48947.884   -5608.9284    34573.646     29417.72     83.92782 
   71200    2572.5477   -110.08025    2.3276952   -107.75255   -211.06516    4.3726214    4.3726214    4.3726214   -211.06516   -5476.8685   -1996.0888    6839.7619   -5128.7159   -5360.0409   -31414.683    83.603724 
   71300    1220.9304   -108.89264    1.1047235   -107.78792   -23584.393    4.3750384    4.3750384    4.3750384   -23584.393   -7184.9363   -7463.8363   -56104.405   -679.48105   -15660.021    24391.767     83.74244 
   71400    2489.2639   -110.01219    2.2523383   -107.75986   -17739.151    4.3954114    4.3954114    4.3954114   -17739.151    -23884.12   -31367.201    2033.8669   -7207.8818    5573.6378     -6321.81    84.917771 
   71500       666.59   -108.37199   0.60314464   -107.76884   -62574.181    4.4064351    4.4064351    4.4064351   -62574.181   -65482.427   -63994.558   -58245.559   -7230.9831    -21765.78   -37757.358    85.558296 
   71600    3119.8737   -110.55536    2.8229273   -107.73243    26596.603    4.3751827    4.3751827    4.3751827    26596.603     21697.31     41795.32    16297.181    175.53557    9148.4941    20224.576    83.750727 
   71700    807.16529   -108.50025   0.73034012   -107.76991    3585.6705    4.3604068    4.3604068    4.3604068    3585.6705    4059.8895   -22604.849    29301.971   -9117.0531    3296.6771   -39672.712    82.905058 
   71800    2906.3689   -110.37678    2.6297437   -107.74704    18926.784    4.3752617    4.3752617    4.3752617    18926.784    26060.544    31917.875   -1198.0678   -6364.1073   -11831.278    13718.741    83.755264 
   71900    727.47462   -108.44344   0.65823432    -107.7852    -24056.64    4.3948813    4.3948813    4.3948813    -24056.64   -32513.896   -51755.311    12099.288    1449.3709    24032.268    13983.129     84.88705 
   72000    2952.4115   -110.40382     2.671404   -107.73242   -5076.0589    4.4030432    4.4030432    4.4030432   -5076.0589   -6192.4851   -17577.743    8542.0512   -4812.5267   -7980.2738   -13804.109    85.360874 
   72100    1029.4691   -108.71824   0.93148527   -107.78675   -27867.129    4.3785092    4.3785092    4.3785092   -27867.129   -13888.834   -16694.731    -53017.82   -3125.9634    13103.024    50702.924    83.941902 
   72200    2560.0391   -110.05899    2.3163771   -107.74261    49263.799    4.3551359    4.3551359    4.3551359    49263.799    14719.788    45389.482    87682.129    3297.3052    12215.762    -1193.764    82.604774 
   72300    1217.5443    -108.8705    1.1016597   -107.76884   -27268.111    4.3764188    4.3764188    4.3764188   -27268.111   -19018.125   -9586.3756   -53199.833   -8190.6641   -14892.582    3020.5836    83.821731 
   72400     2048.074   -109.61291    1.8531404   -107.75977    2281.0003    4.3968129    4.3968129    4.3968129    2281.0003   -35126.926    24486.648    17483.279    7285.0884    14166.399    39230.964    84.999026 
   72500      1393.57   -109.02264    1.2609314   -107.76171   -22200.705    4.4021781    4.4021781    4.4021781   -22200.705   -17132.942    4674.8847   -54144.057    2721.4738   -33868.476   -54758.113    85.310565 
   72600    1875.7241   -109.45928    1.6971946   -107.76209    11536.548    4.3768606    4.3768606    4.3768606    11536.548    9040.4232    44036.005   -18466.784    593.87209   -11898.868     31112.22    83.847118 
   72700    2025.8635   -109.59123    1.8330439   -107.75818    16256.321    4.3616811    4.3616811    4.3616811    16256.321    6207.8719    20915.045    21646.048    3627.0249    7046.5018   -34155.647    82.977767 
   72800    922.50199   -108.64183   0.83469919   -107.80713   -34238.888    4.3733324    4.3733324    4.3733324   -34238.888   -36719.457   -22107.414   -43889.794    -9483.846   -35041.993   -45791.081    83.644515 
   72900     2746.043   -110.26258    2.4846774    -107.7779    17762.701     4.387463     4.387463     4.387463    17762.701   -10859.989    10841.622    53306.469    10805.762    13569.991    24261.325    84.457924 
   73000    793.36358   -108.51395   0.71785204    -107.7961   -41430.868    4.4082138    4.4082138    4.4082138   -41430.868   -30783.901   -25563.022    -67945.68   -13571.381   -9871.5134   -61736.118    85.661946 
   73100    2755.6349   -110.24049    2.4933564   -107.74714      1609.01    4.3934477    4.3934477    4.3934477      1609.01    6830.1814    14341.031   -16344.182   -2299.3484   -19683.218    30411.588    84.804007 
   73200    1031.5846   -108.70038   0.93339938   -107.76698   -4499.0696     4.363782     4.363782     4.363782   -4499.0696    46023.294   -28457.662   -31062.841    18235.047     32526.54   -12306.524    83.097725 
   73300    2531.2682   -110.04161    2.2903446   -107.75126     41133.63    4.3622374    4.3622374    4.3622374     41133.63    72322.787    45805.619    5272.4857   -13461.564   -230.97241   -24798.117     83.00952 
   73400    1150.7586   -108.83102    1.0412306   -107.78979    -9013.288    4.3826387    4.3826387    4.3826387    -9013.288    39551.045   -42766.456   -23824.453    10965.622    3879.5565    51641.876     84.17963 
   73500    2489.5247   -110.02283    2.2525743   -107.77026   -411.09591    4.4009306    4.4009306    4.4009306   -411.09591    30746.924    1102.7027   -33082.915    287.70789    18820.771   -26033.128     85.23806 
   73600    1178.5774   -108.85372    1.0664016   -107.78732   -13210.362    4.3910767    4.3910767    4.3910767   -13210.362    24926.161   -52566.274   -11990.972    5208.2824   -9475.5486    52822.092    84.666783 
   73700    1800.4941   -109.39185    1.6291249   -107.76273    26351.678    4.3695072    4.3695072    4.3695072    26351.678    27651.914    16809.367    34593.754    8153.0917    7698.4723    5797.6742    83.425223 
   73800    2054.2214   -109.62038    1.8587027   -107.76167    1729.1391    4.3744873    4.3744873    4.3744873    1729.1391    27576.251   -3312.4696   -19076.364   -383.84607    2032.7168    10970.887    83.710799 
   73900    1092.7147   -108.78291   0.98871125    -107.7942    2984.5569    4.3856446    4.3856446    4.3856446    2984.5569    10786.635    5266.3224   -7099.2864   -8313.1757    -3623.716    46784.813    84.352955 
   74000    2700.6002   -110.20194    2.4435598   -107.75838    19707.279    4.3934988    4.3934988    4.3934988    19707.279    59369.358    17674.271   -17921.793   -2655.2923    15451.649   -24142.613    84.806966 
   74100     749.6628   -108.46023   0.67831065   -107.78192    1791.5465    4.3908644    4.3908644    4.3908644    1791.5465     33351.38   -1743.5729   -26233.168   -3806.1868    9981.9785    50577.931    84.654504 
   74200    2799.4407    -110.2615    2.5329928   -107.72851    12351.891     4.389959     4.389959     4.389959    12351.891   -29840.723    63402.819    3493.5768     5832.141   -434.13901   -14904.709     84.60215 
   74300    878.01317   -108.55733   0.79444477   -107.76289   -17996.168    4.3856192    4.3856192    4.3856192   -17996.168   -12053.836   -3162.0657   -38772.602    4967.9867    19778.614    36613.277    84.351492 
   74400    2604.9802   -110.10754    2.3570408    -107.7505    15966.168    4.3846206    4.3846206    4.3846206    15966.168   -8276.7266    30796.468    25378.762     5420.107   -13415.464    6663.2351    84.293881 
   74500     1264.648   -108.93082    1.1442801   -107.78654   -14785.857    4.3816218    4.3816218    4.3816218   -14785.857   -36943.542    22240.617   -29654.645    12238.473   -10577.375    10522.488    84.121046 
   74600    2185.4814   -109.75215    1.9774695   -107.77468    9443.4995    4.3830067    4.3830067    4.3830067    9443.4995    13194.309    19490.044   -4353.8545     1426.203    11160.541    31148.075    84.200838 
   74700    1424.1133   -109.07161    1.2885677   -107.78304   -15431.256    4.3907831    4.3907831    4.3907831   -15431.256   -50906.104    39142.564   -34530.228    6161.6122   -50586.468   -10399.356    84.649801 
   74800    2297.3612   -109.84007    2.0787007   -107.76137     7385.595    4.3845888    4.3845888    4.3845888     7385.595    34640.927   -7537.3818   -4946.7602    7887.4788    24363.614    24448.352    84.292051 
   74900    1582.0703   -109.20276    1.4314905   -107.77127   -7229.6057    4.3843207    4.3843207    4.3843207   -7229.6057   -30197.151   -3187.3015    11695.635   -12350.859   -54679.378   -8033.7702    84.276587 
   75000    1490.4797   -109.13407    1.3486173   -107.78545   -10787.514    4.3823721    4.3823721    4.3823721   -10787.514   -7204.3722   -18276.055   -6882.1156   -3413.2533   -17491.153    -4981.796    84.164269 
   75100     2343.329   -109.88467    2.1202934   -107.76437    14883.368    4.3847231    4.3847231    4.3847231    14883.368   -11972.109    14550.187    42072.027    1560.6707   -16508.576   -533.73733    84.299797 
   75200    810.99209   -108.52557   0.73380269   -107.79177   -38666.348    4.3967905    4.3967905    4.3967905   -38666.348   -68789.202   -9556.8717   -37652.969   -5175.1597   -56480.355    48.624402    84.997729 
   75300     3084.655   -110.52965    2.7910606   -107.73858    23994.628     4.388744     4.388744     4.388744    23994.628    48488.845    -7992.434    31487.474    15848.415    15907.891   -493.70385    84.531923 
   75400    679.31808    -108.3885   0.61466128   -107.77384   -21220.603    4.3869008    4.3869008    4.3869008   -21220.603   -66937.527    15310.844   -12035.127    -19747.63   -69262.543    729.13578    84.425459 
   75500     2899.558   -110.36432     2.623581   -107.74074    24764.747    4.3867568    4.3867568    4.3867568    24764.747    13299.471   -5517.2969    66512.068    5740.6807    12653.138    1546.1541     84.41715 
   75600    915.25224   -108.62002   0.82813946   -107.79188    5951.3589    4.3787509    4.3787509    4.3787509    5951.3589   -34026.389    2017.1152    49863.351   -1071.6518   -59029.009   -1699.4114    83.955805 
   75700    2138.2948   -109.72379     1.934774   -107.78902    8613.0817    4.3828499    4.3828499    4.3828499    8613.0817    14534.936    -11353.07    22657.378   -18241.372      1724.12    6639.7402    84.191798 
   75800    2056.0512   -109.64359    1.8603584   -107.78323   -1004.0546    4.3857064    4.3857064    4.3857064   -1004.0546   -20741.009   -12258.862    29987.707    19256.231   -29305.225   -5592.8709    84.356522 
   75900    1162.3665   -108.84285    1.0517336   -107.79111   -4181.9806    4.3905602    4.3905602    4.3905602   -4181.9806   -8064.0654   -9457.7337    4975.8572   -23866.688   -26976.852    1632.3841    84.636912 
   76000    2517.9979   -110.03337    2.2783374   -107.75503   -7472.5072    4.3948594    4.3948594    4.3948594   -7472.5072   -15881.018   -20735.271    14198.767     10102.28    -5742.545   -11564.136    84.885784 
   76100     585.5873   -108.32578    0.5298517   -107.79593   -16630.093    4.3873993    4.3873993    4.3873993   -16630.093   -37177.427    8292.5298   -21005.382    26916.394   -63263.398   -3149.2104    84.454247 
   76200    3213.7639   -110.65724    2.9078811   -107.74936    27141.426    4.3793858    4.3793858    4.3793858    27141.426    41424.364   -7780.8449    47780.759    -12927.92    19059.808    1703.1815    83.992325 
   76300    781.90585    -108.5072   0.70748485   -107.79972   -38723.712    4.3819922    4.3819922    4.3819922   -38723.712   -77627.903    -3273.578   -35269.654    32755.777   -80125.343   -1764.9608     84.14238 
   76400    2488.5604   -110.02904    2.2517017   -107.77734    17406.332    4.3794176    4.3794176    4.3794176    17406.332   -20344.065   -6950.4561    79513.516     5892.822    5146.4123     6621.314    83.994158 
   76500     1299.378   -108.97193    1.1757045   -107.79623   -18504.106    4.3907564    4.3907564    4.3907564   -18504.106   -50612.135    9247.7324   -14147.917    4158.6816    -34272.39      16752.6    84.648259 
   76600    1867.2022   -109.47108    1.6894838   -107.78159    -18766.28    4.3929314    4.3929314    4.3929314    -18766.28   -61474.736     17962.17   -12786.274    9729.8867   -46494.492   -1649.6914    84.774114 
   76700    2023.8811   -109.59936    1.8312501   -107.76811    3960.0497    4.3845254    4.3845254    4.3845254    3960.0497    16173.404   -11364.533    7071.2781   -7818.5102    6890.7649    24233.113    84.288391 
   76800    1375.0662   -109.02393    1.2441888   -107.77974   -16853.257    4.3805438    4.3805438    4.3805438   -16853.257   -64255.319    34305.409    -20609.86    9821.3528   -66534.099    16724.329    84.058971 
   76900    2356.4925   -109.88568    2.1322039   -107.75348    22246.765    4.3893759    4.3893759    4.3893759    22246.765    39425.508   -9471.6947    36786.482   -1097.3756    21362.457   -21790.526    84.568441 
   77000    1132.7408   -108.79475    1.0249277   -107.76982    -34906.07    4.4048627    4.4048627    4.4048627    -34906.07     -15994.8   -22615.826   -66107.585   -514.01906    -56580.66    12265.344    85.466738 
   77100    2445.4963   -109.95593    2.2127364   -107.74319    22851.632    4.3864154    4.3864154    4.3864154    22851.632    8016.3146    37384.775    23153.808   -7003.8605    5699.3143   -18112.869    84.397441 
   77200    1033.2882   -108.70791   0.93494084   -107.77297     6485.068     4.370206     4.370206     4.370206     6485.068    10772.772    20229.783   -11547.351   -18071.637   -1273.4718   -8378.9387    83.465257 
   77300    2937.5389   -110.41355    2.6579469   -107.75561    5789.2071    4.3776922    4.3776922    4.3776922    5789.2071   -13046.538    32668.364   -2254.2042   -9604.9799   -32422.727    16454.383    83.894921 
   77400    811.20118   -108.52728   0.73399188   -107.79329    -16503.43    4.3920512    4.3920512    4.3920512    -16503.43   -21959.557    319.39435   -27870.126     6260.607    37810.215   -38670.274    84.723166 
   77500    2676.0212    -110.1849    2.4213203   -107.76357    -7915.508    4.3990983    4.3990983    4.3990983    -7915.508   -10.035842    6217.5534   -29954.042   -30951.839   -16187.899    30636.183    85.131642 
   77600     1367.303   -109.00709    1.2371645   -107.76993   -13887.694    4.3931499    4.3931499    4.3931499   -13887.694   -7029.7037   -15023.817   -19609.562    35183.757    12423.708   -52807.881    84.786767 
   77700    1909.4391   -109.48363    1.7277006   -107.75593    12223.947    4.3848749    4.3848749    4.3848749    12223.947    17920.678    25332.496   -6581.3331   -21666.183    7231.5101    13308.468    84.308551 
   77800    1872.9387   -109.45912    1.6946743   -107.76445    17119.627    4.3813197    4.3813197    4.3813197    17119.627    31203.357    6252.2003    13903.325    27373.174   -13724.195   -14824.759    84.103648 
   77900    1040.4553   -108.74608   0.94142587   -107.80466   -5639.1227    4.3790562    4.3790562    4.3790562   -5639.1227    -10979.65     667.2487   -6604.9669    17149.693    29779.542   -49263.983    83.973365 
   78000    2874.9075    -110.3733    2.6012767   -107.77202    20790.005    4.3892351    4.3892351    4.3892351    20790.005    38260.477    20327.533    3782.0044   -14719.047   -13664.425    25919.904    84.560305 
   78100    853.81776    -108.5624   0.77255225   -107.78985   -43343.163    4.3982601    4.3982601    4.3982601   -43343.163   -44117.608   -44084.375   -41827.507    26086.636    11119.628   -45413.824    85.082984 
   78200    2569.1129   -110.06296    2.3245873   -107.73838    -4282.347     4.394956     4.394956     4.394956    -4282.347    294.29566   -4475.4126   -8665.9242   -16225.858   -6833.8555    9498.1219    84.891382 
   78300    1213.3107   -108.85924     1.097829   -107.76142   -45243.908    4.3938124    4.3938124    4.3938124   -45243.908   -25023.585   -61449.033   -49259.106    6801.0992     3892.669    5684.9948    84.825129 
   78400    2622.7331   -110.12485     2.373104   -107.75175      27339.6    4.3705285    4.3705285    4.3705285      27339.6    51270.118    9148.6539    21600.028    5688.1152    11877.895   -35159.372    83.483735 
   78500    1084.5093   -108.76592   0.98128682   -107.78463    2065.2148    4.3715077    4.3715077    4.3715077    2065.2148    6146.5874    10429.161   -10380.104   -26956.039   -8914.6213    51219.385    83.539857 
   78600    2242.1189   -109.80305    2.0287163   -107.77434    11684.565    4.3943304    4.3943304    4.3943304    11684.565    36815.256    14558.884   -16320.445    10380.249    7836.2382   -18455.193    84.855133 
   78700    1166.0818   -108.83534    1.0550953   -107.78024    10357.157    4.4023887    4.4023887    4.4023887    10357.157   -5137.3594    18401.973    17806.857    -10338.25   -822.39312    31954.517     85.32281 
   78800    1964.5322   -109.53612      1.77755   -107.75857   -10278.218    4.4018629    4.4018629    4.4018629   -10278.218   -19826.933    12723.368   -23731.088   -15615.614   -26154.566    23632.803    85.292242 
   78900    2129.0874   -109.68337     1.926443   -107.75692    22266.046    4.3802098    4.3802098    4.3802098    22266.046    20031.428    25607.499    21159.212    11904.968    17055.252   -15124.825    84.039749 
   79000     1244.727   -108.90062    1.1262552   -107.77437   -39.913065    4.3699802    4.3699802    4.3699802   -39.913065    -1440.076   -2198.6855    3519.0223   -32351.487    4073.7231    50258.506    83.452321 
   79100    2503.0418   -110.03283    2.2648048   -107.76803    8798.5306    4.3859867    4.3859867    4.3859867    8798.5306   -5465.2326    22199.582     9661.242    29669.693   -5162.4453   -22467.807    84.372694 
   79200    1265.6421   -108.93631    1.1451796   -107.79113   -21417.098    4.4097149    4.4097149    4.4097149   -21417.098   -33621.064   -35455.806    4825.5762   -8672.1465    14712.511    14935.147    85.749485 
   79300    2673.2921   -110.17492    2.4188508   -107.75606   -7892.0754    4.4065262    4.4065262    4.4065262   -7892.0754   -16687.975   -17564.212    10575.962   -6195.0797   -10982.619    9981.1056    85.563604 
   79400    835.61318   -108.54047   0.75608036   -107.78439    21403.711    4.3615527    4.3615527    4.3615527    21403.711   -778.40576    37187.884    27801.654    38221.977    19274.501   -37853.335    82.970433 
   79500    2549.2734   -110.05982    2.3066361   -107.75318    50251.584    4.3596235    4.3596235    4.3596235    50251.584    18740.902    63436.135    68577.715   -30385.781    2179.1199   -1366.6685    82.860386 
   79600    1173.5717   -108.84991    1.0618724   -107.78804   -22460.553    4.3950664    4.3950664    4.3950664   -22460.553   -50114.635    -19115.36    1848.3362    48439.509    -16021.21   -16684.974    84.897776 
   79700    1944.6517   -109.53148    1.7595617   -107.77192    -2126.142    4.4084664    4.4084664    4.4084664    -2126.142   -25547.463    15374.535    3794.5019   -2657.1644     25850.07   -39687.864    85.676674 
   79800    1644.8657     -109.251     1.488309   -107.76269    458.64272    4.4053191    4.4053191    4.4053191    458.64272   -63416.731    12100.875    52691.784    13870.384   -25766.522    6016.5886    85.493305 
   79900    1186.6086    -108.8352    1.0736684   -107.76153    22750.791     4.383412     4.383412     4.383412    22750.791   -15434.651    28753.982    54933.041    38770.884    -9580.445   -38809.476    84.224194 
   80000    1944.2579   -109.50573    1.7592054   -107.74652    21489.997    4.3868608    4.3868608    4.3868608    21489.997   -5831.0239    15134.284     55166.73    -17547.98    7651.2539   -5029.5668    84.423151 
   80100    1107.2811   -108.77648    1.0018912   -107.77459   -22167.925    4.4062025    4.4062025    4.4062025   -22167.925   -30608.475   -45173.839    9278.5409    59207.024   -7640.5495    3278.9844     85.54475 
   80200    2767.4526   -110.24175    2.5040493   -107.73771    3679.9911      4.40222      4.40222      4.40222    3679.9911    15696.888   -5312.9095    655.99474   -15473.942    4310.6588   -9087.7983       85.313 
   80300    757.49823   -108.46195   0.68540031   -107.77655   -32750.027    4.3918319    4.3918319    4.3918319   -32750.027   -46455.813   -72503.707    20709.439    17111.864     8437.782    27642.281    84.710479 
   80400    2502.9062   -110.03174    2.2646821   -107.76706    29935.912    4.3685828    4.3685828    4.3685828    29935.912    59156.762    20373.016    10277.958    10922.866   -7680.1654   -2135.2608    83.372288 
   80500    1354.7456    -109.0238    1.2258023     -107.798    20691.408    4.3692362    4.3692362    4.3692362    20691.408   -5173.7886   -4230.0286     71478.04    535.79871    25417.295   -26237.341    83.409701 
   80600    2177.7491   -109.76379    1.9704731   -107.79332   -1485.5745    4.3959374    4.3959374    4.3959374   -1485.5745   -23517.951   -29194.515    48255.742    22319.179   -20157.795    10628.438    84.948264 
   80700    1596.4305    -109.2281    1.4444838   -107.78361    11161.032    4.4000729    4.4000729    4.4000729    11161.032   -12202.359    40230.828    5454.6274   -12533.574    23534.564   -30110.967    85.188232 
   80800     1578.389   -109.20025    1.4281595   -107.77209    16781.934    4.3971371    4.3971371    4.3971371    16781.934   -53394.643   -2555.4221    106295.87    15599.493    7620.4402    -6642.848     85.01783 
   80900    2386.2413   -109.91896    2.1591213   -107.75983   -12705.398     4.386568     4.386568     4.386568   -12705.398    8907.9309   -16876.128   -30147.997    4676.7051    6131.0929    26875.069    84.406249 
   81000    1458.1896   -109.09341    1.3194006   -107.77401    29143.961    4.3653397    4.3653397    4.3653397    29143.961   -31387.576    58708.545    60110.915   -3969.1254    26358.271   -33172.443    83.186748 
   81100    1909.6041   -109.51051    1.7278499   -107.78266   -20026.169     4.385586     4.385586     4.385586   -20026.169    2223.2177   -52351.939   -9949.7868    5686.8179   -6795.9021    59448.361    84.349577 
   81200    1489.9399   -109.13777    1.3481289   -107.78964    -12568.88    4.3892669    4.3892669    4.3892669    -12568.88   -8192.4123   -19403.284   -10110.944   -5712.2669    12093.613    37206.737    84.562142 
   81300    2082.9776   -109.66152    1.8847219    -107.7768    939.41201    4.3935433    4.3935433    4.3935433    939.41201   -14021.168   -19505.217    36344.622   -1335.9844   -1732.9153    10367.306    84.809543 
   81400    1738.1048   -109.34542    1.5726737   -107.77275   -39977.436    4.4028591    4.4028591    4.4028591   -39977.436    23255.668   -71885.148   -71302.829    6188.3846   -11291.653    72937.728    85.350164 
   81500     2064.883   -109.62337    1.8683495   -107.75502     38494.45      4.37163      4.37163      4.37163     38494.45    2155.7047    38705.341    74622.304   -4190.6176    1280.8446   -8507.8664    83.546871 
   81600    1274.6057   -108.93782      1.15329   -107.78453    -6325.988    4.3762776    4.3762776    4.3762776    -6325.988    26753.672   -19226.173   -26505.463   -6098.4026    8493.5109    90070.407    83.813619 
   81700    2569.3759   -110.09052    2.3248254   -107.76569   -4100.8666    4.3906439    4.3906439    4.3906439   -4100.8666   -11257.295   -9076.0005    8030.6963    3830.8364   -15354.337   -50240.295    84.641754 
   81800    1173.9841   -108.85629    1.0622455   -107.79405   -18093.449    4.3942465    4.3942465    4.3942465   -18093.449    4686.6742   -592.72644   -58374.293   -3702.5099    19054.817    92209.733    84.850272 
   81900    2381.0497   -109.92332    2.1544238    -107.7689   -22006.155     4.396893     4.396893     4.396893   -22006.155   -8648.4093   -29530.615    -27839.44   -11447.494   -2626.6646   -42226.484    85.003671 
   82000     1445.719   -109.08044     1.308117   -107.77232   -10765.281    4.3852102    4.3852102    4.3852102   -10765.281    46849.207   -17686.361    -61458.69   -11291.628   -9312.6174    41572.414    84.327892 
   82100    2245.3201   -109.79614    2.0316129   -107.76452    3471.8407    4.3831109    4.3831109    4.3831109    3471.8407    16218.915    26257.078   -32060.471    9792.7098    4121.7164    37353.635    84.206839 
   82200    1561.0648   -109.19167    1.4124843   -107.77919   -8021.7728    4.3884335    4.3884335    4.3884335   -8021.7728    63246.564   -35513.002    -51798.88   -8598.6583   -3594.3189   -24336.318    84.513984 
   82300    1391.8009   -109.04456    1.2593307   -107.78523   -4145.4375    4.3908138    4.3908138    4.3908138   -4145.4375    41920.916    7536.8354   -61894.064    11765.047     1375.466    63670.341    84.651576 
   82400    2493.6141   -110.01764    2.2562744   -107.76136    1902.2177    4.3948683    4.3948683    4.3948683    1902.2177    26482.095    9299.2498   -30074.692    15175.541    636.04949   -21446.072    84.886299 
   82500    1021.6279   -108.71817   0.92439042   -107.79378   -4728.6596    4.3853154    4.3853154    4.3853154   -4728.6596     93615.33   -24270.488   -83530.821   -3112.9729    3272.5475    60214.406    84.333965 
   82600    2647.4768   -110.15773    2.3954926   -107.76224     25893.69     4.378418     4.378418     4.378418     25893.69    30769.099    39600.133    7311.8372    27400.664    7205.8358    -30405.27    83.936659 
   82700     1382.621   -109.03623    1.2510246    -107.7852    2741.4073    4.3829821    4.3829821    4.3829821    2741.4073    75666.063   -7434.0129   -60007.828    9944.9809   -3802.9639    78630.141    84.199418 
   82800     2156.302   -109.72896    1.9510674   -107.77789   -5316.4752    4.3927064    4.3927064    4.3927064   -5316.4752    16412.009    10866.728   -43228.163   -9951.2037    5316.5875   -27272.194     84.76109 
   82900    1526.7676    -109.1706    1.3814514   -107.78915    -17224.11     4.382792     4.382792     4.382792    -17224.11   -8397.8141   -31382.828   -11891.688    21488.743   -5782.4282    49858.893    84.188463 
   83000    1570.4232   -109.22127    1.4209519   -107.80031    22381.819    4.3743258    4.3743258    4.3743258    22381.819    73630.701    2054.1384   -8539.3805    256.31298    1220.1056    59075.281    83.701525 
   83100    2677.3419   -110.20476    2.4225152   -107.78225    1221.8589    4.3894272    4.3894272    4.3894272    1221.8589    24094.388   -25758.164    5329.3534    10009.187   -2209.9797   -3799.7461    84.571404 
   83200    819.58231   -108.55675    0.7415753   -107.81518   -5977.5252    4.3855909    4.3855909    4.3855909   -5977.5252    4240.5625   -54009.963    31836.825    16455.196   -2830.6727    98985.207     84.34986 
   83300    2830.5665    -110.3384    2.5611561   -107.77725    5167.5939    4.3872372    4.3872372    4.3872372    5167.5939    4087.6151   -7741.0559    19156.222   -20814.745    3352.0131   -28425.903    84.444886 
   83400    1237.4478   -108.91782    1.1196688   -107.79815   -9425.9545    4.3820462    4.3820462    4.3820462   -9425.9545    63831.586   -53022.041   -39087.409    11067.024   -4385.8621    79919.055     84.14549 
   83500    1785.3649   -109.40566    1.6154357   -107.79023    13247.247    4.3755056    4.3755056    4.3755056    13247.247    -25144.06    1328.1039    63557.699    31744.073   -312.32823    1326.9624    83.769269 
   83600    2157.1254     -109.742    1.9518124   -107.79018   -11087.534    4.3873372    4.3873372    4.3873372   -11087.534    32017.071   -10019.719   -55259.953   -13295.503   -1801.5239     38742.01    84.450659 
   83700    1302.1615    -108.9802    1.1782231   -107.80198   -8461.2921    4.3946948    4.3946948    4.3946948   -8461.2921    496.80949   -34633.519    8752.8332    43506.956   -103.09024    30957.487    84.876245 
   83800    2426.3479   -109.96146    2.1954106   -107.76605    9596.5414    4.3961889    4.3961889    4.3961889    9596.5414    11405.686    7801.2575    9582.6806    4406.7565    -5661.949     1042.063    84.962841 
   83900    1418.8396   -109.05767    1.2837959   -107.77388   -12344.088    4.3855039    4.3855039    4.3855039   -12344.088    44556.362   -30045.805   -51542.822     16123.72     10088.76    65256.519    84.344837 
   84000    1960.8159   -109.54255    1.7741874   -107.76837    14742.283    4.3782173    4.3782173    4.3782173    14742.283    -19461.23   -4511.1797    68199.259    50067.982    944.88061   -36804.385    83.925113 
   84100     1697.121   -109.31242    1.5355908   -107.77683    2850.9215    4.3859937    4.3859937    4.3859937    2850.9215    49205.677   -8919.1652   -31733.747   -30034.196    4983.8047    46403.676    84.373102 
   84200    1505.8581   -109.14859     1.362532   -107.78605   -14050.136    4.3968853    4.3968853    4.3968853   -14050.136   -19560.351   -69927.267     47337.21    73124.751    4370.5457     4798.469    85.003225 
   84300    2567.8785   -110.09156    2.3234704   -107.76809    7130.8173    4.3887133    4.3887133    4.3887133    7130.8173    11367.915   -11087.157    21111.695   -23841.694    3045.4093    6050.5874    84.530149 
   84400    1301.3374   -108.96966    1.1774774   -107.79218   -14284.806    4.3773407    4.3773407    4.3773407   -14284.806    22967.892   -63759.374   -2062.9349    17528.667    883.97509    40806.099    83.874715 
   84500    2575.3166   -110.10552    2.3302006   -107.77532    10594.257    4.3785887    4.3785887    4.3785887    10594.257    22042.525   -9148.3834     18888.63    28579.459    11085.252   -19485.741    83.946472 
   84600    1052.1717   -108.75274   0.95202707   -107.80071    -7876.596    4.3921485    4.3921485    4.3921485    -7876.596    49528.929   -42537.284   -30621.433   -25824.523    4665.5087    32529.828      84.7288 
   84700    2287.4257   -109.84073    2.0697108   -107.77102   -11555.104    4.4034976    4.4034976    4.4034976   -11555.104   -18291.155    -31616.21    15242.053    5775.6877   -1322.9295    5600.0731    85.387304 
   84800    1610.1121   -109.23096    1.4568632    -107.7741   -20227.238    4.3934865    4.3934865    4.3934865   -20227.238   -2962.8949   -11935.029   -45783.791    1649.5826   -3614.3147    -31663.06    84.806255 
   84900    1994.3449   -109.56613    1.8045251    -107.7616     26399.22    4.3809321    4.3809321    4.3809321     26399.22    25318.441    13831.002    40048.219     -30676.9   -2005.3144     28891.32     84.08133 
   85000     1835.549   -109.43503    1.6608433   -107.77419   -3044.1168    4.3842088    4.3842088    4.3842088   -3044.1168    1213.4337    44208.656    -54554.44    18921.481   -23433.337   -25538.419    84.270134 
   85100    1590.4385   -109.22462    1.4390622   -107.78556   -5022.8819    4.3859895    4.3859895    4.3859895   -5022.8819   -9547.4104     25964.42   -31485.656   -24351.326    7868.5497   -3423.6079    84.372856 
   85200    2412.7584   -109.95835    2.1831145   -107.77524    2013.4666    4.3971168    4.3971168    4.3971168    2013.4666   -29980.879    39443.098   -3421.8196    1106.6215   -20421.431   -4845.2613    85.016655 
   85300    909.36249   -108.62705   0.82281029   -107.80424   -42122.637    4.3920656    4.3920656    4.3920656   -42122.637   -39547.826    8514.7831   -95334.868     19684.33   -31819.344   -23845.656    84.724003 
   85400    3031.9217   -110.49895    2.7433465    -107.7556    33903.456    4.3771346    4.3771346    4.3771346    33903.456    18662.416    32942.994    50104.957   -3871.8354    17411.449    9745.4799    83.862866 
   85500    799.16448   -108.52208   0.72310081   -107.79898   -27495.534    4.3912752    4.3912752    4.3912752   -27495.534   -43377.341    334.65602   -39443.916    10188.514   -40242.801   -15785.106    84.678265 
   85600    2056.7714   -109.65187      1.86101   -107.79086   -3324.5318    4.3902496    4.3902496    4.3902496   -3324.5318   -16119.332   -13875.493     20021.23    15993.357    6274.5543   -12042.229    84.618949 
   85700    1839.4409   -109.45692    1.6643648   -107.79256   -7931.2936    4.3921824    4.3921824    4.3921824   -7931.2936   -28966.584   -3091.5196    8264.2224   -28786.992   -4843.2282    21384.467    84.730758 
   85800    1266.5087   -108.93607    1.1459637   -107.79011   -13813.106     4.392807     4.392807     4.392807   -13813.106   -15288.816    15171.502   -41322.004    9911.7219   -44533.058   -29902.688    84.766912 
   85900     2235.256   -109.79101    2.0225066    -107.7685     11397.02    4.3855535    4.3855535    4.3855535     11397.02    7795.7743    9290.2037    17105.081   -25932.613    23461.376    24113.199    84.347697 
   86000    1536.8176   -109.17444    1.3905448   -107.78389   -34668.477    4.3926314    4.3926314    4.3926314   -34668.477   -37275.605    5723.4012   -72453.226    1792.8576   -38551.666   -224.52013    84.756749 
   86100      2465.54   -110.00402    2.2308724   -107.77315    19851.996    4.3776628    4.3776628    4.3776628    19851.996    36717.921    27929.275   -5091.2083    5479.0824   -16666.844   -9494.9386     83.89323 
   86200    1378.1877   -109.04477    1.2470132   -107.79775    927.59972    4.3753693    4.3753693    4.3753693    927.59972    23140.892   -9407.5365   -10950.557   -27682.309    11745.587    30467.462    83.761445 
   86300    1949.8875   -109.55633    1.7642991   -107.79203   -12682.962    4.3939149    4.3939149    4.3939149   -12682.962   -15186.158    3809.1835   -26671.912    12913.608   -56854.048   -10265.532    84.831064 
   86400    1250.1452   -108.91999    1.1311576   -107.78883    21141.549    4.3944618    4.3944618    4.3944618    21141.549    59459.815   -25662.548    29627.381    887.84424    19891.991    18391.183    84.862746 
   86500    2022.4106   -109.61485    1.8299196   -107.78493   -14841.354    4.4007259    4.4007259    4.4007259   -14841.354   -1592.3663   -28635.505   -14296.192   -28764.206    6787.0137    20445.445     85.22617 
   86600    2436.9649   -109.99847     2.205017   -107.79345    27331.687    4.3788542    4.3788542    4.3788542    27331.687    68080.282   -12071.002    25985.781    30267.458   -18794.951   -18693.566    83.961745 
   86700    853.10782   -108.58575   0.77190989   -107.81384     38256.34    4.3608109    4.3608109    4.3608109     38256.34    48124.788    33912.313     32731.92   -11053.013    50713.986    37930.059    82.928109 
   86800    2562.0472   -110.11065    2.3181942   -107.79246    8448.5418    4.3864626    4.3864626    4.3864626    8448.5418    26278.185    20049.904   -20982.463   -12049.121   -19092.346   -10822.277    84.400164 
   86900    1624.1992   -109.26022    1.4696096   -107.79061   -911.56794    4.3938688    4.3938688    4.3938688   -911.56794    18263.988   -11688.613   -9310.0783    1681.2658    6163.2108     5165.535    84.828394 
   87000    1509.6998   -109.15779    1.3660081   -107.79178   -21574.309    4.3917459    4.3917459    4.3917459   -21574.309   -31972.622    10079.933   -42830.237   -6101.8363     17493.33    36314.883      84.7055 
   87100    1947.6297   -109.55923    1.7622563   -107.79698   -6246.6842    4.3781853    4.3781853    4.3781853   -6246.6842   -14886.836    39062.069   -42915.285   -11725.828   -63846.489   -30219.499    83.923273 
   87200    2092.1784   -109.68561     1.893047   -107.79256    29961.704    4.3652115    4.3652115    4.3652115    29961.704    70279.678     23556.99   -3951.5549    11383.534    35279.701    55100.418    83.179415 
   87300    1211.4349    -108.9103    1.0961317   -107.81417   -33236.701    4.3915087    4.3915087    4.3915087   -33236.701   -73477.287    66222.841   -92455.655   -13023.293   -73411.233   -1262.6979    84.691776 
   87400     2290.961   -109.85318    2.0729096   -107.78027   -7791.8848     4.394282     4.394282     4.394282   -7791.8848    17839.338   -4858.5311   -36356.462    5813.0998   -6411.6273    17065.405    84.852329 
   87500    1632.9372   -109.26284    1.4775159   -107.78532   -7039.4191    4.3805865    4.3805865    4.3805865   -7039.4191    29179.532    19963.673   -70261.462    10242.725   -44182.949    39963.891    84.061429 
   87600    1871.5571   -109.47731    1.6934242   -107.78389   -2829.1533    4.3842516    4.3842516    4.3842516   -2829.1533   -20412.726    57664.142   -45738.876    -16331.12   -34481.427   -14358.113    84.272603 
   87700    1727.2726   -109.34297    1.5628725   -107.78009    13009.842    4.3846135    4.3846135    4.3846135    13009.842     67623.38   -23884.326   -4709.5288    14204.154    8464.9641    31728.446    84.293475 
   87800    1551.7176    -109.2066    1.4040267   -107.80258   -22983.016    4.3967564    4.3967564    4.3967564   -22983.016   -30902.303    11467.625    -49514.37     -2432.34   -80999.751   -261.84959     84.99575 
   87900    2800.9327   -110.31764    2.5343427    -107.7833   -3051.5771    4.3924579    4.3924579    4.3924579   -3051.5771    5211.5147   -30747.295    16381.049    2003.7208    33926.622    2612.2918    84.746707 
   88000    800.51066   -108.54085   0.72431887   -107.81654    23268.537    4.3657591    4.3657591    4.3657591    23268.537    59299.527    10320.148    185.93552     19451.14   -58918.956    30448.702    83.210724 
   88100    2122.6602   -109.73869    1.9206276   -107.81806   -11848.619    4.3786301    4.3786301    4.3786301   -11848.619    16681.873   -23929.462   -28298.267    1630.6219   -21952.299   -32616.774    83.948857 
   88200    2173.2686   -109.77288    1.9664191   -107.80646    14998.069    4.3925836    4.3925836    4.3925836    14998.069    34778.624   -11124.909    21340.493    6759.2124     -2645.82   -3300.7475    84.753982 
   88300    1060.4577   -108.77241   0.95952444   -107.81289    12872.918    4.3962399    4.3962399    4.3962399    12872.918    67002.385     5737.437   -34121.067    10638.188   -40410.035    11213.358    84.965799 
   88400    2317.4704   -109.86996    2.0968959   -107.77306   -10.969358    4.3990067    4.3990067    4.3990067   -10.969358    25117.902   -8061.9274   -17088.883   -1630.3516    20068.475   -45142.507    85.126322 
   88500     1559.969   -109.19605    1.4114927   -107.78456    2996.2359    4.3793549    4.3793549    4.3793549    2996.2359    28626.918    29263.227   -48901.438    9531.3859   -50838.559    27831.929    83.990551 
   88600     2097.177   -109.68512    1.8975698   -107.78755    19660.089    4.3687782    4.3687782    4.3687782    19660.089    69014.613   -25130.293    15095.947    1006.1467    481.08714   -11278.092    83.383476 
   88700    2040.1825   -109.64666        1.846   -107.80066    15535.092    4.3794188    4.3794188    4.3794188    15535.092    36315.006    29282.729   -18992.458   -10919.879   -9832.0589   -15256.628    83.994228 
   88800    782.12837   -108.54214   0.70768619   -107.83445    7407.5065    4.3873173    4.3873173    4.3873173    7407.5065    8728.9159    37407.977   -23914.373   -3081.6131   -28990.079    41055.906    84.449511 
   88900     2766.213   -110.30551    2.5029277   -107.80258     3497.749    4.3971328    4.3971328    4.3971328     3497.749    27777.968   -9100.7955   -8183.9261    9873.6517      17412.8    2448.9611    85.017579 
   89000    1425.1287    -109.1042    1.2894864   -107.81471   -1100.1117    4.3852398    4.3852398    4.3852398   -1100.1117    19163.829    39959.214   -62423.379   -3948.7867   -45794.448    10973.544    84.329602 
   89100    1562.9697   -109.21227    1.4142079   -107.79806    21492.106     4.374263     4.374263     4.374263    21492.106   -3676.9935    79336.999   -11183.686   -6648.3092    13105.143      37601.7    83.697921 
   89200    1842.3262   -109.45393    1.6669754   -107.78696    19106.867    4.3841672    4.3841672    4.3841672    19106.867    43641.947      23979.4   -10300.746    34600.391   -14192.329   -15023.095    84.267737 
   89300    1555.6894   -109.20032    1.4076204    -107.7927   -18398.831    4.3960091    4.3960091    4.3960091   -18398.831   -9982.7899    19229.745    -64443.45   -7648.4808   -28941.496    23064.486    84.952418 
   89400    2340.0697   -109.88215    2.1173442   -107.76481    3839.4782     4.401373     4.401373     4.401373    3839.4782   -14889.187   -11003.873    37411.495    21259.616    22522.443   -3808.6019    85.263767 
   89500    871.39406   -108.57612   0.78845566   -107.78766   -7754.0459    4.3935826    4.3935826    4.3935826   -7754.0459    23098.966   -7398.1627   -38962.941    21804.968   -30235.133    -7518.131     84.81182 
   89600    2484.6884   -110.00799    2.2481983   -107.75979    26618.349    4.3800733    4.3800733    4.3800733    26618.349    2678.8002    33093.995    44082.252   -17186.069    1267.2592    14307.128     84.03189 
   89700    1459.2226   -109.10845    1.3203353   -107.78811    9193.4427     4.384241     4.384241     4.384241    9193.4427    3715.8036   -4198.0177    28062.542    10575.506   -4040.3168   -21603.287    84.271991 
   89800    1790.1602   -109.40618    1.6197746    -107.7864    10760.527    4.3963437    4.3963437    4.3963437    10760.527     10089.55    18947.525     3244.505     4491.878   -30516.292   -5054.5192    84.971821 
   89900    1779.6165   -109.38211    1.6102344   -107.77188    10145.622    4.3999509    4.3999509    4.3999509    10145.622   -22581.894    -18934.57    71953.331    -33827.93    8070.0154    16143.421     85.18115 
   90000    1666.7784   -109.27606    1.5081361   -107.76792   -8121.4851    4.3904881    4.3904881    4.3904881   -8121.4851   -9580.6562    5484.0437   -20267.843    34299.808   -17931.499   -30230.521    84.632743 
   90100    1758.2822   -109.35711    1.5909307   -107.76618    13091.096    4.3794271    4.3794271    4.3794271    13091.096   -2961.0317   -4076.5921    46310.913   -63059.764     -1326.96    18928.065    83.994702 
   90200     1938.693   -109.52507    1.7541702    -107.7709    7634.0764     4.388858     4.388858     4.388858    7634.0764    6873.8854   -22796.524    38824.867     12761.98   -3453.4911   -6883.9059    84.538512 
   90300    1721.7999   -109.33516    1.5579208   -107.77724   -16733.184    4.4014696    4.4014696    4.4014696   -16733.184   -39394.924   -25556.102    14751.475   -18722.959   -3116.2054   -11290.602    85.269382 
   90400    1830.3661   -109.43793    1.6561537   -107.78178   -19215.811    4.3958591    4.3958591    4.3958591   -19215.811   -15599.248    -57094.23    15046.044   -61074.226   -1743.7843    17554.954    84.943725 
   90500    2429.2424   -109.96229    2.1980295   -107.76426     10429.53    4.3822888    4.3822888    4.3822888     10429.53    44110.247   -18204.227    5382.5708    27371.988    8683.3114    -23928.03    84.159467 
   90600    938.34355   -108.64985   0.84903297   -107.80082   -8046.3576      4.38245      4.38245      4.38245   -8046.3576    -47367.45   -14195.091    37423.468   -82919.617   -13388.106    7596.7371    84.168753 
   90700     2657.445    -110.1899    2.4045121   -107.78539   -1468.5742    4.3897103    4.3897103    4.3897103   -1468.5742     32906.19    2136.7905   -39448.703    25938.794     17291.45   -155.64975     84.58777 
   90800    1505.1274   -109.15676    1.3618709   -107.79489    -27427.36    4.3996702    4.3996702    4.3996702    -27427.36   -19960.333   -82891.344    20569.596   -81613.297    3717.1993   -19999.132    85.164844 
   90900    2085.5526   -109.66129    1.8870519   -107.77424    13751.224    4.3934297    4.3934297    4.3934297    13751.224    14391.756    31404.014   -4542.0993    4065.3289   -16426.067     11152.81    84.802964 
   91000    1648.8993   -109.27925    1.4919587    -107.7873   -116.72202    4.3775571    4.3775571    4.3775571   -116.72202    4966.2693    11170.526   -16486.962   -36681.588    33972.497   -3830.8534    83.887156 
   91100    1543.7118   -109.19512    1.3967829   -107.79834    30802.781    4.3701392    4.3701392    4.3701392    30802.781    33880.917    5728.9273    52798.499   -46734.455   -8625.3591   -13050.415    83.461428 
   91200    2130.3185   -109.72258     1.927557   -107.79503     10628.51    4.3857596    4.3857596    4.3857596     10628.51    10823.856     39738.37   -18676.695    32903.341    13578.755    14256.747    84.359591 
   91300    1533.6497   -109.19584    1.3876785   -107.80816   -22975.996    4.3960926    4.3960926    4.3960926   -22975.996   -62357.576   -11309.451    4739.0389   -78749.711    27707.401    -14271.57    84.957258 
   91400    2077.2514   -109.66272    1.8795407   -107.78318    19370.073    4.3897665    4.3897665    4.3897665    19370.073    6565.7767    20897.568    30646.876    48774.594   -15873.767   -7435.8642    84.591021 
   91500    1683.8061   -109.31037    1.5235431   -107.78683   -10305.115    4.3827111    4.3827111    4.3827111   -10305.115   -42293.576    19278.105   -7899.8733   -31175.357     35828.07    6171.9621    84.183802 
   91600    1702.4145     -109.328    1.5403804   -107.78762    5447.4688    4.3815261    4.3815261    4.3815261    5447.4688   -26165.565    13268.085    29239.887   -16373.578   -151.87362   -16257.406    84.115535 
   91700    1703.2097   -109.33603    1.5410999   -107.79493   -14987.357    4.3858343    4.3858343    4.3858343   -14987.357    -32572.59   -11239.401   -1150.0803    59856.453    2242.9559    -7166.591    84.363903 
   91800    2276.0212   -109.84369    2.0593918   -107.78429   -4787.2051    4.3870484    4.3870484    4.3870484   -4787.2051   -36930.474   -2242.2795    24811.138   -52363.365    32002.942    5522.4474    84.433984 
   91900    1339.8547   -109.00714    1.2123287   -107.79481   -1883.3346    4.3886116    4.3886116    4.3886116   -1883.3346    -32602.98   -45641.082    72594.058    68530.136   -17002.407   -17678.322     84.52427 
   92000    1837.9987   -109.45071    1.6630599   -107.78765   -6613.2856    4.3919106    4.3919106    4.3919106   -6613.2856   -8290.5703    3685.5776   -15234.864     2419.128    26812.924   -2269.8561    84.715032 
   92100    2435.5706   -109.98088    2.2037555   -107.77712    2073.9762    4.3847561    4.3847561    4.3847561    2073.9762   -2196.7296   -27860.657    36279.315    20881.849   -4062.4828   -4875.4396    84.301696 
   92200    868.79932   -108.59144   0.78610788   -107.80533   -7994.1407    4.3868895    4.3868895    4.3868895   -7994.1407   -11478.274   -42967.622    30463.474    56773.927   -6195.6729    -19580.85    84.424811 
   92300    2382.3394   -109.92957    2.1555907   -107.77398    10438.391    4.3926284    4.3926284    4.3926284    10438.391     -4733.23    39892.277   -3843.8726   -12294.613    15640.881    21165.615    84.756576 
   92400    1237.3076   -108.91551     1.119542   -107.79596   -24906.007    4.3959608    4.3959608    4.3959608   -24906.007   -18442.023   -37973.415   -18302.582    36285.397   -12447.824   -41164.263    84.949617 
   92500    2098.5213   -109.69304    1.8987862   -107.79426   -5656.7763    4.3904777    4.3904777    4.3904777   -5656.7763     -7606.54     20364.99   -29728.779    10038.505   -17251.603    638.10648    84.632142 
   92600    2212.3676   -109.78597    2.0017967   -107.78417    21235.144    4.3833944    4.3833944    4.3833944    21235.144   -21510.729    39837.642    45378.518   -9363.4706    1554.2604    2318.4531     84.22318 
   92700    995.94179   -108.71457   0.90114906   -107.81342   -19398.064    4.3926735    4.3926735    4.3926735   -19398.064   -40713.192     -16044.7   -1436.3008    42158.351   -20528.881    -32453.47    84.759183 
   92800    2542.8027   -110.08656    2.3007813   -107.78578    12328.604    4.3979042    4.3979042    4.3979042    12328.604   -28885.891    64347.036    1524.6671   -18396.048   -4001.9657    34808.698    85.062335 
   92900    1570.9397   -109.22405    1.4214192   -107.80263    19303.376     4.386628     4.386628     4.386628    19303.376   -8942.4723    26746.099    40106.501    25446.887     6628.807   -11221.315    84.409712 
   93000    1796.2658   -109.42653    1.6252991   -107.80123    7085.8495    4.3762436    4.3762436    4.3762436    7085.8495    15762.753    1756.4225    3738.3731    22550.037   -15393.081   -7094.4076    83.811664 
   93100    1909.7187   -109.52838    1.7279536   -107.80042    5608.4564    4.3755516    4.3755516    4.3755516    5608.4564    28484.904    994.10285   -12653.637   -13831.378    13371.638    62520.093    83.771909 
   93200    1915.6159   -109.53351    1.7332895   -107.80022   -10734.475    4.3919686    4.3919686    4.3919686   -10734.475    -15833.51   -27755.911    11385.997    52192.567   -5088.5099   -36490.536    84.718388 
   93300    1230.6347   -108.91146    1.1135042   -107.79795   -18274.405    4.4063494    4.4063494    4.4063494   -18274.405    40807.218   -37273.358   -58357.076    3062.9903     6753.677    57393.348    85.553303 
   93400    2602.6643   -110.11373    2.3549454   -107.75879   -6944.3213    4.4016702    4.4016702    4.4016702   -6944.3213   -1947.5257     4913.798   -23799.236   -9183.0415    3664.2133    2363.9675     85.28104 
   93500    1412.8376   -109.04326    1.2783651   -107.76489   -14405.844    4.3891319    4.3891319    4.3891319   -14405.844    18270.723   -17930.092   -43558.162    15188.523   -8648.7837    13509.525    84.554336 
   93600    1708.2469    -109.3114    1.5456576   -107.76575    10406.392    4.3798704    4.3798704    4.3798704    10406.392    26929.157    28040.149   -23750.131   -20877.571    11948.919    44749.144    84.020213 
   93700    2034.6516   -109.62116    1.8409955   -107.78016   -5116.9146     4.386388     4.386388     4.386388   -5116.9146   -24201.642   -2930.8835    11781.781   -26782.224   -3544.7515   -15042.162    84.395857 
   93800    1496.1912   -109.14406    1.3537852   -107.79027    5634.8566    4.3958649    4.3958649    4.3958649    5634.8566    49356.094    2134.6964   -34586.221    20645.208     10019.88    44048.881    84.944061 
   93900    1825.4092   -109.44396    1.6516686   -107.79229   -29885.514    4.3976239    4.3976239    4.3976239   -29885.514   -64921.571   -59902.523    35167.552   -90440.019    8198.9517   -13880.097    85.046068 
   94000    2335.8655   -109.88575    2.1135402   -107.77221    6342.2171    4.3873756    4.3873756    4.3873756    6342.2171    28275.669    3358.3822     -12607.4    22898.932    1338.1038    35999.398    84.452878 
   94100    1131.5701   -108.81674    1.0238684   -107.79287   -30066.214    4.3831638    4.3831638    4.3831638   -30066.214   -21072.082   -71874.069    2747.5091   -66673.406    2610.2665    40550.988    84.209889 
   94200    1969.6045   -109.57433    1.7821396   -107.79219    618.58137    4.3867643    4.3867643    4.3867643    618.58137   -38181.455   -10766.727    50803.927   -16412.266    2958.8867   -29866.826    84.417581 
   94300    1948.8735   -109.55324    1.7633817   -107.78986   -22733.113    4.3966768    4.3966768    4.3966768   -22733.113    169.24631   -44022.822   -24345.764   -14912.215    12640.335    50136.824    84.991135 
   94400    1583.9684   -109.22681    1.4332079    -107.7936   -15329.387    4.3919902    4.3919902    4.3919902   -15329.387   -22043.032   -44582.614    20637.486    -65347.94   -21361.576    16434.077    84.719638 
   94500    2508.7332   -110.03487    2.2699545   -107.76491    8051.6463    4.3929716    4.3929716    4.3929716    8051.6463    553.43285   -11598.972    35200.478    27884.276    1405.3134   -10244.297    84.776443 
   94600    880.39906   -108.58014   0.79660357   -107.78353   -43591.118    4.4013305    4.4013305    4.4013305   -43591.118   -68768.825   -94956.049    32951.519    -90395.75   -3049.9881    26531.189    85.261298 
   94700    2693.1618   -110.19697    2.4368294   -107.76014    6924.4713    4.3902059    4.3902059    4.3902059    6924.4713    33428.472   -258.21828    -12396.84    32493.907    2020.2553    15884.426    84.616424 
   94800    1646.6813   -109.27759    1.4899518   -107.78763   -4263.1806    4.3800033    4.3800033    4.3800033   -4263.1806    -35755.86   -43731.812     66698.13   -73793.216     9087.507   -2451.6302    84.027862 
   94900    1462.0996   -109.11885    1.3229384   -107.79592    10801.894     4.379661     4.379661     4.379661    10801.894    25343.764     -34469.8    41531.719   -8830.7844     -13163.1    32485.526    84.008165 
   95000    2094.1363   -109.68656    1.8948185   -107.79174    5262.8611    4.3988486    4.3988486    4.3988486    5262.8611    16833.885   -26319.306    25274.005     2885.101    1886.6254   -19495.389    85.117143 
   95100    1865.0342   -109.46339    1.6875222   -107.77587   -20264.824    4.4083632    4.4083632    4.4083632   -20264.824   -34175.348   -46676.868    20057.745   -47808.644    3772.5383    35426.473    85.670657 
   95200    1534.0021   -109.16258    1.3879973   -107.77459    22613.289    4.3870591    4.3870591    4.3870591    22613.289    63361.407   -15476.981    19955.442    36378.874   -13635.419    22825.731    84.434599 
   95300    1948.4257   -109.53425    1.7629765   -107.77128    21979.528    4.3724203    4.3724203    4.3724203    21979.528    2874.6236    29522.464    33541.496   -13880.687   -7943.4549    -21572.59    83.592192 
   95400     1472.317   -109.13475    1.3321834   -107.80257   -3028.7853    4.3743754    4.3743754    4.3743754   -3028.7853    39023.714    -22040.64   -26069.429   -20084.316    2060.1529    99083.852    83.704375 
   95500     2789.019   -110.31649     2.523563   -107.79292      34769.2     4.391302     4.391302     4.391302      34769.2    33287.462    60976.995    10043.144     2136.966   -13021.156   -27008.777     84.67982 
   95600    774.60773   -108.51521   0.70088135   -107.81433   -36664.258    4.4123168    4.4123168    4.4123168   -36664.258    46238.123    -45295.58   -110935.32   -17616.516   -1719.5215    97654.628    85.901363 
   95700    2066.5515   -109.64353    1.8698592   -107.77368   -15165.019    4.3934326    4.3934326    4.3934326   -15165.019   -15574.546    14258.877   -44179.389    2099.0082   -21033.318   -6866.9638    84.803135 
   95800    1992.8519   -109.56559    1.8031743   -107.76242    15371.926    4.3657488    4.3657488    4.3657488    15371.926    45146.666     19095.27   -18126.157    9577.4988    2949.4298    46233.568    83.210134 
   95900    1777.2623    -109.3878    1.6081043    -107.7797    4031.2838    4.3769462    4.3769462    4.3769462    4031.2838    27965.133   -16313.628    442.34646   -32955.605   -4991.5957    39763.046    83.852039 
   96000    1490.2119    -109.1368    1.3483751   -107.78842   -2098.5254    4.3890808    4.3890808    4.3890808   -2098.5254   -23659.924    13530.866    3833.4814    1431.5665   -23142.997   -22720.827    84.551383 
   96100    2214.4957   -109.78344    2.0037223   -107.77971   -14043.226     4.401309     4.401309     4.401309   -14043.226    5933.9135    -45938.06   -2125.5313     -11564.3    9685.9222    24733.391    85.260047 
   96200    1337.7117    -108.9903    1.2103897   -107.77991   -43443.773    4.4044376    4.4044376    4.4044376   -43443.773   -61347.229   -43449.962   -25534.128   -40260.556    -23535.61   -12686.458    85.441993 
   96300    2024.7734   -109.59484    1.8320576   -107.76278    10128.696    4.3736127    4.3736127    4.3736127    10128.696      21198.3    3299.8479     5887.939    12608.893   -16345.063   -25003.286    83.660598 
   96400    1885.1178   -109.47751    1.7056942   -107.77181   -4570.7067    4.3686027    4.3686027    4.3686027   -4570.7067    -27724.07   -35623.917    49635.867   -64987.918    6839.9929    9917.8249    83.373428 
   96500     1330.022   -108.99311    1.2034318   -107.78968   -35412.024    4.3821516    4.3821516    4.3821516   -35412.024   -30569.071    186.85806   -75853.859   -1203.6683   -37153.845   -39204.811    84.151567 
   96600    2238.6173   -109.80842     2.025548   -107.78287   -9006.1078     4.389445     4.389445     4.389445   -9006.1078   -24990.183   -3675.0765    1646.9361   -24922.884    6848.7803    5076.7555    84.572436 
   96700    1220.2438   -108.89508    1.1041023   -107.79098   -40100.173    4.4038516    4.4038516    4.4038516   -40100.173   -87529.308    -47018.21    14246.998   -46663.207   -23260.177   -834.29485    85.407897 
   96800    2444.9109   -109.98257    2.2122067   -107.77037    9923.7179    4.3812019    4.3812019    4.3812019    9923.7179   -11066.891     57183.43   -16345.384    20582.055   -24734.348   -15748.293    84.096863 
   96900    1394.4036   -109.04735    1.2616857   -107.78566     469.7126    4.3676258    4.3676258    4.3676258     469.7126   -34904.756   -6064.8693    42378.763   -80975.778    6943.1745    5293.9834    83.317508 
   97000    1787.6971   -109.40975    1.6175459   -107.79221   -2888.1264    4.3794542    4.3794542    4.3794542   -2888.1264   -5671.1355    31243.562   -34236.806    26288.273   -40677.432    13751.527    83.996266 
   97100    1911.6355   -109.51464    1.7296879   -107.78495    26563.012    4.3856839    4.3856839    4.3856839    26563.012     19047.79    39267.348    21373.897   -58761.433     14930.69   -9633.0741    84.355225 
   97200    1530.5256    -109.1794    1.3848517   -107.79454   -11332.458    4.3945852    4.3945852    4.3945852   -11332.458   -19542.992   -39070.245    24615.863   -2860.5786   -13280.829    8132.1552    84.869894 
   97300    1915.2243   -109.51849    1.7329352   -107.78555    2570.1723    4.3802111    4.3802111    4.3802111    2570.1723     17877.43   -133.60311    -10033.31    8678.6214   -20599.196    7926.6282    84.039824 
   97400    2103.9611   -109.68162    1.9037083   -107.77791     35699.92    4.3606922    4.3606922    4.3606922     35699.92    20547.922    54459.561    32092.279   -52142.527    22355.738   -15097.998    82.921337 
   97500    1267.9241   -108.94824    1.1472443     -107.801   -9512.9607    4.3797359    4.3797359    4.3797359   -9512.9607    2713.6784   -7821.8263   -23430.734     31613.27   -49307.636    31983.835    84.012475 
   97600    1976.0463   -109.57649    1.7879682   -107.78852   -8900.6993    4.3948933    4.3948933    4.3948933   -8900.6993    4352.1892   -402.93933   -30651.348   -22838.537    6215.5886   -38154.673    84.887749 
   97700    2153.1684   -109.73476    1.9482321   -107.78653     9901.037    4.3896222    4.3896222    4.3896222     9901.037   -646.82141    43274.595   -12924.662     5498.853   -22294.869    26549.909    84.582675 
   97800    1103.5958   -108.80147   0.99855672   -107.80291   -28178.646    4.3815659    4.3815659    4.3815659   -28178.646    2677.5806   -35503.964   -51709.553    18689.678   -30308.665   -7285.6411    84.117829 
   97900    2629.4511   -110.14847    2.3791826   -107.76929    28764.892    4.3781586    4.3781586    4.3781586    28764.892    48328.422      36090.2    1876.0545   -5180.6684    1599.6976   -27602.259    83.921739 
   98000    839.97884   -108.55741   0.76003051   -107.79738   -35434.229    4.3965762    4.3965762    4.3965762   -35434.229   -28217.814   -32799.373   -45285.501    11061.825   -53524.394    45521.652    84.985301 
   98100    2750.4838   -110.24093    2.4886955   -107.75224   -8378.3418    4.3992224    4.3992224    4.3992224   -8378.3418    2562.4278   -40992.115    13294.662     13407.58    16693.226   -24707.872    85.138846 
   98200    1157.8586    -108.8255    1.0476548   -107.77784   -27346.631    4.3864519    4.3864519    4.3864519   -27346.631   -49415.043    5609.2986    -38234.15   -15489.271   -65142.952    22183.478    84.399547 
   98300    1926.7168   -109.52438    1.7433338   -107.78105    2335.1186    4.3766605    4.3766605    4.3766605    2335.1186    33490.002   -10688.237   -15796.409    4335.0309    7679.0607    28175.939    83.835617 
   98400    2007.6133   -109.60118    1.8165307   -107.78465   -2371.7547     4.384066     4.384066     4.384066   -2371.7547   -25829.087    37099.303    -18385.48   -6448.6908   -43084.495   -15171.068    84.261901 
   98500    1513.1727   -109.16196    1.3691504   -107.79281   -42332.482    4.3976972    4.3976972    4.3976972   -42332.482   -47302.863   -26520.803   -53173.779   -14728.967   -27323.041    38847.783    85.050324 
   98600    2207.9154   -109.77292    1.9977683   -107.77515   -3014.1729    4.3883474    4.3883474    4.3883474   -3014.1729    5731.3094   -7851.1008   -6922.7274    5948.5007    7280.2634   -16034.698    84.509007 
   98700    1369.7348   -109.03254    1.2393648   -107.79317   -19125.122    4.3783435    4.3783435    4.3783435   -19125.122    -49701.52    6895.8701   -14569.716   -7309.4856   -58733.482   -25044.354    83.932369 
   98800    2144.3077   -109.73194    1.9402146   -107.79173    13692.922    4.3683229    4.3683229    4.3683229    13692.922    14134.429    6658.7104    20285.627   -15593.529    26347.732    26322.136     83.35741 
   98900    1575.8875   -109.23592    1.4258961   -107.81003    11423.041    4.3789614    4.3789614    4.3789614    11423.041    35145.118   -28022.436     27146.44    4234.9748   -20211.771   -66841.436    83.967912 
   99000     2227.694   -109.80801    2.0156644   -107.79234   -15437.432    4.3947601    4.3947601    4.3947601   -15437.432   -48043.613    8506.7572   -6775.4408   -13383.788    10409.714    13648.448    84.880028 
   99100    1169.0476   -108.85886    1.0577789   -107.80108    172.53761    4.3854866    4.3854866    4.3854866    172.53761    15214.286   -36534.515    21837.842    1889.4872    7485.2569   -39502.465     84.34384 
   99200    2082.6851    -109.6791    1.8844572   -107.79465   -1550.2063    4.3753586    4.3753586    4.3753586   -1550.2063     15372.83   -9871.4449   -10152.004    2573.1188    -9474.225   -44245.574     83.76083 
   99300    1709.6476   -109.34753    1.5469251    -107.8006    15746.126    4.3739892    4.3739892    4.3739892    15746.126   -36563.944    24153.975    59648.346   -29640.188     18509.68   -2565.4738    83.682205 
   99400    1350.2308   -109.03614    1.2217172   -107.81442   -19359.286    4.3897901    4.3897901    4.3897901   -19359.286     23028.29   -31667.293   -49438.854    7118.6319    3859.8026   -85552.357    84.592384 
   99500    2716.4674   -110.23293    2.4579168   -107.77502    15959.748    4.3901502    4.3901502    4.3901502    15959.748    -13279.73    32155.117    29003.858   -11699.331   -13201.697    26729.923    84.613201 
   99600    910.23279   -108.61322   0.82359776   -107.78962    -3111.141    4.3905767    4.3905767    4.3905767    -3111.141    30791.732   -50953.616    10828.461   -14819.844    12575.932   -90980.437    84.637868 
   99700    2371.9592      -109.91    2.1461986    -107.7638    4832.4381    4.3899009    4.3899009    4.3899009    4832.4381   -16010.307    5769.6413     24737.98    5976.2503   -9856.8185    9638.6041    84.598792 
   99800    1431.6587   -109.08569    1.2953949    -107.7903   -258.64154    4.3740722    4.3740722    4.3740722   -258.64154   -11035.957   -6891.8617    17151.894   -21926.143   -39031.722   -51234.844    83.686969 
   99900    1491.0656   -109.16705    1.3491475   -107.81791   -15970.928    4.3713592    4.3713592    4.3713592   -15970.928    14258.373   -22493.641   -39677.516   -11681.752     25585.82   -61633.024    83.531345 
  100000     2244.288   -109.83743    2.0306789   -107.80675    14019.812     4.380183     4.380183     4.380183    14019.812    4285.7981     57620.92   -19847.282     7291.441   -5901.7352    21437.966    84.038204 
Loop time of 21.7928 on 1 procs for 100000 steps with 8 atoms

Pair  time (%) = 6.57816 (30.185)
Kspce time (%) = 5.32112 (24.4169)
Neigh time (%) = 0.235116 (1.07887)
Comm  time (%) = 0.954935 (4.38189)
Outpt time (%) = 0.0255451 (0.117218)
Other time (%) = 8.6779 (39.8201)

Nlocal:    8 ave 8 max 8 min
Histogram: 1 0 0 0 0 0 0 0 0 0
Nghost:    1792 ave 1792 max 1792 min
Histogram: 1 0 0 0 0 0 0 0 0 0
Neighs:    2102 ave 2102 max 2102 min
Histogram: 1 0 0 0 0 0 0 0 0 0

Total # of neighbors = 2102
Ave neighs/atom = 262.75
Neighbor list builds = 3038
Dangerous builds = 0
unfix 20
unfix 21
print "seeds:4940154"
seeds:4940154
