LAMMPS (10 Feb 2015)
# ---- initialize simulations
clear
units metal
dimension 3
boundary p p p
atom_style charge
atom_modify map array
# ---- create atoms
read_data /Users/eugeneragasa/pyflamestk_git/pypospack/tests/tests_integration/workflow/WorkflowLammpsThermalExpansion/param_2424/MgO_NaCl_unit.npt.T900/lammps.structure
  triclinic box = (0 0 0) to (4.2565 4.2565 4.2565) with tilt (0 0 0)
  1 by 1 by 1 MPI processor grid
  reading atoms ...
  8 atoms
# ---- define interatomic potential
include potential.mod
mass 1 24.305
mass 2 15.999

group Mg type 1
4 atoms in group Mg
group O type 2
4 atoms in group O

set group Mg charge 1.67924051174
  4 settings made for charge
set group O charge -1.67924051174
  4 settings made for charge

variable R_cut equal 10.0

pair_style buck/coul/long ${R_cut}
pair_style buck/coul/long 10
pair_coeff 1 1 0.0 0.5 0.0 ${R_cut}
pair_coeff 1 1 0.0 0.5 0.0 10
pair_coeff 1 2 1306.98043044 0.288034123545 0.0 ${R_cut}
pair_coeff 1 2 1306.98043044 0.288034123545 0.0 10
pair_coeff 2 2 2032.48006166 0.252585756474 14.8401495582 ${R_cut}
pair_coeff 2 2 2032.48006166 0.252585756474 14.8401495582 10

kspace_style pppm 1.0e-5

neighbor 1.0 bin
neigh_modify every 1 delay 0 check yes
# ---- define settings
compute eng all pe/atom
compute eatoms all reduce sum c_eng
# ---- run minimization
reset_timestep 0
fix 1 all box/relax iso 0.0 vmax 0.001
thermo 10
thermo_style custom step pe lx ly lz xy xz yz press pxx pyy pzz pxy pxz pyz c_eatoms
min_style cg
minimize 1e-25 1e-25 5000 10000
PPPM initialization ...
  G vector (1/distance) = 0.352997
  grid = 8 8 8
  stencil order = 5
  estimated absolute RMS force accuracy = 4.02799e-05
  estimated relative force accuracy = 2.79728e-06
  using double precision FFTs
  3d grid and FFT values/proc = 3375 512
Neighbor list info ...
  1 neighbor list requests
  update every 1 steps, delay 0 steps, check yes
  master list distance cutoff = 11
Memory usage per processor = 4.06549 Mbytes
Step PotEng Lx Ly Lz Xy Xz Yz Press Pxx Pyy Pzz Pxy Pxz Pyz eatoms 
       0   -114.09861       4.2565       4.2565       4.2565            0            0            0    83013.551    83013.551    83013.551    83013.551 1.023811e-10 -6.100653e-11 -2.0427431e-10   -114.09861 
      10   -114.17745     4.299065     4.299065     4.299065            0            0            0    27173.213    27173.213    27173.213    27173.213 -1.7620305e-11 8.177727e-11 3.0587737e-11   -114.17745 
      19   -114.18814    4.3219883    4.3219883    4.3219883            0            0            0 -0.014642896 -0.014642896 -0.014642896 -0.014642896 -4.2788838e-11 1.5607732e-10 -4.5124802e-11   -114.18814 
Loop time of 0.00897503 on 1 procs for 19 steps with 8 atoms

Minimization stats:
  Stopping criterion = linesearch alpha is zero
  Energy initial, next-to-last, final = 
        -114.098610965     -114.188144107     -114.188144107
  Force two-norm initial, final = 11.9872 7.95763e-05
  Force max component initial, final = 11.9872 1.65313e-05
  Final line search alpha, max atom move = 0.5 8.26564e-06
  Iterations, force evaluations = 19 24

Pair  time (%) = 0.00243568 (27.1385)
Kspce time (%) = 0.00141573 (15.7741)
Neigh time (%) = 0 (0)
Comm  time (%) = 0.000279665 (3.11603)
Outpt time (%) = 1.88351e-05 (0.209861)
Other time (%) = 0.00482512 (53.7616)

Nlocal:    8 ave 8 max 8 min
Histogram: 1 0 0 0 0 0 0 0 0 0
Nghost:    2189 ave 2189 max 2189 min
Histogram: 1 0 0 0 0 0 0 0 0 0
Neighs:    2344 ave 2344 max 2344 min
Histogram: 1 0 0 0 0 0 0 0 0 0

Total # of neighbors = 2344
Ave neighs/atom = 293
Neighbor list builds = 0
Dangerous builds = 0
unfix 1
# ---- define output variables ----
variable natoms equal "count(all)"
variable tot_energy equal "c_eatoms"
variable length_x equal "lx"
variable length_y equal "ly"
variable length_z equal "lz"
variable tilt_xy equal "xy"
variable tilt_xz equal "xz"
variable tilt_yz equal "yz"
variable tot_press equal "press"
variable press_xx equal "pxx"
variable press_yy equal "pyy"
variable press_zz equal "pzz"
variable press_xy equal "pxy"
variable press_xz equal "pxz"
variable press_yz equal "pyz"

# ---- output ----
print "pypospack:output_section:begin"
pypospack:output_section:begin
print "tot_energy = ${tot_energy}"
tot_energy = -114.188144106894
print "num_atoms = ${natoms}"
num_atoms = 8
print "xx = ${length_x}"
xx = 4.32198834005221
print "yy = ${length_y}"
yy = 4.32198834005221
print "zz = ${length_z}"
zz = 4.32198834005221
print "xy = ${tilt_xy}"
xy = 0
print "xz = ${tilt_xz}"
xz = 0
print "yz = ${tilt_yz}"
yz = 0
print "tot_press = ${tot_press}"
tot_press = -0.0146428956780545
print "pxx = ${press_xx}"
pxx = -0.0146428956419126
print "pyy = ${press_yy}"
pyy = -0.0146428958165915
print "pzz = ${press_zz}"
pzz = -0.0146428955756593
print "pxy = ${press_xy}"
pxy = -4.27888380608005e-11
print "pxz = ${press_xz}"
pxz = 1.56077321107314e-10
print "pyz = ${press_yz}"
pyz = -4.51248020389503e-11
print "pypospack:output_section:done"
pypospack:output_section:done
print "pypospack:lammps_sim:done"
pypospack:lammps_sim:done
#------------------------------------------------------------------------------
# RUN THERMOSTAT
# running using an NPT Nose-Hoover style thermostat
#------------------------------------------------------------------------------
variable tempdamp equal 0.1
variable pressdamp equal 1.0
# set initial velocities
velocity all create 900 5615099 mom yes dist gaussian loop all
# fix for Nose-Hoover style thermostat
fix 20 all npt temp 900 900 0.1 aniso 0.0 0.0 1.0 drag 1.0 couple xyz
variable boxx equal lx
variable boxy equal ly
variable boxz equal lz
variable boxp equal press
variable boxt equal temp
# calculate averages every 10000 steps
reset_timestep 0
fix 21 all ave/time 10 10 100 v_boxx v_boxy v_boxz v_boxp v_boxt file lattice.out
thermo_style custom step temp pe ke etotal press lx ly lz press pxx pyy pzz pxy pxz pyz vol
thermo_modify flush yes
thermo 100
run 100000
PPPM initialization ...
  G vector (1/distance) = 0.35233
  grid = 8 8 8
  stencil order = 5
  estimated absolute RMS force accuracy = 4.15437e-05
  estimated relative force accuracy = 2.88505e-06
  using double precision FFTs
  3d grid and FFT values/proc = 3375 512
Memory usage per processor = 3.06549 Mbytes
Step Temp PotEng KinEng TotEng Press Lx Ly Lz Press Pxx Pyy Pzz Pxy Pxz Pyz Volume 
       0          900   -114.18815   0.81433891   -113.37382    10772.069    4.3219883    4.3219883    4.3219883    10772.069    1852.4496    14144.421    16319.338    2551.4226    182.12869    9733.7562    80.732941 
     100    306.24062   -113.54222   0.27709295   -113.26513   -5126.0837    4.3563472    4.3563472    4.3563472   -5126.0837    -18847.73    11433.561   -7964.0825    1319.5695    2808.7859   -17084.109    82.673717 
     200    560.97213   -113.55681   0.50757937   -113.04923   -23768.516    4.3634666    4.3634666    4.3634666   -23768.516   -29519.251   -6967.3635   -34818.935     468.9108    -1983.732   -7708.4408    83.079709 
     300    688.86972   -113.46989    0.6233038   -112.84658    35543.434     4.344286     4.344286     4.344286    35543.434   -14323.017    83881.848     37071.47    3858.4986   -5954.9331    5433.9645    81.988932 
     400    894.72198   -113.52407   0.80956325   -112.71451    -22807.36    4.3786376    4.3786376    4.3786376    -22807.36   -41790.469   -4609.3022   -22022.308     3865.125    4176.6781     1564.436    83.949285 
     500    476.48841   -113.04354   0.43113673   -112.61241   -10195.841     4.367621     4.367621     4.367621   -10195.841   -30195.252    7855.1707   -8247.4431    2859.9561   -1407.4046    6195.4232    83.317234 
     600    1120.1613   -113.56417    1.0135455   -112.55063    16614.495    4.3517126    4.3517126    4.3517126    16614.495   -15335.834    4877.3788     60301.94    1674.2551   -1989.0099    -12485.87    82.410134 
     700    949.73601   -113.40464    0.8593411    -112.5453   -11590.698    4.3815671    4.3815671    4.3815671   -11590.698   -58040.916    32672.091   -9403.2691    826.24488    867.39162    15740.635    84.117897 
     800    759.58579   -113.23945   0.68728919   -112.55216    16496.255    4.3485002    4.3485002    4.3485002    16496.255       -17004    33171.207    33321.556   -14.109336   -2244.2251   -7964.1197    82.227765 
     900    604.73153   -113.12618   0.54717379   -112.57901    13387.492    4.3627352    4.3627352    4.3627352    13387.492     -16847.6    47290.883    9719.1937    1066.4545   -937.88376    3178.6042    83.037938 
    1000    1172.0341   -113.62099    1.0604811   -112.56051   -24139.963    4.3847701    4.3847701    4.3847701   -24139.963   -59092.662    10404.753    -23731.98    1720.6523    675.58398    1775.5353    84.302503 
    1100    966.03302    -113.4258   0.87408698   -112.55171    27143.054    4.3493211    4.3493211    4.3493211    27143.054   -14854.001    57948.626    38334.536   -4076.9409   -1177.3646   -356.24628    82.274342 
    1200     722.0252   -113.22721   0.65330357   -112.57391   -25583.638    4.3686819    4.3686819    4.3686819   -25583.638   -47638.085     5663.759    -34776.59   -357.06218    2678.2935   -76.764088    83.377964 
    1300    811.59476   -113.30101   0.73434799   -112.56666   -18587.881    4.3694711    4.3694711    4.3694711   -18587.881    -48523.44    23897.554   -31137.757   -2220.5303    1115.6327    11269.297    83.423153 
    1400    1057.9209   -113.51276   0.95722909   -112.55554    6196.2479    4.3555406    4.3555406    4.3555406    6196.2479   -32328.626    28405.626    22511.744   -5924.3717   -2338.3963   -9004.7063      82.6278 
    1500    891.55593   -113.36665   0.80669854   -112.55995    -15957.98    4.3666512    4.3666512    4.3666512    -15957.98   -32820.608     1190.397   -16243.728   -569.52069   -636.38502     11722.15    83.261744 
    1600    737.60481   -113.22906   0.66740033   -112.56166    -3389.933    4.3629626    4.3629626    4.3629626    -3389.933   -40940.344    36844.431   -6073.8866   -8223.2121    2459.3622   -5979.1405    83.050925 
    1700    985.36653   -113.45243   0.89158034   -112.56085    5436.4698    4.3691079    4.3691079    4.3691079    5436.4698   -34466.873    26758.188    24018.095   -2862.1936   -760.66067   -536.38888    83.402355 
    1800    1082.2888   -113.53639   0.97927767   -112.55711    5606.0508    4.3682463    4.3682463    4.3682463    5606.0508   -37879.474    47014.305    7683.3206    3716.1686   -2441.3673   -371.50887    83.353025 
    1900    857.09608   -113.33735   0.77551855   -112.56184    9865.1457    4.3576554    4.3576554    4.3576554    9865.1457   -36396.659    25942.437    40049.659   -8071.8728   -669.57492    6530.0522     82.74822 
    2000    950.11773   -113.42905   0.85968648   -112.56936   -17761.435    4.3704173    4.3704173    4.3704173   -17761.435    -54573.55    20602.967   -19313.724   -120.01675    2155.9601    4537.6776    83.477361 
    2100    1082.0285   -113.53738   0.97904209   -112.55834    12515.088      4.35787      4.35787      4.35787    12515.088   -18960.628    43378.215    13127.677     2980.991    2171.0604    2198.5476    82.760445 
    2200    888.84327   -113.36636   0.80424407   -112.56212    3516.5592    4.3607801    4.3607801    4.3607801    3516.5592   -30640.201    23747.818    17442.061   -9716.2583    1125.1885   -1874.5159    82.926355 
    2300    733.83548   -113.22412   0.66398977   -112.56013   -30179.798    4.3757696    4.3757696    4.3757696   -30179.798     -40506.6    13257.118   -63289.913   -2447.2537   -671.00627    12814.527    83.784433 
    2400    933.16367   -113.39223    0.8443461   -112.54788    19857.936    4.3466335    4.3466335    4.3466335    19857.936    -3997.462     50850.02    12721.249    2133.3361    1138.9212   -6776.4771    82.121913 
    2500    1107.5641   -113.56603    1.0021473   -112.56389   -7258.7667     4.365945     4.365945     4.365945   -7258.7667   -37227.701    37170.772   -21719.371    4844.9726   -3731.4386   -845.40243    83.221352 
    2600      540.148   -113.04256   0.48873726   -112.55383   -19770.278    4.3863831    4.3863831    4.3863831   -19770.278   -54086.279    33957.132   -39181.687    1811.3618   -1324.5584    545.35262    84.395578 
    2700    1115.1021   -113.53976    1.0089679   -112.53079    8340.1148    4.3401869    4.3401869    4.3401869    8340.1148   -2702.4874    5523.8445    22198.987   -3391.2463    1291.5405   -5287.3729    81.757064 
    2800    787.73283    -113.2711   0.71275722   -112.55835    9038.5438    4.3605095    4.3605095    4.3605095    9038.5438   -22360.745    33372.072    16104.304    6756.0052    -2119.504   -2979.5022    82.910917 
    2900    949.06542   -113.41036   0.85873434   -112.55163   -36402.411    4.3791481    4.3791481    4.3791481   -36402.411   -68267.462   -14594.551    -26345.22    4714.5662     1133.151    871.78155    83.978651 
    3000    728.41834   -113.20418   0.65908822   -112.54509    32277.631    4.3412658    4.3412658    4.3412658    32277.631   -484.07405    39557.256    57759.712   -965.52789   -2246.0205    87.493205    81.818052 
    3100    952.01115   -113.42746    0.8613997   -112.56606   -20866.022    4.3757542    4.3757542    4.3757542   -20866.022   -36054.023   -8995.6031    -17548.44    11252.307   -2270.8436    448.51251    83.783547 
    3200    801.42547   -113.28387    0.7251466   -112.55873     4203.227    4.3677011    4.3677011    4.3677011     4203.227    -28980.13    24846.227    16743.585    4702.0482    2714.5658     1119.098    83.321818 
    3300    1049.5052    -113.4997   0.94961438   -112.55008    1353.5163    4.3479937    4.3479937    4.3479937    1353.5163   -20969.664      34227.7   -9197.4871   -793.31614   -2613.9617   -7707.6387    82.199036 
    3400    734.11474   -113.22209   0.66424245   -112.55784   -27341.095    4.3742309    4.3742309    4.3742309   -27341.095   -25450.708   -26132.818    -30439.76    1874.4651    1553.1421    14746.158    83.696081 
    3500    1035.5316   -113.48365   0.93697075   -112.54668   -2008.9372    4.3616762    4.3616762    4.3616762   -2008.9372   -24503.566    33853.727   -15376.972    3092.8112    -462.5473    6110.3448    82.977485 
    3600    930.84566     -113.396   0.84224871   -112.55375    353.53018    4.3593289    4.3593289    4.3593289    353.53018   -37125.814    31343.682    6842.7221    13175.022   -6794.8941    7919.4615    82.843589 
    3700    658.37727     -113.163   0.59571359   -112.56728   -2567.7656    4.3651128    4.3651128    4.3651128   -2567.7656   -9087.2678     37699.43   -36315.459   -2162.4117    451.78463    5574.9005    83.173777 
    3800    952.71686   -113.42873   0.86203823   -112.56669   -12339.142    4.3691293    4.3691293    4.3691293   -12339.142   -13138.765   -8109.3689   -15769.292    2533.4942   -85.588426   -8014.3687    83.403579 
    3900    1133.4232   -113.58148    1.0255451   -112.55593   -7981.0544    4.3656038    4.3656038    4.3656038   -7981.0544   -37754.112    27324.031   -13513.082     2284.663   -2021.5717    545.04632    83.201848 
    4000    923.17962    -113.3915   0.83531232   -112.55619    3161.1384    4.3517564    4.3517564    4.3517564    3161.1384   -15488.262    33335.766   -8364.0881    613.24428     320.6483   -1298.9418    82.412624 
    4100    715.17001   -113.21682   0.64710085   -112.56972    3376.8063    4.3621996    4.3621996    4.3621996    3376.8063   -1573.9564    21220.473   -9516.0977    2080.0488    -1685.573   -2622.9557     83.00736 
    4200    1026.9082   -113.48637   0.92916809    -112.5572   -8239.7588    4.3811523    4.3811523    4.3811523   -8239.7588   -24696.082     23644.98   -23668.174    5952.3651   -436.54753     2889.693    84.094008 
    4300    1025.3051   -113.47663   0.92771757   -112.54891   -4989.8842    4.3627795    4.3627795    4.3627795   -4989.8842   -13483.183    12215.991   -13702.462    -5185.419   -1375.1761   -3498.0962     83.04047 
    4400    617.66505   -113.11119   0.55887632   -112.55231    16211.529     4.343412     4.343412     4.343412    16211.529    1756.5086    41717.592    5160.4847   -3259.9348    1397.6084   -6785.9293    81.939455 
    4500    946.91091   -113.42714   0.85678489   -112.57035    197.90075    4.3682735    4.3682735    4.3682735    197.90075   -25639.802    30369.304   -4135.7998    13032.554    403.77862   -5494.2459    83.354578 
    4600    1041.2534   -113.50029   0.94214794   -112.55814   -19751.397    4.3808419    4.3808419    4.3808419   -19751.397   -33417.422   -472.89969   -25363.869    909.19835   -2788.9022   -109.44416    84.076133 
    4700    713.41182   -113.19351   0.64551001     -112.548    3231.6627    4.3526801    4.3526801    4.3526801    3231.6627     2009.187    4771.9969    2913.8042   -8887.4753     1359.266    8644.1749    82.465111 
    4800    718.24649   -113.20793   0.64988452   -112.55804     4254.838    4.3557856    4.3557856    4.3557856     4254.838    -23266.58    47741.296   -11710.202     17031.57    -1221.425   -11196.875    82.641745 
    4900    1202.4891   -113.64536    1.0880374   -112.55732   -9407.8976     4.368322     4.368322     4.368322   -9407.8976   -34878.212    10088.866   -3434.3473    13350.821    225.38191    2298.3688    83.357356 
    5000     841.9411   -113.32116     0.761806   -112.55936   -6957.7669    4.3697326    4.3697326    4.3697326   -6957.7669   -8559.8522    2423.6147   -14737.063   -7424.3982    8486.2322   -1881.4249    83.438137 
    5100    739.77946    -113.2271     0.669368   -112.55773   -21126.558    4.3658012    4.3658012    4.3658012   -21126.558   -26882.208   -8231.4122   -28266.055    8693.1276   -1459.7556   -9005.5218     83.21313 
    5200    873.85701     -113.343   0.79068419   -112.55232     19003.18    4.3481632    4.3481632    4.3481632     19003.18   -13336.187    60468.632    9877.0944    13517.299   -12.703534     11038.13    82.208651 
    5300    1057.0407   -113.52372   0.95643266   -112.56728   -12809.712    4.3729762    4.3729762    4.3729762   -12809.712    524.24749   -8397.3759   -30556.008   -8521.7913    4566.8505   -1953.8024    83.624076 
    5400    744.09104   -113.22753   0.67326921   -112.55426   -21776.646    4.3807944    4.3807944    4.3807944   -21776.646   -26646.781   -6716.3001   -31966.857   -6774.9279   -1829.6145    10104.191    84.073403 
    5500    1103.1279   -113.53492   0.99813329   -112.53679    10077.566    4.3413524    4.3413524    4.3413524    10077.566    3564.5871    14110.604    12557.508    15327.741    2428.6419    1507.4097    81.822948 
    5600    693.39838   -113.19222   0.62740143   -112.56482    25577.571    4.3614035    4.3614035    4.3614035    25577.571    5355.9646    78931.474   -7554.7258    7319.4917    4699.4872   -8757.7184     82.96192 
    5700    1057.4155   -113.50964   0.95677179   -112.55287   -22704.736    4.3862891    4.3862891    4.3862891   -22704.736    -33259.67   -2386.0567   -32468.482    3634.8127   -3067.6848   -7426.5193     84.39015 
    5800     741.1208   -113.21506   0.67058167   -112.54448    16120.843    4.3551401    4.3551401    4.3551401    16120.843    13032.995    43197.362   -7867.8292    12495.783   -3804.3359   -432.86842    82.605009 
    5900    1141.4018   -113.58603    1.0327643   -112.55326   -12606.065    4.3608647    4.3608647    4.3608647   -12606.065   -5770.1136   -4190.7566   -27857.325    13443.353    1815.7488   -36.940173    82.931176 
    6000    939.35646   -113.41097   0.84994947   -112.56102   -4865.3021     4.374633     4.374633     4.374633   -4865.3021   -11157.483     42656.03   -46094.453   -1373.7762   -3051.6759    -2680.988     83.71916 
    6100     856.3551   -113.32985   0.77484809     -112.555    19425.428    4.3596181    4.3596181    4.3596181    19425.428    18204.948    43392.147   -3320.8113    7017.0468    -11723.44   -6181.9471     82.86008 
    6200    695.62129   -113.18841   0.62941277     -112.559   -8937.1441    4.3758265    4.3758265    4.3758265   -8937.1441    -28526.36    30474.837    -28759.91    4558.3381    6194.4051   -8282.2887    83.787705 
    6300    1019.1283   -113.47576   0.92212869   -112.55363   -17773.297    4.3639166    4.3639166    4.3639166   -17773.297   -14626.182    3190.3362   -41884.045    544.79581   -347.52297    12668.048    83.105418 
    6400    1178.2425   -113.61407    1.0660986   -112.54798    14276.569    4.3443467    4.3443467    4.3443467    14276.569     19377.89    19049.941    4401.8764   -2571.4405    -6823.612    4977.4789    81.992369 
    6500    784.13308    -113.2657   0.70950009    -112.5562   -45298.459    4.3918253    4.3918253    4.3918253   -45298.459   -66986.193   -26180.251   -42728.933    8095.1199    12874.802   -692.78687    84.710094 
    6600    619.83967   -113.11939   0.56084396   -112.55855   -14483.354    4.3606717    4.3606717    4.3606717   -14483.354    -23601.81    23390.718   -43238.972    251.03203     1491.896    17919.385    82.920165 
    6700    951.69012   -113.39306   0.86110922   -112.53195     52473.48    4.3259291    4.3259291    4.3259291     52473.48    25901.189    125947.21    5572.0387    743.14914   -631.38234    4885.5576    80.953977 
    6800    940.45118   -113.41068   0.85093999   -112.55974   -44071.658    4.3898114    4.3898114    4.3898114   -44071.658   -70326.162   -23152.259   -38736.551    13218.488     4286.313    -4199.994    84.593613 
    6900    661.33648   -113.14469   0.59839115    -112.5463   -19239.064    4.3725067    4.3725067    4.3725067   -19239.064    -37572.26    5008.4133   -25153.346     2794.734   -1770.7437    11139.353    83.597145 
    7000    1332.0672   -113.72841    1.2052824   -112.52312    26366.936    4.3388431    4.3388431    4.3388431    26366.936    44012.118    24453.688    10635.002    8398.7383    1033.1597    5220.5202    81.681148 
    7100    993.90116   -113.44425   0.89930266   -112.54495   -5592.6373    4.3718547    4.3718547    4.3718547   -5592.6373   -25347.581    34662.934   -26093.265    4735.9587    8252.1953    952.79765    83.559753 
    7200    498.00447   -112.99866   0.45060491   -112.54805    9848.2621     4.377314     4.377314     4.377314    9848.2621   -4324.0449    38601.245   -4732.4144    21748.797   -3226.7766    9462.8724    83.873181 
    7300    814.50415    -113.2758   0.73698048   -112.53882    17424.126     4.372355     4.372355     4.372355    17424.126    19948.305    66847.889   -34523.816   -1029.1218   -139.28927    2297.8618    83.588448 
    7400    889.77104   -113.34511   0.80508353   -112.54002    10605.195    4.3616743    4.3616743    4.3616743    10605.195   -23133.017    65018.146   -10069.544    7578.5702     11267.39    787.61464    82.977376 
    7500    653.56501   -113.13965   0.59135935   -112.54829     14408.73    4.3602511    4.3602511    4.3602511     14408.73    5304.7888    19912.754    18008.648    12113.789   -6001.2993    5376.6751    82.896174 
    7600    1270.6933   -113.69223      1.14975   -112.54248   -29317.314    4.3836711    4.3836711    4.3836711   -29317.314   -21876.054   -33052.808    -33023.08    2949.0329   -4786.5901   -776.02392     84.23913 
    7700    943.88627   -113.40496   0.85404813   -112.55091    2293.0907    4.3540519    4.3540519    4.3540519    2293.0907   -7254.1731    4223.6558    9909.7894    -17316.54    5267.6034   -1864.2925    82.543104 
    7800    1004.2703   -113.44816   0.90868484   -112.53948    33216.103    4.3299212    4.3299212    4.3299212    33216.103     47001.39    33499.257    19147.662    16651.426   -5847.7967    1678.7571    81.178303 
    7900    718.21389   -113.20423   0.64985502   -112.55437   -20717.775     4.391048     4.391048     4.391048   -20717.775   -39652.065     12379.87   -34881.129   -1413.2267     1728.464   -1104.2498    84.665124 
    8000     1015.791   -113.46851   0.91910903    -112.5494   -1024.2167    4.3593277    4.3593277    4.3593277   -1024.2167   -4612.8187    5769.9052   -4229.7366    -22338.86     2642.946   -5667.5648    82.843521 
    8100    903.97627   -113.34345   0.81793673   -112.52552    38138.522    4.3240545    4.3240545    4.3240545    38138.522    22187.308    68596.658    23631.598    7564.7163   -3804.8978    3958.5565     80.84878 
    8200    635.50879   -113.11774   0.57502171   -112.54272   -29815.554    4.3782908    4.3782908    4.3782908   -29815.554   -26394.187   -32305.282   -30747.193    21815.045   -2695.8541    16538.206    83.929341 
    8300    964.74249   -113.40139   0.87291928   -112.52847    12960.225    4.3544546    4.3544546    4.3544546    12960.225    15369.352    29279.563   -5768.2402   -14651.891    2983.9415    5026.1062    82.566008 
    8400    1049.5179   -113.48624   0.94962588   -112.53661   -9545.5322    4.3592799    4.3592799    4.3592799   -9545.5322    433.42505   -5970.6605   -23099.361    6704.8198   -1668.9068    275.45395    82.840795 
    8500    701.85998   -113.17805   0.63505766   -112.54299   -29129.314    4.3672922    4.3672922    4.3672922   -29129.314   -20268.673   -37381.834   -29737.435    25938.601   -1439.1757    20442.923    83.298416 
    8600    879.17737   -113.33043   0.79549816   -112.53494    43285.559    4.3331119    4.3331119    4.3331119    43285.559    49563.969    68377.366    11915.343   -9395.3501    2770.0252    6628.9172    81.357899 
    8700     915.6793   -113.38446   0.82852587   -112.55594   -14510.857    4.3768483    4.3768483    4.3768483   -14510.857   -32126.889    13584.984   -24990.667    9694.8473   -6443.9414   -924.98395     83.84641 
    8800    767.75282   -113.24172   0.69467889   -112.54704   -2263.5977    4.3626766    4.3626766    4.3626766   -2263.5977   -23695.766    40739.464   -23834.491     18117.17   -5609.4457    14773.586    83.034593 
    8900    894.75315   -113.34378   0.80959146   -112.53419     32944.63    4.3345286    4.3345286    4.3345286     32944.63    44788.628    37695.075    16350.188   -9385.2392    987.56188    4389.6785    81.437721 
    9000    780.58902   -113.25646   0.70629335   -112.55017   -19950.322    4.3700586    4.3700586    4.3700586   -19950.322   -25638.269   -9086.4736   -25126.223    476.02049   -8727.6193   -706.54212     83.45681 
    9100     983.4194   -113.43067   0.88981854   -112.54085   -3008.9272    4.3650516    4.3650516    4.3650516   -3008.9272   -23204.402    19044.879    -4867.258    14087.264   -3531.0538   -823.07499    83.170279 
    9200    943.14263    -113.3934   0.85337527   -112.54002    10783.668    4.3519905    4.3519905    4.3519905    10783.668    5182.6432     30704.21    -3535.849    -11867.24   -1008.0313   -3320.0359    82.425921 
    9300    830.29874   -113.30095   0.75127175   -112.54968    4418.1355    4.3511613    4.3511613    4.3511613    4418.1355   -21713.558    54793.551   -19825.586   -6755.4964   -7372.2001   -6082.2712    82.378814 
    9400    967.81677   -113.42571   0.87570095   -112.55001    1226.8423    4.3665035    4.3665035    4.3665035    1226.8423   -20317.457    36754.311   -12756.327    9105.6968   -3670.5135   -6411.4425    83.253297 
    9500    1226.1343   -113.65392    1.1094321   -112.54449   -11131.944    4.3607499    4.3607499    4.3607499   -11131.944   -14666.387    1746.5892   -20476.033    6397.6592   -2144.4716   -664.64978    82.924629 
    9600     574.1032   -113.06929   0.51946064   -112.54983    18731.436    4.3445312    4.3445312    4.3445312    18731.436   -13621.918    95366.745   -25550.518   -10972.322   -6658.0954    -1951.555    82.002815 
    9700    1062.8567   -113.51619   0.96169511    -112.5545   -15468.716    4.3589503    4.3589503    4.3589503   -15468.716   -19676.423    -7418.363   -19311.362     11977.54   -5697.8088   -243.22623    82.822008 
    9800    1080.0962   -113.52746    0.9772937   -112.55017     3898.015    4.3510933    4.3510933    4.3510933     3898.015    739.80668    27455.086   -16500.847   -22.393562    348.21689   -6173.2216    82.374953 
    9900    536.98629   -113.04609   0.48587648   -112.56021   -11525.548    4.3599042    4.3599042    4.3599042   -11525.548    -27582.93    27856.213   -34849.926   -9037.8375   -7936.8109     1244.202    82.876393 
   10000    924.51682   -113.38934   0.83652224   -112.55282   -12797.281    4.3570161    4.3570161    4.3570161   -12797.281    -10727.86    4311.8384   -31975.822   -2795.4588   -9629.7439   -4657.5198    82.711806 
   10100    1312.3357   -113.73189    1.1874289   -112.54446    9490.6634     4.342951     4.342951     4.342951    9490.6634    23594.825    13709.294    -8832.128    6634.5151    1840.2144   -4912.9685     81.91337 
   10200    561.46985   -113.06898   0.50802972   -112.56095   -8626.9353    4.3650488    4.3650488    4.3650488   -8626.9353    -20540.37    38171.809   -43512.245   -903.40015   -6986.6271    9433.6531    83.170114 
   10300    794.68564   -113.27608   0.71904827   -112.55703   -1283.3965    4.3518679    4.3518679    4.3518679   -1283.3965    4012.7909    19765.732   -27628.713   -20683.646   -5131.6474   -164.81266    82.418957 
   10400    1022.2591   -113.47397   0.92496155   -112.54901    37337.082    4.3399335    4.3399335    4.3399335    37337.082    46915.766    61091.278    4004.2012    10271.243    2392.4626   -6163.9048    81.742748 
   10500    916.22697   -113.38787   0.82902142   -112.55885   -9577.4537    4.3700703    4.3700703    4.3700703   -9577.4537    7947.4533    3287.3172   -39967.131   -3275.6301   -5898.4667    11304.863    83.457478 
   10600    841.02158   -113.30916     0.760974   -112.54819   -15088.838     4.361278     4.361278     4.361278   -15088.838    684.47417   -5712.3556   -40238.632   -11328.611    2184.5365    4340.1305     82.95476 
   10700    806.91554   -113.27058   0.73011414   -112.54046    31904.675    4.3358362    4.3358362    4.3358362    31904.675    21573.092    71348.416    2792.5183    3686.3524    7535.8308   -5393.7519    81.511444 
   10800     1181.531   -113.62342     1.069074   -112.55434   -17198.288    4.3613213    4.3613213    4.3613213   -17198.288    19370.108   -28221.045   -42743.927   -7645.1255   -1798.9459    19200.244    82.957234 
   10900    742.09508   -113.22483   0.67146322   -112.55336   -19678.263    4.3693388    4.3693388    4.3693388   -19678.263   -7313.7005   -877.57675   -50843.511    1586.1039    2558.9571    5274.7155    83.415575 
   11000    845.06512   -113.31297   0.76463268   -112.54834    7589.9285    4.3374698    4.3374698    4.3374698    7589.9285    16779.119    25451.802   -19461.136   -17706.419    16527.378   -2263.0241    81.603614 
   11100    981.71517   -113.44453   0.88827652   -112.55626    12591.655    4.3488434    4.3488434    4.3488434    12591.655      51323.2    10399.594   -23947.828    8109.6473    1490.0974    12139.217    82.247235 
   11200    864.34531   -113.32935    0.7820778   -112.54728   -15345.709    4.3759026    4.3759026    4.3759026   -15345.709    31932.625    -26038.85   -51930.904    11667.384    4887.1919    2213.8239    83.792075 
   11300      908.262    -113.3624   0.82181455   -112.54058   -11277.546    4.3561471    4.3561471    4.3561471   -11277.546   -17510.701    24808.105   -41130.043   -7740.6248    12802.203   -1521.7197    82.662325 
   11400    889.80701   -113.34595   0.80511609   -112.54083    26151.194    4.3334156    4.3334156    4.3334156    26151.194    27644.936    58811.808   -8003.1628    18351.595    440.57698    11712.797    81.375003 
   11500    1052.5815   -113.51531   0.95239783   -112.56291   -6214.0524    4.3668643    4.3668643    4.3668643   -6214.0524    3118.3522    14968.067   -36728.577    6611.2979    2927.4632     580.5133    83.273937 
   11600    791.96451   -113.26737   0.71658613   -112.55078   -28583.537    4.3790555    4.3790555    4.3790555   -28583.537    -44242.35    26900.374   -68408.635    -12026.33    9418.6348   -2120.1064    83.973325 
   11700    926.70369   -113.37506   0.83850098   -112.53656    36513.666    4.3206663    4.3206663    4.3206663    36513.666    28699.451     56147.89    24693.658    1276.1602    191.46417   -736.11552    80.658876 
   11800    1092.3813   -113.55649   0.98840955   -112.56808    203.37438    4.3495281    4.3495281    4.3495281    203.37438    22776.703   -12360.335   -9806.2455     12990.32   -3859.7283   -3412.4218     82.28609 
   11900    953.14226   -113.39566   0.86242314   -112.53324   -44130.514    4.3889062    4.3889062    4.3889062   -44130.514   -42191.844   -35764.885   -54434.814    2415.0757    6644.1765    582.03584    84.541293 
   12000    974.24829   -113.40354   0.88152032   -112.52202    26389.519    4.3263446    4.3263446    4.3263446    26389.519    49549.774    17876.869    11741.915   -15958.378    3009.6494   -3110.3374    80.977309 
   12100     732.5106   -113.20957   0.66279099   -112.54678     -7307.46    4.3435237    4.3435237    4.3435237     -7307.46   -7663.5278   -34048.481    19789.628    32960.005   -11811.316   -1267.2936    81.945778 
   12200    1034.8363   -113.47116   0.93634163   -112.53482   -28086.606    4.3715279    4.3715279    4.3715279   -28086.606   -11281.227   -58027.311   -14951.279    13972.763     3359.049    1749.4358    83.541019 
   12300    1271.1735    -113.6818    1.1501845   -112.53161   -16925.967    4.3524208    4.3524208    4.3524208   -16925.967   -2437.0584   -21648.736   -26692.107   -10653.849     4671.875   -4628.5851    82.450376 
   12400     381.4352    -112.8934   0.34513059   -112.54827   -22676.229    4.3498968    4.3498968    4.3498968   -22676.229   -42633.961   -51457.128    26062.402    38774.002   -14744.795    1343.2871    82.307018 
   12500    946.61531   -113.41036   0.85651742   -112.55385    -1612.287    4.3445706    4.3445706    4.3445706    -1612.287    21252.771   -31057.354    4967.7221    8817.5253    8761.0974   -1121.8517    82.005047 
   12600    1319.1396   -113.74472    1.1935853   -112.55113   -12640.449    4.3640898    4.3640898    4.3640898   -12640.449   -4579.5737   -15979.838   -17361.935   -4115.8196    -3632.051   -1722.0103    83.115314 
   12700       549.21   -113.05375   0.49693675   -112.55681   -10172.484    4.3584117    4.3584117    4.3584117   -10172.484   -6243.6539   -28786.368    4512.5718    36511.138   -13981.681   -144.07034    82.791309 
   12800    647.67789   -113.13821   0.58603257   -112.55217    9680.2713    4.3423257    4.3423257    4.3423257    9680.2713   -3214.2656    14186.566    18068.513    12458.205     11565.61   -3123.5403    81.877993 
   12900    1040.4584    -113.4919   0.94142861   -112.55047    14284.474    4.3595693    4.3595693    4.3595693    14284.474     11261.46    35491.567   -3899.6049   -8619.4896   -298.01237   -88.563823    82.857295 
   13000    866.88999   -113.33253   0.78438028   -112.54815   -3390.6999    4.3638429    4.3638429    4.3638429   -3390.6999   -23826.184    29809.741   -16155.657    26904.563    -7670.111   -4583.7153    83.101204 
   13100    419.48294   -112.92916   0.37955698    -112.5496    13259.794    4.3517023    4.3517023    4.3517023    13259.794   -9066.5919    32639.444    16206.529    16059.598    5770.9629   -5369.5947    82.409549 
   13200    1227.8082   -113.65505    1.1109466    -112.5441    75.145445    4.3561957    4.3561957    4.3561957    75.145445   -2499.1989    12557.543   -9832.9082    -16425.76   -1227.4496   -7251.2418    82.665093 
   13300    1135.2207   -113.57153    1.0271715   -112.54436   -10798.639    4.3666554    4.3666554    4.3666554   -10798.639   -11759.718   -19544.255   -1091.9446     17430.76    3531.6354   -4840.8595    83.261985 
   13400    957.17226   -113.40998   0.86606957   -112.54391    -14261.93    4.3565725    4.3565725    4.3565725    -14261.93   -813.13705   -33543.842   -8428.8117    15804.098    1902.0564   -82.835626    82.686543 
   13500    1049.4851   -113.49491   0.94959621   -112.54531   -12983.205     4.351181     4.351181     4.351181   -12983.205   -21665.233    4435.2224   -21719.606   -24468.196    8866.9298   -768.11532    82.379936 
   13600    1053.4563   -113.49663    0.9531894   -112.54344    4342.3277    4.3571638    4.3571638    4.3571638    4342.3277   -3084.8593    22850.051   -6738.2085    9584.0017    6741.6932   -4958.9089    82.720217 
   13700    877.70361   -113.33614   0.79416467   -112.54197   -10530.069    4.3688311    4.3688311    4.3688311   -10530.069   -28215.913    2661.4472   -6035.7421    16634.036   -1213.6407    183.10398    83.386503 
   13800    759.53598   -113.22836   0.68724411   -112.54112    1585.5225    4.3502114    4.3502114    4.3502114    1585.5225   -17012.692    32023.936   -10254.676   -17636.267    13377.762   -5339.1443    82.324876 
   13900    998.11058   -113.44274   0.90311143   -112.53963    11622.368    4.3394897    4.3394897    4.3394897    11622.368   -3891.2979    37352.797    1405.6057   -4135.5942    5211.6832   -1424.8526    81.717672 
   14000    1003.6173   -113.45489   0.90809406   -112.54679   -5649.0768    4.3621968    4.3621968    4.3621968   -5649.0768   -8787.4861   -9441.1694    1281.4251    21253.515   -3402.8317    700.18261    83.007201 
   14100    863.34201   -113.32967   0.78116999    -112.5485   -438.85746    4.3484634    4.3484634    4.3484634   -438.85746   -3177.9366    25705.468   -23844.104    -171.6971    15861.262    696.63797    82.225677 
   14200    619.31187     -113.114   0.56036639   -112.55363     307.0835    4.3497048    4.3497048    4.3497048     307.0835    4909.7769   -3154.4119   -834.11449    -12316.98   -3282.8845    3976.3655     82.29612 
   14300     1297.167   -113.71459    1.1737039   -112.54088   -18701.675     4.359843     4.359843     4.359843   -18701.675   -12062.299   -30400.918   -13641.808    14399.551   -6398.0232   -1657.5887      82.8729 
   14400     911.2777   -113.36634   0.82454321    -112.5418    11833.168    4.3428515    4.3428515    4.3428515    11833.168    18569.973    21246.585   -4317.0543    1885.0265     18580.42    6654.5385    81.907741 
   14500      550.101   -113.05272   0.49774295   -112.55497   -27656.278    4.3584228    4.3584228    4.3584228   -27656.278   -42780.606   -8183.5752   -32004.653   -22687.098   -1131.5189    808.58445    82.791944 
   14600    1132.2543   -113.57174    1.0244875   -112.54725   -9337.9069    4.3525538    4.3525538    4.3525538   -9337.9069   -9986.7398   -12943.285   -5083.6963   -7117.8636   -15204.192   -3221.3091    82.457934 
   14700    1298.6095   -113.71843    1.1750092   -112.54342   -2.7524137    4.3445726    4.3445726    4.3445726   -2.7524137    7180.3293    16762.551   -23951.137    3905.5314    17668.537    6033.4213    82.005158 
   14800    485.56635   -112.99282   0.43935063   -112.55347   -22293.465    4.3625285    4.3625285    4.3625285   -22293.465   -50597.141    2563.1727   -18846.426   -11685.162    2152.9993     506.8178    83.026138 
   14900      892.284   -113.35209   0.80735732   -112.54473     409.0324    4.3506993    4.3506993    4.3506993     409.0324    -10475.28    19527.629   -7825.2518    -16339.16   -13428.075     6287.623    82.352578 
   15000    1194.5955   -113.62264    1.0808951   -112.54174   -22.147702    4.3522793    4.3522793    4.3522793   -22.147702   -2186.3527    15346.277   -13226.368    10703.721    12244.207   -4392.6421    82.442334 
   15100    694.43156   -113.17878   0.62833627   -112.55044    -882.0865     4.355689     4.355689     4.355689    -882.0865   -20096.887    32444.597   -14993.969   -5706.3916   -8008.8277    2950.4006    82.636251 
   15200    765.75885   -113.24145    0.6928747   -112.54857    10761.967    4.3487715    4.3487715    4.3487715    10761.967    527.08932     34922.41   -3163.5974   -18021.506   -14998.534   -962.07779    82.243157 
   15300    983.79237   -113.43561   0.89015601   -112.54546    80.751145    4.3570476    4.3570476    4.3570476    80.751145    5795.0258   -3793.7589   -1759.0135    21151.945    7930.9715    -10827.06    82.713599 
   15400    873.43474   -113.33445   0.79030211   -112.54414    5170.1017    4.3498965    4.3498965    4.3498965    5170.1017   -12167.427    15760.348    11917.384    1054.6007   -10310.466    9268.2003       82.307 
   15500    897.79383   -113.35697   0.81234272   -112.54463    6656.7552     4.348721     4.348721     4.348721    6656.7552    20819.345    -6597.719    5748.6391   -14653.296   -5030.9419    -4183.717    82.240291 
   15600    931.49766   -113.38824   0.84283866    -112.5454   -16198.518     4.357763     4.357763     4.357763   -16198.518   -3634.0654   -28079.816   -16881.672    17936.262    1009.5989   -14805.874     82.75435 
   15700     908.6369   -113.36633   0.82215376   -112.54417     2346.424    4.3465328    4.3465328    4.3465328     2346.424    714.59697   -24341.654    30666.329    13013.345   -5594.2381    994.57617    82.116206 
   15800    954.28041    -113.4117   0.86345297   -112.54825    11729.725    4.3497977    4.3497977    4.3497977    11729.725    11908.336    27396.756   -4115.9165   -15163.745     2751.751   -3101.9388    82.301392 
   15900    828.12102    -113.2998    0.7493013    -112.5505   -2749.3056    4.3555793    4.3555793    4.3555793   -2749.3056    7741.8044   -19651.504    3661.7831    10987.267   -1977.4226   -8711.1638    82.630006 
   16000     756.0915   -113.23267   0.68412748   -112.54854    7415.6434    4.3474083    4.3474083    4.3474083    7415.6434   -5191.5876    24342.323    3096.1952    23839.258     3479.977   -2075.8085     82.16584 
   16100    897.84269   -113.35995   0.81238693   -112.54756    8019.8655    4.3580899    4.3580899    4.3580899    8019.8655    14438.436    5658.3362    3962.8248     -14217.5   -3916.4948    3447.1643    82.772972 
   16200    1041.4129   -113.48422   0.94229223   -112.54193     2420.761    4.3558864    4.3558864    4.3558864     2420.761    10844.002    2438.0682   -6019.7868    4488.4002   -6163.2329    1634.6115    82.647483 
   16300    705.24007   -113.18455   0.63811604   -112.54643   -2110.5196    4.3533651    4.3533651    4.3533651   -2110.5196   -5317.9762    -17110.42    16096.837    25855.483    4401.0214   -8249.7945    82.504051 
   16400     1069.768   -113.51359   0.96794857   -112.54564   -4991.6692    4.3494853    4.3494853    4.3494853   -4991.6692    3439.7725   -14741.318   -3673.4616   -6344.2832   -14204.979    8255.8578     82.28366 
   16500    945.04643   -113.40348   0.85509787   -112.54839    25660.325    4.3472708    4.3472708    4.3472708    25660.325      27299.7    39854.336    9826.9386    4071.4614   -2524.8297    2999.5346    82.158044 
   16600    946.50802   -113.40851   0.85642035   -112.55209   -16458.314    4.3644772    4.3644772    4.3644772   -16458.314   -13365.835   -21886.472   -14122.634    17951.473    4986.0033   -14497.498     83.13745 
   16700    764.87577   -113.24125   0.69207567   -112.54917    9420.2341    4.3485618    4.3485618    4.3485618    9420.2341    4269.5577    18960.881    5030.2633    1356.1799   -16435.945    9407.0761    82.231258 
   16800    1092.0756   -113.53408   0.98813297   -112.54595    15088.749    4.3433933    4.3433933    4.3433933    15088.749    12104.728    27325.526    5835.9946   -5417.3513    5789.9771    7078.8144    81.938399 
   16900      930.962   -113.39243   0.84235398   -112.55007   -8760.3366     4.362592     4.362592     4.362592   -8760.3366   -15147.564   -28245.712    17112.265    17936.654    5781.0619   -8105.8428    83.029765 
   17000    944.50454   -113.40225   0.85460756   -112.54765    13769.707    4.3412404    4.3412404    4.3412404    13769.707    4845.4502    13074.864    23388.808    7109.6468   -3177.3416    8584.2254    81.816616 
   17100    717.74533   -113.20605   0.64943106   -112.55662     16584.65    4.3490052    4.3490052    4.3490052     16584.65    10221.512    9416.9508    30115.487    -6743.648   -2760.9654    12011.718    82.256415 
   17200     1072.949   -113.51268   0.97082677   -112.54186   -12429.074    4.3683522    4.3683522    4.3683522   -12429.074   -19316.427   -28360.153    10389.359    16437.874    8269.0147   -3069.4299    83.359084 
   17300    973.06089   -113.41673   0.88044595   -112.53628    21099.167    4.3452492    4.3452492    4.3452492    21099.167    343.13064    8582.6719    54371.697    8518.1408   -2797.9477    10051.855    82.043478 
   17400    890.56301   -113.34753   0.80580013   -112.54173    7427.6213    4.3459367    4.3459367    4.3459367    7427.6213    13700.038    8835.4304   -252.60439   -7599.9175    -11572.69    15062.986    82.082426 
   17500    849.51492   -113.31225   0.76865895    -112.5436    -4390.719    4.3590244    4.3590244    4.3590244    -4390.719   -15430.903    4943.6781   -2684.9316    16581.051    10918.666    4572.4062     82.82623 
   17600    968.95036    -113.4155   0.87672665   -112.53877     13619.77    4.3558887    4.3558887    4.3558887     13619.77   -17557.334    35749.102    22667.542    5339.8306    2886.6817    1638.7088    82.647613 
   17700    931.12367   -113.37911   0.84250026   -112.53661    3767.2982    4.3531511    4.3531511    4.3531511    3767.2982   -3441.5907    5396.3893    9347.0959   -150.55614   -14420.576    16768.715    82.491884 
   17800    602.55978   -113.08539   0.54520875   -112.54018    5928.1751    4.3497688    4.3497688    4.3497688    5928.1751   -12063.423    34943.867   -5095.9181    15370.724    8218.7529    4451.8906    82.299753 
   17900    1036.4019   -113.47879   0.93775818   -112.54103   -4434.9294    4.3531761    4.3531761    4.3531761   -4434.9294   -19692.205   -2888.4086    9275.8257    7816.1296    11484.388    -13463.74    82.493308 
   18000     1067.922   -113.50849   0.96627825   -112.54221     -1112.25    4.3514966    4.3514966    4.3514966     -1112.25   -2635.5577      14104.4   -14805.593   -2354.1296   -5477.6497    14409.895    82.397863 
   18100    694.18496   -113.17984   0.62811314   -112.55173   -4807.9137    4.3511176    4.3511176    4.3511176   -4807.9137    6933.1654    -14557.22    -6799.686    9521.2668   -410.21946    9868.0487    82.376332 
   18200    908.72625   -113.37067   0.82223461   -112.54844   -18279.921    4.3633502    4.3633502    4.3633502   -18279.921   -25644.623   -21465.657   -7729.4833    8011.4096    13462.892   -11839.955    83.073063 
   18300    1107.2718   -113.54258    1.0018828   -112.54069   -2101.2984    4.3537228    4.3537228    4.3537228   -2101.2984     867.3284    7002.8428   -14174.067   -8481.2119   -6006.2569   -2620.2348    82.524391 
   18400    835.95045   -113.29976   0.75638553   -112.54338    1324.3678    4.3467162    4.3467162    4.3467162    1324.3678   -4861.0165    14654.988   -5820.8676    1466.9257   -769.90656    11796.646    82.126602 
   18500    775.70811   -113.25013     0.701877   -112.54826    4809.7072    4.3640319    4.3640319    4.3640319    4809.7072   -29540.969    32995.553    10974.537    1835.2106    13898.601   -1266.7957    83.112001 
   18600    1069.1613   -113.50606    0.9673996   -112.53866   -19449.266     4.367983     4.367983     4.367983   -19449.266   -27575.852   -288.98684    -30482.96   -2795.2635   -7418.0465   -10264.246    83.337949 
   18700    698.75247   -113.17313   0.63224592   -112.54088    8180.2668    4.3377802    4.3377802    4.3377802    8180.2668   -7951.2629    23323.007    9169.0563    3.7230996    1375.0876    23603.461    81.621136 
   18800    1031.4886   -113.47719    0.9333126   -112.54388    21603.164    4.3396392    4.3396392    4.3396392    21603.164    -1105.957    41921.167    23994.281    2467.9928    14828.316    3333.4028    81.726118 
   18900    995.05215    -113.4421    0.9003441   -112.54176   -27325.425    4.3760423    4.3760423    4.3760423   -27325.425   -33368.952   -17047.242   -31560.081   -5886.7413   -1483.0889   -12608.871    83.800101 
   19000    581.47154   -113.07187   0.52612767   -112.54574   -1416.5422     4.349222     4.349222     4.349222   -1416.5422   -3210.6725   -15094.971    14056.017   -9596.3631   -115.05872    14184.661    82.268718 
   19100    1289.3609   -113.69732    1.1666408   -112.53068    19631.444    4.3287383    4.3287383    4.3287383    19631.444    6397.5778    38801.407    13695.347    7146.7668    11747.766    6.2813092    81.111793 
   19200    1028.7685   -113.47718   0.93085137   -112.54633   -23076.818    4.3664775    4.3664775    4.3664775   -23076.818   -25547.039   -26848.355    -16835.06   -6919.4644    3184.7546   -11862.334    83.251807 
   19300    542.63589   -113.04433   0.49098835   -112.55335   -19878.692    4.3573776    4.3573776    4.3573776   -19878.692   -49.699413   -26243.344   -33343.033   -6094.2272   -1330.6047    8142.6921    82.732395 
   19400    1258.9629   -113.67611    1.1391361   -112.53697    9347.9158    4.3311398    4.3311398    4.3311398    9347.9158     4590.173    29385.307    -5931.733    1735.2597    11223.504    11449.519    81.246863 
   19500    1018.7411   -113.47018   0.92177834   -112.54841   -16158.064    4.3607986    4.3607986    4.3607986   -16158.064   -22717.319    -21536.32    -4220.552   -445.04912    470.29712   -12419.681    82.927409 
   19600    509.68964   -113.01022    0.4611779   -112.54905   -23737.201    4.3644618    4.3644618    4.3644618   -23737.201    1342.6014   -35922.465   -36631.739   -4559.7696   -1932.4906    3341.2361    83.136565 
   19700    1010.1212   -113.44597   0.91397889     -112.532    22523.317    4.3348919    4.3348919    4.3348919    22523.317    13106.365    39736.641    14726.944    1243.8785     322.2468    16656.281    81.458202 
   19800    953.20039   -113.40209   0.86247575   -112.53961   -7142.4533    4.3520082    4.3520082    4.3520082   -7142.4533   -26790.446    -24981.59    30344.676    14918.379    472.79352   -12453.261    82.426931 
   19900    510.68115   -113.00625   0.46207504   -112.54418   -7371.4959    4.3588764    4.3588764    4.3588764   -7371.4959    12433.905   -13672.871   -20875.521    -1742.525    685.65855   -8007.8519    82.817793 
   20000    1007.8167   -113.44608   0.91189375   -112.53418    11897.442    4.3478541    4.3478541    4.3478541    11897.442     14027.93     9660.113    12004.281   -1470.4775    -3561.188    13131.286    82.191115 
   20100    835.18769   -113.29136   0.75569538   -112.53566   -2644.1317    4.3567026    4.3567026    4.3567026   -2644.1317   -29560.045   -5455.8206     27083.47    21877.891   -2153.0504   -10602.021    82.693953 
   20200    697.35229   -113.17076   0.63097901   -112.53978    1740.4733    4.3428639    4.3428639    4.3428639    1740.4733    13533.096   -5781.8242   -2529.8518   -3459.7914      -104.85   -15951.566    81.908438 
   20300    937.01791   -113.39213    0.8478335    -112.5443    9142.0267    4.3488908    4.3488908    4.3488908    9142.0267    5525.0348    13072.995    8828.0508    1687.2842   -3393.9202    7024.8425    82.249922 
   20400    737.91545   -113.21236    0.6676814   -112.54468   -10486.514    4.3630899    4.3630899    4.3630899   -10486.514   -8075.1691   -33357.452    9973.0781    27752.586   -6797.4784    -4247.767    83.058192 
   20500    792.29895   -113.25704   0.71688874   -112.54015    14436.432    4.3391972    4.3391972    4.3391972    14436.432    26749.279    13265.472    3294.5437   -398.33782   -1048.3549   -20075.699    81.701147 
   20600     997.8214   -113.44598   0.90284977   -112.54313   -1481.3507    4.3550373    4.3550373    4.3550373   -1481.3507    15930.802    -21252.39     877.5355   -3073.4663     -9102.02    8368.8278    82.599163 
   20700    765.98253   -113.23437   0.69307709   -112.54129   -4738.8552    4.3554994    4.3554994    4.3554994   -4738.8552   -30180.934   -22657.462     38621.83    32321.012    -2837.429    998.31788     82.62546 
   20800    852.88282   -113.30889    0.7717063   -112.53718    14152.537    4.3375846    4.3375846    4.3375846    14152.537    33504.397     1729.651    7223.5622    9520.9736    1529.0847    -22569.33    81.610093 
   20900    930.72017   -113.38391   0.84213517   -112.54177   -7388.8458    4.3567562    4.3567562    4.3567562   -7388.8458    5510.4256   -21717.251    -5959.712   -9602.8511   -6639.1216   -723.77981    82.697002 
   21000    619.62966   -113.10284   0.56065393   -112.54218    4206.8742    4.3518311    4.3518311    4.3518311    4206.8742   -16308.166   -13876.678    42805.467    38722.297   -2204.9597     6961.763    82.416867 
   21100    1051.9356   -113.48973   0.95181344   -112.53792   -1755.5033    4.3493584    4.3493584    4.3493584   -1755.5033   -3201.0698    5588.0501   -7653.4901    9616.2393   -6456.5094   -13863.995     82.27646 
   21200    930.82327   -113.38295   0.84222845   -112.54072    4886.2174    4.3462385    4.3462385    4.3462385    4886.2174    15370.129   -5561.4859    4850.0091   -9094.8504   -52.814813   -13478.676    82.099527 
   21300    564.30405   -113.06058   0.51059417   -112.54998    11156.463    4.3396164    4.3396164    4.3396164    11156.463   -23444.654    9498.8099    47415.232    40074.977     6417.359    8805.1561    81.724827 
   21400     1057.186    -113.5049   0.95656415   -112.54834   -14336.002    4.3657867    4.3657867    4.3657867   -14336.002   -8012.1604   -9920.2304   -25075.616    6818.1678   -3735.7499   -1038.3096      83.2123 
   21500    1280.1327   -113.70337     1.158291   -112.54508     2431.617    4.3444072    4.3444072    4.3444072     2431.617   -8250.9303    23211.601   -7665.8202   -4507.8997     5126.147   -11041.797    81.995796 
   21600    425.95543   -112.93507   0.38541343   -112.54966    17348.412    4.3260478    4.3260478    4.3260478    17348.412   -23035.455    16119.789      58960.9    44026.125    2594.2892    6838.7666     80.96064 
   21700     920.0855   -113.38711    0.8325127    -112.5546    -23907.28    4.3634413    4.3634413    4.3634413    -23907.28   -38869.084   -18162.336    -14690.42    4572.3826    1570.6497    10065.085    83.078263 
   21800    1402.6102   -113.80145    1.2691112   -112.53234   -7694.4367    4.3583744    4.3583744    4.3583744   -7694.4367   -23916.684     11272.27   -10438.896   -5934.5504    1947.6287   -9816.4851    82.789185 
   21900    562.43266   -113.05163   0.50890089   -112.54273   -701.11137     4.336693     4.336693     4.336693   -701.11137   -37110.687   -16018.772    51026.125    46211.502    3444.2507   -3416.7973    81.559778 
   22000    790.04899    -113.2632   0.71485293   -112.54835   -2638.8848    4.3400051    4.3400051    4.3400051   -2638.8848   -13055.438   -7319.7389    12458.522    2067.3097    1454.0097    12510.718    81.746791 
   22100    1138.3162   -113.57553    1.0299724   -112.54555   -10800.029    4.3654219    4.3654219    4.3654219   -10800.029   -23351.447    7630.0228   -16678.664   -6519.5905   -5704.6653    8004.0998    83.191443 
   22200    842.08216   -113.30702   0.76193364   -112.54508   -16103.463     4.355813     4.355813     4.355813   -16103.463   -43042.087   -35733.432     30465.13    47861.608   -65.591768    359.13425    82.643306 
   22300    807.11402   -113.26185   0.73029372   -112.53156    26502.951    4.3216748    4.3216748    4.3216748    26502.951    17630.496     29834.76    32043.597   -3654.1839    3227.5717    12231.464    80.715374 
   22400    993.39624   -113.44945    0.8988458    -112.5506    -20193.32     4.359196     4.359196     4.359196    -20193.32   -20807.959   -32622.502   -7149.4978   -9900.9755   -2612.3108    13340.831    82.836014 
   22500    814.33208   -113.27554   0.73682478   -112.53872   -15499.932    4.3623229    4.3623229    4.3623229   -15499.932   -35265.438   -20528.186    9293.8265    38877.534   -1770.8432   -3075.8768    83.014399 
   22600     1038.266    -113.4639   0.93944489   -112.52445    16793.485    4.3243317    4.3243317    4.3243317    16793.485    7120.8626    23467.313    19792.278   -7853.0805    5681.3406    9281.2455     80.86433 
   22700    750.79432    -113.2219   0.67933448   -112.54256   -12377.908    4.3538199    4.3538199    4.3538199   -12377.908   -9803.1961   -18657.914    -8672.614   -11563.384   -969.74257    20014.259    82.529914 
   22800    950.29753   -113.39541   0.85984917   -112.53556   -12062.834    4.3568677    4.3568677    4.3568677   -12062.834    -22073.06   -8496.7344   -5618.7074    26370.038   -3527.1209   -6912.1631    82.703355 
   22900    970.71769   -113.41113   0.87832577    -112.5328    364.87234    4.3466198    4.3466198    4.3466198    364.87234   -1507.0501     13480.69   -10879.023    -5235.743    16151.415    6150.5643    82.121136 
   23000    797.32789   -113.26221   0.72143903   -112.54077   -17133.712    4.3482108    4.3482108    4.3482108   -17133.712   -12904.286   -17766.263   -20730.587   -12161.825    4667.1414    16929.533    82.211351 
   23100    954.64621   -113.40535   0.86378395   -112.54156    12246.775    4.3367766    4.3367766    4.3367766    12246.775    12564.025    7377.9291    16798.372    8854.6723    -10112.36   -4940.2124    81.564493 
   23200    1040.7355   -113.48963   0.94167933   -112.54795   -24160.469    4.3647837    4.3647837    4.3647837   -24160.469   -26590.068   -14684.673   -31206.667    8366.9406    16967.202    3566.2598    83.154962 
   23300    777.11563   -113.25083   0.70315056   -112.54768   -14616.289    4.3547911    4.3547911    4.3547911   -14616.289   -16439.403   -9043.8736   -18365.591   -13562.927    13297.339    18961.308    82.585156 
   23400    1166.6504   -113.58412    1.0556098   -112.52851    26370.744    4.3180387    4.3180387    4.3180387    26370.744    37276.553    21589.098     20246.58    2328.8662   -17002.103   -530.37834    80.511809 
   23500    951.33783   -113.41168   0.86079046   -112.55089   -13891.899    4.3586581    4.3586581    4.3586581   -13891.899    -26901.03    13121.677   -27896.343     9486.099    12890.766   -6411.7108    82.805351 
   23600    808.25672   -113.27129   0.73132767   -112.53996   -25267.148    4.3643865    4.3643865    4.3643865   -25267.148   -26326.383   -21613.695   -27861.367   -16207.836    23547.691    16211.643    83.132264 
   23700    1006.1738   -113.43743   0.91040722   -112.52702    19801.171    4.3294367    4.3294367    4.3294367    19801.171    21816.647     12576.83    25010.035    7642.2987   -22193.558    974.74902    81.151057 
   23800     970.4875   -113.41613   0.87811748   -112.53801    250.85705    4.3441532    4.3441532    4.3441532    250.85705   -17950.356    18364.562    338.36524    1970.8296    8404.7408   -11761.855    81.981411 
   23900    607.93841   -113.09511   0.55007545   -112.54504    3431.5028     4.355435     4.355435     4.355435    3431.5028   -16536.133    13980.834    12849.807   -17350.916    28787.717    5233.1978    82.621792 
   24000    986.81981   -113.43296   0.89289531   -112.54006    1209.4683    4.3513331    4.3513331    4.3513331    1209.4683    12501.729   -7560.3006   -1313.0238    8071.6159   -21624.186     1000.518    82.388575 
   24100    889.71232   -113.34472   0.80503041   -112.53969    11401.093     4.337176     4.337176     4.337176    11401.093   -3275.7617    26073.366    11405.673   -871.88021    5242.5904   -8082.8285    81.587031 
   24200    609.60743   -113.10386   0.55158561   -112.55228    3614.0293    4.3448144    4.3448144    4.3448144    3614.0293    12582.321    13574.864   -15315.098   -5362.6028    38904.292    4620.9838     82.01885 
   24300    1012.1573   -113.45854   0.91582124   -112.54272   -20523.638    4.3612548    4.3612548    4.3612548   -20523.638    -10265.56   -11609.246   -39696.106    1010.1001   -15421.559    6747.4802    82.953434 
   24400    860.46888   -113.31991   0.77857032   -112.54134    12841.337    4.3330821    4.3330821    4.3330821    12841.337     926.0431    41403.699   -3805.7321   -1717.3287    3671.5436    1365.5307     81.35622 
   24500    752.17692   -113.23168   0.68058549   -112.55109   -9947.8069    4.3415743    4.3415743    4.3415743   -9947.8069   -21034.697    26574.254   -35382.978    2008.1964    47008.728    2110.2198    81.835495 
   24600    1051.4667   -113.48787   0.95138918   -112.53648   -24789.161    4.3668119    4.3668119    4.3668119   -24789.161   -16155.759   -25277.518   -32934.205   -5885.5668   -4788.2578    11873.013     83.27094 
   24700     925.3925   -113.37537   0.83731458   -112.53806   -3499.4945    4.3424203    4.3424203    4.3424203   -3499.4945   -12654.056    6582.4077   -4426.8356    3012.9339    2227.1676    7207.2574    81.883345 
   24800    544.15941   -113.04102   0.49236687   -112.54865    13528.884    4.3344902    4.3344902    4.3344902    13528.884   -5149.4794    42965.209     2770.922    4816.7702    39796.072    -1848.533    81.435556 
   24900    1235.1083    -113.6613    1.1175519   -112.54375    -729.4059    4.3566776    4.3566776    4.3566776    -729.4059   -380.72666   -26666.291      24858.8   -10121.378   -6365.2811    9663.7043    82.692526 
   25000    738.30763   -113.21429   0.66803626   -112.54626    -657.1977    4.3574876    4.3574876    4.3574876    -657.1977   -8404.6661   -5940.7557    12373.829    6124.6403    5947.9584    10451.683    82.738659 
   25100     572.2655   -113.06434   0.51779785   -112.54654    202.32741    4.3423524    4.3423524    4.3423524    202.32741   -10773.785    29186.396   -17805.629   -1156.6098    42106.666   -1119.4219    81.879503 
   25200     1428.089   -113.82988    1.2921649   -112.53771    8622.5204    4.3446077    4.3446077    4.3446077    8622.5204     12763.64   -674.60854     13778.53    -2859.322   -6311.5027    4469.1635    82.007149 
   25300    1042.9947   -113.49084   0.94372355   -112.54712   -17799.867     4.358914     4.358914     4.358914   -17799.867   -5575.0278   -5552.1359   -42272.439    10444.758     12991.59    7174.2998    82.819938 
   25400    506.66992    -113.0057   0.45844559   -112.54725   -8036.1555    4.3530186    4.3530186    4.3530186   -8036.1555   -11600.246    34770.303   -47278.523    -1132.978    39281.844    9209.7288    82.484354 
   25500     1377.142   -113.78109     1.246067   -112.53502    9208.1813    4.3438951    4.3438951    4.3438951    9208.1813     3507.292    9183.4349    14933.817    6614.3707   -12746.386    -293.1709    81.966801 
   25600    846.77407   -113.31068   0.76617898    -112.5445    11832.782     4.347288     4.347288     4.347288    11832.782    5355.9355    28293.296    1849.1138    1287.3973    21690.129    4201.2763    82.159019 
   25700    461.01077   -112.96907   0.41713223   -112.55193   -1079.7886    4.3602787    4.3602787    4.3602787   -1079.7886   -39300.849    27017.415    9044.0679    2889.7333    34749.848    11489.329    82.897749 
   25800     1195.163   -113.61764    1.0814086   -112.53624    11340.116    4.3508925    4.3508925    4.3508925    11340.116   -504.60447     1055.327    33469.625   -270.41034   -17160.693    4012.3542    82.363551 
   25900    799.96994    -113.2656   0.72382962   -112.54177    17324.216    4.3350333    4.3350333    4.3350333    17324.216    3143.1591    22868.452    25961.037   -6303.2431    22023.962   -2086.2152    81.466171 
   26000    639.26558   -113.13276   0.57842093   -112.55434   -16870.931    4.3562687    4.3562687    4.3562687   -16870.931   -35354.067    29507.973     -44766.7    6557.2088    43287.564    1241.0335    82.669247 
   26100    1386.5964   -113.79126    1.2546215   -112.53664   -3622.0091    4.3537447    4.3537447    4.3537447   -3622.0091   -6304.0453   -7782.1441     3220.162   -7983.8598   -10136.835    10112.078    82.525636 
   26200    772.64945   -113.24257   0.69910946   -112.54346    8352.4399    4.3397919    4.3397919    4.3397919    8352.4399   -3206.8685    30315.467   -2051.2785    -6812.958    25529.139    -12070.07    81.734744 
   26300    500.12611   -113.00604   0.45252461   -112.55351    1811.1893    4.3503434    4.3503434    4.3503434    1811.1893   -21274.786    18921.639    7786.7144    1933.6706    41726.341   -4425.9316    82.332369 
   26400    1360.1209   -113.76736     1.230666   -112.53669    -391.0127    4.3537558    4.3537558    4.3537558    -391.0127   -1247.6528   -17556.452    17631.066   -5435.6693   -15015.634    8766.8193    82.526266 
   26500    550.68046   -113.04454   0.49826725   -112.54627     5383.106    4.3413738    4.3413738    4.3413738     5383.106   -7289.3676    14804.897    8633.7883   -651.25821    30562.064   -12586.394    81.824157 
   26600    585.04583   -113.08014   0.52936176   -112.55078   -6844.7904     4.347183     4.347183     4.347183   -6844.7904   -27224.276    23267.388   -16577.483   -4531.2857    40101.405   -6500.4629    82.153062 
   26700    1374.8583   -113.77728    1.2440006   -112.53328    3479.9066    4.3516943    4.3516943    4.3516943    3479.9066    17052.314   -4725.3385   -1887.2557     2809.586   -13248.415    344.51404    82.409095 
   26800    734.56299   -113.21018   0.66464803   -112.54554   -18850.717    4.3455142    4.3455142    4.3455142   -18850.717   -22869.474    2032.7016   -35715.379   -3810.7838    39535.657   -2654.8287    82.058492 
   26900    521.87213   -113.02524   0.47220087   -112.55303   -8582.5907    4.3398921    4.3398921    4.3398921   -8582.5907   -3129.3198     16811.42   -39429.873   -6643.2389    38709.092   -12176.537    81.740407 
   27000    1456.8409   -113.86052    1.3181803   -112.54233    415.87566    4.3478725    4.3478725    4.3478725    415.87566    21251.925   -18848.317    -1155.981    7525.7766   -17819.241   -4461.5528    82.192159 
   27100    720.73889   -113.20229   0.65213969   -112.55015   -21852.964    4.3594863    4.3594863    4.3594863   -21852.964   -19707.799   -3848.4935   -42002.598   -3984.0399    37654.205    5969.7427    82.852562 
   27200    412.58446   -112.92602   0.37331509   -112.55271    4508.4485    4.3365897    4.3365897    4.3365897    4508.4485    1813.7406    22468.705     -10757.1   -9169.4128    33287.751   -12743.284    81.553949 
   27300    1369.7097   -113.78184    1.2393421    -112.5425    15115.554    4.3375294    4.3375294    4.3375294    15115.554      31760.1    -7845.866    21432.427    8570.0467   -22214.389   -12549.366    81.606977 
   27400    812.00837   -113.28186   0.73472224   -112.54713   -20257.887    4.3642626    4.3642626    4.3642626   -20257.887   -41079.001    -1944.647   -17750.014    -1044.756    35255.817    5959.5565    83.125186 
   27500    641.10707   -113.12822   0.58008715   -112.54814   -7435.5199    4.3404067    4.3404067    4.3404067   -7435.5199   -17200.612     9914.497   -15020.445   -8448.3039    33040.087   -11162.808    81.769487 
   27600    1114.6837   -113.54964    1.0085892   -112.54105    11660.111    4.3361094    4.3361094    4.3361094    11660.111    24594.227    5035.3932    5350.7117    5122.4616   -12130.414   -17863.052    81.526854 
   27700    995.84313   -113.44317   0.90105979   -112.54211   -23680.171    4.3585549    4.3585549    4.3585549   -23680.171   -33886.419    2353.2291   -39507.324    1048.1651    28708.038    6610.9848    82.799472 
   27800    764.81191   -113.23555   0.69201789   -112.54353    14085.753    4.3347483    4.3347483    4.3347483    14085.753    10301.526    36015.151   -4059.4168   -370.52248     35297.03   -11139.195    81.450109 
   27900    916.33649   -113.37434   0.82912051   -112.54521    7406.7398     4.345642     4.345642     4.345642    7406.7398    18612.041    9139.8644   -5531.6865   -7755.4849   -16043.681    -10340.16    82.065729 
   28000    970.43681    -113.4199   0.87807162   -112.54183   -10037.772    4.3520352    4.3520352    4.3520352   -10037.772   -10414.168   -126.49284   -19572.655    1110.3383    11301.631    7257.0266    82.428463 
   28100    856.01722   -113.31262   0.77454237   -112.53808    28457.725    4.3315789    4.3315789    4.3315789    28457.725    22569.396    43943.615    18860.165    5931.6498    30982.755    397.57742    81.271575 
   28200    762.54052   -113.23788   0.68996269   -112.54791   -16616.334    4.3539325    4.3539325    4.3539325   -16616.334    4571.3788   -35147.101   -19273.281   -14320.046   -14514.801   -15804.539    82.536317 
   28300    798.29705   -113.27037   0.72231595   -112.54806    3638.5609    4.3393782    4.3393782    4.3393782    3638.5609    7248.1355    11958.836   -8291.2886   -1628.2951    258.42355   -4013.6293    81.711372 
   28400    1149.9647    -113.5845    1.0405123   -112.54399    17276.511    4.3360283    4.3360283    4.3360283    17276.511    3336.6573    30920.409    17572.467    627.90069    22351.771    8322.2474    81.522283 
   28500    639.33796   -113.12522   0.57848642   -112.54674   -26425.485    4.3632574    4.3632574    4.3632574   -26425.485   -1325.7984   -42228.655   -35722.003   -14022.547   -6824.2094   -27802.801    83.067759 
   28600    855.12229   -113.31583   0.77373262    -112.5421    11724.771    4.3304325    4.3304325    4.3304325    11724.771    17878.002    10489.684     6806.628    -1918.987    -7504.471    -7830.671    81.207069 
   28700    1219.8367   -113.64505    1.1037339   -112.54131    12726.179    4.3420052    4.3420052    4.3420052    12726.179    254.75571      36708.7    1215.0806   -520.53194    8030.7088    5977.9375    81.859866 
   28800    751.63687   -113.22763   0.68009684   -112.54753   -15381.132    4.3555163    4.3555163    4.3555163   -15381.132    10260.046   -27977.968   -28425.474   -4292.5345    4206.9163   -34684.978    82.626416 
   28900    598.79753   -113.08671   0.54180459   -112.54491    24960.821     4.329467     4.329467     4.329467    24960.821    28535.265    42612.134     3735.064   -14468.928   -16597.135   -9124.0156    81.152762 
   29000    1279.6896   -113.70171    1.1578901   -112.54382   -826.30819    4.3494155    4.3494155    4.3494155   -826.30819   -1365.9838    12943.313   -14056.253   -1487.8505   -5850.9415    7179.8273    82.279697 
   29100    765.52682   -113.24151   0.69266476   -112.54884    1676.1293    4.3479947    4.3479947    4.3479947    1676.1293    19943.135     3173.314   -18088.061    5301.4334    5454.9077   -26402.361    82.199092 
   29200    531.12014    -113.0275   0.48056866   -112.54693    8913.3987    4.3427685    4.3427685    4.3427685    8913.3987    21586.096    9857.2954    -4703.195   -15196.393   -15374.802   -18321.519     81.90304 
   29300    1304.4028   -113.71476     1.180251   -112.53451   -253.44495    4.3522732    4.3522732    4.3522732   -253.44495   -895.09914    7065.8676   -6931.1033    3514.2774   -8350.8568    10016.588    82.441984 
   29400    923.51693   -113.37634   0.83561752   -112.54072    5131.7772    4.3436929    4.3436929    4.3436929    5131.7772    26965.398   -5887.4322   -5682.6344     4617.219    3305.4922     -23989.3    81.955354 
   29500    622.61731   -113.11302   0.56335723   -112.54966   -11685.175    4.3467208    4.3467208    4.3467208   -11685.175   -11737.156   -21332.619   -1985.7494     -11241.5   -12832.297   -17163.789    82.126863 
   29600    1140.0162    -113.5745    1.0315106   -112.54299    3439.1168    4.3434542    4.3434542    4.3434542    3439.1168   -10073.015     15136.64    5253.7254   -3364.7582   -20128.668    9045.2608    81.941846 
   29700    1040.5286    -113.4852   0.94149214   -112.54371   -6002.2237    4.3503469    4.3503469    4.3503469   -6002.2237    9310.8496   -23279.808   -4037.7128      4946.06     4442.304    -27841.68    82.332571 
   29800     553.3743   -113.04763    0.5007047   -112.54693   -13491.109    4.3556239    4.3556239    4.3556239   -13491.109   -22249.804   -25029.845    6806.3225   -13219.804    -5519.032   -17220.215     82.63254 
   29900    1237.5271   -113.65396    1.1197405   -112.53422    15738.676    4.3305749    4.3305749    4.3305749    15738.676   -1348.9898    17931.283    30633.734   -4872.8563   -17047.009    10185.951    81.215077 
   30000    850.04101   -113.31815   0.76913497   -112.54902    7575.2746    4.3436147    4.3436147    4.3436147    7575.2746    18715.764    11610.289   -7600.2293    1305.2379    12055.943   -18943.945    81.950929 
   30100    602.62395   -113.09289   0.54526681   -112.54763   -23772.937    4.3628316    4.3628316    4.3628316   -23772.937   -21568.583   -28562.777   -21187.451   -10245.839    4541.1537    -20439.16    83.043442 
   30200    1314.3413   -113.72261    1.1892436   -112.53337    20261.876    4.3307626    4.3307626    4.3307626    20261.876    14404.037    24932.283    21449.306   -6671.7344   -9858.5564    4060.0494    81.225637 
   30300    890.82639   -113.35319   0.80603844   -112.54715    7451.1068    4.3363565    4.3363565    4.3363565    7451.1068    21127.154    17701.232   -16475.066    3369.5638    9926.6161    -17840.95    81.540793 
   30400    352.42347    -112.8723   0.31888016   -112.55342   -20173.006    4.3595107    4.3595107    4.3595107   -20173.006    -4867.852   -11393.649   -44257.518    507.41963    13957.567   -24570.781    82.853956 
   30500    1320.4121   -113.73422    1.1947367   -112.53948    12181.274    4.3398139    4.3398139    4.3398139    12181.274    5853.9762    25291.459    5398.3874   -2355.7434    688.65418    8988.6963     81.73599 
   30600    983.67025    -113.4349   0.89004551   -112.54486    9883.5274    4.3407156    4.3407156    4.3407156    9883.5274    14082.923    23451.992   -7884.3323    1940.1732    1257.4953   -21622.542    81.786947 
   30700    387.15921   -112.90307   0.35030979   -112.55276   -15974.416    4.3536377    4.3536377    4.3536377   -15974.416    6800.5815   -20466.271   -34257.558    3688.2862    14430.328   -23389.463     82.51955 
   30800    1117.8985   -113.54996    1.0114981   -112.53846    4767.6992    4.3481817    4.3481817    4.3481817    4767.6992    3195.9043    8225.6265    2881.5669   -673.70267    3426.3334    17352.999    82.209696 
   30900    960.98085   -113.40906   0.86951566   -112.53954   -6717.5646    4.3457302    4.3457302    4.3457302   -6717.5646    3713.1388   -11265.828   -12600.004    4575.5464   -13431.036   -21706.936    82.070728 
   31000    574.48038    -113.0678   0.51980192     -112.548    3781.8544    4.3334101    4.3334101    4.3334101    3781.8544    16233.438    2604.0596   -7491.9344    10627.572    13362.274   -21133.301    81.374697 
   31100    1053.3831   -113.50202    0.9531232    -112.5489   -2275.9824    4.3525615    4.3525615    4.3525615   -2275.9824    3123.9752    4930.8985   -14882.821   -1073.8737    2778.0194    13964.489     82.45837 
   31200    964.61038   -113.41335   0.87279974   -112.54055   -26099.911    4.3618104    4.3618104    4.3618104   -26099.911   -25545.824   -12078.493   -40675.417    -1151.877   -26055.907   -10851.098    82.985145 
   31300    705.68171   -113.17412   0.63851565    -112.5356    11878.687    4.3235442    4.3235442    4.3235442    11878.687    22224.787    8747.9394    4663.3358    6753.9816    8324.1249   -22646.433    80.820161 
   31400     1242.991   -113.66729    1.1246843    -112.5426   -4282.3764    4.3443884    4.3443884    4.3443884   -4282.3764   -4449.7674   -2773.8853   -5623.4764   -1888.8282    8127.8064    11613.773    81.994728 
   31500    922.40933   -113.37307   0.83461534   -112.53845   -25490.177    4.3636027    4.3636027    4.3636027   -25490.177   -30610.449    2894.7639   -48754.846   -640.51108   -27869.019    -6216.513    83.087484 
   31600    737.24324   -113.20347   0.66707317   -112.53639     13139.97    4.3306864    4.3306864    4.3306864     13139.97    22216.959    1448.1693    15754.783    2822.1842   -6129.2982   -28051.771    81.221351 
   31700    1294.8584   -113.71029    1.1716151   -112.53868    3646.4097    4.3376457    4.3376457    4.3376457    3646.4097    7145.0623    907.28926    2886.8774     2497.682    12808.735    6687.8539    81.613542 
   31800    944.68875   -113.39969   0.85477424   -112.54491    1093.7337    4.3475443    4.3475443    4.3475443    1093.7337   -16478.129    14929.688    4829.6423    1572.6406    -22956.11   -1676.6102    82.173549 
   31900    541.92188   -113.04214   0.49034231    -112.5518    1286.9286    4.3476399    4.3476399    4.3476399    1286.9286    3727.7117   -1306.1004    1439.1744    3240.6444   -17474.626   -30362.754     82.17897 
   32000    1271.8767   -113.69226    1.1508208   -112.54143   -2332.2549     4.345767     4.345767     4.345767   -2332.2549    1822.5172    -7274.845    -1544.437        11517    13168.274    3088.2231     82.07281 
   32100    1067.5972    -113.5068    0.9659844   -112.54082    14295.873    4.3324299    4.3324299    4.3324299    14295.873   -2048.1228    26386.729    18549.012   -3137.8116   -21155.783   -112.53572    81.319485 
   32200    436.28315   -112.95086   0.39475816    -112.5561   -18286.123     4.348627     4.348627     4.348627   -18286.123   -7814.8394    2056.2733   -49099.802    3043.2984   -20925.745   -34564.561    82.234959 
   32300    1081.2474   -113.52467   0.97833541   -112.54634   -1638.8238    4.3453125    4.3453125    4.3453125   -1638.8238    5588.1349   -4534.9686   -5969.6378    12869.281    10081.687   -5637.8351    82.047064 
   32400    1357.7064   -113.76997    1.2284813   -112.54149    6116.6304    4.3339884    4.3339884    4.3339884    6116.6304   -3483.4036     25037.55   -3204.2554    -2770.514   -13359.046    3389.9515    81.407278 
   32500     320.1359   -112.85154   0.28966569   -112.56187   -8858.6425    4.3427216    4.3427216    4.3427216   -8858.6425   -6245.5124     25328.95   -45659.366   -4793.4839   -23482.126   -34999.074    81.900392 
   32600    996.25951   -113.45838   0.90143654   -112.55695   -6736.1525    4.3446519    4.3446519    4.3446519   -6736.1525    9145.2494   -20193.081   -9160.6254    3700.1461    1831.9686   -17075.207    82.009652 
   32700    1363.0675   -113.77827    1.2333321   -112.54494    8277.3659    4.3453957    4.3453957    4.3453957    8277.3659   -2389.5491    28369.131   -1147.4844    3671.0213   -760.83633    16187.132    82.051777 
   32800    519.38174   -113.02681   0.46994752   -112.55686   -2593.4787    4.3383973    4.3383973    4.3383973   -2593.4787    12479.783   -3397.3203   -16862.899   -3363.0891   -24750.785   -35102.038    81.655973 
   32900    661.35199   -113.15569   0.59840518   -112.55728     6362.605    4.3439404    4.3439404    4.3439404     6362.605    11260.039   -21670.917    29498.694    1836.6024   -6875.9299   -19469.326    81.969365 
   33000    1587.5515   -113.97628      1.43645   -112.53983   -1440.1712    4.3465553    4.3465553    4.3465553   -1440.1712   -10298.916    8248.2934   -2269.8909    2250.8024    9423.1687     14235.37    82.117481 
   33100    449.02605   -112.96168    0.4062882   -112.55539    10760.184    4.3355009    4.3355009    4.3355009    10760.184    14576.345   -11555.323    29259.531   -5534.2461   -12377.912   -25801.029    81.492536 
   33200     663.4662   -113.16046   0.60031816   -112.56014   -17629.013    4.3448828    4.3448828    4.3448828   -17629.013   -11084.267   -21967.157   -19835.615   -2127.5459   -20449.739   -30474.054    82.022728 
   33300    1367.7543   -113.78218    1.2375728   -112.54461    5265.0268    4.3410392    4.3410392    4.3410392    5265.0268   -1168.5037    6044.7962    10918.788    3632.5365    6933.1441    18478.755    81.805243 
   33400     714.1624    -113.2016   0.64618914   -112.55541   -11267.281    4.3424845    4.3424845    4.3424845   -11267.281    9016.8441   -18112.799    -24705.89   -2639.8692    1511.8124   -15336.279    81.886977 
   33500    524.05161   -113.02938   0.47417291   -112.55521    -17754.47    4.3461938    4.3461938    4.3461938    -17754.47   -5644.9623   -6291.1252   -41327.322   -11596.465   -21349.585    -34860.73    82.096995 
   33600    1284.7491   -113.70174     1.162468   -112.53927    4666.0842    4.3387048    4.3387048    4.3387048    4666.0842     3999.978    9631.5832    366.69146   -1825.2902    4407.1999    16849.343    81.673336 
   33700    664.52019   -113.14969   0.60127183   -112.54842   -10882.369    4.3480609    4.3480609    4.3480609   -10882.369   -2367.3907    2476.6166   -32756.332    2773.1617    8765.9032   -12386.329    82.202847 
   33800    625.27138   -113.11384   0.56575868   -112.54808   -10238.233    4.3419866    4.3419866    4.3419866   -10238.233   -3982.3803    5991.8501   -32724.168   -4191.7683   -11570.254    -37167.35    81.858811 
   33900    1206.1078   -113.63053    1.0913117   -112.53922    8838.5637    4.3402909    4.3402909    4.3402909    8838.5637   -4863.9003    19356.033    12023.559   -4859.0935    2131.9972    15406.852    81.762942 
   34000    767.15301   -113.24209   0.69413616   -112.54796   -9519.6622     4.346592     4.346592     4.346592   -9519.6622    1220.4741    6306.0339   -36085.495    2770.3613    11929.886   -11959.396    82.119563 
   34100    605.59315   -113.09828    0.5479534   -112.55033    3228.8848    4.3395957    4.3395957    4.3395957    3228.8848    8493.3367    28431.002   -27237.685   -4638.8995   -2382.2101    -38444.99    81.723663 
   34200    1305.9705   -113.72269    1.1816696   -112.54102   -2102.4053    4.3465871    4.3465871    4.3465871   -2102.4053   -22953.254    7598.6754    9047.3625   -9560.4516   -1587.1954    12425.892    82.119288 
   34300    734.42041   -113.21225   0.66451902   -112.54773    1465.2563    4.3408226    4.3408226    4.3408226    1465.2563    1261.3654    33230.944    -30096.54    3098.5371    11220.993   -17103.378    81.792997 
   34400    580.31534   -113.07985   0.52508151   -112.55476   -7250.7267    4.3436067    4.3436067    4.3436067   -7250.7267    8433.1777   -1454.6084   -28730.749    1563.8488    3299.9918   -33152.286    81.950474 
   34500    1413.4127   -113.81742    1.2788855   -112.53854     781.8339    4.3482867    4.3482867    4.3482867     781.8339   -15480.896    16879.264    947.13299   -5749.9311   -3348.1161    9588.2299    82.215652 
   34600    882.74181   -113.34795   0.79872334   -112.54923    6248.1646    4.3341201    4.3341201    4.3341201    6248.1646    18697.056    18217.419   -18169.981    1146.2201    9863.9032   -19130.939    81.414702 
   34700    407.38065   -112.92699   0.36860657   -112.55838   -11452.579    4.3469844    4.3469844    4.3469844   -11452.579    11407.128   -20899.016   -24865.849    1428.5247    8570.3185   -27791.867    82.141806 
   34800    1517.4527    -113.9119    1.3730231   -112.53888   -6197.9578    4.3497321    4.3497321    4.3497321   -6197.9578   -8920.5795    2271.2907   -11944.585    7056.0002   -3365.5979    11304.993    82.297666 
   34900    834.40831   -113.30297   0.75499017   -112.54798    12649.146     4.335103     4.335103     4.335103    12649.146    28536.365    7612.9635      1798.11    1957.3553    -1080.132   -17816.185    81.470105 
   35000    468.44285   -112.97739   0.42385694   -112.55354   -10644.678    4.3483612    4.3483612    4.3483612   -10644.678    11744.683   -15716.789   -27961.928    1624.0852    11346.087   -32714.099    82.219879 
   35100    1407.8042   -113.80852    1.2738108   -112.53471     2401.163    4.3504393    4.3504393    4.3504393     2401.163   -6874.5035    19987.918   -5909.9251     3077.982    929.87795    17288.181    82.337813 
   35200    828.31556   -113.29299   0.74947733   -112.54351    4257.3288    4.3388296    4.3388296    4.3388296    4257.3288    21818.794   -9160.6518    113.84371    2344.7715   -3031.6105   -23090.135    81.680388 
   35300    460.40064   -112.96998   0.41658017    -112.5534   -17344.692    4.3422836    4.3422836    4.3422836   -17344.692    4013.7624   -9538.5546   -46509.283    3646.1067    11410.382   -41921.426    81.875609 
   35400    1323.3759   -113.73826    1.1974183   -112.54084    1221.4945    4.3463609    4.3463609    4.3463609    1221.4945   -19751.442    13750.741    9665.1844    10491.128    5461.7393    17395.701    82.106463 
   35500    890.25292   -113.35118   0.80551955   -112.54566   -13422.349    4.3503911    4.3503911    4.3503911   -13422.349   -5516.3573   -24447.569   -10303.121    3975.6845   -4058.2684   -29052.571    82.335081 
   35600    397.94869   -112.91343   0.36007234   -112.55336    1967.1711    4.3343501    4.3343501    4.3343501    1967.1711    14200.526    9396.1077    -17695.12   -2356.5161    8097.8083    -38621.07     81.42766 
   35700    1259.2491   -113.68479     1.139395    -112.5454    6045.8924    4.3482055    4.3482055    4.3482055    6045.8924    -29029.55    6648.8211    40518.406    4709.7565    11069.448    10039.096     82.21105 
   35800     873.1945   -113.33544   0.79008474   -112.54536   -12343.141    4.3584292    4.3584292    4.3584292   -12343.141   -6638.2968   -25284.855   -5106.2722   -1448.9826    -3974.561   -27633.673    82.792309 
   35900    424.70959   -112.92709   0.38428616   -112.54281    21809.307    4.3306543    4.3306543    4.3306543    21809.307     18869.97    37931.112    8626.8395   -1084.1296    7381.8321   -32990.082    81.219548 
   36000    1387.0286   -113.79008    1.2550126   -112.53507   -1858.6653    4.3465609    4.3465609    4.3465609   -1858.6653   -28832.107    18465.019    4791.0916    2731.8564    13205.593    7869.9627    82.117801 
   36100    923.43106   -113.37901   0.83553983   -112.54347    -636.7962    4.3473944    4.3473944    4.3473944    -636.7962    7052.1149    15659.072   -24621.576   -1441.6168   -3393.4565   -23409.356    82.165052 
   36200      530.384   -113.02986   0.47990259   -112.54996   -164.60163    4.3416162    4.3416162    4.3416162   -164.60163    17457.216    8501.6784   -26452.699   -1499.5045    1233.5756   -26551.887    81.837862 
   36300    1257.1274   -113.67728    1.1374753    -112.5398   -6902.4278    4.3471227    4.3471227    4.3471227   -6902.4278   -30993.815    21004.567   -10718.035   -873.76836    7723.5298    17446.039    82.149644 
   36400    1016.3896   -113.46392   0.91965066   -112.54427    4697.2144    4.3354909    4.3354909    4.3354909    4697.2144    12397.647    4567.7936   -2873.7979    1176.8373    2040.4325   -25743.422    81.491973 
   36500    458.79314   -112.96943   0.41512568    -112.5543   -6986.9217    4.3477807    4.3477807    4.3477807   -6986.9217     25671.66   -25856.072   -20776.353    709.33206   -2887.1662   -29044.679    82.186957 
   36600    1286.1299   -113.70434    1.1637173   -112.54062   -3843.9312    4.3454041    4.3454041    4.3454041   -3843.9312   -19835.532    14888.473    -6584.735   -4043.1573   -928.23385     20484.57    82.052255 
   36700    781.25494   -113.25115   0.70689589   -112.54425     16340.69    4.3332201    4.3332201    4.3332201     16340.69    13536.762    5504.6667    29980.641    5763.9277    4631.8295    -36925.18    81.363992 
   36800    570.12297   -113.06772   0.51585925   -112.55186     -217.151    4.3475564    4.3475564    4.3475564     -217.151    20133.858    5039.9765   -25825.287    988.00914   -4141.4929   -39545.063    82.174233 
   36900    1137.7887   -113.56598    1.0294952   -112.53648    9100.5256    4.3498846    4.3498846    4.3498846    9100.5256   -8327.5399    32321.782    3307.3345   -2670.4049    781.37415    22952.145    82.306326 
   37000    694.71778   -113.17124   0.62859525   -112.54265    14684.418      4.33342      4.33342      4.33342    14684.418    10943.257    15320.831    17789.167     11103.76    4677.7222   -39984.211     81.37525 
   37100    720.67453   -113.20333   0.65208146   -112.55125   -1655.3255    4.3430459    4.3430459    4.3430459   -1655.3255    14364.248   -1608.1159   -17722.108    5038.4434   -3035.9977   -39630.939    81.918739 
   37200    1318.8484    -113.7306    1.1933217   -112.53727    881.24831    4.3515092    4.3515092    4.3515092    881.24831    -8176.448   -397.88701     11218.08    369.82213   -781.40881     24314.67    82.398578 
   37300    753.57877    -113.2286   0.68185391   -112.54675   -155.62822    4.3409146    4.3409146    4.3409146   -155.62822     10613.17   -9812.5654    -1267.489    7542.2219   -712.24393   -28024.023    81.798196 
   37400    787.35239   -113.26249   0.71241299   -112.55007   -7901.9525    4.3443757    4.3443757    4.3443757   -7901.9525    6710.0975   -16397.907   -14018.048    3527.0357   -857.77332   -36415.129    81.994009 
   37500    1512.4543   -113.90748    1.3685005   -112.53898    2960.8755    4.3450396    4.3450396    4.3450396    2960.8755   -2020.7609    1322.8861    9580.5012   -549.66098    3242.9137    20181.991    82.031605 
   37600    651.73121   -113.14202    0.5897001   -112.55232    6621.4066    4.3435107    4.3435107    4.3435107    6621.4066     27161.79    7457.3102    -14754.88    1749.0887   -1941.3681   -30290.442    81.945042 
   37700    813.57166   -113.28627   0.73613674   -112.55013   -10778.124    4.3496909    4.3496909    4.3496909   -10778.124    593.14698   -33119.654    192.13428    9953.3014    1672.2627   -33381.124     82.29533 
   37800    1402.8817   -113.80679    1.2693568   -112.53743    17187.362    4.3395126    4.3395126    4.3395126    17187.362    412.73998     17798.86    33350.487    449.89138    1731.7127     15134.06    81.718966 
   37900    632.39863   -113.12048   0.57220757   -112.54827    14425.619    4.3401031    4.3401031    4.3401031    14425.619     35915.02   -22589.343     29951.18   -7273.3161    -1939.258   -48588.729     81.75233 
   38000     727.2616   -113.20518   0.65804158   -112.54714   -9107.9181     4.356629     4.356629     4.356629   -9107.9181    934.49188   -35488.523    7230.2763    5092.4882   -41.535189    -26379.47    82.689761 
   38100    1310.0291   -113.72301    1.1853418   -112.53767    20905.939     4.331108     4.331108     4.331108    20905.939    10815.963    17943.175    33958.679    1484.0871    2605.2444    15939.165    81.245077 
   38200     615.5923   -113.10969   0.55700085   -112.55269    18405.331    4.3348025    4.3348025    4.3348025    18405.331    40447.782   -3442.9793    18211.189   -6972.2207    817.44299   -48519.741    81.453163 
   38300    943.04045   -113.39029   0.85328282   -112.53701   -27690.959    4.3648928    4.3648928    4.3648928   -27690.959   -4406.0772   -35193.712   -43473.088    3285.3682   -1336.1396   -22386.198    83.161202 
   38400    1040.8533   -113.47609   0.94178591    -112.5343    24719.829    4.3273839    4.3273839    4.3273839    24719.829    19839.573    41200.247    13119.668    265.85255     5243.772      21858.7    81.035681 
   38500    700.86855   -113.18236   0.63416059    -112.5482   -1109.1341    4.3346374    4.3346374    4.3346374   -1109.1341      26566.9   -10416.973   -19477.329   -6694.4294    8312.2847   -41745.169    81.443854 
   38600    939.34816    -113.3854   0.84994196   -112.53546   -18815.703    4.3600014    4.3600014    4.3600014   -18815.703   -1919.3942   -16152.263   -38375.451   -95.083846   -7620.2271   -20548.565    82.881936 
   38700    1074.7206   -113.50377   0.97242983   -112.53134    11367.341    4.3342056    4.3342056    4.3342056    11367.341    14080.048    13509.909    6512.0666    3796.7306    837.55841    20590.084    81.419515 
   38800     665.5734   -113.14452    0.6022248    -112.5423    -11034.32     4.341492     4.341492     4.341492    -11034.32    15535.657   -16494.642   -32143.975   -1893.2327    14212.634   -35773.351    81.830839 
   38900    1049.9813   -113.48808   0.95004519   -112.53804   -9949.8824    4.3468319    4.3468319    4.3468319   -9949.8824    8873.8926   -9884.7535   -28838.786   -4118.8435   -9301.2245   -17948.684    82.133159 
   39000    988.97068    -113.4328   0.89484145   -112.53796    12427.569    4.3371713    4.3371713    4.3371713    12427.569    14497.777    19874.232    2910.6984    12238.471   -5954.2721        15208    81.586768 
   39100    757.57916   -113.23067   0.68547355    -112.5452   -10572.081    4.3471081    4.3471081    4.3471081   -10572.081     3250.432   -6885.1468   -28081.527    1627.8907    14494.186   -24516.748    82.148819 
   39200    1011.8358   -113.45428   0.91553031   -112.53875    911.72718    4.3425265    4.3425265    4.3425265    911.72718    15580.179    7005.4394   -19850.436   -1465.0858   -7340.5929   -23280.732    81.889352 
   39300    904.84294   -113.35907   0.81872091   -112.54035    6262.6547     4.339484     4.339484     4.339484    6262.6547   -1662.0798    16941.026    3509.0179    16698.106   -15324.351    10730.507    81.717349 
   39400     809.2872   -113.27531   0.73226006   -112.54305   -8183.7675    4.3506713    4.3506713    4.3506713   -8183.7675    -5335.099   -1520.9497   -17695.254    1716.3119    10925.727   -18471.247    82.350989 
   39500    1078.8461    -113.5147   0.97616266   -112.53853    10673.713    4.3368985    4.3368985    4.3368985    10673.713    33866.745   -1841.1906   -4.4145129   -1095.1188   -2395.8004   -24592.327    81.571372 
   39600    740.35282   -113.21553   0.66988679   -112.54564    12430.844    4.3372342    4.3372342    4.3372342    12430.844   -7530.2098    23986.397    20836.345    9043.3778   -25753.063    11812.858    81.590319 
   39700    835.24429   -113.29939   0.75574658   -112.54364   -7828.9633    4.3539515    4.3539515    4.3539515   -7828.9633   -19613.369   -5183.5933    1310.0726    7972.0668    3559.4339    -14579.85    82.537396 
   39800    1142.1284   -113.56739    1.0334218   -112.53396    17617.516    4.3399136    4.3399136    4.3399136    17617.516    26823.322    2795.5958    23233.628   -1940.2205   -201.50977   -15740.698    81.741623 
   39900    626.29102   -113.11285   0.56668127   -112.54617    -5040.928    4.3410643    4.3410643    4.3410643    -5040.928   -38966.531    10566.902    13276.845    11451.216   -25358.557    1594.5578    81.806658 
   40000    789.69141   -113.26026   0.71452939   -112.54573   -8132.0917    4.3467906    4.3467906    4.3467906   -8132.0917   -23784.701   -2365.6796    1754.1061    15724.585   -6280.4051    1632.6036    82.130822 
   40100     1367.526   -113.77322    1.2373663   -112.53586    4848.4168    4.3441848    4.3441848    4.3441848    4848.4168    8736.1748    4244.0812    1564.9945     -7424.37    1042.4261   -7507.3669      81.9832 
   40200    531.60947   -113.02937   0.48101142   -112.54836   -21068.206    4.3497418    4.3497418    4.3497418   -21068.206   -38684.225   -3586.3627   -20934.031    2255.4684   -33395.993   -4342.4336    82.298219 
   40300    802.84864   -113.27107   0.72643432   -112.54463    6093.7649    4.3333773    4.3333773    4.3333773    6093.7649    6881.1532    4534.9107    6865.2307    13706.299   -7633.6688    10350.304    81.372846 
   40400    1334.5737   -113.74758    1.2075503   -112.54003   -3044.6602    4.3498926    4.3498926    4.3498926   -3044.6602    21623.397   -13674.397   -17082.981   -3049.9891     8250.907   -2677.8904     82.30678 
   40500     602.0276   -113.09863   0.54472722    -112.5539   -13291.793    4.3455717    4.3455717    4.3455717   -13291.793   -30802.439    6966.1627   -16039.103   -6272.8233   -24156.596    -4547.067    82.061745 
   40600    730.43231   -113.20598   0.66091051   -112.54507    22461.791    4.3257913    4.3257913    4.3257913    22461.791     20486.54    19878.007    27020.826    3529.4531   -7938.9819    11492.077    80.946244 
   40700    1295.3506   -113.70975    1.1720605   -112.53769   -15562.579    4.3586639    4.3586639    4.3586639   -15562.579     723.1842   -31187.833   -16223.089   -935.16333     8552.872     6188.649    82.805681 
   40800    573.45723   -113.06835   0.51887615   -112.54948    4258.6497    4.3402313    4.3402313    4.3402313    4258.6497    -28946.77    16218.101    25504.618   -8499.2914   -17889.957   -2734.4455    81.759572 
   40900    821.54235   -113.28573   0.74334878   -112.54238     17150.64    4.3297541    4.3297541    4.3297541     17150.64   -4503.7283    17605.431    38350.218    2177.0932   -14841.223    2176.2872    81.168906 
   41000    1393.4207   -113.79243    1.2607963   -112.53163    -10326.33    4.3553288    4.3553288    4.3553288    -10326.33   -18280.608    -22079.53    9381.1477   -343.63153    9721.5007    5787.6252    82.615747 
   41100    461.66573   -112.96614   0.41772485   -112.54842    12759.714    4.3344067    4.3344067    4.3344067    12759.714   -30125.508    19560.502    48844.148   -8437.6507   -10228.168   -2931.4567    81.430854 
   41200    717.77428   -113.20307   0.64945725   -112.55361    6921.1183    4.3373924    4.3373924    4.3373924    6921.1183   -11516.472    23360.716    8919.1103   -5872.8092   -17101.523   -4375.8096    81.599245 
   41300    1519.5323   -113.91217    1.3749048   -112.53727    6372.9219    4.3454536    4.3454536    4.3454536    6372.9219   -9367.7997   -4593.4678    33080.033   -609.87643     6771.568    6425.8963    82.055057 
   41400    481.69321   -112.99249   0.43584614   -112.55664   -204.18327    4.3385556    4.3385556    4.3385556   -204.18327   -20512.166    8982.2304    10917.385   -4228.0269   -11632.825   -1078.9526    81.664912 
   41500     533.9522   -113.04162   0.48313117   -112.55849   -7406.9088    4.3460187    4.3460187    4.3460187   -7406.9088   -11565.012    15130.497   -25786.212   -7400.8463   -13288.531   -4800.2469    82.087073 
   41600    1491.0164   -113.88539     1.349103   -112.53629    14019.583    4.3393436    4.3393436    4.3393436    14019.583    23553.872   -6587.5484    25092.425    3745.2123     8240.958    7951.8291     81.70942 
   41700    544.26689   -113.04418   0.49246412   -112.55172    -7876.712    4.3455979    4.3455979    4.3455979    -7876.712   -15782.429   -8866.8481    1019.1411   -4484.4114   -12935.551   -2010.1517    82.063232 
   41800    788.07809   -113.26294   0.71306962   -112.54987   -9688.5944    4.3414444    4.3414444    4.3414444   -9688.5944   -29769.653    8689.7229   -7985.8532   -10359.552   -20865.127   -998.21852    81.828148 
   41900     1449.243   -113.84861    1.3113055   -112.53731    17451.723    4.3340578    4.3340578    4.3340578    17451.723    22593.163   -1502.3674    31264.374    1922.1217    5213.3577       7503.4    81.411186 
   42000    634.82171   -113.12729   0.57440002   -112.55289   -25190.855     4.353185     4.353185     4.353185   -25190.855   -34145.043   -26265.292   -15162.229    2989.7148   -12065.246    4030.9143    82.493811 
   42100    871.05376   -113.33638   0.78814775   -112.54824    -5733.646    4.3411201    4.3411201    4.3411201    -5733.646   -16432.116    1919.2181   -2688.0406   -5734.9235   -22114.203    2450.3038    81.809814 
   42200    1430.9061   -113.82931    1.2947139   -112.53459    5085.3486    4.3431137    4.3431137    4.3431137    5085.3486    20657.391   -18453.314    13051.969    5548.0624    8418.5216   -2071.5864    81.922577 
   42300    554.14991   -113.04693   0.50140648   -112.54553   -27082.802    4.3517942    4.3517942    4.3517942   -27082.802   -25302.273    -36529.81   -19416.324    10004.828   -16017.615    8546.5208    82.414768 
   42400    759.59227   -113.23228   0.68729505   -112.54499    8646.9015    4.3295266    4.3295266    4.3295266    8646.9015     8633.572    15237.466    2069.6662   -10508.211    -25329.33    3089.0356    81.156112 
   42500    1281.1571   -113.69926    1.1592179   -112.54004    5358.6984     4.342835     4.342835     4.342835    5358.6984    31302.031   -16141.462    915.52597    6929.8778    11941.887   -15181.135    81.906806 
   42600    564.57095   -113.05825   0.51083566   -112.54741   -19353.445    4.3532224    4.3532224    4.3532224   -19353.445   -13316.999   -30367.547   -14375.789    18169.469    -8043.433    4779.1655    82.495936 
   42700    804.78751   -113.27031   0.72818865   -112.54212    2107.4861    4.3353079    4.3353079    4.3353079    2107.4861   -13472.638    7423.5293    12371.567   -1275.7286   -19878.145   -184.81465    81.481657 
   42800    1207.7003   -113.62813    1.0927526   -112.53538   -2953.2398    4.3423394    4.3423394    4.3423394   -2953.2398    7081.4716   -11991.718   -3949.4727    2159.6266    5647.7311   -17789.789    81.878768 
   42900    608.64823   -113.09576   0.55071771   -112.54504   -7505.0743    4.3447352    4.3447352    4.3447352   -7505.0743   -14409.017   -10994.932    2888.7258    14751.703   -2163.7653   -1379.4802    82.014366 
   43000    878.78606   -113.33592   0.79514409   -112.54078     -851.968    4.3433431    4.3433431    4.3433431     -851.968    -27064.89     16372.96    8136.0254    5968.2349   -19717.392    319.13542    81.935559 
   43100    1088.5532    -113.5205   0.98494581   -112.53556   -12460.844    4.3459378    4.3459378    4.3459378   -12460.844    1412.4995   -17283.227   -21511.806   -3296.3972    3091.7208   -20133.871    82.082489 
   43200    505.07943   -113.00162   0.45700648   -112.54462    3945.6063    4.3334738    4.3334738    4.3334738    3945.6063   -8502.8949    9818.7579    10520.956    13361.987    5613.7091   -9166.2838    81.378284 
   43300    995.34683   -113.44545   0.90061073   -112.54484     858.0665    4.3433755    4.3433755    4.3433755     858.0665   -9877.4466    13355.215   -903.56856    8553.0138   -20782.375    9521.7641    81.937392 
   43400    993.08854   -113.43849   0.89856738   -112.53992   -938.19718    4.3485411    4.3485411    4.3485411   -938.19718    14883.125    6688.4064   -24386.123    -12019.96    4825.5783   -19955.539    82.230087 
   43500    510.44703   -113.00674    0.4618632   -112.54488    4139.7958    4.3380246    4.3380246    4.3380246    4139.7958    1074.2724    17988.812   -6643.6973    1287.4493    12097.198   -16571.973     81.63493 
   43600    1186.6425   -113.61264    1.0736991   -112.53894    2414.8902    4.3413451    4.3413451    4.3413451    2414.8902   -6406.7251    10392.637    3258.7584    8786.1578   -10601.914    11224.356    81.822534 
   43700    1034.3522    -113.4786   0.93590359   -112.54269    5271.8128    4.3375692    4.3375692    4.3375692    5271.8128    30541.012   -398.12723   -14327.446   -5243.6682     3934.908   -22955.809    81.609225 
   43800    424.71025   -112.93897   0.38428676   -112.55469   -7168.9365    4.3434013    4.3434013    4.3434013   -7168.9365     7303.946   -9196.8097   -19613.946   -6332.8323    10899.823   -10940.599     81.93885 
   43900    1408.6726   -113.81206    1.2745966   -112.53747    -7077.816    4.3480589    4.3480589    4.3480589    -7077.816    -12678.48    6200.0109   -14754.979    8238.2606    3949.5815    7061.3959    82.202731 
   44000    989.95912   -113.44116   0.89573582   -112.54543    10490.576    4.3317079    4.3317079    4.3317079    10490.576     29282.75    9101.3597    -6912.381   -1354.8893   -2037.7697   -19378.674     81.27884 
   44100    369.78898   -112.89383   0.33459284   -112.55924   -7759.0677    4.3397014    4.3397014    4.3397014   -7759.0677   -2224.0014     6618.482   -27671.684   -11067.303    13527.754   -17135.089    81.729633 
   44200    1308.0501   -113.72773    1.1835512   -112.54418   -5255.2106    4.3492654    4.3492654    4.3492654   -5255.2106   -18593.872    18676.702   -15848.462    5891.8871     11242.37    8477.6818    82.271181 
   44300     1008.826   -113.45858   0.91280695   -112.54577    9758.5121    4.3332837    4.3332837    4.3332837    9758.5121    21425.932    14492.715   -6643.1104    141.00575   -15156.419   -15237.193    81.367577 
   44400     428.6034   -112.94104   0.38780936   -112.55323   -11344.821    4.3437833    4.3437833    4.3437833   -11344.821    954.93685   -5079.7733   -29909.628   -5961.1595    12099.764    -20740.49    81.960471 
   44500     1339.768   -113.74932    1.2122502   -112.53707   -2242.1273    4.3427691    4.3427691    4.3427691   -2242.1273   -9483.1025    6150.2414   -3393.5209   -3431.4996    5075.7876    13919.328    81.903075 
   44600     858.1186   -113.31932   0.77644374   -112.54288   -494.53296    4.3380638    4.3380638    4.3380638   -494.53296   -1469.3911    10739.203   -10753.411     5088.209   -24465.709   -14418.591    81.637142 
   44700    564.06246   -113.05913   0.51037557   -112.54876   -18554.012    4.3466354    4.3466354    4.3466354   -18554.012   -220.58898   -24328.013   -31113.434    1218.6901    6255.5413   -22056.262    82.122021 
   44800    1353.7329   -113.76173    1.2248859   -112.53684    9197.0594    4.3338416    4.3338416    4.3338416    9197.0594    1579.9885    20933.265     5077.925    -8080.692   -125.02598    2193.1119    81.399008 
   44900    723.13268   -113.20383   0.65430564   -112.54952    1297.9841    4.3398409    4.3398409    4.3398409    1297.9841   -11754.121    14746.898    901.17562    12451.566   -21171.363   -3595.4381    81.737514 
   45000    617.86991   -113.10727   0.55906168   -112.54821   -17976.365    4.3512548    4.3512548    4.3512548   -17976.365   -6093.9592   -12905.478   -34929.656   -1983.5422    -2925.261   -20346.175    82.384125 
   45100    1307.7881   -113.71644    1.1833142   -112.53312     14112.75     4.338912     4.338912     4.338912     14112.75    531.60374    26364.608    15442.037   -9698.4028    2677.8908   -4283.7255    81.685041 
   45200    747.03784   -113.22152   0.67593554   -112.54558   -77.172251    4.3376291    4.3376291    4.3376291   -77.172251   -15205.105    20736.209   -5762.6214    13361.283   -19952.424    1163.4001    81.612603 
   45300    529.70649   -113.03045   0.47928956   -112.55116   -9620.1653    4.3449204    4.3449204    4.3449204   -9620.1653   -3063.2004   -3004.8591   -22792.436    1912.4094   -10088.727   -33269.237    82.024858 
   45400    1338.5715    -113.7482    1.2111676   -112.53703     2736.208    4.3449587    4.3449587    4.3449587     2736.208   -6365.6265    10821.901    3752.3497   -3008.6183    11062.277   -8214.7479    82.027023 
   45500     691.6477   -113.17026   0.62581737   -112.54444    1781.3953    4.3421521    4.3421521    4.3421521    1781.3953   -17014.707    7272.2695    15086.623    7202.1846   -17182.186    6696.7008    81.868174 
   45600    656.47231   -113.14101   0.59398994   -112.54702   -2415.0153    4.3379196    4.3379196    4.3379196   -2415.0153    3180.6501   -5563.2022   -4862.4939    4485.7594   -8059.0045   -19344.078    81.629003 
   45700    1285.4647   -113.70045    1.1631155   -112.53734    10496.039    4.3390026    4.3390026    4.3390026    10496.039    3197.1786    5292.2824    22998.655   -1155.3561    7122.5343   -9347.7349    81.690158 
   45800    680.77662    -113.1642   0.61598099   -112.54822   -9040.5874    4.3470164    4.3470164    4.3470164   -9040.5874    -30124.29   -714.75832     3717.286   -657.53188   -12021.524    10794.413     82.14362 
   45900    744.49896   -113.21932    0.6736383   -112.54569    4847.9721    4.3415815    4.3415815    4.3415815    4847.9721   -5345.7594     4822.029    15067.647    4047.0997   -13141.725    2991.1754    81.835905 
   46000    1443.1759   -113.83797    1.3058158   -112.53216    2165.3304    4.3405409    4.3405409    4.3405409    2165.3304   -5463.9781    3940.8642    8019.1051   -6509.4397    5315.7801   -10863.981    81.777075 
   46100    477.74643   -112.98175   0.43227501   -112.54947    -18437.59    4.3448052    4.3448052    4.3448052    -18437.59   -37019.612   -4447.8801   -13845.278   -6510.4315   -2617.3864    9732.7162    82.018331 
   46200    926.35262   -113.38445   0.83818332   -112.54626    2693.1982    4.3383593    4.3383593    4.3383593    2693.1982   -3474.7176    12390.036   -835.72417    6447.8498   -20810.322    11711.983    81.653827 
   46300    1367.1368   -113.77422    1.2370141   -112.53721   -3641.6734    4.3485599    4.3485599    4.3485599   -3641.6734   -18252.976   -12242.705    19570.661   -9462.8911    8817.8416   -5752.8082    82.231153 
   46400    519.87855   -113.02242   0.47039704   -112.55203   -1230.2314    4.3385006    4.3385006    4.3385006   -1230.2314   -34848.825    6162.1714     24995.96   -5826.6068   -2023.5107    2603.5196    81.661806 
   46500    827.64343   -113.29813   0.74886916   -112.54926    8932.9247    4.3388507    4.3388507    4.3388507    8932.9247    -6315.732    14678.074    18436.432    4632.3398   -14667.627    5651.4519     81.68158 
   46600    1096.1132   -113.53141   0.99178627   -112.53962   -5559.4564    4.3523818    4.3523818    4.3523818   -5559.4564   -25279.807   -20543.413    29144.851    -12672.94     8762.248   -635.96377    82.448156 
   46700     524.8582   -113.02072   0.47490273   -112.54582    3818.0932    4.3369342    4.3369342    4.3369342    3818.0932   -27689.118    2302.1388    36841.259   -9335.0098   -352.48326   -9472.5296    81.573388 
   46800    1047.7812     -113.492   0.94805444   -112.54394      584.263    4.3417481    4.3417481    4.3417481      584.263    -14102.61     22934.07   -7078.6708    4116.6805   -7072.2982    2289.2305    81.845323 
   46900    1115.2622   -113.54856    1.0091126   -112.53944   -4806.0693    4.3497865    4.3497865    4.3497865   -4806.0693   -21532.909    -10152.75    17267.451   -12456.288   -1014.5146    2445.3141    82.300758 
   47000    463.38714     -112.968   0.41928242   -112.54872   -1490.3271    4.3401595    4.3401595    4.3401595   -1490.3271   -14862.979    -2925.887    13317.885   -9865.8795    6229.6752   -8502.4136    81.755519 
   47100    1123.6971   -113.56022    1.0167448   -112.54348   -3690.7682    4.3484098    4.3484098    4.3484098   -3690.7682   -9824.8042    15182.601   -16430.101    7187.3856   -7597.5775   -6636.1843    82.222636 
   47200    1181.1034   -113.60875    1.0686872   -112.54006   -2424.6545    4.3448757    4.3448757    4.3448757   -2424.6545   -10150.517   -12255.985    15132.539   -18844.204    1108.4417    1348.0124    82.022325 
   47300    516.24239   -113.01605   0.46710696   -112.54894    11431.314    4.3330543    4.3330543    4.3330543    11431.314    1665.2152    3193.0164     29435.71    -8860.309    3902.5807    3654.2286    81.354653 
   47400     1084.133   -113.52547   0.98094635   -112.54452   -7019.8838    4.3542968    4.3542968    4.3542968   -7019.8838   -6869.2825    -9145.162    -5045.207    15235.823   -8640.3523   -5331.1756    82.557036 
   47500      1029.07   -113.47151   0.93112418   -112.54039   -2470.1561    4.3475753    4.3475753    4.3475753   -2470.1561    4202.6381   -22831.467     11218.36   -19593.875     5082.822    175.86884     82.17531 
   47600    499.72964   -112.99614   0.45216588   -112.54397    12406.122    4.3285548    4.3285548    4.3285548    12406.122    3447.3256   -8745.7736    42516.814   -10678.748   -390.47192    5365.1643    81.101477 
   47700    1135.5952   -113.57094    1.0275104   -112.54343   -3354.8391    4.3477441    4.3477441    4.3477441   -3354.8391   -7204.4566   -11605.846    8745.7852    20466.173    1694.8886   -1737.7304    82.184879 
   47800    1133.8551   -113.56827    1.0259359   -112.54233   -1028.6986     4.346882     4.346882     4.346882   -1028.6986    11558.336   -15602.867    958.43507   -22289.619   -1870.1926    3477.7599    82.135999 
   47900    370.60701   -112.88813   0.33533301    -112.5528   -7183.9802    4.3381943    4.3381943    4.3381943   -7183.9802   -16262.502   -26160.221    20870.782   -12287.551    -1173.768    8584.8272    81.644514 
   48000    1040.6066   -113.48751   0.94156275   -112.54595   -6866.4003    4.3455119    4.3455119    4.3455119   -6866.4003   -9900.4476   -21065.707    10366.954    28073.006    5798.1548    4503.6467    82.058361 
   48100    1303.1636   -113.71751    1.1791298   -112.53838   -2164.0438    4.3438299    4.3438299    4.3438299   -2164.0438    4244.5141   -7875.7957   -2860.8499   -21629.187   -5702.8546    1415.5133    81.963111 
   48200    381.19041     -112.896    0.3449091   -112.55109   -12754.665    4.3434543    4.3434543    4.3434543   -12754.665   -19318.323   -26965.314    8019.6418   -12425.533    1796.9411    4477.4025    81.941852 
   48300    850.76393   -113.31684   0.76978908   -112.54705     -7924.92    4.3435362    4.3435362    4.3435362     -7924.92   -143.64814   -30509.435    6878.3229    29223.414   -674.36553    8551.7185    81.946486 
   48400    1222.1583    -113.6447    1.1058345   -112.53886   -1167.8047    4.3406418    4.3406418    4.3406418   -1167.8047    4491.4469   -6608.0428   -1386.8182   -13232.862   -7890.0005    631.36619    81.782776 
   48500    511.09404   -113.01248   0.46244863   -112.55003    -6776.606    4.3427667    4.3427667    4.3427667    -6776.606   -22039.383   -20663.779    22373.344   -11664.945    6136.5329   -142.22754    81.902938 
   48600    913.11806   -113.37151   0.82620841    -112.5453   -10465.564    4.3459119    4.3459119    4.3459119   -10465.564   -14125.337   -29579.194     12307.84    27111.612   -166.46479    3171.4755    82.081023 
   48700    1162.2008   -113.59054    1.0515837   -112.53896    2124.1112    4.3387527    4.3387527    4.3387527    2124.1112    6163.8093   -4659.0902    4867.6145   -4780.2624   -2460.4821   -2352.8617    81.676045 
   48800    500.35847   -113.00365   0.45273486   -112.55092   -5302.8959    4.3432266    4.3432266    4.3432266   -5302.8959   -29617.342    -2949.729    16658.383   -13391.015   -970.05219   -3695.0568    81.928964 
   48900    997.13998   -113.45036   0.90223321   -112.54813   -2975.7843    4.3435302    4.3435302    4.3435302   -2975.7843   -17145.492   -27097.222    35315.361    18895.669    6995.1495    1689.1776    81.946147 
   49000    1358.5629   -113.77003    1.2292563   -112.54078    11427.575    4.3333132    4.3333132    4.3333132    11427.575    4340.7058    10902.468    19039.551    1473.8554   -3759.5614   -718.75826    81.369235 
   49100    419.75535   -112.93825   0.37980346   -112.55844   -9614.5491    4.3464384    4.3464384    4.3464384   -9614.5491   -42903.862    9006.8211    5053.3935   -18620.445   -13604.792   -5724.4128    82.110856 
   49200    1051.7766   -113.50019   0.95166958   -112.54852   -8911.5978    4.3458769    4.3458769    4.3458769   -8911.5978   -13221.352   -23624.582     10111.14    4794.4286    14495.679    3428.6992    82.079041 
   49300    1295.5232   -113.70984    1.1722166   -112.53762    12726.518    4.3349408    4.3349408    4.3349408    12726.518    10053.898    9649.5328    18476.123    6220.9604   -15334.409    8522.7933    81.460957 
   49400    523.78129   -113.02543   0.47392832    -112.5515   -11014.058    4.3422673    4.3422673    4.3422673   -11014.058   -48244.493    17063.004   -1860.6853   -21658.812   -13874.543    -1964.114    81.874686 
   49500    949.77615   -113.40625   0.85937742   -112.54687   -2824.6736    4.3422787    4.3422787    4.3422787   -2824.6736   -6266.6809   -7786.8067    5579.4667   -7565.2301    15507.825   -7387.7532    81.875331 
   49600    1279.1443   -113.69801    1.1573967   -112.54062    301.15585    4.3412625    4.3412625    4.3412625    301.15585    1090.4371   -4899.2244    4712.2549    7183.7938   -10452.334    9132.7546    81.817867 
   49700    501.16308   -113.00623   0.45346288   -112.55277   -8252.8198    4.3396762    4.3396762    4.3396762   -8252.8198   -35784.368    6713.9609    4311.9479   -19796.801   -15570.698    6269.4735    81.728211 
   49800    868.69918   -113.33666   0.78601728   -112.55064    3573.8477    4.3378508    4.3378508    4.3378508    3573.8477   -1951.2313    2457.7084    10215.066   -14152.173    8156.0491   -6161.1398    81.625117 
   49900    1313.3462   -113.72978    1.1883432   -112.54144   -2679.2838    4.3482509    4.3482509    4.3482509   -2679.2838   -5113.3854   -12242.985    9318.5189    10354.504    5716.0317    10816.141    82.213625 
   50000    522.31584   -113.02354   0.47260235   -112.55093   -6641.4396     4.341947     4.341947     4.341947   -6641.4396   -13830.215    -4843.792   -1250.3119   -15002.139   -17497.441    4657.0138    81.856569 
   50100    772.35002   -113.24836   0.69883853   -112.54952    1032.1121    4.3361319    4.3361319    4.3361319    1032.1121   -5329.0382    2229.3873    6195.9872   -21547.929    3462.8198    -3203.185    81.528123 
   50200    1377.3451   -113.78686    1.2462508   -112.54061    389.31573    4.3460668    4.3460668    4.3460668    389.31573    8932.0299   -10867.836    3103.7531    9469.8313    10168.413   -161.46803      82.0898 
   50300    634.11096   -113.12613   0.57375692   -112.55237    -12523.37    4.3459042    4.3459042    4.3459042    -12523.37   -15598.532   -18198.872   -3772.7064   -5713.1906   -18501.416     5172.321    82.080584 
   50400    743.96315   -113.22443   0.67315349   -112.55128   -5032.7385    4.3353599    4.3353599    4.3353599   -5032.7385   -18092.876    5387.5533   -2392.8925   -24985.465   -8041.1698    572.45318    81.484588 
   50500    1342.2521   -113.75602    1.2144979   -112.54152   -4784.7565    4.3432015    4.3432015    4.3432015   -4784.7565    12432.794   -16578.138   -10208.926    4178.3176    3673.1361   -19824.227    81.927541 
   50600    713.43971     -113.191   0.64553524   -112.54547   -22517.285     4.353872     4.353872     4.353872   -22517.285   -26588.266   -24779.937   -16183.651    6974.2769   -12244.475    1411.5862    82.532874 
   50700    863.78745   -113.32308   0.78157304   -112.54151   -5283.8612    4.3363069    4.3363069    4.3363069   -5283.8612   -17731.259    1701.8795    177.79576    -21836.59   -13908.418    1452.9031    81.537998 
   50800    1225.1059   -113.64648    1.1085016   -112.53798    844.53896    4.3366935    4.3366935    4.3366935    844.53896     17803.97   -3310.0635    -11960.29   -468.59426    5475.3969   -21753.169    81.559805 
   50900    842.08789   -113.30604   0.76193882    -112.5441   -19082.536    4.3520748    4.3520748    4.3520748   -19082.536   -16327.005   -15004.685   -25915.919    16293.769   -3663.9778   -5704.4403    82.430715 
   51000    856.88031   -113.31866   0.77532331   -112.54333   -480.19973    4.3412228    4.3412228    4.3412228   -480.19973   -7322.2615    13545.182   -7663.5199   -10952.432   -22159.973    7251.5425    81.815618 
   51100    1065.4209   -113.50452   0.96401518    -112.5405    2264.6083    4.3374683    4.3374683    4.3374683    2264.6083    26244.717   -5304.9256   -14145.967   -3927.3939    6874.3715   -26764.979    81.603527 
   51200    739.75302   -113.21609   0.66934408   -112.54675   -6053.5172    4.3431018    4.3431018    4.3431018   -6053.5172    3166.0515    4265.7404   -25592.343    14244.489     4349.759   -15160.572    81.921904 
   51300    963.32826   -113.41385   0.87163965   -112.54222   -2071.6844    4.3453545    4.3453545    4.3453545   -2071.6844   -9141.0307    8621.7165    -5695.739   -2744.0169   -21615.798    17774.984    82.049442 
   51400    930.76366   -113.38286   0.84217452   -112.54069   -3981.2863    4.3441588    4.3441588    4.3441588   -3981.2863    4435.6865   -1516.6764   -14862.869   -3933.5005     7633.222   -25502.933    81.981733 
   51500    670.82457   -113.15253   0.60697617   -112.54555    4162.9367    4.3339344    4.3339344    4.3339344    4162.9367    -952.7394    12303.314    1138.2353    7649.7221    5275.9342   -22569.668    81.404237 
   51600     1017.753   -113.46772   0.92088429   -112.54684    1486.6241    4.3433793    4.3433793    4.3433793    1486.6241   -18788.679    11157.306    12091.245    7740.2912   -17377.979     12394.82    81.937604 
   51700    1028.9657   -113.47349   0.93102975   -112.54246   -5747.0351     4.350303     4.350303     4.350303   -5747.0351   -6670.2123    -461.0522   -10109.841   -1887.1644    288.79411    -22899.78    82.330077 
   51800    704.40908   -113.18304   0.63736414   -112.54568    1542.4832    4.3335033    4.3335033    4.3335033    1542.4832    2656.5819    4179.7858   -2208.9182    4813.0482    9476.9271   -25291.216    81.379948 
   51900    1044.7817   -113.48869   0.94534044   -112.54335    1838.7392    4.3384122    4.3384122    4.3384122    1838.7392   -22247.242    16020.488    11742.973     14232.42   -12457.003    12578.164    81.656815 
   52000    1170.2894   -113.59969    1.0589025   -112.54079   -8223.8355    4.3480128    4.3480128    4.3480128   -8223.8355   -10262.506   -1099.3026   -13309.698    751.88536   -9737.7934   -16959.928     82.20012 
   52100    610.44005   -113.09834   0.55233899     -112.546    4208.7224     4.342101     4.342101     4.342101    4208.7224    5969.9139   -5154.0258    11810.279   -460.79323    13178.953   -35727.686    81.865284 
   52200    1028.2201   -113.47256   0.93035514   -112.54221    530.68363    4.3404143    4.3404143    4.3404143    530.68363   -22884.252    30067.675   -5591.3718    11159.098   -3983.1691    13624.068    81.769918 
   52300    992.40191   -113.43926   0.89794611   -112.54132    9193.7243    4.3358654    4.3358654    4.3358654    9193.7243    465.33131    16405.422    10710.419    1512.2256   -9152.0232   -10872.759    81.513096 
   52400    549.34943   -113.04743   0.49706291   -112.55037    3791.4966    4.3453066    4.3453066    4.3453066    3791.4966    3099.3477    8982.5636   -707.42151   -6808.8884     7441.759   -40882.219    82.046729 
   52500    1081.4028   -113.52082   0.97847597   -112.54234   -2864.1383    4.3467893    4.3467893    4.3467893   -2864.1383   -24101.249    24044.507   -8535.6726    8823.2999    2541.5102    18281.512    82.130746 
   52600    981.12989    -113.4287   0.88774694   -112.54095    14184.155    4.3267965    4.3267965    4.3267965    14184.155    6753.2733    10168.812    25630.381    4064.8865   -4481.4511   -14703.077    81.002683 
   52700    550.77921   -113.05412    0.4983566   -112.55576   -8699.3577     4.345241     4.345241     4.345241   -8699.3577    2060.2889   -13460.793   -14697.569   -11264.274   -750.25848   -47832.669    82.043011 
   52800    1262.8262   -113.68331    1.1426317   -112.54067   -14516.017    4.3518716    4.3518716    4.3518716   -14516.017   -26447.279   -8829.0062   -8271.7652    5845.0682    5771.5079    14188.916    82.419168 
   52900    926.06127   -113.37873    0.8379197   -112.54081    16581.135    4.3262933    4.3262933    4.3262933    16581.135      11758.5    -1665.333    39650.238    5315.4974   -3774.5309   -11993.494    80.974427 
   53000    462.80065   -112.97568   0.41875175   -112.55693     -11308.5    4.3412508    4.3412508    4.3412508     -11308.5    10433.194   -29225.083   -15133.609    -12571.85   -4025.2761   -53823.133    81.817204 
   53100    1263.5805   -113.68469    1.1433142   -112.54138   -3380.7889    4.3496638    4.3496638    4.3496638   -3380.7889   -19941.021   -2999.5796    12798.234    682.90974   -1022.2545    12251.556    82.293789 
   53200    1010.5863   -113.46106   0.91439973   -112.54666    686.88867    4.3367551    4.3367551    4.3367551    686.88867    12420.743   -16652.971    6292.8944    9195.4992     1817.673   -10472.932    81.563284 
   53300    410.53157   -112.92763   0.37145759   -112.55617   -9816.0866    4.3349626    4.3349626    4.3349626   -9816.0866    31040.681    -25185.36   -35303.581   -7596.6691   -1721.9642   -57099.236    81.462189 
   53400    1343.8347   -113.76312    1.2159298   -112.54719   -1357.8472    4.3450617    4.3450617    4.3450617   -1357.8472   -18161.994    -7763.793    21852.246   -1961.1301   -3295.6528    5726.2706     82.03286 
   53500    1039.9216   -113.49128    0.9409429   -112.55034   -6883.9221    4.3454419    4.3454419    4.3454419   -6883.9221   -3788.5766   -15975.544   -887.64577    9306.6223    3552.5877   -17998.885    82.054395 
   53600    463.66255    -112.9713   0.41953162   -112.55177    12037.528    4.3316764    4.3316764    4.3316764    12037.528     23844.58   -12590.383    24858.388   -3559.1461    -5329.173   -54275.784    81.277065 
   53700    1209.8812   -113.63833    1.0947259    -112.5436   -4963.9037    4.3506055    4.3506055    4.3506055   -4963.9037   -32549.416   -15797.693    33455.397   -3766.8237   -4897.0474    16736.056    82.347252 
   53800     927.3759   -113.38593    0.8391092   -112.54682    1439.5945     4.339653     4.339653     4.339653    1439.5945   -3413.8252   -1722.2156    9454.8242    8014.8663    2627.1016   -22366.945    81.726899 
   53900    757.60038   -113.23141   0.68549274   -112.54592     7258.951    4.3305819    4.3305819    4.3305819     7258.951    20121.127   -13599.203    15254.929   -874.71617    2759.7994   -46583.963     81.21547 
   54000    1101.4031   -113.53561   0.99657264   -112.53904    -19099.18    4.3541287    4.3541287    4.3541287    -19099.18   -38355.431   -10657.135   -8284.9754    -8480.015   -3987.4174    18417.506    82.547475 
   54100    804.55129   -113.27084   0.72797491   -112.54287    8661.2923    4.3341923    4.3341923    4.3341923    8661.2923    4637.4287     12025.75    9320.6978    4498.6357    -3233.388   -13891.812    81.418767 
   54200    738.37419   -113.21384   0.66809648   -112.54574    4948.1258    4.3377565    4.3377565    4.3377565    4948.1258     20258.86    -20772.09    15357.608   -2414.6789    5643.7638   -40704.333    81.619799 
   54300    997.75989   -113.43922   0.90279411   -112.53643   -12004.546    4.3512682    4.3512682    4.3512682   -12004.546   -24726.461   -10643.593   -643.58259   -14751.703   -737.48857    18171.495    82.384886 
   54400    703.95904   -113.17459   0.63695693   -112.53763    14800.203    4.3305845    4.3305845    4.3305845    14800.203    1856.9703    19949.287    22594.351    3050.3614    -2681.294   -6961.1923    81.215615 
   54500    890.14513   -113.34748   0.80542202   -112.54206   -7863.5399    4.3446446    4.3446446    4.3446446   -7863.5399    5651.0444   -16641.692   -12599.972     1202.614    1600.0072   -38894.057    82.009237 
   54600    1005.8507   -113.44737   0.91011488   -112.53725   -3512.7839    4.3444206    4.3444206    4.3444206   -3512.7839   -17920.707   -3459.0253    10841.381   -16725.869    532.87072    16388.809    81.996551 
   54700    736.63527   -113.20846   0.66652307   -112.54194    2318.5961    4.3335297    4.3335297    4.3335297    2318.5961   -5107.7818    17469.351   -5405.7812   -3566.5836   -3483.0203    1760.8548    81.381431 
   54800    1089.5981   -113.52734   0.98589128   -112.54145   -13923.135    4.3455459    4.3455459    4.3455459   -13923.135   -29.222424   -12232.685   -29507.499    3211.5212   -3872.3604   -39618.297    82.060286 
   54900    1033.1521   -113.47479   0.93481776   -112.53998    6782.4761    4.3375976    4.3375976    4.3375976    6782.4761   -2806.6475    3643.2199    19510.856   -14741.506    5359.1305    11243.776    81.610824 
   55000     664.9385   -113.15003   0.60165033   -112.54838   -10689.306    4.3433035    4.3433035    4.3433035   -10689.306   -9090.1193   -7297.2646   -15680.533   -7621.2307   -3254.0189    14586.005    81.933316 
   55100    1271.2678   -113.68817    1.1502698    -112.5379   -6716.7669    4.3447759    4.3447759    4.3447759   -6716.7669    1768.1965   -10201.563   -11716.934    1836.3493   -2199.4108   -25924.851    82.016674 
   55200     995.9542   -113.44055   0.90116029   -112.53939    4774.9067    4.3349333    4.3349333    4.3349333    4774.9067     4270.054   -11380.728    21435.394   -5377.0152    4075.6352    13535.522    81.460536 
   55300    444.06369   -112.95304   0.40179816   -112.55124   -19027.452     4.349419     4.349419     4.349419   -19027.452   -14001.563   -29949.015   -13131.779   -12225.821   -2493.5443    22363.027    82.279896 
   55400    1398.3857     -113.805    1.2652887   -112.53971    2401.5477    4.3394024    4.3394024    4.3394024    2401.5477    2770.6021    3385.2063    1048.8346    1186.5749   -4942.6366   -6333.1382    81.712738 
   55500    1010.6574   -113.46088   0.91446407   -112.54641    6717.9201    4.3324559    4.3324559    4.3324559    6717.9201    14701.881   -13427.044    18878.924    3603.0185    988.96023    8169.9086    81.320949 
   55600    242.80015   -112.77859   0.21969068    -112.5589   -18363.326    4.3494969    4.3494969    4.3494969   -18363.326    7567.0228   -39062.972   -23594.028   -14759.664    2582.9686    26151.924    82.284317 
   55700     1223.898   -113.65043    1.1074087   -112.54302    -816.3547    4.3440633    4.3440633    4.3440633    -816.3547    12177.545   -5870.3754   -8756.2341    -148.8116   -5487.7499   -3064.3001    81.976325 
   55800    961.61896   -113.41206   0.87009304   -112.54197    8586.8831    4.3340266    4.3340266    4.3340266    8586.8831    21875.309    1597.2589     2288.081    9911.4141   -1815.0491   -8053.4349     81.40943 
   55900    402.20422   -112.91564   0.36392283   -112.55172   -4339.7109    4.3455752    4.3455752    4.3455752   -4339.7109    3361.4895   -8901.8971   -7478.7251   -7520.7517    5306.7329    28288.382    82.061946 
   56000    1076.5041   -113.51337   0.97404353   -112.53933     3380.199    4.3461681    4.3461681    4.3461681     3380.199    7073.2676      7802.46   -4735.1306   -1958.1257   -7898.4788   -3281.3144    82.095537 
   56100    796.40976   -113.26005   0.72060829   -112.53945    12423.155    4.3381644    4.3381644    4.3381644    12423.155    26185.599    14297.546   -3213.6799    7287.9767    3478.6588    -25948.71    81.642825 
   56200    687.39114   -113.16689   0.62196595   -112.54492    866.41815    4.3417696    4.3417696    4.3417696    866.41815    7397.4988   -1731.1284    -3067.116   -3175.5061    4002.9427    25822.296     81.84654 
   56300    1048.5462   -113.48878   0.94874665   -112.54003    17077.279    4.3375412    4.3375412    4.3375412    17077.279    16139.483    8871.5287    26220.827   -5889.5995   -2961.3978    -135.2959    81.607644 
   56400    838.50557   -113.30454   0.75869746   -112.54585   -4057.3279    4.3470662    4.3470662    4.3470662   -4057.3279    28953.624   -29851.071   -11274.536    11352.042    466.71088   -37615.351    82.146444 
   56500    954.66648   -113.40563    0.8638023   -112.54182    346.57781    4.3409182    4.3409182    4.3409182    346.57781    20679.912   -22112.719      2472.54   -1767.2637    496.78897    15428.283    81.798399 
   56600     1107.731      -113.54    1.0022983    -112.5377    13218.255    4.3321645    4.3321645    4.3321645    13218.255    18066.965   -8617.8661    30205.667   -8249.3027    4185.0567    -1902.232    81.304543 
   56700    771.17299   -113.24473   0.69777353   -112.54695   -11920.249    4.3463862    4.3463862    4.3463862   -11920.249    30608.994   -41201.356   -25168.386    5738.4023    -4116.808   -56048.509    82.107898 
   56800    1206.2352   -113.63033    1.0914269    -112.5389    13467.206      4.33557      4.33557      4.33557    13467.206    22324.361    2231.1076    15846.149   -1683.1804   -2601.1923     7173.865    81.496435 
   56900    887.86866   -113.34873   0.80336222   -112.54536   -1528.3255     4.343026     4.343026     4.343026   -1528.3255   -587.23936   -11407.365     7409.628   -5727.1111    4698.5498    -5692.503    81.917613 
   57000    531.48775   -113.03176   0.48090128   -112.55086   -10400.896    4.3438081    4.3438081    4.3438081   -10400.896    28799.121   -30854.358   -29147.451   -868.43298   -5933.7756   -59876.844    81.961877 
   57100    1349.8937   -113.75771    1.2214122    -112.5363    21508.126    4.3306479    4.3306479    4.3306479    21508.126    14483.926    28932.562    21107.889     341.7371    4384.7989    8711.0621    81.219184 
   57200    750.90112    -113.2296   0.67943112   -112.55016   -20761.391    4.3531268    4.3531268    4.3531268   -20761.391   -10389.449    -23661.16   -28233.565   -5318.3676    5533.0696   -19228.841    82.490504 
   57300    325.66074   -112.84942   0.29466468   -112.55476   -11824.686    4.3410906    4.3410906    4.3410906   -11824.686    19367.651   -41186.318    -13655.39   -6793.5709   -3900.3468   -53295.222    81.808144 
   57400    1464.4599   -113.86237    1.3250741    -112.5373    19377.459    4.3270942    4.3270942    4.3270942    19377.459    10150.823    11745.909    36235.646    2362.4634    6085.5518    16544.331    81.019405 
   57500    876.89132   -113.34359   0.79342969   -112.55016    -20154.91    4.3500263    4.3500263    4.3500263    -20154.91    2930.9378   -36252.516   -27143.151   -4285.5327    2994.6278   -32305.313    82.314366 
   57600    445.91511   -112.95769   0.40347336   -112.55421    -2566.872    4.3388416    4.3388416    4.3388416    -2566.872    17400.542   -35544.084    10442.927   -8959.5744    3335.0425    -47971.24    81.681062 
   57700    1278.5618   -113.69822    1.1568696   -112.54135    7661.6611     4.338505     4.338505     4.338505    7661.6611   -5610.6366    4749.9732    23845.647   -2942.8872    837.27586     25013.26    81.662057 
   57800    870.96838   -113.33619   0.78807049   -112.54812   -1983.8089    4.3384457    4.3384457    4.3384457   -1983.8089     13348.39    -6479.277   -12820.539    3370.5933   -4152.6166   -27412.829    81.658704 
   57900    558.86944   -113.05955   0.50567682   -112.55387    6558.1856    4.3398358    4.3398358    4.3398358    6558.1856    19891.305    4172.8565    -4389.605   -9814.7528    5123.7453   -44501.861    81.737225 
   58000    1370.0297   -113.77727    1.2396317   -112.53763   -9587.4251    4.3512965    4.3512965    4.3512965   -9587.4251   -27954.944   -5896.1901    5088.8587   -15639.298   -2894.2182    19031.093    82.386494 
   58100    932.38617   -113.38913    0.8436426   -112.54549    10368.266    4.3279243    4.3279243    4.3279243    10368.266    32282.901    10168.005   -11346.109    6634.7711    2836.2419   -29732.585    81.066042 
   58200    704.04533   -113.19102   0.63703501   -112.55399   -3458.4877    4.3377197    4.3377197    4.3377197   -3458.4877    23080.801   -15298.326   -18157.938   -6216.9124    7178.7119   -47578.692    81.617717 
   58300    1316.0418   -113.72593    1.1907823   -112.53515   -18191.141    4.3572227    4.3572227    4.3572227   -18191.141   -35384.339   -17909.464   -1279.6187   -19239.842    -617.1408    13304.481    82.723573 
   58400     901.9076   -113.35672   0.81606495   -112.54066     1361.523    4.3312508    4.3312508    4.3312508     1361.523    22672.174   -12377.643   -6209.9611    6607.5935   -102.73785   -35584.252     81.25311 
   58500    641.33018   -113.12633   0.58028903   -112.54604    3622.4373    4.3318471    4.3318471    4.3318471    3622.4373    26052.689   -18724.456    3539.0795    -800.0579   -1348.5561   -41217.074    81.286677 
   58600     1141.674    -113.5715    1.0330107   -112.53849   -3579.2773    4.3494214    4.3494214    4.3494214   -3579.2773   -30237.269    6283.7784    13215.658   -17997.293    5454.3768    19467.776    82.280032 
   58700    719.60385   -113.19484   0.65111268   -112.54373    9792.0248    4.3379007    4.3379007    4.3379007    9792.0248    17737.508   -4945.7187    16584.285   -2497.3613   -159.34904   -29022.254    81.627935 
   58800    665.19497   -113.14929   0.60188239   -112.54741   -1253.2761    4.3378361    4.3378361    4.3378361   -1253.2761    22570.797   -12380.291   -13950.334    8699.6066   -2972.0315   -41235.021    81.624289 
   58900    1180.1099   -113.60534    1.0677883   -112.53755    6083.2121     4.338689     4.338689     4.338689    6083.2121   -17975.642    21686.014    14539.264   -11286.075    5605.4888     16306.62    81.672445 
   59000    761.31149    -113.2352   0.68885063   -112.54635   -2855.7705    4.3411916    4.3411916    4.3411916   -2855.7705    14829.792   -20498.136   -2898.9675   -9455.1637   -614.77399   -33799.364    81.813858 
   59100    747.62805   -113.22374   0.67646957   -112.54727   -19709.101    4.3461248    4.3461248    4.3461248   -19709.101      14503.6   -32122.048   -41508.854    11879.824   -762.64063   -48240.679    82.093083 
   59200    1292.9545   -113.70666    1.1698924   -112.53677    5205.6535    4.3337113    4.3337113    4.3337113    5205.6535   -12181.221    16960.164    10838.018   -5940.0831    2249.9953    16211.917    81.391664 
   59300    697.12571   -113.17907     0.630774    -112.5483   -3262.4601    4.3393091    4.3393091    4.3393091   -3262.4601    6442.5796   -20419.607    4189.6468   -12512.958   -1926.9085   -30361.802    81.707468 
   59400    610.18785   -113.10292   0.55211079   -112.55081   -4576.1932    4.3458114    4.3458114    4.3458114   -4576.1932    14410.105   -11021.028   -17117.657    9499.8253   -3303.4114   -47474.279     82.07533 
   59500    1258.8571    -113.6765    1.1390403   -112.53746    9975.0117     4.340682     4.340682     4.340682    9975.0117   -14800.835     19938.58     24787.29    1548.1739    1633.9475    25351.423     81.78505 
   59600    581.59354   -113.07482   0.52623806   -112.54858     333.3627    4.3363226    4.3363226    4.3363226     333.3627    4547.3596   -10742.159    7194.8875   -14984.473    493.76101    -31586.24    81.538881 
   59700    632.90098   -113.12688   0.57266211   -112.55421    -5416.431    4.3395969    4.3395969    4.3395969    -5416.431     14007.93   -9201.5927    -21055.63    1039.6411   -2581.6806   -51051.137    81.723729 
   59800    1564.7336   -113.95322    1.4158038   -112.53742    -5803.031    4.3460439    4.3460439    4.3460439    -5803.031   -25432.872    6030.7643     1993.015    5016.6042    1469.8044    19952.092    82.088503 
   59900    577.29539   -113.07673     0.522349   -112.55438   -12363.421    4.3394643    4.3394643    4.3394643   -12363.421    3898.4693   -11611.116   -29377.615    -10655.96    2097.6388   -42763.597    81.716237 
   60000     451.4022   -112.96885   0.40843819   -112.56041   -931.32095    4.3336119    4.3336119    4.3336119   -931.32095    18237.581    11643.347   -32674.891   -4997.5886    3350.1958   -51548.806    81.386066 
   60100    1538.1547   -113.93512    1.3917547   -112.54336     6019.192    4.3409581    4.3409581    4.3409581     6019.192   -14343.285    28872.978    3527.8836    5433.4563   -2560.8562    19706.055    81.800654 
   60200    608.21906   -113.10852   0.55032939   -112.55819   -7141.7338     4.343523     4.343523     4.343523   -7141.7338    8173.9672    7756.1116    -37355.28   -2404.0376   -260.64201   -43153.981    81.945741 
   60300    487.59676   -112.99916   0.44118779   -112.55797   -14163.933    4.3384947    4.3384947    4.3384947   -14163.933    12265.767   -31154.858   -23602.708   -10889.773    1730.1836   -45299.601    81.661475 
   60400    1409.7162   -113.81639    1.2755408   -112.54085    11703.315    4.3305463    4.3305463    4.3305463    11703.315    -5439.964    23356.378    17193.531    616.58166   -1851.0969    25275.957    81.213471 
   60500    696.32439   -113.18504   0.63004894   -112.55499   -12277.418    4.3458878    4.3458878    4.3458878   -12277.418    7802.1699   -22320.142   -22314.281     11401.32    2534.2956    -43143.49    82.079655 
   60600    612.52639   -113.10879   0.55422675   -112.55457    -3329.798     4.341411     4.341411     4.341411    -3329.798     11127.03    -8627.528   -12488.896   -10332.702   -308.47404   -40588.524    81.826263 
   60700    1251.5073   -113.67178    1.1323901   -112.53939    15656.652    4.3363187    4.3363187    4.3363187    15656.652   -12932.911    40029.377    19873.492   -9965.5268    2274.5865    17398.503    81.538665 
   60800    702.84156   -113.18503   0.63594581   -112.54908   -9237.0959     4.345704     4.345704     4.345704   -9237.0959    4795.7428   -19908.183   -12598.847    12830.075   -139.40846   -37967.697    82.069245 
   60900    748.89709   -113.22595   0.67761783   -112.54834    7580.3508     4.333519     4.333519     4.333519    7580.3508    19857.634   -4890.3306    7773.7494   -5087.4325    766.38356   -37263.994    81.380828 
   61000    1300.6108   -113.71971      1.17682   -112.54289   -3196.3956    4.3427289    4.3427289    4.3427289   -3196.3956   -17221.962   -6317.6753     13950.45   -20366.096    6305.5818     14287.61    81.900805 
   61100    865.31419   -113.33258   0.78295446   -112.54963   -4679.3292     4.339349     4.339349     4.339349   -4679.3292    15011.988    -28754.53    -295.4459    3426.7361   -797.31093   -36344.925    81.709722 
   61200    725.01293   -113.20711   0.65600693    -112.5511     12397.26    4.3352595    4.3352595    4.3352595     12397.26    20444.511    20741.556   -3994.2858     4737.849    1779.4621   -35282.815    81.478924 
   61300    1279.7582   -113.70157    1.1579521   -112.54362   -545.75357    4.3426595    4.3426595    4.3426595   -545.75357   -12708.999   -3713.0653    14784.804   -21498.168    1870.7358    19322.707    81.896875 
   61400    731.01717      -113.21    0.6614397   -112.54856    22332.342    4.3297626    4.3297626    4.3297626    22332.342    28950.525    41146.551   -3100.0488    -6964.435   -2463.4542   -34842.172    81.169383 
   61500    810.20994    -113.2854   0.73309498    -112.5523   -13290.537     4.346306     4.346306     4.346306   -13290.537    13070.158   -27264.488   -25677.279    10963.827    2646.2637   -39374.558    82.103356 
   61600    1238.1998   -113.66113    1.1203492   -112.54078    9821.8042    4.3360567    4.3360567    4.3360567    9821.8042   -625.77374     14367.42    15723.766   -8819.2033   -260.37283    18991.182    81.523884 
   61700    759.64654   -113.23573   0.68734415   -112.54839   -1602.7719    4.3326178    4.3326178    4.3326178   -1602.7719    24580.669   -19011.276   -10377.708   -8757.3302    2138.3722   -43057.369    81.330069 
   61800    748.61011   -113.22741   0.67735816   -112.55005    -20402.25    4.3466518    4.3466518    4.3466518    -20402.25    9862.4413   -40855.763   -30213.429     6118.142     618.5577   -42783.846    82.122953 
   61900    1322.9746   -113.73577    1.1970552   -112.53871    13284.717    4.3334876    4.3334876    4.3334876    13284.717    3518.5932    17275.167     19060.39    2133.8927   -3343.0332    20792.182    81.379061 
   62000    424.17674    -112.9389   0.38380403   -112.55509   -8908.2949    4.3442117    4.3442117    4.3442117   -8908.2949    13970.389   -18400.654    -22294.62   -7406.5805    3935.0987   -45833.795    81.984727 
   62100    708.52642   -113.19594   0.64108959   -112.55485   -2452.3389    4.3375822    4.3375822    4.3375822   -2452.3389    14349.248   -5327.8823   -16378.382   -3389.4883    459.18764   -41836.184    81.609956 
   62200    1434.1819   -113.84028    1.2976779    -112.5426    13573.183    4.3369874    4.3369874    4.3369874    13573.183   -8621.9841    30361.019    18980.515    8127.6484    183.26222    17726.027    81.576392 
   62300    458.42632   -112.97469   0.41479377   -112.55989   -20898.057    4.3509365    4.3509365    4.3509365   -20898.057      6362.17   -44206.348   -24849.993   -2099.9049     2550.722   -49386.683    82.366049 
   62400    650.81714   -113.14289   0.58887303   -112.55401    4238.6031    4.3358717    4.3358717    4.3358717    4238.6031    19741.691   -8264.6853    1238.8041   -10637.201     -2672.02   -32533.796     81.51345 
   62500    1507.5068   -113.90336    1.3640239   -112.53934    5901.1628    4.3382729    4.3382729    4.3382729    5901.1628   -9727.5998    4516.8624    22914.226     2355.767    1005.9109    18658.279     81.64895 
   62600     626.6363   -113.12319    0.5669937    -112.5562   -3579.6828    4.3386875    4.3386875    4.3386875   -3579.6828    15860.259   -9737.9641   -16861.343    2262.7167    356.79013   -50048.626     81.67236 
   62700     524.9778   -113.03434   0.47501095   -112.55933    2166.9277    4.3401352    4.3401352    4.3401352    2166.9277    8824.8197    4840.9817   -7165.0184   -9109.9638    1240.0442   -27820.484    81.754144 
   62800    1282.9074   -113.70527    1.1608016   -112.54447    5037.1986    4.3407383    4.3407383    4.3407383    5037.1986   -12606.258    13344.284    14373.569   -6927.5491     1469.298    22921.994     81.78823 
   62900    709.77655   -113.19365   0.64222074   -112.55143    8238.8643    4.3335453    4.3335453    4.3335453    8238.8643    24474.213    24451.592   -24209.212    2303.3313   -4361.2817    -45291.11    81.382312 
   63000    740.32451   -113.22182   0.66986117   -112.55196   -12052.277    4.3433941    4.3433941    4.3433941   -12052.277    5280.6298   -27681.245   -13756.216   -6379.2016    510.44103   -35365.671    81.938445 
   63100    1149.2008   -113.58208    1.0398211   -112.54226    6557.6456    4.3383104    4.3383104    4.3383104    6557.6456   -6318.3756     11599.13    14392.183   -13208.237    3354.5128    18000.928    81.651065 
   63200    822.72075   -113.29295   0.74441502   -112.54854   -6836.8681    4.3381274    4.3381274    4.3381274   -6836.8681     21218.38   -9234.8781   -32494.106    4391.0694   -2084.0113    -38509.79    81.640734 
   63300     742.4559   -113.22184    0.6717897   -112.55005    -1419.751    4.3390658    4.3390658    4.3390658    -1419.751    15127.026   -1369.6277   -18016.651     1303.811   -304.45836   -31644.816    81.693728 
   63400    934.37896   -113.39201   0.84544571   -112.54657    8661.5185    4.3391982    4.3391982    4.3391982    8661.5185    -9423.704    28137.147    7271.1127   -13746.669    3643.4326    16125.007    81.701203 
   63500    723.10578   -113.20304   0.65428131   -112.54876   -9628.0411    4.3458804    4.3458804    4.3458804   -9628.0411    14568.875   -4244.4964   -39208.502   -3019.0292     1058.378   -27236.276    82.079236 
   63600    885.83252   -113.34772   0.80151988    -112.5462    7366.3775    4.3327522    4.3327522    4.3327522    7366.3775    32242.321    2814.9457   -12958.134    4625.0303   -740.30298    -29169.23     81.33764 
   63700    1115.1065   -113.55466    1.0089718   -112.54569    4293.9142    4.3375092    4.3375092    4.3375092    4293.9142   -5301.7715    10257.896    7925.6186   -8314.0919    3533.2525    13368.075    81.605837 
   63800    710.84523   -113.19584    0.6431877   -112.55265   -19335.824     4.346526     4.346526     4.346526   -19335.824    11324.065   -36370.223   -32961.316   -6086.7027    3265.6649   -26556.213    82.115823 
   63900    919.85448   -113.37955   0.83230366   -112.54724    17242.071      4.32919      4.32919      4.32919    17242.071    42221.176    23795.365   -14290.326    2091.9391   -3370.8973   -31317.483    81.137184 
   64000    1203.2102   -113.63255    1.0886899   -112.54386    1670.0263    4.3457004    4.3457004    4.3457004    1670.0263   -8794.3828    11313.694     2490.768   -11649.216    1227.9943    15909.062    82.069037 
   64100    698.63999   -113.18424   0.63214414    -112.5521     4452.701    4.3371044    4.3371044    4.3371044     4452.701    22284.673   -2738.7443   -6187.8258   -11138.381    3604.5716   -24341.986    81.582994 
   64200    802.54983    -113.2786   0.72616395   -112.55244    16647.733    4.3298172    4.3298172    4.3298172    16647.733    42236.488    21600.726   -13894.015    4283.1804   -2495.7772   -40373.783    81.172455 
   64300    1335.8131   -113.75212    1.2086717   -112.54345   -7672.7738     4.347591     4.347591     4.347591   -7672.7738   -4834.4233   -12675.339   -5508.5591   -9914.2381   -3581.1027     12569.87    82.176196 
   64400    739.51574   -113.22089   0.66912939   -112.55176    10993.521    4.3327656    4.3327656    4.3327656    10993.521    37612.695   -11357.038    6724.9051   -16080.506    902.88492   -20662.542    81.338392 
   64500    682.92744   -113.17425    0.6179271   -112.55632   -12101.826    4.3411698    4.3411698    4.3411698   -12101.826     19649.38   -34120.151   -21834.707    5040.8973   -2964.6591   -48242.131    81.812625 
   64600    1338.9074   -113.75633    1.2114715   -112.54486   -1870.2411    4.3401777    4.3401777    4.3401777   -1870.2411   -7193.2221   -449.98896    2032.4879    2574.8217   -8717.9005    8165.6681    81.756546 
   64700    878.09908   -113.34485    0.7945225   -112.55033    12418.601    4.3304543    4.3304543    4.3304543    12418.601    25402.945    2400.3464    9452.5103   -16438.685    321.56158   -16457.413    81.208293 
   64800     397.3226   -112.91766   0.35950584   -112.55815    -22342.74    4.3509101    4.3509101    4.3509101    -22342.74    2835.5833   -35994.439   -33869.366   -882.18892    2207.3689   -50101.516    82.364549 
   64900    1117.7983   -113.55981    1.0114074    -112.5484    6877.9919    4.3349607    4.3349607    4.3349607    6877.9919   -13546.095    29791.347    4388.7235    11056.549   -8461.4728    11966.526    81.462081 
   65000    992.89947   -113.44594   0.89839631   -112.54755    10447.817    4.3292656    4.3292656    4.3292656    10447.817    11402.673    17912.131    2028.6476   -5036.1028   -4685.9177   -12248.686    81.141438 
   65100     470.9459   -112.98146   0.42612175   -112.55534   -23447.041     4.349151     4.349151     4.349151   -23447.041    6461.4957   -43826.116   -32976.503   -7893.0983    2023.4635   -55351.817    82.264686 
   65200    1111.9252   -113.55031    1.0060933   -112.54422    2885.6998    4.3358639    4.3358639    4.3358639    2885.6998    -12876.01    12914.993    8618.1168    5811.4085   -8271.8634    10671.169    81.513011 
   65300    1071.8762   -113.51472   0.96985616   -112.54486   -9775.4619    4.3373338    4.3373338    4.3373338   -9775.4619    357.98618   -12298.606   -17385.766    7226.3505   -6915.9693   -12037.045    81.595938 
   65400    582.33951   -113.08146   0.52691303   -112.55454   -15142.688    4.3364024    4.3364024    4.3364024   -15142.688    28938.236   -38063.411   -36302.889   -7216.9439    3124.7147    -62079.29    81.543384 
   65500    1190.4972   -113.62524    1.0771869   -112.54805    2588.2173    4.3375775    4.3375775    4.3375775    2588.2173   -13172.011    29805.991   -8869.3277   -8611.8094   -8410.4909    3275.8162    81.609691 
   65600    984.88962   -113.43943   0.89114882   -112.54828   -9227.0685    4.3447138    4.3447138    4.3447138   -9227.0685   -10472.844    17297.729   -34506.091    7919.0785   -11276.789   -14312.955    82.013156 
   65700    511.70705   -113.01528   0.46300329   -112.55227    6357.4311    4.3296815    4.3296815    4.3296815    6357.4311     33180.41    18886.052   -32994.169   -1987.9812    1620.9981   -55375.197    81.164826 
   65800    1141.9961   -113.58107     1.033302   -112.54777   -7512.0751    4.3399987    4.3399987    4.3399987   -7512.0751   -14390.944    375.67592    -8520.957   -15311.037   -1763.8774    10728.486    81.746431 
   65900    952.21549   -113.40992   0.86158458   -112.54833   -8965.3945    4.3404079    4.3404079    4.3404079   -8965.3945   -9993.2624    2875.3791     -19778.3   -4638.2159   -10266.627   -9556.6433    81.769554 
   66000    801.86644   -113.27686    0.7255456   -112.55132   -4926.2458    4.3326585    4.3326585    4.3326585   -4926.2458    27800.997   -16090.856   -26488.878    4899.7377   -903.28796   -54407.127    81.332363 
   66100    1063.7234   -113.50763   0.96247931   -112.54515   -13004.428    4.3424355    4.3424355    4.3424355   -13004.428   -16967.265   -19338.013    -2708.005   -10040.921    874.69506    11378.131    81.884201 
   66200    763.62199   -113.24014   0.69094122    -112.5492   -842.05691    4.3367541    4.3367541    4.3367541   -842.05691   -11605.449    13396.611   -4317.3324   -12876.731   -10699.086    9680.8001    81.563225 
   66300    903.39206   -113.36772   0.81740812   -112.55031    6945.2611    4.3353371    4.3353371    4.3353371    6945.2611    14774.878    18845.667   -12784.761    2855.6159   -4478.5151   -36331.592    81.483301 
   66400    1059.5505   -113.50631   0.95870355   -112.54761    6046.8056    4.3390413    4.3390413    4.3390413    6046.8056    -10923.06    29866.681   -803.20433    434.55012    8073.0508   -1766.7367    81.692342 
   66500    572.67934   -113.07474    0.5181723   -112.55657   -6851.9182     4.341434     4.341434     4.341434   -6851.9182   -26478.768    1891.4852    4031.5278   -13232.676   -4446.1013    20527.107    81.827559 
   66600    1202.8166   -113.63454    1.0883337    -112.5462    -1372.449     4.339858     4.339858     4.339858    -1372.449   -4230.5927   -1808.5307    1921.7764   -5964.1842   -4168.6208   -10087.339    81.738478 
   66700    1198.8976    -113.6301    1.0847877   -112.54531   -2228.7833    4.3391604    4.3391604    4.3391604   -2228.7833   -19469.985     15126.16   -2342.5259    6997.2166    12818.087   -8067.0095    81.699072 
   66800    412.02778   -112.92891    0.3728114   -112.55609   -7244.2971    4.3382567    4.3382567    4.3382567   -7244.2971   -29077.565    -4846.266    12190.939   -11784.321    2069.5565    18457.032    81.648038 
   66900    1034.6886   -113.48727   0.93620798   -112.55107    3041.3535    4.3400984    4.3400984    4.3400984    3041.3535   -9470.7289    12409.176    6185.6131   -7782.1738   -4119.1237    5722.2901    81.752065 
   67000    1190.9948   -113.62218    1.0776371   -112.54454    8514.6359      4.33974      4.33974      4.33974    8514.6359   -21205.255    53618.763   -6869.5997    3302.6977    17694.786   -11413.651    81.731815 
   67100    542.13737   -113.04239   0.49053728   -112.55185   -413.25818    4.3400334    4.3400334    4.3400334   -413.25818   -30379.731      26326.6    2813.3561   -5819.8623    5889.7281    12230.693    81.748391 
   67200     838.1684   -113.30529   0.75839238    -112.5469   -6796.6399    4.3421196    4.3421196    4.3421196   -6796.6399    -17077.29   -2241.5706   -1071.0598   -7893.9965   -4621.2299    14700.249    81.866332 
   67300    989.46521   -113.44024   0.89528892   -112.54495    6164.4719     4.332918     4.332918     4.332918    6164.4719   -7659.9036    43931.164   -17777.845    5579.5018    24297.837   -18838.644    81.346973 
   67400    886.71405   -113.35247    0.8023175   -112.55016   -7870.6334    4.3413637    4.3413637    4.3413637   -7870.6334   -21542.991    11388.901   -13457.809   -2100.5182    11102.941   -845.82794    81.823585 
   67500    1056.0526   -113.50189   0.95553863   -112.54635   -8482.7669    4.3412548    4.3412548    4.3412548   -8482.7669   -16639.486   -11518.515    2709.7009   -13653.249   -6609.4755    18991.916    81.817431 
   67600    732.18202   -113.21307   0.66249367   -112.55058    1238.2035    4.3322998    4.3322998    4.3322998    1238.2035    3929.0884    25951.163   -26165.641     2330.835    24754.166   -18203.098    81.312159 
   67700     739.4314   -113.22433   0.66905307   -112.55528   -11674.933    4.3430464    4.3430464    4.3430464   -11674.933   -7698.0144    12331.563   -39658.348    1396.7333    16112.922   -19602.261    81.918767 
   67800    1324.7949   -113.74505    1.1987022   -112.54635    1863.5178    4.3366249    4.3366249    4.3366249    1863.5178   -5994.8799    4621.9147    6963.5187   -8200.6004   -11806.221    8799.2977    81.555935 
   67900    888.06158   -113.35701   0.80353678   -112.55347   -448.47031    4.3371193    4.3371193    4.3371193   -448.47031    686.89561    17971.393   -20003.699   -2745.4223    20849.698   -10518.587    81.583831 
   68000    617.56362    -113.1127   0.55878454   -112.55392    -18287.44    4.3476957    4.3476957    4.3476957    -18287.44   -5982.3677   -694.07851   -48185.875    5759.6716    23750.131   -28799.484    82.182137 
   68100    1287.0224   -113.70817    1.1645249   -112.54364    7122.3599    4.3334816    4.3334816    4.3334816    7122.3599    6271.8963    10983.726    4111.4575   -8133.3876   -16053.478    7584.4315    81.378722 
   68200    1024.0747   -113.47609   0.92660435   -112.54949    3047.5499    4.3338448    4.3338448    4.3338448    3047.5499    7849.8022    6226.4663   -4933.6188   -11717.648    6461.2993   -1879.3412    81.399189 
   68300    682.49997   -113.17496   0.61754032   -112.55742   -11977.037    4.3430384    4.3430384    4.3430384   -11977.037    7410.9854   -9022.0164   -34320.081     6948.587    34108.168   -28496.903    81.918312 
   68400    1181.6953   -113.61887    1.0692227   -112.54965    2635.0001    4.3390949    4.3390949    4.3390949    2635.0001    7544.2247    4979.8844   -4619.1089   -1972.4818   -1214.2934   -2064.7134     81.69537 
   68500    1139.2396   -113.57876    1.0308079   -112.54796    2189.0301    4.3386038    4.3386038    4.3386038    2189.0301   -849.84257    3049.8176    4367.1153   -10673.592   -4158.6518    10299.823    81.667635 
   68600    519.10367    -113.0262   0.46969591    -112.5565    -2521.091    4.3394055    4.3394055    4.3394055    -2521.091    13327.555   -4912.1805   -15978.647   -638.44193    29298.797   -20933.133    81.712918 
   68700    1070.9955   -113.52001   0.96905927   -112.55095    3561.1084    4.3415109    4.3415109    4.3415109    3561.1084    6997.1183    3834.1247   -147.91776    1395.1226    13749.928   -13013.119    81.831912 
   68800    1411.9394   -113.82373    1.2775524   -112.54618    10571.831    4.3355497    4.3355497    4.3355497    10571.831    3217.8179    3048.1691    25449.506   -9887.5908   -8311.9076    10695.925    81.495288 
   68900    591.81746   -113.09829   0.53548888    -112.5628    2778.4646    4.3323842    4.3323842    4.3323842    2778.4646    13235.414   -4886.3839   -13.636368   -4695.1289    25596.894   -15646.693    81.316913 
   69000    638.36998   -113.14093   0.57761058   -112.56332   -9373.4451    4.3440748    4.3440748    4.3440748   -9373.4451    -3154.106    1555.2344   -26521.464    5797.5004    23556.361    -19712.78    81.976977 
   69100    1316.0953   -113.73854    1.1908307   -112.54771    8121.3093    4.3395453    4.3395453    4.3395453    8121.3093    6585.4454    7098.0975    10680.385   -7945.5345   -16114.282    9846.3681    81.720813 
   69200    826.48847    -113.3007   0.74782414   -112.55287    4479.0607    4.3352908    4.3352908    4.3352908    4479.0607    14727.208    4025.1689    -5315.195   -9055.2074    15696.033   -10637.965    81.480688 
   69300    618.51389   -113.11333   0.55964437   -112.55368    -5341.478    4.3413851    4.3413851    4.3413851    -5341.478   -3516.9155    11337.695   -23845.214     2614.315    29812.524   -26431.801    81.824798 
   69400    1210.6517    -113.6395    1.0954231   -112.54408    9587.2255    4.3383378    4.3383378    4.3383378    9587.2255    5284.8012    20087.642    3389.2336   -2385.7331   -17749.956    4623.8833    81.652615 
   69500    1029.0975   -113.48185   0.93114903    -112.5507    327.57712    4.3366316    4.3366316    4.3366316    327.57712    300.53823    9883.1915   -9200.9984   -6900.4317   -108.03062    1395.4191    81.556313 
   69600    443.37937   -112.96367   0.40117897   -112.56249   -6321.7137    4.3344489    4.3344489    4.3344489   -6321.7137   -5697.5037    13368.494   -26636.131   -2674.1787    34208.376   -31554.746    81.433228 
   69700    1123.2889   -113.57466    1.0163754   -112.55828    2294.6519    4.3391163    4.3391163    4.3391163    2294.6519   -4872.8358    24278.455   -12521.664     4467.254    367.08107   -8798.4985    81.696581 
   69800    1402.3735   -113.81921     1.268897   -112.55031   -2249.1379    4.3457272    4.3457272    4.3457272   -2249.1379   -9310.3851    15860.291    -13297.32   -1783.3128   -8102.5912    6760.4892    82.070559 
   69900    297.75327   -112.83133   0.26941342   -112.56191   -4341.3594    4.3363566    4.3363566    4.3363566   -4341.3594    8537.0031    15749.546   -37310.628   -4298.9467     32201.26   -32582.522    81.540802 
   70000    794.56219   -113.27691   0.71893656   -112.55797    2075.8568    4.3360258    4.3360258    4.3360258    2075.8568    11578.161    18644.983   -23995.573    -1536.683    12791.791   -11619.058    81.522139 
   70100    1550.7411    -113.9474    1.4031432   -112.54426     406.3436    4.3439394    4.3439394    4.3439394     406.3436   -1704.9906     8993.558   -6069.5365   -1763.7834   -6258.4628    13809.566    81.969307 
   70200    635.56382    -113.1374    0.5750715   -112.56233   -7431.4509    4.3372929    4.3372929    4.3372929   -7431.4509    3313.9326    5078.2679   -30686.553   -2370.9457     26348.66   -30437.377    81.593633 
   70300    468.40747    -112.9881   0.42382492   -112.56427   -1779.1616    4.3312056    4.3312056    4.3312056   -1779.1616    8476.4505    3967.7625   -17781.698   -3381.4793    20679.269    -18015.92    81.250564 
   70400    1282.4421   -113.71305    1.1603806   -112.55267   -3749.4408    4.3399366    4.3399366    4.3399366   -3749.4408   -5024.6488   -6612.2068    388.53328    3798.0662   -10886.609    19922.151    81.742924 
   70500    814.34707   -113.29494   0.73683834    -112.5581   -1610.3598    4.3397875    4.3397875    4.3397875   -1610.3598   -626.27603    6013.9815   -10218.785    3399.4907    11339.916   -12398.313      81.7345 
   70600     471.8227   -112.98841   0.42691509   -112.56149     4193.708    4.3349631    4.3349631    4.3349631     4193.708    9261.3618     9932.725   -6612.9627   -4194.7638    26219.627   -30992.269    81.462216 
   70700    1246.4938    -113.6786    1.1278538   -112.55074    3487.9529    4.3393046    4.3393046    4.3393046    3487.9529   -25.878284   -1175.5582    11665.295   -1586.6731   -5067.4035    5245.1606    81.707217 
   70800    959.99058   -113.42319   0.86861965   -112.55457    12630.811    4.3357503    4.3357503    4.3357503    12630.811    896.48902    12005.569    24990.373    2721.1471    2355.6969    3728.4758    81.506601 
   70900    269.24631     -112.808   0.24361972   -112.56438   -3821.3707    4.3417067    4.3417067    4.3417067   -3821.3707   -1610.5393     1269.644   -11123.217    1076.1223    27386.825   -32905.072    81.842981 
   71000    1069.5819   -113.52225   0.96778019   -112.55447    1645.4413    4.3385026    4.3385026    4.3385026    1645.4413   -2386.1294    5735.5331    1586.9201   -1290.0649    1784.3051   -5292.9848    81.661919 
   71100    1223.8541    -113.6548    1.1073689   -112.54743    18522.826    4.3304554    4.3304554    4.3304554    18522.826    9103.6122    14419.057    32045.808    4947.7384   -3705.7794    9847.3817    81.208355 
   71200    400.42848   -112.92409    0.3623161   -112.56177   -15990.238     4.345541     4.345541     4.345541   -15990.238   -9196.7655   -13578.004   -25195.946     2547.166     26484.41   -33534.885     82.06001 
   71300    798.85802   -113.28185   0.72282352   -112.55903    3083.7064    4.3336772    4.3336772    4.3336772    3083.7064   -2375.3247    15552.668    -3926.224   -6268.4016    5366.4969   -15726.792    81.389741 
   71400    1310.3321   -113.73374     1.185616   -112.54812    16342.928    4.3301642    4.3301642    4.3301642    16342.928    15232.345    14594.051    19202.387    3819.6425   -11090.057    20384.715    81.191972 
   71500    491.30675   -113.00489   0.44454467   -112.56035    -16821.74    4.3466026    4.3466026    4.3466026    -16821.74    3573.2013   -27848.208   -26190.213    6692.7249    22483.227    -19301.23    82.120163 
   71600    650.61151    -113.1472   0.58868697   -112.55851    2276.1603     4.333709     4.333709     4.333709    2276.1603    6294.2385    5826.6409   -5292.3987    630.39438    19875.428   -29672.617    81.391534 
   71700    1437.0511   -113.84458     1.300274    -112.5443     4495.092    4.3379048    4.3379048    4.3379048     4495.092    2151.3829    9193.4184    2140.4749   -2066.0919   -9931.2463     12381.69    81.628168 
   71800    632.95244   -113.13015   0.57270867   -112.55745   -3793.5054    4.3407056    4.3407056    4.3407056   -3793.5054    10538.905   -5925.4487   -15993.972    4111.2551    12122.336   -5618.5748    81.786383 
   71900    322.75666   -112.85378     0.292037   -112.56174      3146.14    4.3333041    4.3333041    4.3333041      3146.14    14091.127    12899.506   -17552.213    1547.7587    23076.772   -33231.796    81.368722 
   72000    1268.3517   -113.70088    1.1476312   -112.55325   -2630.1518    4.3406102    4.3406102    4.3406102   -2630.1518    -11725.31    9906.0574   -6071.2028   -13512.109   -8582.5135    2691.9315    81.780989 
   72100    1103.6127   -113.55336   0.99857198   -112.55479    15503.219    4.3303146    4.3303146    4.3303146    15503.219    14669.302    16129.935    15710.418   -1325.0385    4180.5146   -302.47148    81.200434 
   72200    425.04321   -112.95103   0.38458803   -112.56644   -1092.6346    4.3373738    4.3373738    4.3373738   -1092.6346    17182.573    296.13251   -20756.609    8583.9865    26608.742   -32195.211    81.598196 
   72300    835.46547   -113.31217   0.75594671   -112.55622   -17699.133    4.3463529    4.3463529    4.3463529   -17699.133   -18531.877   -11583.803   -22981.719   -16059.988   -4523.8141   -4371.3114    82.106009 
   72400    1176.5462    -113.6089    1.0645637   -112.54433    13434.294     4.329052     4.329052     4.329052    13434.294    187.01504    12410.937     27704.93   -10815.778   -11130.478     9162.985    81.129426 
   72500    716.06513   -113.20018   0.64791078   -112.55227   -6895.6021    4.3402333    4.3402333    4.3402333   -6895.6021    12855.511   -14412.648   -19129.669    8275.6616    19024.439   -29880.075    81.759688 
   72600    780.72563   -113.25969   0.70641696   -112.55327   -9000.8166    4.3381418    4.3381418    4.3381418   -9000.8166    1636.9984   -12912.678    -15726.77   -8823.5672      11415.9   -22360.211    81.641548 
   72700    1215.8924   -113.64892     1.100165   -112.54875    9488.8933     4.329034     4.329034     4.329034    9488.8933   -4894.5609    6269.3714    27091.869   -16658.493   -9188.6696    15183.272    81.128417 
   72800    835.24943   -113.31074   0.75575124   -112.55499   -12799.463    4.3434927    4.3434927    4.3434927   -12799.463    3558.7865   -22986.764   -18970.412    4509.8596     8797.453   -15067.368    81.944024 
   72900    583.03247   -113.08607   0.52754003   -112.55853   -1343.0836    4.3345192    4.3345192    4.3345192   -1343.0836    15396.403   -9770.4488   -9655.2047   -685.75105    17857.937   -33377.245    81.437193 
   73000    1251.4356    -113.6829    1.1323252   -112.55058     2937.813    4.3358176    4.3358176    4.3358176     2937.813   -8762.8865   -8331.9923    25908.318    -24898.74   -8809.6417    5882.0424      81.5104 
   73100    1100.2904   -113.54493   0.99556592   -112.54936   -6931.3712    4.3431723    4.3431723    4.3431723   -6931.3712   -298.19595   -25886.861    5390.9429   -4395.7083   -90.801132    -6624.773    81.925893 
   73200    463.81285   -112.97771   0.41966761   -112.55804    -122.3227    4.3323594    4.3323594    4.3323594    -122.3227     26588.72   -19388.528     -7567.16    7280.0277    21144.293   -33477.482     81.31552 
   73300    992.32378   -113.45413   0.89787541   -112.55625   -5473.7139    4.3358145    4.3358145    4.3358145   -5473.7139   -11112.563   -10911.852    5603.2737    -16403.43   -1594.2133   -153.39791     81.51022 
   73400    1235.9516   -113.66863     1.118315   -112.55032   -2420.5688     4.337949     4.337949     4.337949   -2420.5688   -1760.1175   -10804.854    5303.2655   -7421.7418    -10273.85    2209.4711    81.630662 
   73500    739.37904   -113.22746   0.66900569   -112.55845   -5368.6686    4.3354295    4.3354295    4.3354295   -5368.6686    32419.166   -24370.259   -24154.913    6291.3849    11452.708   -34960.914    81.488513 
   73600    837.62417   -113.31301   0.75789995   -112.55511    -6063.599    4.3356538    4.3356538    4.3356538    -6063.599   -3226.6623   -7522.6795   -7441.4552   -3657.9751    7420.7066   -7472.0855    81.501157 
   73700    973.06032   -113.43082   0.88044543   -112.55037   -4506.2099    4.3393253    4.3393253    4.3393253   -4506.2099   -16827.587    4415.7356   -1106.7781   -10395.182   -27027.302    6670.0688    81.708383 
   73800    869.37011   -113.33601   0.78662434   -112.54939   -9092.7075    4.3420813    4.3420813    4.3420813   -9092.7075    18279.546   -23654.123   -21903.546    948.00643   -6628.3451   -28867.419    81.864168 
   73900    1030.3063   -113.47854   0.93224277    -112.5463    5969.2044    4.3305709    4.3305709    4.3305709    5969.2044     10174.49    -4363.606    12096.729    6114.8503    17231.297    -10604.93    81.214852 
   74000     726.5514   -113.21096   0.65739897   -112.55356    2772.0697    4.3331719    4.3331719    4.3331719    2772.0697   -25907.824    24557.512    9666.5206   -6661.1794    -29800.05    8993.7555    81.361279 
   74100    771.86663   -113.25596   0.69840114   -112.55756   -8346.7018    4.3424365    4.3424365    4.3424365   -8346.7018   -10826.121   -6795.9148   -7418.0696    -7281.806   -23928.809   -17915.373    81.884259 
   74200    1261.4121   -113.68938    1.1413522   -112.54803    7446.4731    4.3354871    4.3354871    4.3354871    7446.4731    9532.3909    -8966.741     21773.77    4062.6968    13427.084    -15999.93    81.491759 
   74300     825.9622   -113.30193   0.74734796   -112.55459   -2280.6599    4.3343635    4.3343635    4.3343635   -2280.6599   -29186.579     25921.39   -3576.7907    -4454.592   -32299.627    5371.7981    81.428417 
   74400    550.94713   -113.05822   0.49850854   -112.55971    -3191.891    4.3390963    4.3390963    4.3390963    -3191.891   -21624.558    10940.876    1108.0088   -7548.5638   -24107.903    -950.8254    81.695451 
   74500    1157.9937   -113.59747    1.0477771    -112.5497   -748.52095    4.3408248    4.3408248    4.3408248   -748.52095   -5639.8482   -13169.122    16563.407    1613.3477     12932.73   -15267.288    81.793119 
   74600    1021.6485   -113.47439   0.92440899   -112.54998   -45.853669    4.3341032    4.3341032    4.3341032   -45.853669   -14606.842    20729.113    -6259.832    5050.5271   -30320.993    937.36588    81.413745 
   74700    832.90452   -113.30729   0.75362952   -112.55366    6840.7108     4.331247     4.331247     4.331247    6840.7108   -18648.038    32871.095    6299.0749   -10604.049   -19588.922    4804.2887    81.252894 
   74800    829.48382   -113.30339   0.75053439   -112.55285   -3871.7962     4.344127     4.344127     4.344127   -3871.7962   -22570.755    1077.3995    9877.9668   -4826.0282    17033.932   -13463.857    81.979931 
   74900    978.78609   -113.43503   0.88562623    -112.5494   -2474.3113    4.3404181    4.3404181    4.3404181   -2474.3113   -14925.083    12484.358   -4982.2092     18597.24   -15973.187   -5579.0811    81.770129 
   75000    1213.6186   -113.64387    1.0981076   -112.54576    14025.187    4.3271042    4.3271042    4.3271042    14025.187   -6894.1039    41182.771    7786.8941   -3383.1324   -19312.092    5803.7996    81.019967 
   75100    809.20473   -113.28863   0.73218544   -112.55645    1741.6972    4.3354039    4.3354039    4.3354039    1741.6972   -27539.058     24671.35    8092.8001   -14130.641    14579.416   -6873.4973    81.487066 
   75200    677.85283    -113.1737   0.61333549   -112.56037   -10095.129    4.3442553    4.3442553    4.3442553   -10095.129   -24510.448    -5688.509   -86.429926    16637.998    6159.0443   -11703.278    81.987196 
   75300    1375.8198   -113.79422    1.2448706   -112.54935    9224.6862    4.3324869    4.3324869    4.3324869    9224.6862   -216.97314    23867.743    4023.2886    6472.6263   -11384.219    6937.4928    81.322697 
   75400    987.82143   -113.44877   0.89380159   -112.55497    724.43476     4.333478     4.333478     4.333478    724.43476   -14392.315    16677.546    -111.9271   -13802.778    7629.1556    11173.216     81.37852 
   75500     564.5946   -113.06984   0.51085706   -112.55898   -15801.249    4.3438149    4.3438149    4.3438149   -15801.249   -33255.476   -16809.543    2661.2707    12902.708    12190.222   -15185.927    81.962262 
   75600    1260.4108   -113.68983    1.1404462   -112.54938   -1202.2157    4.3353065    4.3353065    4.3353065   -1202.2157    -7095.752    510.39057    2978.7142    11990.931     -5863.87    216.55202    81.481575 
   75700    1138.3633   -113.58072    1.0300151    -112.5507    6340.7714    4.3312378    4.3312378    4.3312378    6340.7714    14192.586    10176.513   -5346.7849   -11969.872    2362.5555    28652.087    81.252381 
   75800    857.33754   -113.33256   0.77573702   -112.55682   -900.47883    4.3357849    4.3357849    4.3357849   -900.47883   -19682.436    9469.4639    7511.5359    16934.306    13566.794   -5942.4778    81.508552 
   75900    862.45016   -113.33504   0.78036303   -112.55468   -3015.2097    4.3436439    4.3436439    4.3436439   -3015.2097   -22578.027    5710.3978    7821.9997    13662.548    1296.4206   -302.68207     81.95258 
   76000    998.27968   -113.45334   0.90326443   -112.55007   -322.54591    4.3375107    4.3375107    4.3375107   -322.54591    16619.895    -2965.648   -14621.884   -8323.3878     -6696.53    39132.655     81.60592 
   76100    1162.2433   -113.59839    1.0516222   -112.54677    16965.412    4.3244668    4.3244668    4.3244668    16965.412    10338.809    30980.578    9576.8491    9111.4589    8318.7168    708.65246     80.87191 
   76200    940.39673   -113.40535   0.85089073   -112.55446   -8630.4496    4.3423424    4.3423424    4.3423424   -8630.4496   -26870.981   -4603.0912     5582.723     17398.79    11336.762   -3725.8124    81.878937 
   76300    653.82245   -113.14843   0.59159229   -112.55684    -12171.63    4.3427501    4.3427501    4.3427501    -12171.63    6038.9973   -24618.786   -17935.103    3817.8922   -9716.2119    38863.101    81.901999 
   76400    1179.9964    -113.6154    1.0676856   -112.54771    14413.336    4.3262913    4.3262913    4.3262913    14413.336    16889.034    25431.544    919.42794   -8800.3134    1268.8562    6963.4851    80.974311 
   76500    1073.7897   -113.52135   0.97158747   -112.54976   -6935.6426    4.3404114    4.3404114    4.3404114   -6935.6426   -22812.119    -1651.352    3656.5433    14428.228    14855.008   -4848.0324    81.769751 
   76600    529.91187   -113.03523   0.47947539   -112.55575   -14308.128    4.3418872    4.3418872    4.3418872   -14308.128     27.15727   -18361.353   -24590.189    15134.882   -1811.3073    38815.687     81.85319 
   76700     978.4096   -113.43664   0.88528557   -112.55135    4548.4865     4.330936     4.330936     4.330936    4548.4865     8882.645    9598.6517   -4835.8372   -18998.882   -4697.7372    13780.198    81.235394 
   76800    1152.0236   -113.59227    1.0423751   -112.54989    1685.2418    4.3333027    4.3333027    4.3333027    1685.2418   -11386.174    10055.777    6386.1229   -4847.1003    6341.7916   -8363.5379    81.368646 
   76900    525.14306   -113.03506   0.47516047    -112.5599   -10372.933     4.339949     4.339949     4.339949   -10372.933    7774.6783   -11365.698   -27527.779    18590.093     8928.966    38417.142    81.743623 
   77000    790.10508   -113.27021   0.71490368   -112.55531   -11838.188    4.3420121    4.3420121    4.3420121   -11838.188    -4838.061   -21261.166   -9415.3355   -3426.0861   -5051.6598    16449.066    81.860253 
   77100    1194.4325   -113.62696    1.0807477   -112.54621    1963.2822    4.3302593    4.3302593    4.3302593    1963.2822   -7008.7033   -2306.3441    15204.894   -23488.866   -2472.9513   -14540.101     81.19732 
   77200     560.6108   -113.06371   0.50725244   -112.55646   -2640.5283    4.3335303    4.3335303    4.3335303   -2640.5283    25946.233   -18371.628    -15496.19    6736.8514    7812.9185    35527.328    81.381464 
   77300     675.1677   -113.16845   0.61090593   -112.55754   -16396.303    4.3451169    4.3451169    4.3451169   -16396.303    -7493.095     -32519.7   -9176.1134    23175.554    1556.3728    22715.381    82.035985 
   77400    1227.0776   -113.65831    1.1102856   -112.54802    4826.5061    4.3319447    4.3319447    4.3319447    4826.5061   -7695.0944    1152.4098    21022.203    -12494.77   -5305.1592   -13239.597     81.29217 
   77500    809.09403   -113.28714   0.73208528   -112.55505    3073.4202    4.3304579    4.3304579    4.3304579    3073.4202    32665.591   -17788.167   -5657.1634   -11319.998   -1901.1214    29080.474    81.208496 
   77600    591.32407   -113.09557   0.53504245   -112.56053   -7197.3879    4.3403895    4.3403895    4.3403895   -7197.3879    7849.6795   -33977.907    4536.0637    28411.036    6873.8161    24048.216    81.768515 
   77700     1185.295   -113.62404    1.0724798   -112.55156    6270.4916    4.3358985    4.3358985    4.3358985    6270.4916   -9306.9574   -2141.0524    30259.485    11666.672    2588.3764   -11727.183    81.514962 
   77800    1097.2372   -113.54425   0.99280328   -112.55144    1020.1397    4.3348738    4.3348738    4.3348738    1020.1397    27631.823   -15234.562   -9336.8415   -13326.405   -9004.5919    23459.037    81.457179 
   77900    594.70687   -113.09763   0.53810328   -112.55953   -7708.9045     4.334942     4.334942     4.334942   -7708.9045    14087.981   -37911.579    696.88387    17257.295   -959.87886    26962.608    81.461028 
   78000    907.75185   -113.37765   0.82135295    -112.5563   -31.469912    4.3368801    4.3368801    4.3368801   -31.469912    -7842.063   -15783.774    23531.427    26713.844    4623.4543   -13887.812    81.570337 
   78100    1232.5535   -113.66389    1.1152403   -112.54865   -5526.8723     4.340327     4.340327     4.340327   -5526.8723    8573.4746   -8239.8488   -16914.243   -5784.8207   -3963.1745     6523.833    81.764984 
   78200    929.91878   -113.39404   0.84141005   -112.55263   -185.99077    4.3307569    4.3307569    4.3307569   -185.99077    11948.967   -13338.128    831.18842    9345.7704   -5950.4781     26467.97    81.225317 
   78300    589.54241   -113.09182   0.53343036   -112.55839   -1922.6728    4.3328132    4.3328132    4.3328132   -1922.6728   -3153.7222   -29231.366     26617.07    31173.146     7552.698   -10051.326    81.341073 
   78400    1007.0823   -113.46516    0.9112292   -112.55393   -10244.052    4.3446016    4.3446016    4.3446016   -10244.052    1509.0568   -15980.577   -16260.637   -6965.1672    4192.4457   -17564.425      82.0068 
   78500    1279.9434   -113.70601    1.1581197   -112.54789    5483.1164    4.3342693    4.3342693    4.3342693    5483.1164    11228.563    5732.4603   -511.67424    2556.5903   -9177.3688     14097.52    81.423106 
   78600    670.42753   -113.16369   0.60661692   -112.55707    999.50665    4.3298631    4.3298631    4.3298631    999.50665     2203.909   -23948.606    24743.217    41835.667    6139.3742   -1064.6428    81.175039 
   78700    595.30347   -113.09967   0.53864309   -112.56103   -11914.529    4.3404918    4.3404918    4.3404918   -11914.529   -3264.8085   -21216.433   -11262.346   -3147.3335    7337.8545    -21438.46    81.774299 
   78800    1188.2498   -113.62641    1.0751534   -112.55126    959.06211    4.3358478    4.3358478    4.3358478    959.06211   -515.88321    3889.0034   -495.93384   -12415.829   -7397.6829   -2953.6008      81.5121 
   78900    1001.9831   -113.45816   0.90661535   -112.55155    1256.2641    4.3340451    4.3340451    4.3340451    1256.2641   -6224.8861   -13747.652     23741.33    41349.585    1673.9858    1531.3806     81.41047 
   79000    678.01981   -113.16822   0.61348657   -112.55473   -7537.6585    4.3388138    4.3388138    4.3388138   -7537.6585   -25.980384   -18193.227   -4393.7679    5309.7882    4340.7533   -16016.174    81.679497 
   79100    860.77524   -113.33002   0.77884753   -112.55117    4922.5127    4.3353012    4.3353012    4.3353012    4922.5127    4862.5659   -2582.9207    12487.893   -24384.745    2541.4571   -10765.472    81.481279 
   79200    1086.5587   -113.53174    0.9831411    -112.5486    3179.0448    4.3355231    4.3355231    4.3355231    3179.0448   -10328.884   -12498.299    32364.317    28665.789    -1614.306    11001.845     81.49379 
   79300    987.83799   -113.44466   0.89381658   -112.55085    858.02394    4.3357296    4.3357296    4.3357296    858.02394    3750.9349   -12132.504    10955.641    14332.642   -1531.3131   -13077.864    81.505433 
   79400    755.77788   -113.23968   0.68384371   -112.55584      510.833    4.3341136    4.3341136    4.3341136      510.833    5077.5185   -24555.212    21010.193   -28281.931    10377.909   -21023.212    81.414335 
   79500    961.96258   -113.42294   0.87040396   -112.55254    1805.0809    4.3394328    4.3394328    4.3394328    1805.0809   -12337.276   -12118.226    29870.744    4808.5653    671.69706    15228.146    81.714458 
   79600    1185.6361   -113.61981    1.0727884   -112.54702    389.54954    4.3375822    4.3375822    4.3375822    389.54954     2141.364   -5091.8321    4119.1167    16971.272   -10282.986   -9283.2325     81.60996 
   79700    761.60243   -113.24198   0.68911389   -112.55287    2937.4798    4.3312034    4.3312034    4.3312034    2937.4798      10649.5   -24408.233    22571.173   -19673.465    1015.3134   -28773.667    81.250441 
   79800    888.22561   -113.35751    0.8036852   -112.55382   -2929.8395     4.336798     4.336798     4.336798   -2929.8395   -2458.3646    -16341.07    10009.916   -14683.734    10267.751    12419.132    81.565702 
   79900    1098.1761   -113.54265   0.99365282     -112.549   -4044.6097    4.3396371    4.3396371    4.3396371   -4044.6097   -9808.3223    6696.7562   -9022.2631    8799.8199   -8286.6135    6383.4069    81.725997 
   80000    774.43027   -113.25273   0.70072078   -112.55201   -4375.0792    4.3358038    4.3358038    4.3358038   -4375.0792   -4595.8638   -7004.5385   -1524.8352   -4473.7485   -15124.197   -30117.364    81.509621 
   80100     790.2734   -113.26566   0.71505598    -112.5506   -4828.4473    4.3352957    4.3352957    4.3352957   -4828.4473   -775.15695   -15435.809    1725.6243   -14026.344    15388.697    2606.7108     81.48097 
   80200    848.56364   -113.31689   0.76779821    -112.5491   -3100.9004     4.338206     4.338206     4.338206   -3100.9004   -9034.7518     9486.036   -9753.9855   -2386.4902   -4836.3029    18749.465    81.645174 
   80300    916.04581   -113.37827    0.8288575   -112.54941   -5577.1635    4.3367119    4.3367119    4.3367119   -5577.1635   -12048.876    5646.6928   -10329.307    3999.3592   -28188.079   -20393.638    81.560843 
   80400     844.7597   -113.31403   0.76435633   -112.54967   -651.53749    4.3329876    4.3329876    4.3329876   -651.53749    2177.3955   -11801.271    7669.2634   -8553.5988    11980.169   -1450.6805    81.350898 
   80500      609.496   -113.10641   0.55148479   -112.55493   -7884.8184    4.3402637    4.3402637    4.3402637   -7884.8184   -11036.487   -463.98291   -12153.985   -8879.9635   -142.28928    23212.882    81.761405 
   80600    1006.4658   -113.46099   0.91067142   -112.55032   -3959.9597    4.3393898    4.3393898    4.3393898   -3959.9597   -14340.944     12101.91   -9640.8446    4859.2321   -35461.403   -4636.5009    81.712028 
   80700    1233.1287   -113.66085    1.1157608   -112.54509    10802.506    4.3298346    4.3298346    4.3298346    10802.506     15203.86   -4956.7385    22160.396   -3178.9165    5696.4372    -778.4514    81.173432 
   80800     595.7276   -113.09792   0.53902685   -112.55889    -2047.887    4.3367528    4.3367528    4.3367528    -2047.887    4304.4316   -17649.085     7200.992   -8582.4006    9655.2532    19731.959    81.563153 
   80900    820.55888    -113.3007   0.74245892   -112.55824   -1421.2964    4.3405824    4.3405824    4.3405824   -1421.2964   -7034.3381    1519.3788      1251.07   -1840.4252    -19232.21    3715.2874    81.779417 
   81000    1315.7446   -113.73779    1.1905133   -112.54727    12549.534    4.3334034    4.3334034    4.3334034    12549.534    23493.366   -7507.2063    21662.442    5448.8404   -5892.3178   -9743.0614    81.374319 
   81100    873.85877    -113.3446   0.79068578   -112.55391    2073.4776     4.334232     4.334232     4.334232    2073.4776    5983.0632   -23536.848    23774.218   -2352.2878    7145.6302    8359.3364    81.421004 
   81200    906.16553   -113.37268   0.81991762   -112.55277   -2183.1971     4.337979     4.337979     4.337979   -2183.1971   -6824.6864   -4099.4221    4374.5171   -9052.2958   -3927.2835    12292.544    81.632358 
   81300     984.7214   -113.44119   0.89099661   -112.55019    2162.3226    4.3370434    4.3370434    4.3370434    2162.3226    23082.559   -13856.306   -2739.2858    7240.9284   -10179.051   -21884.048    81.579549 
   81400    829.19461    -113.3024   0.75027271   -112.55213   -5876.9054    4.3360102    4.3360102    4.3360102   -5876.9054    -1902.813   -34073.874    18345.971    578.86608    1186.5029   -16029.911    81.521262 
   81500     1051.724    -113.5014     0.951622   -112.54978    727.30991    4.3330204    4.3330204    4.3330204    727.30991   -7485.9844   -8407.5772    18075.491    -6875.605    10334.606    9901.1955    81.352742 
   81600    1028.8461   -113.48195   0.93092158   -112.55103   -2891.2507    4.3372922    4.3372922    4.3372922   -2891.2507    20482.019   -8967.2454   -20188.525    2823.3583   -615.04091   -22375.017    81.593593 
   81700    738.90916   -113.22386   0.66858053   -112.55528   -9871.3554    4.3381617    4.3381617    4.3381617   -9871.3554    4954.0995   -36708.472    2140.3065    4289.0351   -4287.0272   -21164.662    81.642672 
   81800    744.05467   -113.22866    0.6732363   -112.55543   -627.56974    4.3315333    4.3315333    4.3315333   -627.56974    -4226.731   -20347.756    22691.778    -6014.069    8168.0284    11925.137    81.269013 
   81900    1085.4948   -113.53428   0.98217852    -112.5521   -1429.3242    4.3371383    4.3371383    4.3371383   -1429.3242    17380.461   -3541.9727   -18126.461   -4828.5009    4294.8857   -8127.9234    81.584905 
   82000    1126.2471   -113.56989     1.019052   -112.55084    1490.7334    4.3369395    4.3369395    4.3369395    1490.7334    23738.261   -17324.971   -1941.0897    8796.5157   -1926.6738   -18160.758    81.573686 
   82100    446.90649   -112.96444   0.40437039   -112.56007    2915.3171    4.3331674    4.3331674    4.3331674    2915.3171    13403.582   -31358.853    26701.223   -4318.8716    4279.2991     3344.636    81.361024 
   82200    806.82308   -113.28943   0.73003048    -112.5594   -3983.4945    4.3398082    4.3398082    4.3398082   -3983.4945    14284.483   -16866.129    -9368.837   -9311.4728    5207.5914     14861.76    81.735666 
   82300    1430.7892   -113.84133    1.2946081   -112.54672    10914.422    4.3337619    4.3337619    4.3337619    10914.422    35705.804    492.02689   -3454.5665     2132.386    4.0833974    3192.6397    81.394517 
   82400    655.26734   -113.15375   0.59289966   -112.56085   -2108.3642    4.3357041    4.3357041    4.3357041   -2108.3642    2191.2615   -27876.698    19360.344     133.7467   -3393.2041     -3106.11    81.503996 
   82500     476.8298   -112.99445   0.43144562     -112.563   -10586.801    4.3379267    4.3379267    4.3379267   -10586.801    1929.0061    -41243.86    7554.4499   -9673.7215    1490.0311    19744.557    81.629402 
   82600    1224.0179   -113.65888    1.1075171   -112.55137    8630.4223    4.3308387    4.3308387    4.3308387    8630.4223    28287.636   -7961.8107    5565.4416   -1286.8196   -2928.1854    9993.3662    81.229922 
   82700    902.72827   -113.37158   0.81680751   -112.55478    -8335.704    4.3411571    4.3411571    4.3411571    -8335.704   -10666.586   -17997.755    3657.2286    1653.0625   -14479.684   -9830.2459    81.811906 
   82800    600.50848   -113.09968   0.54335269   -112.55632    -3736.479    4.3361646    4.3361646    4.3361646    -3736.479   -3063.6836   -31207.652    23061.899   -9839.4308    2251.8292    13160.021    81.529969 
   82900    1061.0686   -113.50744   0.96007719   -112.54736     7622.178    4.3293855    4.3293855    4.3293855     7622.178    19385.253   -15298.204    18779.485    1036.0815    793.72224    9133.9183    81.148176 
   83000     633.2012   -113.12614   0.57293375    -112.5532   -15140.161    4.3433003    4.3433003    4.3433003   -15140.161   -10351.772   -12164.742   -22903.969   -1634.7764   -17124.988    -16387.74    81.933133 
   83100    614.20143   -113.11132   0.55574236   -112.55557    -6292.365    4.3356491    4.3356491    4.3356491    -6292.365   -16880.425   -18584.471    16587.801   -10662.429    2749.0346   -3608.9176    81.500895 
   83200    1244.8895   -113.67327    1.1264021   -112.54687    9089.3715    4.3311205    4.3311205    4.3311205    9089.3715    6392.1971   -8570.5625     29446.48    -2149.514    3653.0499    4988.4281    81.245779 
   83300    777.04219   -113.25937    0.7030841   -112.55629    -6810.283    4.3395099    4.3395099    4.3395099    -6810.283   -4544.4035    2166.3918   -18052.837     2928.108   -26852.456   -11358.629    81.718811 
   83400    406.60984   -112.92912   0.36790913   -112.56121   -3909.1214    4.3369534    4.3369534    4.3369534   -3909.1214   -12111.512   -12938.466    13322.613   -8167.3247   -2339.4308   -10265.519    81.574473 
   83500    1114.5378   -113.55887    1.0084572   -112.55041   -3415.3057    4.3388447    4.3388447    4.3388447   -3415.3057   -7180.9507   -24736.003    21671.037   -6929.9357     9031.972    13990.085    81.681239 
   83600    1049.9416   -113.50016   0.95000924   -112.55015    6663.5141    4.3302199    4.3302199    4.3302199    6663.5141    4284.3328    17247.841   -1541.6311    3435.3867   -28387.069    6236.4038    81.195105 
   83700    786.98939   -113.26742   0.71208454   -112.55534   -265.94658     4.336482     4.336482     4.336482   -265.94658   -16127.929    8728.2688    6601.8205   -8657.8279   -10591.883   -15096.813    81.547874 
   83800    919.17892   -113.38079   0.83169241    -112.5491   -14239.329    4.3463769    4.3463769    4.3463769   -14239.329   -10249.199   -32406.856    -61.93246    -7289.053    12484.707    16849.931     82.10737 
   83900    936.67419    -113.3949   0.84752249   -112.54738    8266.8494    4.3295626    4.3295626    4.3295626    8266.8494    13463.624    13832.831    -2495.907    4292.1934   -18009.074    26846.694    81.158135 
   84000    1119.5299   -113.56013    1.0129742   -112.54716    1454.1992    4.3344064    4.3344064    4.3344064    1454.1992   -15357.861    14543.804    5176.6547   -3559.1255   -17843.591   -10917.298    81.430833 
   84100    917.52993   -113.38124   0.83020037   -112.55104   -2936.0872    4.3391343    4.3391343    4.3391343   -2936.0872   -5346.9288   -18024.634    14563.301   -7840.7499    13299.081    4778.6036    81.697597 
   84200    590.13792     -113.091   0.53396919   -112.55703    5763.4864    4.3338209    4.3338209    4.3338209    5763.4864    15850.988   -9260.1164    10699.588   -645.41757   -6084.0999    30722.172    81.397839 
   84300    1071.8765    -113.5202   0.96985634   -112.55035    2089.3383    4.3388186    4.3388186    4.3388186    2089.3383   -12257.109    10835.639    7689.4849    5594.6784   -21604.708   -1622.1294    81.679764 
   84400    985.35987    -113.4409   0.89157432   -112.54933    13085.591    4.3331998    4.3331998    4.3331998    13085.591   -6442.7463    14508.175    31191.344    -5365.237    13013.464    855.06103    81.362846 
   84500    471.83644   -112.98479   0.42692753   -112.55786   -3309.5783    4.3393942    4.3393942    4.3393942   -3309.5783    6521.7756   -17374.077     923.5667   -5966.7422    5900.9316    33519.962    81.712277 
   84600    942.49402   -113.40299    0.8527884    -112.5502   -127.25616    4.3389133    4.3389133    4.3389133   -127.25616   -7470.7385   -5604.9631    12693.933    5142.5786   -17160.226    4633.0769    81.685116 
   84700     1110.876    -113.5511     1.005144   -112.54596    11811.192     4.331077     4.331077     4.331077    11811.192   -7498.7519    16995.346    25936.983    5386.1255    8176.3848   -3166.2196    81.243328 
   84800     560.3911   -113.06327   0.50705365   -112.55621   -10505.909    4.3411818    4.3411818    4.3411818   -10505.909    3787.3191   -20232.403   -15072.642   -8191.1481    17677.831    36126.209    81.813305 
   84900    882.56176   -113.35033   0.79856043   -112.55177    1547.1127    4.3343125    4.3343125    4.3343125    1547.1127    10961.189   -22136.976    15817.125   -3990.0134   -7506.3596    8307.7893    81.425541 
   85000    1100.9981   -113.54542   0.99620619   -112.54921    1476.4766    4.3341772    4.3341772    4.3341772    1476.4766    -9479.381   -1026.5834    14935.394    18089.136     1194.782   -12679.864    81.417915 
   85100    743.61903   -113.22617   0.67284213   -112.55333   -9139.0249    4.3401931    4.3401931    4.3401931   -9139.0249   -7895.2092   -11035.087   -8486.7786    763.35813    21210.091    27782.016    81.757417 
   85200    949.84684     -113.409   0.85944138   -112.54956    3227.8525    4.3352213    4.3352213    4.3352213    3227.8525    16385.749   -17291.453    10589.261   -12848.303   -5796.9673    13876.281    81.476773 
   85300    1003.6797   -113.45591   0.90815047   -112.54776    -5676.483    4.3397969    4.3397969    4.3397969    -5676.483   -1444.7183   -20488.137     4903.406    13934.358   -2062.8975   -16465.308     81.73503 
   85400    856.33665   -113.32585    0.7748314   -112.55102    585.94657    4.3314036    4.3314036    4.3314036    585.94657     3383.955    4950.9422   -6577.0575    15880.939      26735.5    10441.183    81.261711 
   85500    1054.2965   -113.50558   0.95394959   -112.55163    -637.2187    4.3337617    4.3337617    4.3337617    -637.2187     10145.54   -3304.0056   -8753.1907   -17056.001    -799.5974    18885.445    81.394504 
   85600    873.09224   -113.34344   0.78999221   -112.55344   -13023.654    4.3416137    4.3416137    4.3416137   -13023.654   -7061.4038   -29439.336   -2570.2207   -3788.7052   -7472.5621   -4324.6215    81.837724 
   85700    822.39929   -113.29781   0.74412416   -112.55369    3811.5325    4.3295118    4.3295118    4.3295118    3811.5325    1241.1866    6532.6531    3660.7579    26854.843    18885.448   -8311.4729    81.155279 
   85800    1075.2712   -113.52235     0.972928   -112.54942    -4080.952    4.3385481    4.3385481    4.3385481    -4080.952    1345.8303    1218.0262   -14806.712   -10548.611    3192.4685    10917.933    81.664489 
   85900    780.72033    -113.2564   0.70641216   -112.54998   -9605.0963     4.341905     4.341905     4.341905   -9605.0963    3958.2754   -26718.757    -6054.807   -16904.328   -10569.521      5896.88    81.854198 
   86000    637.67296   -113.12874    0.5769799   -112.55176    2688.5137    4.3318268    4.3318268    4.3318268    2688.5137    10338.326   -11811.685    9538.9002    29363.253    9136.9026   -9055.4901    81.285532 
   86100    1115.4855     -113.557    1.0093147   -112.54768    3721.9889    4.3335598    4.3335598    4.3335598    3721.9889    11797.633    18.343324   -650.00978    5077.5134    6898.7004   -3632.4625    81.383127 
   86200    878.16386   -113.34762   0.79458112   -112.55304    6405.9371     4.335229     4.335229     4.335229    6405.9371     29117.19   -11622.889      1723.51   -22001.566   -11085.892    6235.6431    81.477204 
   86300    508.73036   -113.02006   0.46030992   -112.55975   -9180.2819    4.3402637    4.3402637    4.3402637   -9180.2819   -5814.7495   -37043.878    15317.782    21547.181    -993.1876    86.247459    81.761404 
   86400     975.3322   -113.43502   0.88250107   -112.55252    3344.2719    4.3327009    4.3327009    4.3327009    3344.2719    17159.354   -19173.316    12046.777      18991.4    8750.1696   -17349.122    81.334748 
   86500    1184.4622   -113.61975    1.0717263   -112.54803    3691.3488     4.334119     4.334119     4.334119    3691.3488    15100.135   -7518.1056    3492.0169   -15723.011   -14164.405    -4383.793    81.414635 
   86600    709.31675   -113.19707    0.6418047   -112.55527   -17225.793    4.3432284    4.3432284    4.3432284   -17225.793   -32498.324   -39376.709    20197.654    15307.404   -9441.5081    5625.7562    81.929064 
   86700    798.40345   -113.27631   0.72241222    -112.5539    4151.7928    4.3280629    4.3280629    4.3280629    4151.7928    12834.105   -32034.892    31656.166    24476.834     4341.103   -18807.161    81.073829 
   86800    1184.9206   -113.62277    1.0721411   -112.55063    1989.4653    4.3352758    4.3352758    4.3352758    1989.4653    19389.572   -14440.028    1018.8516   -9741.6141    -5369.915   -12359.969    81.479846 
   86900    878.88709   -113.34855   0.79523551   -112.55331   -11193.182     4.342682     4.342682     4.342682   -11193.182   -25162.417   -23533.318    15116.189     11066.42   -8291.3654    6711.5591    81.898152 
   87000    906.78461    -113.3718   0.82047777   -112.55132    8175.6223    4.3286847    4.3286847    4.3286847    8175.6223    5591.7792   -24364.999    43300.086    24244.523   -1311.1899   -10321.995    81.108779 
   87100    1271.4111   -113.69779    1.1503995   -112.54739   -2710.3947    4.3378498    4.3378498    4.3378498   -2710.3947    13027.254   -17053.126   -4105.3117    -5991.231    810.00025   -14457.405    81.625066 
   87200    643.78018   -113.14138   0.58250584   -112.55888   -3596.8801    4.3355573    4.3355573    4.3355573   -3596.8801   -10271.543   -6344.4065    5825.3096    8717.0388   -4704.6963    8120.8092    81.495716 
   87300    720.71997   -113.21458   0.65212258   -112.56246    5883.3859    4.3329452    4.3329452    4.3329452    5883.3859    183.53875   -20567.765    38034.384     25892.15   -3216.5674    7531.4017    81.348507 
   87400    1590.1641   -113.98318    1.4388139   -112.54436   -4961.9523    4.3451953    4.3451953    4.3451953   -4961.9523   -2473.1053    -19232.12    6819.3687   -6099.4172    3719.1107   -6016.6041    82.040423 
   87500    669.94353   -113.16443   0.60617899   -112.55826    5785.9726    4.3339321    4.3339321    4.3339321    5785.9726   -11342.065    2719.7872    25980.196    5220.5291   -6640.1265    3135.9733    81.404104 
   87600    468.42772   -112.98437   0.42384325   -112.56053   -6028.6964    4.3385187    4.3385187    4.3385187   -6028.6964   -11042.898   -30996.681    23953.489    28472.636   -3511.6256    10539.894    81.662827 
   87700    1432.3168   -113.84353    1.2959903   -112.54754    633.86193    4.3375131    4.3375131    4.3375131    633.86193    8545.2414   -20542.361    13898.705   -2036.0711    1322.0176   -3105.1086    81.606056 
   87800    1138.4628   -113.58471    1.0301051   -112.55461     11769.41    4.3248126    4.3248126    4.3248126     11769.41   -4971.0317    8740.0924    31539.168   -166.78912   -2953.6906   -4689.6714     80.89131 
   87900    561.76848    -113.0739   0.50829993    -112.5656   -14750.163     4.340237     4.340237     4.340237   -14750.163   -29948.192   -22836.762    8534.4654    30224.533   -4779.7293    12818.869    81.759897 
   88000    971.52684   -113.43745    0.8790579   -112.55839   -4695.2673    4.3376705    4.3376705    4.3376705   -4695.2673    4191.0051   -26729.548     8452.741     2095.875    3020.0521   -6659.6811     81.61494 
   88100    1180.2008   -113.61682    1.0678705   -112.54895     4160.904    4.3328254    4.3328254    4.3328254     4160.904    9524.0372    -13549.42    16508.095   -5536.6435   -425.59491   -18796.282    81.341763 
   88200     831.2168    -113.3037   0.75210243    -112.5516   -9680.3029    4.3403492    4.3403492    4.3403492   -9680.3029   -26458.035   -21288.411    18705.537     33323.28   -7361.9068    7096.9982    81.766236 
   88300    915.99843   -113.37663   0.82881463   -112.54782    2459.6218    4.3355467    4.3355467    4.3355467    2459.6218   -470.70129   -12704.223     20553.79    9026.9119    3689.0034   -4611.9576    81.495122 
   88400    1066.9433   -113.51212   0.96539271   -112.54673   -1530.9203    4.3367007    4.3367007    4.3367007   -1530.9203    17262.362   -27356.141    5501.0188   -11042.922     1299.029   -18629.287    81.560214 
   88500    842.97883   -113.31608   0.76274496   -112.55334   -59.316374     4.332812     4.332812     4.332812   -59.316374   -7243.4707    -27559.53    34625.051    33856.378   -3863.9724     1768.665    81.341004 
   88600    1036.3726   -113.49139   0.93773167   -112.55365    5995.4008    4.3319833    4.3319833    4.3319833    5995.4008   -3535.7964   -9150.6364    30672.635    19792.285   -133.12506   -1871.7305    81.294342 
   88700    1168.9697   -113.60882    1.0577084   -112.55111   -8362.6723    4.3423534    4.3423534    4.3423534   -8362.6723    16838.207    -29086.27   -12839.954   -10083.381   -1102.8791   -16659.564    81.879559 
   88800    607.01897   -113.10869   0.54924352   -112.55945   -3337.0551    4.3313048    4.3313048    4.3313048   -3337.0551    8710.7192   -43888.106    25166.222    35034.612    1217.5783   -669.93572    81.256153 
   88900    779.25372   -113.26448   0.70508514    -112.5594    3425.5627     4.330666     4.330666     4.330666    3425.5627    3822.2499    -27914.99    34369.428    15888.625   -4691.0623    6198.7494    81.220202 
   89000    1361.9555   -113.77888     1.232326   -112.54655   -6628.2959    4.3451306    4.3451306    4.3451306   -6628.2959     11164.85   -21121.047    -9928.691   -17478.984   -5341.2538   -8802.2942    82.036761 
   89100    799.03615   -113.27883    0.7229847   -112.55585   -663.50814    4.3334703    4.3334703    4.3334703   -663.50814    19560.863   -34449.662    12898.275    38924.961     2667.137   -879.97789    81.378088 
   89200    406.53676   -112.92825     0.367843    -112.5604   -5918.5493    4.3290214    4.3290214    4.3290214   -5918.5493    4009.5055   -48501.975    26736.822    15594.876   -3795.4155    10850.417    81.127709 
   89300    1041.8547   -113.49853   0.94269204   -112.55584   -5019.4582    4.3367807    4.3367807    4.3367807   -5019.4582    4625.0444   -24953.249    5269.8299   -37353.757   -2287.8061     1.754061    81.564727 
   89400    1191.1917   -113.62895    1.0778153   -112.55113    3005.2415    4.3382128    4.3382128    4.3382128    3005.2415    8497.8699   -8538.7589    9056.6136    23722.532    4104.4095   -2288.7969    81.645554 
   89500    590.20277   -113.09281   0.53402787   -112.55878   -7883.2373    4.3364776    4.3364776    4.3364776   -7883.2373   -4699.8647   -42462.734    23512.887    20659.422   -1617.7685    6235.8458    81.547627 
   89600    613.05718   -113.11189   0.55470702   -112.55718    582.22371    4.3294963    4.3294963    4.3294963    582.22371    15288.662   -34711.603    21169.612   -42204.508   -3533.7947    5668.1338     81.15441 
   89700     1205.869   -113.64228    1.0910956   -112.55119    2818.4846    4.3369591    4.3369591    4.3369591    2818.4846    14628.914   -13639.125    7465.6651    1765.7737   -734.87061   -5664.8083    81.574794 
   89800     1048.951   -113.50098   0.94911288   -112.55187    2447.7479    4.3382141    4.3382141    4.3382141    2447.7479    8779.8039   -20745.947    19309.387    13787.956    2272.7359    338.71761     81.64563 
   89900     515.8455   -113.02451   0.46674785   -112.55776    4950.1467    4.3310772    4.3310772    4.3310772    4950.1467    19869.511   -34882.472    29863.401   -38799.223   -2727.1451    10282.874    81.243338 
   90000    897.86184   -113.36766   0.81240426   -112.55526    -2739.699    4.3371344    4.3371344    4.3371344    -2739.699    19259.183   -28657.312    1179.0318   -10170.188    349.85099   -12918.752    81.584683 
   90100    1187.7621   -113.62315    1.0747121   -112.54844    8575.5251     4.334188     4.334188     4.334188    8575.5251    19646.527   -7921.2133    14001.261    4953.8183    10296.488   -10798.997    81.418524 
   90200    899.83578   -113.36736   0.81419032   -112.55317     3455.496    4.3356471    4.3356471    4.3356471     3455.496    755.85417   -19394.988    29005.622   -35114.251   -4629.8429     9513.507    81.500781 
   90300     828.6375   -113.30448   0.74976862   -112.55471   -5228.5972    4.3362255    4.3362255    4.3362255   -5228.5972    3363.3275   -26248.178    7199.0589   -11116.086   -4798.5018   -12289.721    81.533406 
   90400     1011.763   -113.46763   0.91546441   -112.55216    9884.6962    4.3276807    4.3276807    4.3276807    9884.6962    22847.424   -7675.2686    14481.933    8586.4909    11643.007   -19544.191    81.052357 
   90500    992.62089   -113.45287   0.89814424   -112.55473   -4187.4749    4.3390302    4.3390302    4.3390302   -4187.4749   -21447.782   -7211.4988    16096.856   -30414.806   -2608.0978    5181.8043    81.691715 
   90600    885.67104    -113.3546   0.80137377   -112.55322    -5234.956    4.3390828    4.3390828    4.3390828    -5234.956   -16174.495   -9480.6115    9950.2382   -18223.342   -16027.479   -9187.2015    81.694685 
   90700    1037.9578   -113.48799   0.93916602   -112.54882    8834.0122    4.3285952    4.3285952    4.3285952    8834.0122    24103.983    -8210.911    10608.965    10413.407    6066.2396   -13873.396    81.103749 
   90800    980.79189   -113.43754   0.88744111    -112.5501   -6923.1067    4.3387552    4.3387552    4.3387552   -6923.1067   -18416.266   -10093.827    7740.7733   -17497.659    5490.7146    7767.5803    81.676182 
   90900    809.58888    -113.2838   0.73253303   -112.55126    -4649.529    4.3383064    4.3383064    4.3383064    -4649.529   -34944.739    8207.0495    12789.102   -21454.806   -21960.877   -5882.4913     81.65084 
   91000     978.1158   -113.43563   0.88501974   -112.55061    227.78074    4.3317143    4.3317143    4.3317143    227.78074    13484.199   -14368.986    1568.1286    5670.8185   -8146.6168   -17690.184      81.2792 
   91100     1070.722   -113.51954   0.96881181   -112.55073   -521.96983    4.3326126    4.3326126    4.3326126   -521.96983    8607.0014   -18690.394     8517.483   -7724.3057    7265.2939    4605.4267    81.329776 
   91200    819.24474   -113.29726   0.74126986   -112.55599   -2458.7818    4.3358267    4.3358267    4.3358267   -2458.7818   -31070.147    7208.9464    16484.855   -22981.171   -19976.193    5824.7434     81.51091 
   91300    922.03335   -113.38825   0.83427516   -112.55397   -6888.6828    4.3399094    4.3399094    4.3399094   -6888.6828   -5071.5704   -7869.5802   -7724.8977   -46.665001   -16622.807   -18172.599    81.741384 
   91400    1121.2122   -113.56336    1.0144964   -112.54887    4234.2532    4.3318704    4.3318704    4.3318704    4234.2532    26683.138   -18947.182    4966.8032   -1027.7726    10242.654     197.3642    81.287987 
   91500    768.53768   -113.24935   0.69538905   -112.55396   -2391.0276    4.3332973    4.3332973    4.3332973   -2391.0276   -11156.617   -11694.736     15678.27   -23741.627   -17619.005    16175.178    81.368341 
   91600    875.91011   -113.34521   0.79254188   -112.55267   -9457.8348    4.3407634    4.3407634    4.3407634   -9457.8348   -9177.0065   -15296.613   -3899.8847   -7634.0232   -25682.908    -14933.27    81.789651 
   91700    1169.1009   -113.60544    1.0578271   -112.54762    7104.6195    4.3311364    4.3311364    4.3311364    7104.6195    27110.559   -18491.195    12694.495    4762.1163    8140.2915   -9189.1278    81.246672 
   91800    742.12574   -113.22711   0.67149097   -112.55562    1621.0083    4.3320948    4.3320948    4.3320948    1621.0083    11623.427   -20041.873    13281.471   -14509.907   -6013.2941    21036.782    81.300619 
   91900    653.71941   -113.15077   0.59149906   -112.55927   -5609.6566    4.3381055    4.3381055    4.3381055   -5609.6566   -11786.165   -11515.907    6473.1028   -14490.944   -30577.927    1641.6443    81.639498 
   92000    1178.1008   -113.61608    1.0659704   -112.55011    11885.414    4.3333729    4.3333729    4.3333729    11885.414    14754.053   -9617.5767    30519.766    6389.6119   -2214.4443   -6828.1962      81.3726 
   92100    911.02253   -113.37886   0.82431233   -112.55455    768.18543    4.3362147    4.3362147    4.3362147    768.18543    22195.927   -26097.525    6206.1545    -6156.466    1460.4039    18059.649    81.532798 
   92200    372.16164   -112.89822   0.33673967   -112.56148   -5181.8254    4.3352861    4.3352861    4.3352861   -5181.8254   -10391.735   -11546.909    6393.1678    -19362.71   -30758.825    8298.5125    81.480427 
   92300    1041.9082   -113.49633    0.9427404   -112.55359    5922.2635    4.3334512    4.3334512    4.3334512    5922.2635   -3064.4427    -2696.719    23527.952    2708.3515   -15887.633   -5682.5687    81.377013 
   92400    1239.2312   -113.67158    1.1212825    -112.5503    1094.5959    4.3381978    4.3381978    4.3381978    1094.5959    16391.215    -16590.16    3482.7331    3290.0212     10950.42    12990.316    81.644712 
   92500     302.4451   -112.83965   0.27365868     -112.566   -5651.0026     4.332935     4.332935     4.332935   -5651.0026   -9931.1624   -7469.1447     447.2992   -17216.316    -25742.42    12647.483    81.347934 
   92600    594.86277    -113.1057   0.53824433   -112.56746    1221.5977    4.3309134    4.3309134    4.3309134    1221.5977   -8550.8428     707.7805    11507.855   -8218.7658   -23472.542   -2320.4272    81.234125 
   92700    1467.6961   -113.87953    1.3280023   -112.55153    5380.5283    4.3385027    4.3385027    4.3385027    5380.5283     13271.51   -3526.0018    6396.0765    5367.8277    14765.141   -4907.3562    81.661924 
   92800    661.43537   -113.16194   0.59848063   -112.56346    110.60924     4.336784     4.336784     4.336784    110.60924   -8917.6887    494.03354    8755.4829   -12014.458   -20699.412    8540.0948    81.564913 
   92900    337.04287   -112.86943   0.30496347   -112.56447   -4346.0439    4.3351708    4.3351708    4.3351708   -4346.0439   -12246.418   -7811.3756     7019.662   -19661.286   -28241.977     2211.567    81.473925 
   93000    1274.3016   -113.70218    1.1530148   -112.54916    3096.8904    4.3360834    4.3360834    4.3360834    3096.8904    14327.018   -12716.601    7680.2545    1062.1994    8872.4515    -18114.34    81.525391 
   93100    1039.9373    -113.4925   0.94095709   -112.55154    10398.531    4.3327567    4.3327567    4.3327567    10398.531   -105.54961    9626.1089    21675.035   -2009.5907   -13911.633    97.898398     81.33789 
   93200    510.47516   -113.02129   0.46188865   -112.55941    -5636.195    4.3375235    4.3375235    4.3375235    -5636.195   -23336.824   -7514.8458    13943.085   -20859.654   -28968.609    6571.1203    81.606647 
   93300    859.48661   -113.33243   0.77768154   -112.55475   -1989.4433    4.3343746    4.3343746    4.3343746   -1989.4433    8811.3648   -24792.506    10012.812   -6429.5404    6718.4375   -20762.706     81.42904 
   93400    1118.9232   -113.56218    1.0124252   -112.54976    7688.6477    4.3310372    4.3310372    4.3310372    7688.6477    11307.857   -7630.4337     19388.52    5452.0564   -684.17632   -9589.0084    81.241088 
   93500    794.91387   -113.27255   0.71925478    -112.5533   -5874.7686    4.3410455    4.3410455    4.3410455   -5874.7686   -24791.178   -8964.1275        16131   -19303.856   -29345.156    4907.0721    81.805594 
   93600    684.59557   -113.17221   0.61943645   -112.55277   -2944.1926    4.3359653    4.3359653    4.3359653   -2944.1926   -2203.7363   -21723.507    15094.665   -13752.637   -2240.4209   -17669.743     81.51873 
   93700    946.43147   -113.40503   0.85635108   -112.54867    4958.0584    4.3297338    4.3297338    4.3297338    4958.0584    19964.038   -15065.501    9975.6386    7617.7273    8104.9809   -11881.513    81.167763 
   93800    1008.5456    -113.4619   0.91255322   -112.54935   -1674.1077    4.3362346    4.3362346    4.3362346   -1674.1077   -12375.181   -9242.7671    16595.625   -10859.631   -18933.809    12725.297    81.533918 
   93900    784.92535   -113.26365   0.71021696   -112.55343   -3928.4546    4.3377329    4.3377329    4.3377329   -3928.4546    -13935.67     -11394.4    13544.706   -18339.361   -6596.4932   -16450.396    81.618464 
   94000    687.34056    -113.1767   0.62192019   -112.55478   -750.02937    4.3335424    4.3335424    4.3335424   -750.02937    18330.612    -18603.87   -1976.8299    1430.5621      11437.7   -20743.821    81.382148 
   94100    1034.8747   -113.48667   0.93637634   -112.55029    1590.9856    4.3328747    4.3328747    4.3328747    1590.9856    5766.1415    -11461.67    10468.485   -462.10269   -4401.4291    22661.292    81.344538 
   94200    998.90518    -113.4533    0.9038304   -112.54947   -2220.6391    4.3387555    4.3387555    4.3387555   -2220.6391   -17453.096   -581.97053    11373.149   -14905.973   -6549.5109   -9283.7372    81.676201 
   94300    647.91355   -113.14089   0.58624579   -112.55465   -2711.2774    4.3353671    4.3353671    4.3353671   -2711.2774    5884.8701   -17252.922    3234.2202   -6989.1367    5750.1249   -32278.433    81.484994 
   94400    840.14008   -113.31414    0.7601764   -112.55397    9027.1356    4.3288372    4.3288372    4.3288372    9027.1356    22142.946   -7583.4527    12521.914    4277.8483    3804.3303     26923.44    81.117351 
   94500    1160.8311   -113.59985    1.0503444   -112.54951    2118.3079    4.3377018    4.3377018    4.3377018    2118.3079   -10138.914     4267.012    12226.826   -9271.5816   -1823.2509    13393.495    81.616706 
   94600    833.92679   -113.30924   0.75455449   -112.55468    -1600.585    4.3368581    4.3368581    4.3368581    -1600.585   -6432.1733    -17186.24    18816.658    -9987.392    1360.6814   -39061.904    81.569094 
   94700    659.28395   -113.15321   0.59653398   -112.55668    2118.6851    4.3294158    4.3294158    4.3294158    2118.6851    20675.263   -16603.068    2283.8596    2702.8172    8135.7335    10491.925    81.149884 
   94800    1087.3166   -113.53574    0.9838269   -112.55191   -1373.1602    4.3354028    4.3354028    4.3354028   -1373.1602   -2710.0918   -4378.1027     2968.714   -136.66843    961.34108    31750.601    81.487006 
   94900    963.10231   -113.42331   0.87143521   -112.55188   -3955.9421    4.3374853    4.3374853    4.3374853   -3955.9421   -15203.085   -17594.036    20929.294   -8978.4377   -7403.4341   -28929.015    81.604491 
   95000    756.05026   -113.23878   0.68409016   -112.55469   -6771.2518    4.3339909    4.3339909    4.3339909   -6771.2518      13048.5   -25844.284   -7517.9713    -4502.087    3170.0079   -10122.286    81.407419 
   95100    1087.1607   -113.53364   0.98368584   -112.54996    259.02314    4.3319343    4.3319343    4.3319343    259.02314     10592.45   -4940.6065   -4874.7746    3972.1116    2518.7182    32090.327    81.291581 
   95200    815.72036   -113.29106   0.73808092   -112.55298   -3486.2961    4.3369048    4.3369048    4.3369048   -3486.2961   -19950.397   -9234.0803    18725.589   -5712.6868   -11780.824   -11373.218     81.57173 
   95300    707.23151   -113.19474   0.63991793   -112.55482   -12345.516     4.341215     4.341215     4.341215   -12345.516   -4032.0781   -24762.551   -8241.9192   -7719.9738   -231.70069    -20981.75    81.815179 
   95400    1289.9214   -113.71212     1.167148   -112.54497    5938.9994    4.3309077    4.3309077    4.3309077    5938.9994    14678.944    2730.1181    407.93595    2934.2536    2353.8842      16831.8    81.233804 
   95500    919.48147    -113.3839   0.83196616   -112.55193    94.474401    4.3331623    4.3331623    4.3331623    94.474401   -22728.144    9826.9436    13184.624   -2915.4351   -15284.517    532.64645    81.360734 
   95600    317.23184   -112.85083   0.28703804   -112.56379   -16660.077    4.3412806    4.3412806    4.3412806   -16660.077   -26775.652   -20125.863   -3078.7148   -8482.2098   -8605.1832   -27421.743     81.81889 
   95700    1216.0144   -113.65709    1.1002754   -112.55681    7985.8544    4.3302537    4.3302537    4.3302537    7985.8544    6584.4023     11961.47    5411.6913    2377.4809    6953.5711   -10693.305    81.197007 
   95800    1379.1465   -113.80138    1.2478808    -112.5535    4876.0696    4.3335572    4.3335572    4.3335572    4876.0696   -8076.8234     19388.36    3316.6719    1419.6574    878.80153    9879.1012    81.382982 
   95900    432.12349   -112.95822   0.39099441   -112.56723   -15613.863    4.3395786    4.3395786    4.3395786   -15613.863   -17773.572   -27623.924   -1444.0923   -6743.3858   -12279.804   -24621.111    81.722696 
   96000    806.02699   -113.28927   0.72931016   -112.55996   -294.00532    4.3324764    4.3324764    4.3324764   -294.00532   -2130.4302   -3720.3651    4968.7794     3167.499    4359.9416   -17668.549    81.322106 
   96100    1258.4038   -113.68588    1.1386302   -112.54725   -5710.4649    4.3401042    4.3401042    4.3401042   -5710.4649   -12052.906    12900.308   -17978.797    701.83563    14355.893    21161.849    81.752391 
   96200     876.2609   -113.34323   0.79285928   -112.55037   -6975.3205    4.3354346    4.3354346    4.3354346   -6975.3205   -2805.0406   -10727.514    -7393.407   -7792.3173    -9280.316   -14720.401    81.488799 
   96300    816.20651   -113.28771    0.7385208   -112.54919    3046.2395    4.3297064    4.3297064    4.3297064    3046.2395   -1036.5144    746.88407    9428.3489   -1461.9251    3032.7193   -22969.081    81.166223 
   96400    828.97535   -113.30065   0.75007432   -112.55058    -11805.54    4.3409163    4.3409163    4.3409163    -11805.54    -12443.32    3975.4409   -26948.741    4152.5721    28435.376    23679.242    81.798294 
   96500    1008.7424   -113.46116    0.9127313   -112.54843    1314.5185    4.3340131    4.3340131    4.3340131    1314.5185      11450.9    770.15125    -8277.496   -1060.9144   -3421.1061    6296.0407    81.408668 
   96600    964.38846   -113.42024   0.87259894   -112.54764    841.61111    4.3336657    4.3336657    4.3336657    841.61111   -7638.0446    2202.1922    7960.6857   -10993.623   -4742.1547    -21959.41    81.389093 
   96700    538.28951   -113.04044   0.48705566   -112.55338   -10962.461    4.3398117    4.3398117    4.3398117   -10962.461   -24041.692    10809.995   -19655.687    122.40533     31801.33    13304.274    81.735867 
   96800     820.7963   -113.29545   0.74267374   -112.55278    4101.2042    4.3322797    4.3322797    4.3322797    4101.2042    14765.586    6040.8179   -8502.7916    6143.8261     7008.479    23020.739    81.311028 
   96900    1214.0638   -113.64703    1.0985105   -112.54852    5405.0855    4.3324894    4.3324894    4.3324894    5405.0855    4293.9191    6003.0156    5918.3217   -4942.6254   -10252.391   -13287.543    81.322839 
   97000    639.11438   -113.13802   0.57828412   -112.55974   -2467.8767    4.3348347    4.3348347    4.3348347   -2467.8767   -18112.145    25342.072   -14633.557    -9677.333    28468.114   -543.72573    81.454977 
   97100    563.95514   -113.07236   0.51027846   -112.56208   -3287.9012    4.3380715    4.3380715    4.3380715   -3287.9012    969.18897   -289.01113   -10543.881    7635.9885    17478.412    27489.885    81.637582 
   97200    1331.9994   -113.75078    1.2052211   -112.54556   -1548.2835    4.3400957    4.3400957    4.3400957   -1548.2835   -1219.0337   -8351.3141    4925.4974    10551.008   -12089.247    1270.1822    81.751912 
   97300    952.30975   -113.40985   0.86166987   -112.54818    409.35035    4.3327034    4.3327034    4.3327034    409.35035   -14856.547    19851.839    -3767.241   -17927.632    25824.288   -4578.3573    81.334887 
   97400    561.24039   -113.06308    0.5078221   -112.55526   -7779.5612    4.3341182    4.3341182    4.3341182   -7779.5612   -6106.1163   -7652.8798   -9579.6877    2018.4927    22113.604    21527.731    81.414592 
   97500    1068.5438     -113.519   0.96684091   -112.55216   -5951.8754    4.3378378    4.3378378    4.3378378   -5951.8754   -663.85573   -17629.226    437.45534    21393.533   -10814.056    14864.629    81.624384 
   97600    1280.1024   -113.70814    1.1582635   -112.54988    6183.0239    4.3314541    4.3314541    4.3314541    6183.0239   -7386.2054    20973.295    4961.9826   -5915.2879    18259.519   -11452.508    81.264551 
   97700    746.34502   -113.23318   0.67530866   -112.55787   -184.87822    4.3341541    4.3341541    4.3341541   -184.87822    633.98624    6348.6084   -7537.2293   -2992.7787    24189.102    17253.988    81.416618 
   97800    735.80609   -113.22149   0.66577281   -112.55572   -6995.6482    4.3405505    4.3405505    4.3405505   -6995.6482    1114.2128   -16532.389   -5568.7686    19081.738   -6829.7004     25930.53    81.777615 
   97900    1119.4344   -113.56059    1.0128877    -112.5477    2809.3019    4.3345883    4.3345883    4.3345883    2809.3019   -1809.0041      7462.12    2774.7897    7015.4423    8464.8883   -13068.254    81.441086 
   98000    945.46328   -113.40452   0.85547504   -112.54905    4299.4017     4.330608     4.330608     4.330608    4299.4017    3510.7445    14780.083   -5392.6225   -5585.5462    24893.555    5291.5667    81.216942 
   98100    708.86277   -113.19593   0.64139393   -112.55454   -2978.2648     4.337201     4.337201     4.337201   -2978.2648    8211.1636   -14451.987   -2693.9714    13126.919   -326.93998    34172.031    81.588445 
   98200     940.9265   -113.40157   0.85137007    -112.5502   -503.74452    4.3375157    4.3375157    4.3375157   -503.74452    1144.8604   -11002.993    8346.8989    16268.798   -2130.9019   -4549.3738    81.606205 
   98300    939.27565   -113.39828   0.84987634   -112.54841    1993.2683     4.333413     4.333413     4.333413    1993.2683    5532.0997    9507.9727   -9060.2675   -5747.1221    24176.594   -14350.345    81.374856 
   98400    762.16567   -113.24175   0.68962352   -112.55213   -3127.9393    4.3338276    4.3338276    4.3338276   -3127.9393     9024.511   -12187.155   -6221.1735    8443.3097      7025.06    26709.983    81.398219 
   98500    829.87946   -113.30283   0.75089237   -112.55194    1266.1945     4.335193     4.335193     4.335193    1266.1945    8067.8486   -17152.354    12883.089    23686.993   -8955.4964    15458.706    81.475174 
   98600    975.43531   -113.43232   0.88259436   -112.54973    1257.9218    4.3362232    4.3362232    4.3362232    1257.9218    5358.3637    6527.2166   -8111.8148   -5439.4448    20911.505   -17828.398    81.533272 
   98700    779.20948   -113.25713   0.70504511   -112.55209   -342.67072    4.3353808    4.3353808    4.3353808   -342.67072    16825.541   -8226.9182   -9626.6346    1266.8516    15602.492    7931.5661    81.485766 
   98800     814.2643    -113.2886   0.73676345   -112.55183    1333.2955     4.333241     4.333241     4.333241    1333.2955    13203.733    -20646.06    11442.213    27724.208   -7759.8979    21061.962     81.36517 
   98900    921.99498   -113.38459   0.83424043   -112.55035    2672.0307    4.3346991    4.3346991    4.3346991    2672.0307    3984.2322    8525.6894   -4493.8295    3533.7985    6190.0539   -7876.9441    81.447331 
   99000     897.5526    -113.3636   0.81212445   -112.55147   -2760.3569    4.3368202    4.3368202    4.3368202   -2760.3569    8237.7422    2956.8628   -19475.676   -3990.6881    21143.951   -7196.1177    81.566955 
   99100    886.86703   -113.35482   0.80245593   -112.55237    2473.3822    4.3325251    4.3325251    4.3325251    2473.3822    13894.171   -16227.722    9753.6977    22718.222    256.76308    15481.073    81.324851 
   99200      1000.51   -113.45555   0.90528247   -112.55027    2874.7624    4.3341941    4.3341941    4.3341941    2874.7624    5922.2533    2844.7538   -142.71973    8783.8259   -9126.1707    5457.5161     81.41887 
   99300    745.01519    -113.2281    0.6741054   -112.55399   -9321.6631    4.3398513    4.3398513    4.3398513   -9321.6631    -230.9149    7291.9017   -35025.976   -8068.9291    20686.893   -14779.455    81.738103 
   99400    1049.5323   -113.50037   0.94963884   -112.55073    1325.8984    4.3332765    4.3332765    4.3332765    1325.8984    13003.995    -5918.012   -3108.2882    10474.091     10243.64    1692.7963    81.367169 
   99500    1345.2468   -113.76289    1.2172076   -112.54568    7416.5886    4.3319255    4.3319255    4.3319255    7416.5886    17639.421   -1667.0091    6277.3534    13363.799    -9363.278    5036.5745    81.291087 
   99600    493.19535   -113.00834   0.44625352   -112.56209   -11452.945    4.3381577    4.3381577    4.3381577   -11452.945    498.28996    10826.771   -45683.896   -9826.8357    12502.955   -11397.246    81.642445 
   99700    799.80424   -113.28803   0.72367968   -112.56435    -406.3314    4.3340018    4.3340018    4.3340018    -406.3314    15105.721     11688.87   -28013.585   -3355.8565    13630.305   -10488.713    81.408033 
   99800    1693.5501   -114.08074    1.5323598   -112.54838    11661.088    4.3322376    4.3322376    4.3322376    11661.088    36517.937   -1696.9199    162.24504    6410.0435   -7749.0468    3542.3464    81.308657 
   99900    748.32027   -113.24377   0.67709591   -112.56667   -8453.8513    4.3369874    4.3369874    4.3369874   -8453.8513    12180.457    3341.1222   -40883.133   -5625.1182    11737.213   -31.986065    81.576387 
  100000    519.28598   -113.03768   0.46986087   -112.56782   -7487.3418    4.3333631    4.3333631    4.3333631   -7487.3418   -2028.4694    16157.552   -36591.108   -7370.6704    14742.166   -13975.425    81.372049 
Loop time of 21.8482 on 1 procs for 100000 steps with 8 atoms

Pair  time (%) = 6.7696 (30.9847)
Kspce time (%) = 5.3444 (24.4615)
Neigh time (%) = 0 (0)
Comm  time (%) = 1.0711 (4.90245)
Outpt time (%) = 0.0255873 (0.117114)
Other time (%) = 8.63755 (39.5343)

Nlocal:    8 ave 8 max 8 min
Histogram: 1 0 0 0 0 0 0 0 0 0
Nghost:    2189 ave 2189 max 2189 min
Histogram: 1 0 0 0 0 0 0 0 0 0
Neighs:    2056 ave 2056 max 2056 min
Histogram: 1 0 0 0 0 0 0 0 0 0

Total # of neighbors = 2056
Ave neighs/atom = 257
Neighbor list builds = 0
Dangerous builds = 0
unfix 20
unfix 21
print "seeds:5615099"
seeds:5615099
