LAMMPS (10 Feb 2015)
# ---- initialize simulations
clear
units metal
dimension 3
boundary p p p
atom_style charge
atom_modify map array
# ---- create atoms
read_data /Users/eugeneragasa/pyflamestk_git/pypospack/tests/tests_integration/workflow/WorkflowLammpsThermalExpansion/MgO_NaCl_unit.npt.T100/lammps.structure
  triclinic box = (0 0 0) to (4.2565 4.2565 4.2565) with tilt (0 0 0)
  1 by 1 by 1 MPI processor grid
  reading atoms ...
  8 atoms
# ---- define interatomic potential
include potential.mod
mass 1 24.305
mass 2 15.999

group Mg type 1
4 atoms in group Mg
group O type 2
4 atoms in group O

set group Mg charge 2.0
  4 settings made for charge
set group O charge -2.0
  4 settings made for charge

variable R_cut equal 10.0

pair_style buck/coul/long ${R_cut}
pair_style buck/coul/long 10
pair_coeff 1 1 0.0 0.5 0.0 ${R_cut}
pair_coeff 1 1 0.0 0.5 0.0 10
pair_coeff 1 2 1279.69 0.29969 0.0 ${R_cut}
pair_coeff 1 2 1279.69 0.29969 0.0 10
pair_coeff 2 2 9547.96 0.21916 32.0 ${R_cut}
pair_coeff 2 2 9547.96 0.21916 32.0 10

kspace_style pppm 1.0e-5

neighbor 1.0 bin
neigh_modify every 1 delay 0 check yes
# ---- define settings
compute eng all pe/atom
compute eatoms all reduce sum c_eng
# ---- run minimization
reset_timestep 0
fix 1 all box/relax iso 0.0 vmax 0.001
thermo 10
thermo_style custom step pe lx ly lz xy xz yz press pxx pyy pzz pxy pxz pyz c_eatoms
min_style cg
minimize 1e-25 1e-25 5000 10000
PPPM initialization ...
  G vector (1/distance) = 0.354854
  grid = 8 8 8
  stencil order = 5
  estimated absolute RMS force accuracy = 5.34408e-05
  estimated relative force accuracy = 3.71126e-06
  using double precision FFTs
  3d grid and FFT values/proc = 3375 512
Neighbor list info ...
  1 neighbor list requests
  update every 1 steps, delay 0 steps, check yes
  master list distance cutoff = 11
Memory usage per processor = 4.06549 Mbytes
Step PotEng Lx Ly Lz Xy Xz Yz Press Pxx Pyy Pzz Pxy Pxz Pyz eatoms 
       0    -164.6599       4.2565       4.2565       4.2565            0            0            0   -75586.685   -75586.685   -75586.685   -75586.685 9.4798587e-11 1.6226154e-10 -3.4446142e-11    -164.6599 
      10   -164.72135     4.213935     4.213935     4.213935            0            0            0   -8637.4527   -8637.4527   -8637.4527   -8637.4527 -1.5549588e-10 2.0227431e-10 -1.1495762e-10   -164.72135 
      15   -164.72214      4.20883      4.20883      4.20883            0            0            0    5.5876567    5.5876567    5.5876567    5.5876567 2.0554645e-10 4.244052e-10 1.3955449e-10   -164.72214 
Loop time of 0.0227461 on 1 procs for 15 steps with 8 atoms

Minimization stats:
  Stopping criterion = linesearch alpha is zero
  Energy initial, next-to-last, final = 
        -164.659901251     -164.722138416     -164.722138416
  Force two-norm initial, final = 10.9148 0.000791362
  Force max component initial, final = 10.9148 0.000788889
  Final line search alpha, max atom move = 0.015625 1.23264e-05
  Iterations, force evaluations = 15 55

Pair  time (%) = 0.0061779 (27.1603)
Kspce time (%) = 0.00404239 (17.7718)
Neigh time (%) = 0 (0)
Comm  time (%) = 0.000853777 (3.75351)
Outpt time (%) = 5.88894e-05 (0.258899)
Other time (%) = 0.0116131 (51.0555)

Nlocal:    8 ave 8 max 8 min
Histogram: 1 0 0 0 0 0 0 0 0 0
Nghost:    2189 ave 2189 max 2189 min
Histogram: 1 0 0 0 0 0 0 0 0 0
Neighs:    2344 ave 2344 max 2344 min
Histogram: 1 0 0 0 0 0 0 0 0 0

Total # of neighbors = 2344
Ave neighs/atom = 293
Neighbor list builds = 0
Dangerous builds = 0
unfix 1
# ---- define output variables ----
variable natoms equal "count(all)"
variable tot_energy equal "c_eatoms"
variable length_x equal "lx"
variable length_y equal "ly"
variable length_z equal "lz"
variable tilt_xy equal "xy"
variable tilt_xz equal "xz"
variable tilt_yz equal "yz"
variable tot_press equal "press"
variable press_xx equal "pxx"
variable press_yy equal "pyy"
variable press_zz equal "pzz"
variable press_xy equal "pxy"
variable press_xz equal "pxz"
variable press_yz equal "pyz"

# ---- output ----
print "pypospack:output_section:begin"
pypospack:output_section:begin
print "tot_energy = ${tot_energy}"
tot_energy = -164.722138415744
print "num_atoms = ${natoms}"
num_atoms = 8
print "xx = ${length_x}"
xx = 4.20883001371435
print "yy = ${length_y}"
yy = 4.20883001371435
print "zz = ${length_z}"
zz = 4.20883001371435
print "xy = ${tilt_xy}"
xy = 0
print "xz = ${tilt_xz}"
xz = 0
print "yz = ${tilt_yz}"
yz = 0
print "tot_press = ${tot_press}"
tot_press = 5.58765665687492
print "pxx = ${press_xx}"
pxx = 5.58765665651822
print "pyy = ${press_yy}"
pyy = 5.58765665647238
print "pzz = ${press_zz}"
pzz = 5.58765665763416
print "pxy = ${press_xy}"
pxy = 2.0554645346851e-10
print "pxz = ${press_xz}"
pxz = 4.24405202668874e-10
print "pyz = ${press_yz}"
pyz = 1.39554488680613e-10
print "pypospack:output_section:done"
pypospack:output_section:done
print "pypospack:lammps_sim:done"
pypospack:lammps_sim:done
#------------------------------------------------------------------------------
# RUN THERMOSTAT
# running using an NPT Nose-Hoover style thermostat
#------------------------------------------------------------------------------
variable tempdamp equal 0.1
variable pressdamp equal 1.0
# set initial velocities
velocity all create 100 1203010 mom yes dist gaussian loop all
# fix for Nose-Hoover style thermostat
fix 20 all npt temp 100 100 0.1 aniso 0.0 0.0 1.0 drag 1.0 couple xyz
variable boxx equal lx
variable boxy equal ly
variable boxz equal lz
variable boxp equal press
variable boxt equal temp
# calculate averages every 10000 steps
reset_timestep 0
fix 21 all ave/time 10 10 100 v_boxx v_boxy v_boxz v_boxp v_boxt file lattice.out
thermo_style custom step temp pe ke etotal press lx ly lz press pxx pyy pzz pxy pxz pyz vol
thermo_modify flush yes
thermo 100
run 100000
PPPM initialization ...
  G vector (1/distance) = 0.355405
  grid = 8 8 8
  stencil order = 5
  estimated absolute RMS force accuracy = 5.20839e-05
  estimated relative force accuracy = 3.61703e-06
  using double precision FFTs
  3d grid and FFT values/proc = 3375 512
Memory usage per processor = 3.06549 Mbytes
Step Temp PotEng KinEng TotEng Press Lx Ly Lz Press Pxx Pyy Pzz Pxy Pxz Pyz Volume 
       0          100   -164.72213  0.090482102   -164.63165    1302.7638      4.20883      4.20883      4.20883    1302.7638    1581.7704    953.58542    1372.9355    428.56038    -158.3295   -465.38294    74.556267 
     100    74.734175    -164.6857  0.067621052   -164.61808    2884.4376    4.2093386    4.2093386    4.2093386    2884.4376    2334.7847    1226.9629    5091.5652   -54.954211    -849.6193   -14.523709    74.583301 
     200    52.310392   -164.64202  0.047331542   -164.59468    2487.1663    4.2106586    4.2106586    4.2106586    2487.1663   -108.06024    963.42535    6606.1339   -1432.7584   -430.65056    370.57478    74.653483 
     300    83.747199   -164.64799  0.075776225   -164.57222   -2416.8436    4.2124789    4.2124789    4.2124789   -2416.8436   -1750.6724   -2774.7449   -2725.1135   -270.09784    127.30228    -311.4133    74.750347 
     400    79.334206   -164.62766  0.071783256   -164.55587   -2834.0451     4.213162     4.213162     4.213162   -2834.0451   -6143.3655   -4934.3168    2575.5471    1231.8894   -380.41702   -305.13092    74.786717 
     500    64.915903   -164.60474  0.058737274   -164.54601   -2620.2635    4.2133847    4.2133847    4.2133847   -2620.2635   -6480.5683   -3445.2785    2065.0563   -241.89201   -103.39324   -416.55292    74.798576 
     600     58.21156    -164.5938  0.052671043   -164.54113   -600.74656    4.2131849    4.2131849    4.2131849   -600.74656    2036.9952    -1258.181   -2581.0539   -962.38323    238.73721   -273.37871    74.787939 
     700    62.912648   -164.59711  0.056924686   -164.54018    2208.9046    4.2121732    4.2121732    4.2121732    2208.9046   -2487.6915   -1162.0247     10276.43   -821.25406    243.03074    609.40891    74.734074 
     800    133.96564   -164.66139   0.12121493   -164.54018    -749.7351    4.2119329    4.2119329    4.2119329    -749.7351   -191.26063   -2800.9227    742.97806    1143.6113    882.94412    115.43195    74.721285 
     900    136.86567   -164.66429   0.12383894   -164.54046    138.10934    4.2118974    4.2118974    4.2118974    138.10934    1672.6609   -1236.5032   -21.829648   -486.57171    1249.6775     69.26571    74.719397 
    1000    69.983647   -164.60421  0.063322674   -164.54088    4101.7259    4.2114776    4.2114776    4.2114776    4101.7259    946.93563    1064.1949    10294.047   -2228.0529    352.62263    1139.2998    74.697056 
    1100    101.98064   -164.63295  0.092274226   -164.54068    1173.0592    4.2118975    4.2118975    4.2118975    1173.0592    800.41336   -1090.1401    3808.9045   -658.99209    40.640374    837.86903    74.719402 
    1200    138.41383   -164.66586   0.12523974   -164.54062   -3518.2297    4.2129883    4.2129883    4.2129883   -3518.2297   -4634.7184   -5300.5286   -619.44209    331.89057    851.58321    -14.98118    74.777471 
    1300    102.26513   -164.63341  0.092531641   -164.54088   -634.63925    4.2129547    4.2129547    4.2129547   -634.63925   -2944.3584   -3611.3055    4651.7461    53.871553   -428.58413    219.38303    74.775677 
    1400    101.76303   -164.63292  0.092077331   -164.54084   -1367.0409    4.2130952    4.2130952    4.2130952   -1367.0409   -2750.9262   -1966.3619    616.16527   -2272.8689    97.172669   -116.12725    74.783163 
    1500    112.33073   -164.64273   0.10163921   -164.54109   -2202.8666    4.2134457    4.2134457    4.2134457   -2202.8666   -594.87505   -4258.1753   -1755.5495   -146.96325   -165.62145   -342.41454    74.801826 
    1600    111.36914   -164.64194   0.10076914   -164.54117   -368.68538    4.2128249    4.2128249    4.2128249   -368.68538   -3301.1956   -5194.7076     7389.847     1466.939   -1195.9484    -490.0218     74.76877 
    1700    120.91541    -164.6505    0.1094068   -164.54109   -3258.1357    4.2127802    4.2127802    4.2127802   -3258.1357   -2953.5617   -4020.1169   -2800.7286    238.82236   -331.68501   -1731.7311    74.766389 
    1800    67.411101   -164.60217  0.060994981   -164.54118    1436.7921    4.2124253    4.2124253    4.2124253    1436.7921    3548.2382   -1019.7774    1781.9155   -576.81463   -671.16109   -806.47933    74.747493 
    1900    44.988243   -164.58182  0.040706308   -164.54111    1813.8035    4.2120299    4.2120299    4.2120299    1813.8035   -2115.4465   -1676.1021    9232.9591   -532.13984   -704.15536    499.19103    74.726447 
    2000    101.03681   -164.63216  0.091420226   -164.54074   -2008.2186    4.2122992    4.2122992    4.2122992   -2008.2186    -924.8583   -3816.4393   -1283.3582    1436.2199   -88.977791     -205.612    74.740779 
    2100    88.819523    -164.6211  0.080365771   -164.54074     147.8694    4.2126493    4.2126493    4.2126493     147.8694   -630.18074   -3044.4361     4118.225    167.18075    144.53803   -201.99872     74.75942 
    2200    76.036346   -164.60963  0.068799284   -164.54083    1880.7561    4.2123696    4.2123696    4.2123696    1880.7561    11.633087    248.25078    5382.3843   -1910.8615   -788.65772    482.32582    74.744529 
    2300    138.17746   -164.66573   0.12502587   -164.54071   -144.04725    4.2124562    4.2124562    4.2124562   -144.04725    1280.4512   -669.02072   -1043.5723   -789.81537   -11.198218    585.00663    74.749139 
    2400    149.60021   -164.67621   0.13536142   -164.54084   -1840.1315    4.2131188    4.2131188    4.2131188   -1840.1315   -2903.3609   -4725.2486     2108.215    23.286751    615.89008    908.94447    74.784416 
    2500    122.94231   -164.65207   0.11124079   -164.54083    1289.9727    4.2123389    4.2123389    4.2123389    1289.9727   -312.65093   -1999.5326    6182.1015   -35.404194   -152.10437    556.13523    74.742897 
    2600    109.66725   -164.63998  0.099229235   -164.54075   -1225.4943    4.2122883    4.2122883    4.2122883   -1225.4943   -1547.6362   -538.08607   -1590.7607   -2616.5825    1098.5718   -808.09825    74.740202 
    2700    76.315459   -164.61008  0.069051831   -164.54103     234.4064    4.2124842    4.2124842    4.2124842     234.4064   -61.821476    -2006.429    2771.4696   -587.83938    17.803685    203.60983    74.750631 
    2800    82.900817   -164.61591  0.075010402    -164.5409    -446.5079    4.2120436    4.2120436    4.2120436    -446.5079   -3430.7905   -3801.4747    5892.7415    1049.1318   -282.50874    317.16994    74.727177 
    2900    94.849514   -164.62665  0.085821833   -164.54082   -3225.1289    4.2122075    4.2122075    4.2122075   -3225.1289   -3184.1485   -3895.8727   -2595.3657   -192.66118    1100.5974   -1264.6851    74.735899 
    3000    53.576665   -164.58965  0.048477293   -164.54117    3271.3497    4.2120797    4.2120797    4.2120797    3271.3497    3673.7128   -577.28259    6717.6189   -988.29373     101.2203     -503.124    74.729099 
    3100    91.629232   -164.62402  0.082908054   -164.54111   -50.388079    4.2120844    4.2120844    4.2120844   -50.388079   -1420.5947   -1133.1647    2402.5951   -844.98693    272.12481   -209.88683    74.729347 
    3200    151.53909   -164.67792   0.13711575    -164.5408   -1526.1462    4.2121549    4.2121549    4.2121549   -1526.1462   -225.01328   -2104.5555   -2248.8699    1331.3569    38.908034   -169.05508      74.7331 
    3300    110.30611   -164.64079  0.099807286   -164.54098    1044.7264    4.2125867    4.2125867    4.2125867    1044.7264   -851.04166   -2509.1357    6494.3565    641.90101   -39.982976    237.24137    74.756086 
    3400    85.391089   -164.61811  0.077263652   -164.54085    1990.4471    4.2119354    4.2119354    4.2119354    1990.4471    12.139628    1765.0065    4194.1952   -1366.0989   -607.11691     -271.142    74.721416 
    3500    104.27355   -164.63505  0.094348897    -164.5407    675.57646    4.2118644    4.2118644    4.2118644    675.57646   -197.88975    2121.2432    103.37592   -837.76698     7.733623   -301.65367    74.717639 
    3600    99.708018   -164.63102   0.09021791    -164.5408   -973.87266    4.2126821    4.2126821    4.2126821   -973.87266   -4310.9357   -2018.7317    3408.0494    689.72794   -273.30336    1154.7424    74.761163 
    3700    104.66645   -164.63536  0.094704407   -164.54066    710.08152    4.2118953    4.2118953    4.2118953    710.08152   -1080.3016   -493.28066    3703.8268    762.43422   -766.51087    428.98588    74.719285 
    3800    91.996344   -164.62412  0.083240226   -164.54088   -647.48156    4.2120865    4.2120865    4.2120865   -647.48156   -599.76236    -797.0869   -545.59542   -1603.7723    806.05749   -1344.8089    74.729461 
    3900    78.234564   -164.61207  0.070788277   -164.54128    2794.3642    4.2123583    4.2123583    4.2123583    2794.3642    2820.3741   -133.11325    5695.8317   -347.58897   -791.26566    95.424922    74.743927 
    4000    135.37537   -164.66352   0.12249048   -164.54103    -2377.566    4.2123771    4.2123771    4.2123771    -2377.566   -2236.9487   -3661.5326   -1234.2166    727.20909   -104.76418    -315.5068    74.744928 
    4100    130.65073   -164.65922   0.11821553   -164.54101    -3238.902    4.2126179    4.2126179    4.2126179    -3238.902   -2909.5956   -4820.5888   -1986.5215   -103.04498    820.64176   -538.81766     74.75775 
    4200    54.704901   -164.59077  0.049498144   -164.54127    2811.9477    4.2126562    4.2126562    4.2126562    2811.9477    2236.5555   -1889.1503    8088.4377   -986.65571   -255.44277   -134.36561    74.759786 
    4300    73.170004   -164.60711  0.066205757    -164.5409   -1831.6679    4.2125176    4.2125176    4.2125176   -1831.6679    -3542.158   -1581.9261   -370.91956   -1462.1716    522.09274   -1188.5965    74.752408 
    4400    111.74982   -164.64176   0.10111359   -164.54065   -1608.1971    4.2125074    4.2125074    4.2125074   -1608.1971   -3302.0167   -1517.7617   -4.8128815    526.73187   -63.914167   -208.79228    74.751863 
    4500    101.44902   -164.63257  0.091793209   -164.54078   -1281.0089    4.2131485    4.2131485    4.2131485   -1281.0089   -4001.4355   -3730.2968    3888.7057    37.109049   -380.59913    956.28835    74.785998 
    4600    107.40591   -164.63787  0.097183128   -164.54069    618.68689    4.2121139    4.2121139    4.2121139    618.68689  -0.95627862    186.74797     1670.269   -1673.3578   -68.619578   -230.68106    74.730921 
    4700     108.2156   -164.63891  0.097915753     -164.541    1576.2378    4.2122269    4.2122269    4.2122269    1576.2378    2051.5213    810.54515    1866.6469   -1972.8389    291.90755   -853.94052    74.736934 
    4800    123.44563   -164.65265    0.1116962   -164.54096    270.73875     4.213017     4.213017     4.213017    270.73875   -774.18993   -2041.4226    3627.8287     658.0494   -614.78791    744.01665    74.778994 
    4900    149.76555   -164.67611   0.13551102    -164.5406   -1330.0336    4.2123237    4.2123237    4.2123237   -1330.0336    453.51171   -2729.1053    -1714.507    924.41335    -237.8227    100.57082    74.742084 
    5000    83.030687   -164.61606  0.075127911   -164.54093   -921.42271    4.2126802    4.2126802    4.2126802   -921.42271   -210.42128   -3498.2151    944.36828   -960.39292    858.41219   -661.14509    74.761062 
    5100    30.196153   -164.56848  0.027322114   -164.54116    3582.1195    4.2127628    4.2127628    4.2127628    3582.1195    4095.4656    -850.4803    7501.3733    24.377525   -549.57361   -83.444882    74.765459 
    5200    88.484683   -164.62093  0.080062801   -164.54087   -3266.4147    4.2125769    4.2125769    4.2125769   -3266.4147   -2374.0594   -3891.4223   -3533.7622    916.04212    748.85242   -1427.7838    74.755564 
    5300    99.768155   -164.63117  0.090272323    -164.5409   -2434.9656    4.2127696    4.2127696    4.2127696   -2434.9656   -3747.9503   -4598.7293    1041.7828    1101.8552    452.33908   -71.670847    74.765823 
    5400    77.923719   -164.61171  0.070507019    -164.5412    1042.6019    4.2129076    4.2129076    4.2129076    1042.6019    2322.6935   -3087.6523    3892.7646    277.31374   -40.645145    476.99581    74.773172 
    5500    109.68325    -164.6402  0.099243711   -164.54096   -1362.4387    4.2122228    4.2122228    4.2122228   -1362.4387   -598.69115   -2031.9423   -1456.6827   -1107.6873    1006.5535   -1376.3722    74.736712 
    5600    128.52837   -164.65721   0.11629517   -164.54092    911.53283    4.2123123    4.2123123    4.2123123    911.53283   -149.48578   -624.28568      3508.37    539.40544    64.320361   -263.24518    74.741481 
    5700    144.16638   -164.67127   0.13044477   -164.54083   -2254.2467    4.2131229    4.2131229    4.2131229   -2254.2467   -3019.4792   -5012.7698    1269.5089    7.8241721   -367.52962    849.15002    74.784637 
    5800    136.08087   -164.66371   0.12312883   -164.54059   -1042.5556     4.211876     4.211876     4.211876   -1042.5556   -186.19625   -2131.3457    -810.1248   -1393.9905   -225.36276    394.99876    74.718257 
    5900    69.217949   -164.60352  0.062629855   -164.54089    1637.0047    4.2121482    4.2121482    4.2121482    1637.0047     1407.712   -570.76425    4074.0664   -2033.6696    89.867965   -386.59157    74.732742 
    6000    74.701279   -164.60833  0.067591287   -164.54074    969.44265    4.2126418    4.2126418    4.2126418    969.44265   -330.55152   -1817.2144    5056.0939   -224.84218   -1022.5891     141.0579    74.759018 
    6100    124.18423   -164.65296    0.1123645    -164.5406   -2069.1194    4.2119305    4.2119305    4.2119305   -2069.1194   -412.12199   -2941.5858   -2853.6505    91.350824   -119.30037   -530.77427    74.721155 
    6200    85.341804   -164.61826  0.077219058   -164.54105    168.66221    4.2123797    4.2123797    4.2123797    168.66221   -19.475687   -3366.0789    3891.5413   -1530.5354   -210.86874    100.46046    74.745067 
    6300    71.580137   -164.60597  0.064767212    -164.5412    3286.9079    4.2123947    4.2123947    4.2123947    3286.9079    5876.3616    301.00001    3683.3622   -607.98289   -889.13332    -322.7154    74.745864 
    6400     108.7376   -164.63953  0.098388066   -164.54114   -1070.4085    4.2118868    4.2118868    4.2118868   -1070.4085   -94.004275   -1186.5308   -1930.6906   -116.04627    682.13071   -2610.8498    74.718829 
    6500    98.677696   -164.63035  0.089285653   -164.54106    1145.7266    4.2122586    4.2122586    4.2122586    1145.7266   -2046.7275   -1457.5269    6941.4343    1434.6817   -620.34098   -404.10846    74.738621 
    6600    95.240225   -164.62718  0.086175357   -164.54101   -427.17275    4.2126079    4.2126079    4.2126079   -427.17275    684.05098   -2583.1213    617.55209    503.43835    -121.3819    109.85571    74.757215 
    6700    83.703806   -164.61646  0.075736963   -164.54072   -617.84288    4.2115984    4.2115984    4.2115984   -617.84288   -1977.4666   -550.94241    674.88035    -943.8305     928.9681   -788.89017    74.703484 
    6800    66.306772    -164.6008  0.059995761   -164.54081    2178.9771    4.2121474    4.2121474    4.2121474    2178.9771    -950.5229    911.38542    6576.0687    744.82747   -296.76403   -316.43881    74.732704 
    6900    120.55313   -164.64968   0.10907901    -164.5406   -2379.6755    4.2128512    4.2128512    4.2128512   -2379.6755   -4010.4524   -4480.9702    1352.3962     1002.821     195.0235    38.397183    74.770168 
    7000    142.73903   -164.66966   0.12915328   -164.54051   -1304.9084     4.211701     4.211701     4.211701   -1304.9084   -891.50977   -2794.9654   -228.25017   -14.465534    259.40967    995.87179    74.708944 
    7100    103.16988   -164.63433  0.093350277   -164.54098     1781.811    4.2123963    4.2123963    4.2123963     1781.811    2066.4143   -1173.1084    4452.1271   -740.81201    600.80005    1245.8905     74.74595 
    7200    127.11907   -164.65582   0.11502001    -164.5408     204.4998    4.2126162    4.2126162    4.2126162     204.4998     1158.071   -1631.2172    1086.6457   -144.02285    153.92978    372.12664    74.757658 
    7300    137.46209   -164.66506   0.12437859   -164.54068   -1453.1162    4.2118214    4.2118214    4.2118214   -1453.1162   -1186.7874   -2360.8087   -811.75236    140.98131    882.01994   -562.18405    74.715353 
    7400    81.066897   -164.61435  0.073351032     -164.541    573.46407    4.2126348    4.2126348    4.2126348    573.46407   -2587.8407   -3383.2767    7691.5096   -951.54214   -246.40296    984.69375    74.758649 
    7500    66.650559   -164.60117  0.060306826   -164.54086    379.89315    4.2126207    4.2126207    4.2126207    379.89315    2901.5575   -351.89519   -1409.9828   -871.57959   -191.03265    430.14521    74.757895 
    7600    65.512786   -164.60017  0.059277345   -164.54089   -838.63889    4.2119001    4.2119001    4.2119001   -838.63889   -3278.2989   -169.93268     932.3149   -853.45112    1057.4027   -1830.2279    74.719538 
    7700    69.867152   -164.60415  0.063217267   -164.54093    511.84876    4.2127825    4.2127825    4.2127825    511.84876   -4130.0665   -1321.1432     6986.756    502.46951   -529.37967   -571.67418    74.766511 
    7800    106.74749   -164.63748  0.096587372    -164.5409   -1239.7388     4.212825     4.212825     4.212825   -1239.7388    747.01809   -2972.3715    -1493.863   -585.42953   -161.20374   -561.16304    74.768773 
    7900    102.01971   -164.63327  0.092309579   -164.54096    687.30224     4.211792     4.211792     4.211792    687.30224    107.48125   -1199.0826    3153.5081   -1585.0439    69.140309   -23.702015    74.713789 
    8000    107.92171   -164.63857  0.097649828   -164.54092    1735.9556    4.2127996    4.2127996    4.2127996    1735.9556    1955.2484    327.61919    2924.9993    53.901619   -1507.2597   -135.35864     74.76742 
    8100    150.39083   -164.67672   0.13607678   -164.54065   -2461.8416    4.2129146    4.2129146    4.2129146   -2461.8416    -1722.274    -4554.291   -1108.9598    690.76419   -517.69189   -1060.1208    74.773546 
    8200    116.53726   -164.64617   0.10544536   -164.54072   -515.97836    4.2119179    4.2119179    4.2119179   -515.97836   -406.14696   -4044.3716    2902.5835    518.31408   -809.93685    663.84314    74.720485 
    8300    69.714781   -164.60393  0.063079399   -164.54085    1335.6647    4.2129457    4.2129457    4.2129457    1335.6647    1094.8013   -2489.5769    5401.7697   -564.56369   -664.95688    1498.0281    74.775199 
    8400      98.5875   -164.62986  0.089204042   -164.54066   -2176.1456    4.2129022    4.2129022    4.2129022   -2176.1456   -149.85951   -2663.1862    -3715.391     299.7514   -288.74178    523.91122    74.772886 
    8500    105.57864   -164.63628  0.095529775   -164.54075   -1561.9706    4.2120803    4.2120803    4.2120803   -1561.9706   -2777.6225   -2975.5022    1067.2129    708.94298    278.37219   -774.14369     74.72913 
    8600    92.837893   -164.62503  0.084001677   -164.54103   -653.62685    4.2131724    4.2131724    4.2131724   -653.62685   -2876.6202   -4725.1554     5640.895    726.03685   -655.99402    498.69548    74.787273 
    8700    100.80815   -164.63224  0.091213334   -164.54103   -561.73747    4.2127489    4.2127489    4.2127489   -561.73747    4176.4733   -2140.5541   -3721.1315   -56.854966    672.88358     883.7365    74.764722 
    8800     95.76323   -164.62782  0.086648583   -164.54117     615.9555    4.2120794    4.2120794    4.2120794     615.9555   -1049.6969   -1367.9811    4265.5445   -706.14161    1517.1035   -20.128562    74.729083 
    8900    118.25814   -164.64801   0.10700245   -164.54101   -1607.3246    4.2133856    4.2133856    4.2133856   -1607.3246   -1775.0167   -3410.2409    363.28389    663.62637    649.67762   -82.960696    74.798626 
    9000    116.41377   -164.64615   0.10533362   -164.54081   -1802.7747     4.212729     4.212729     4.212729   -1802.7747    120.32168   -4280.4829    -1248.163   -462.42894    1555.9451   -547.71694    74.763664 
    9100    53.270272   -164.58914  0.048200062   -164.54094    1670.9863    4.2118618    4.2118618    4.2118618    1670.9863   -52.510186    -2518.224    7583.6932   -1307.5497    636.80872    1188.7567    74.717501 
    9200    65.701666   -164.60026  0.059448248   -164.54082    1649.6923    4.2129018    4.2129018    4.2129018    1649.6923    3586.0299   -459.20837    1822.2555   -576.32726    114.34994    1113.6561     74.77286 
    9300    129.35398   -164.65761    0.1170422   -164.54056   -2747.0734    4.2125376    4.2125376    4.2125376   -2747.0734   -1844.1156   -3876.6939   -2520.4107   -424.28542    838.45491   -302.04476    74.753471 
    9400    114.46791   -164.64429   0.10357297   -164.54072    9.0214644    4.2118835    4.2118835    4.2118835    9.0214644    88.934359   -3925.1844    3863.3144   -38.294133   -300.47253    613.47752    74.718657 
    9500    93.432002    -164.6255  0.084539239   -164.54096    2310.8258    4.2128001    4.2128001    4.2128001    2310.8258    4158.9659   -1941.0004    4714.5118   -1194.1828   -938.58892    1570.3718    74.767448 
    9600    117.75851   -164.64749   0.10655038   -164.54094   -605.05423     4.212268     4.212268     4.212268   -605.05423    3791.7877   -2686.8065   -2920.1439   -181.89865   -540.51267    1012.2808     74.73912 
    9700    127.87809   -164.65656   0.11570678   -164.54085    19.083151    4.2118069    4.2118069    4.2118069    19.083151   -1176.4289   -3122.1648    4355.8432    166.81916   -1047.0533   -380.94023    74.714577 
    9800    119.18453   -164.64875   0.10784066   -164.54091    -2530.248    4.2130988    4.2130988    4.2130988    -2530.248   -2550.0932   -5426.4243    385.77339    1280.5473   -1638.9075   -325.88207    74.783355 
    9900    71.829042   -164.60588  0.064992427   -164.54088    356.47036    4.2119274    4.2119274    4.2119274    356.47036    3499.2714   -2506.1886    76.328282    12.897369   -156.42218    336.53261    74.720993 
   10000    40.610798   -164.57775  0.036745504   -164.54101     2170.165     4.211538     4.211538     4.211538     2170.165    -1480.438   -1347.1504    9338.0833   -827.98713   -91.457774    405.74374    74.700271 
   10100    99.772822    -164.6311  0.090276546   -164.54083    -1756.352      4.21289      4.21289      4.21289    -1756.352   -251.96174   -2703.2701   -2313.8243     1368.636    -620.4831   -214.96713    74.772235 
   10200     129.4993   -164.65786   0.11717369   -164.54069   -1110.7015    4.2119248    4.2119248    4.2119248   -1110.7015    -1196.434   -2144.1302    8.4596674    528.53167    1020.9424   -1382.7492    74.720856 
   10300    87.576166   -164.62022  0.079240755   -164.54098    1794.2661    4.2116559    4.2116559    4.2116559    1794.2661       687.57   -1454.1312    6149.3595   -44.090815   -724.25146    694.03541    74.706543 
   10400    94.597042   -164.62656  0.085593391   -164.54096    3650.0864    4.2122999    4.2122999    4.2122999    3650.0864    6814.9338    1979.8179    2155.5075   -204.61909    770.28394    1416.2524     74.74082 
   10500    137.59288   -164.66533   0.12449693   -164.54083   -932.99051    4.2118126    4.2118126    4.2118126   -932.99051   -1052.3921   -1491.4316   -255.14785   -688.44822    1445.9222    288.87095    74.714884 
   10600    127.98664   -164.65655     0.115805   -164.54075   -169.26273    4.2117917    4.2117917    4.2117917   -169.26273   -985.17206    -2636.077    3113.4609    389.66068    349.60529    756.85124    74.713773 
   10700    87.043693   -164.61953  0.078758962   -164.54077    677.33805    4.2125552    4.2125552    4.2125552    677.33805     1030.905   -390.75486     1391.864   -576.44909    331.66184    1254.8772    74.754411 
   10800    59.316972   -164.59456  0.053671243   -164.54089    774.60116    4.2116058    4.2116058    4.2116058    774.60116    2627.1365   -1055.8558    752.52288   -899.92704    386.23263    1721.1221    74.703879 
   10900    78.704919   -164.61214  0.071213865   -164.54093    1036.0329    4.2117282    4.2117282    4.2117282    1036.0329   -1337.0529   -1969.6959    6414.8475   -1039.4741    131.56823    993.21123    74.710393 
   11000    125.23666   -164.65407   0.11331676   -164.54075   -3724.6362    4.2131372    4.2131372    4.2131372   -3724.6362   -2175.7221   -3872.5033   -5125.6832    398.43716     399.7863   -28.226584    74.785398 
   11100    107.55135    -164.6382  0.097314718   -164.54088    246.48712    4.2118896    4.2118896    4.2118896    246.48712    2451.5137   -1542.1958   -169.85654   -746.85571    684.35882    241.28263    74.718981 
   11200    75.616392   -164.60956  0.068419301   -164.54114    2047.0428    4.2120062    4.2120062    4.2120062    2047.0428    1185.5008   -1148.3678    6103.9954   -1380.2075    49.969746     1065.703    74.725186 
   11300    112.24536   -164.64258   0.10156196   -164.54102   -203.10941    4.2129726    4.2129726    4.2129726   -203.10941     3494.885   -1369.8361   -2734.3772    720.91478   -106.29322     188.5265    74.776632 
   11400    133.80199   -164.66181   0.12106685   -164.54074   -1741.2173    4.2122363    4.2122363    4.2122363   -1741.2173   -3553.3912   -2243.4419    573.18111    176.46653    614.95715   -1553.4423    74.737431 
   11500    93.065136   -164.62514  0.084207291   -164.54093   -750.85745    4.2126205    4.2126205    4.2126205   -750.85745   -1333.5982   -2157.6973    1238.7231    1125.3107   -1602.5565    3.3274226    74.757885 
   11600    67.054932   -164.60151  0.060672712   -164.54083    1607.1947    4.2130104    4.2130104    4.2130104    1607.1947    2926.6781     1860.189    34.716965   -130.29693    95.844128    677.76095    74.778646 
   11700    85.972933   -164.61856  0.077790116   -164.54077   -1220.6649    4.2124243    4.2124243    4.2124243   -1220.6649   -2708.7081   -1580.7573    627.47087   -364.62626   -133.42244    81.623363    74.747443 
   11800    117.13927    -164.6467   0.10599008   -164.54071   -926.09379    4.2128096    4.2128096    4.2128096   -926.09379   -905.95914   -2907.2781    1034.9558    1297.4653   -1228.2269    260.28958    74.767955 
   11900    129.91791   -164.65823   0.11755246   -164.54067   -2447.1021    4.2135342    4.2135342    4.2135342   -2447.1021   -958.53393    -1071.147   -5311.6254    993.23647   -611.82789    -246.5584    74.806542 
   12000    97.740601   -164.62937  0.088437749   -164.54094    307.98952    4.2123154    4.2123154    4.2123154    307.98952    3876.5685   -2099.5976   -853.00233   -638.20699   -773.89516    1193.4773    74.741645 
   12100    87.687286    -164.6204  0.079341299   -164.54106    1534.9804    4.2126505    4.2126505    4.2126505    1534.9804    2150.7364   -2423.8039    4878.0085   -1149.2639   -217.68866    1631.8535    74.759482 
   12200    122.64074   -164.65184   0.11096792   -164.54087   -3598.0392    4.2136702    4.2136702    4.2136702   -3598.0392   -6.5904103   -4502.1779   -6285.3492    299.04199    1105.7913    79.440407    74.813783 
   12300    101.53724    -164.6327  0.091873032   -164.54082   -1104.8142     4.212392     4.212392     4.212392   -1104.8142    224.45728   -3454.2549   -84.644971   -682.82722    997.88946    36.763528    74.745723 
   12400    52.513084    -164.5885  0.047514942   -164.54099    184.97701       4.2128       4.2128       4.2128    184.97701    414.14787   -1703.7397    1844.5228   -918.64441    184.19158    1110.7835    74.767442 
   12500     70.11144   -164.60434  0.063438304   -164.54091    305.44957    4.2131594    4.2131594    4.2131594    305.44957     4091.257   -527.48193   -2647.4263   -774.43707    1487.6795    885.30793     74.78658 
   12600    109.62332   -164.63991  0.099189483   -164.54072   -1543.0597    4.2123303    4.2123303    4.2123303   -1543.0597   -3038.1131   -2505.8761     914.8101   -1160.7511    1483.1517   -598.26858    74.742435 
   12700    121.62029   -164.65077   0.11004459   -164.54072   -1124.0563     4.212796     4.212796     4.212796   -1124.0563    773.20442   -2238.5722   -1906.8013    976.17831    281.73562    241.23434    74.767232 
   12800     120.0495   -164.64939   0.10862331   -164.54077    468.42998     4.212791     4.212791     4.212791    468.42998    2682.2855    1580.8442   -2857.8397   -668.25741     1151.377    527.92022    74.766961 
   12900    106.88674   -164.63765  0.096713373   -164.54094    212.22402    4.2119002    4.2119002    4.2119002    212.22402    1489.6004   -1831.6458    978.71744   -844.74182   -420.59293    777.04613    74.719542 
   13000    113.37118   -164.64344   0.10258063   -164.54086    760.64126    4.2123664    4.2123664    4.2123664    760.64126    1455.7947   -2260.9292    3087.0582    725.71086   -769.88114    721.63846    74.744358 
   13100    125.85741   -164.65459   0.11387843   -164.54071   -2884.2265    4.2128342    4.2128342    4.2128342   -2884.2265    -2252.793   -1692.5026   -4707.3838    947.65467   -658.36032   -893.56015    74.769261 
   13200    79.656644   -164.61294  0.072075006   -164.54087    563.83924    4.2115683    4.2115683    4.2115683    563.83924    2861.5644   -1526.1973     356.1507   -12.755633   -1421.7279    695.09632    74.701882 
   13300    55.796803   -164.59147   0.05048612   -164.54098    1824.5448    4.2121425    4.2121425    4.2121425    1824.5448     1013.917    311.48408    4148.2333   -1041.5818   -906.95508    1390.0835    74.732438 
   13400    98.153573   -164.62962  0.088811416   -164.54081   -816.58079     4.212429     4.212429     4.212429   -816.58079    2429.1871   -704.76405   -4174.1654    250.98918    42.462402   -169.96537    74.747692 
   13500    112.16955   -164.64231   0.10149337   -164.54082    413.70651    4.2113419    4.2113419    4.2113419    413.70651    1320.9157   -1147.3525    1067.5564    22.524272   -55.443234   -640.92453    74.689838 
   13600    100.44811   -164.63191  0.090887559   -164.54102    836.64265    4.2120918    4.2120918    4.2120918    836.64265    2325.0123    750.11584    -565.2002    754.43755   -971.32247    128.28759    74.729743 
   13700     101.7894   -164.63302  0.092101189   -164.54092    1582.2545    4.2120408    4.2120408    4.2120408    1582.2545    4896.8421    1577.9712   -1728.0498   -1172.1321    1239.5322    573.07043    74.727029 
   13800    99.931173   -164.63134  0.090419826   -164.54092    802.53145    4.2112881    4.2112881    4.2112881    802.53145    121.55094   -1081.8192    3367.8627   -1266.3613    537.09012   -105.58338    74.686973 
   13900    110.86818   -164.64107   0.10031586   -164.54076   -167.45488    4.2122181    4.2122181    4.2122181   -167.45488    804.66975   -1367.7374    60.703043    1415.3494    886.61336      250.928    74.736462 
   14000    109.78946   -164.63991  0.099339812   -164.54057   -1000.4853     4.212185     4.212185     4.212185   -1000.4853   -992.08915    752.12939   -2761.4963   -391.58629    1200.3229   -64.806301    74.734701 
   14100    74.952664   -164.60856  0.067818746   -164.54074    1515.3875    4.2112371    4.2112371    4.2112371    1515.3875    3038.1538   -11.113313    1519.1221   -796.76223   -668.32934    1108.1686     74.68426 
   14200    89.961283   -164.62212  0.081398859   -164.54073    1504.0673    4.2122385    4.2122385    4.2122385    1504.0673    1304.2429    353.42831    2854.5305   -571.19213    448.35327    1446.0534    74.737549 
   14300    134.15716   -164.66206   0.12138822   -164.54067    -1985.194    4.2125704    4.2125704    4.2125704    -1985.194    464.38023   -766.77989   -5653.1825   -283.60189    727.77238   -195.45182    74.755219 
   14400    113.73761   -164.64374   0.10291218   -164.54083    829.39136    4.2116751    4.2116751    4.2116751    829.39136      4905.65   -947.17595      -1470.3   -20.402963   -254.64519    1076.1895    74.707568 
   14500    87.922687   -164.62061  0.079554295   -164.54106    1466.2555    4.2126347    4.2126347    4.2126347    1466.2555    1040.9174    1978.4824    1379.3667    -1045.033   -63.419742    1738.3641    74.758643 
   14600    94.265121   -164.62634  0.085293063   -164.54105    13.458063    4.2125735    4.2125735    4.2125735    13.458063    4215.6265   -269.53595   -3905.7164   -1181.8643    447.93622    776.02403    74.755382 
   14700    91.712803   -164.62394  0.082983671   -164.54096   -544.77561    4.2120245    4.2120245    4.2120245   -544.77561   -713.03826   -1681.4314    760.14286   -184.73682    -172.8447   -349.85642     74.72616 
   14800    85.273252    -164.6181   0.07715703   -164.54094   -1409.7821    4.2131797    4.2131797    4.2131797   -1409.7821   -1702.1085     37.53819   -2564.7759    1138.9821   -422.12003   -94.250223    74.787662 
   14900    77.809712   -164.61124  0.070403863   -164.54083   -855.07721     4.212827     4.212827     4.212827   -855.07721    964.58791     887.4518   -4417.2713   -1261.4235    724.29447    339.57778    74.768878 
   15000       82.159   -164.61512   0.07433919   -164.54078   -465.95304    4.2122774    4.2122774    4.2122774   -465.95304   -1261.3469   -611.47828    474.96611   -981.14567   -570.23539   -221.85311    74.739621 
   15100     122.8735    -164.6518   0.11117852   -164.54063   -1732.4519    4.2134989    4.2134989    4.2134989   -1732.4519   -494.92179    -1778.328   -2924.1059    1053.8528    139.43794   -145.42438    74.804661 
   15200    144.73284   -164.67156   0.13095731    -164.5406   -2642.9129    4.2131876    4.2131876    4.2131876   -2642.9129    250.14846   -1894.6133   -6284.2739    391.80154   -156.97658   -1017.5541    74.788083 
   15300    115.08501   -164.64492   0.10413134   -164.54079    135.82173    4.2124573    4.2124573    4.2124573    135.82173     4512.533   -1800.5258   -2304.5419    536.40994   -1499.2188    466.83636      74.7492 
   15400    101.60827    -164.6328  0.091937301   -164.54086    303.26181    4.2134081    4.2134081    4.2134081    303.26181    424.81219   -602.51682    1087.4901   -1304.5214    -92.03242    1270.4599    74.799827 
   15500    110.49505   -164.64085  0.099978242   -164.54087   -1283.5589    4.2129743    4.2129743    4.2129743   -1283.5589    4209.9003   -3110.8367   -4949.7403    -556.0859    505.36405    30.097026    74.776722 
   15600    95.802789   -164.62758  0.086684377   -164.54089   -1475.0331    4.2126223    4.2126223    4.2126223   -1475.0331    2152.8774   -3273.2242   -3304.7524    652.07086   -257.56239     976.7997    74.757983 
   15700    62.825611    -164.5979  0.056845933   -164.54106    255.04154    4.2134111    4.2134111    4.2134111    255.04154     860.9535    870.22891   -966.05778   -674.58276    245.48325    1311.8517    74.799986 
   15800    60.851861   -164.59607  0.055060042   -164.54101     550.7786    4.2125973    4.2125973    4.2125973     550.7786    6522.2975    394.71054   -5264.6722   -1771.7238    1045.7834    1556.1942    74.756651 
   15900    94.665007   -164.62661  0.085654887   -164.54095   -1220.9677    4.2123675    4.2123675    4.2123675   -1220.9677   -726.11248    -1473.163   -1463.6275   -820.36865    553.37207    380.42996    74.744419 
   16000    108.73988   -164.63932  0.098390129   -164.54093   -582.52095    4.2132078    4.2132078    4.2132078   -582.52095    2933.7356   -1114.1759   -3567.1226    277.81055    1762.4169    781.09247    74.789154 
   16100    99.677815   -164.63106  0.090190581   -164.54087   -57.969373    4.2121875    4.2121875    4.2121875   -57.969373     4466.805    -94.30421   -4546.4089    -960.8309    1377.6099    937.00018    74.734834 
   16200    97.824208   -164.62929  0.088513399   -164.54078    885.05656    4.2117686    4.2117686    4.2117686    885.05656    965.25059    864.00615    825.91293   -885.57559   -357.91711     231.2927    74.712541 
   16300    105.93013   -164.63659  0.095847807   -164.54074   -234.17427    4.2127611    4.2127611    4.2127611   -234.17427     532.4955   -1291.0473    56.028947   -779.80324     1044.378    259.15578     74.76537 
   16400    119.92312    -164.6491   0.10850896    -164.5406   -828.14835    4.2118607    4.2118607    4.2118607   -828.14835    2496.5946   -2068.8584   -2912.1812    355.03101   -242.13228   -998.44206    74.717444 
   16500    112.42168   -164.64227    0.1017215   -164.54054   -282.37527    4.2116674    4.2116674    4.2116674   -282.37527      1442.05   0.12372729   -2289.2995     918.1277   -1116.6908    44.426773    74.707154 
   16600    84.293186   -164.61712  0.076270246   -164.54085    1889.8382    4.2123382    4.2123382    4.2123382    1889.8382    2105.8231    2151.5328    1412.1587   -1910.7974   -646.23831    732.60429    74.742855 
   16700    109.87919   -164.64015  0.099421002   -164.54073     1659.653    4.2113638    4.2113638    4.2113638     1659.653    7939.1224   -84.634324   -2875.5292   -846.84725   -312.83285   -236.75205    74.691003 
   16800    144.33104   -164.67121   0.13059376   -164.54062   -1909.7382    4.2116763    4.2116763    4.2116763   -1909.7382    415.76329   -2721.4629   -3423.5151    838.49682   -1351.4876     23.58033    74.707631 
   16900    96.715212   -164.62859  0.087509956   -164.54108    1940.3388    4.2121698    4.2121698    4.2121698    1940.3388    5582.6297    10.134213    228.25245    -67.54093   -286.56864    443.34651    74.733892 
   17000    66.893854   -164.60167  0.060526965   -164.54114    2238.9715    4.2111905    4.2111905    4.2111905    2238.9715    8099.9076    665.21967   -2048.2129   -1213.7451    106.58273    1490.7206     74.68178 
   17100    89.619461   -164.62203  0.081089571   -164.54094   -615.30346    4.2116201    4.2116201    4.2116201   -615.30346   -1591.9551   -809.19862    555.24333   -1224.7653   -330.60452    200.30563    74.704641 
   17200     81.94303   -164.61508  0.074143775   -164.54094    263.60048    4.2122643    4.2122643    4.2122643    263.60048     3810.643   -2585.9566   -433.88488    -176.3277    2102.3957    898.80064    74.738926 
   17300    80.583345   -164.61392  0.072913504     -164.541   -99.465885    4.2113397    4.2113397    4.2113397   -99.465885    1981.4573    137.48172   -2417.3367    267.94095    874.47222    950.22721     74.68972 
   17400    83.759766   -164.61662  0.075787596   -164.54083    1531.9357    4.2115893    4.2115893    4.2115893    1531.9357    1701.5026    3252.2057    -357.9011   -765.56058    6.2312575    256.40203       74.703 
   17500    86.850315   -164.61953   0.07858399   -164.54095    1963.3969    4.2124248    4.2124248    4.2124248    1963.3969    4497.2474    1697.7589   -304.81571   -1745.9813    1823.5068     868.1132    74.747466 
   17600    142.92802   -164.66989   0.12932428   -164.54057    193.83614     4.211707     4.211707     4.211707    193.83614    3179.1301   -508.04994   -2089.5717    92.013924     959.3693    14.659603    74.709262 
   17700    150.98931   -164.67717   0.13661831   -164.54055   -1539.9654    4.2124406    4.2124406    4.2124406   -1539.9654    661.37349   -1256.4152   -4024.8544    985.83009    355.08959    553.83065    74.748309 
   17800    80.144659   -164.61358  0.072516572   -164.54106     2860.527    4.2128478    4.2128478    4.2128478     2860.527    5332.8187    2383.0629    865.69941   -1617.5027    135.93438    1088.7531    74.769989 
   17900    90.752612   -164.62299   0.08211487   -164.54088    582.73308    4.2122319    4.2122319    4.2122319    582.73308    3279.9694    399.91397   -1931.6842   -894.87226   -214.90986    547.01015    74.737199 
   18000    122.12822   -164.65136   0.11050418   -164.54086   -4527.8645    4.2133232    4.2133232    4.2133232   -4527.8645    -3522.779    -4997.529   -5063.2853    197.10266   -1052.9801   -293.95053    74.795305 
   18100    79.859062   -164.61335  0.072258158   -164.54109     -705.546    4.2135456    4.2135456    4.2135456     -705.546    3225.5804   -3285.9358   -2056.2827    180.93553    645.81378    467.02663     74.80715 
   18200    71.395479   -164.60573   0.06460013   -164.54113   -2169.1297    4.2127879    4.2127879    4.2127879   -2169.1297   -1151.8496   -8.3671239   -5347.1724   -97.822098   -947.23469    1407.1057    74.766797 
   18300    89.970179   -164.62248  0.081406909   -164.54107   -1829.7859    4.2133864    4.2133864    4.2133864   -1829.7859   -10.290522   -1143.6334   -4335.4337   -1482.0658   -1066.9479   -391.57829     74.79867 
   18400    105.17136    -164.6361  0.095161252   -164.54094   -1855.7032    4.2139044    4.2139044    4.2139044   -1855.7032    3072.7444   -4703.9608   -3935.8933    -700.1068    1008.4699    143.50773    74.826259 
   18500     139.3972   -164.66702   0.12612951   -164.54089   -3868.7043    4.2130531    4.2130531    4.2130531   -3868.7043   -3011.6098   -3926.4008   -4668.1022    869.01071   -157.05645   -173.32524    74.780919 
   18600    111.69327   -164.64189   0.10106242   -164.54083    -1017.353    4.2134061    4.2134061    4.2134061    -1017.353    1224.5769   -959.58807   -3317.0478    7.7335965   -353.42305   -371.64436    74.799716 
   18700    71.315772   -164.60544   0.06452801   -164.54091    1130.4487    4.2135575    4.2135575    4.2135575    1130.4487    3411.7948    1175.6732   -1196.1219   -2005.9664    435.03204     613.1606     74.80778 
   18800    116.62957   -164.64606   0.10552889   -164.54053   -780.83615    4.2125537    4.2125537    4.2125537   -780.83615   -121.51502   -727.12617   -1493.8673   -379.03122    365.22365   -186.17887    74.754327 
   18900    125.27689   -164.65388   0.11335317   -164.54052   -2723.7295    4.2133062    4.2133062    4.2133062   -2723.7295    241.40445   -3431.7975   -4980.7953    901.45524   -23.096435   -101.46129    74.794397 
   19000    75.620942   -164.60931  0.068423417   -164.54089    2075.4648    4.2130364    4.2130364    4.2130364    2075.4648     3973.712    2613.5933   -360.91103    -728.8387    825.98847     768.4385    74.780029 
   19100    83.759687   -164.61667  0.075787525   -164.54089    1096.0873    4.2120523    4.2120523    4.2120523    1096.0873    2003.4323    3502.7248   -2217.8953   -695.29447   -771.82807    1327.4423    74.727639 
   19200    107.36535   -164.63825  0.097146421    -164.5411    -1190.186    4.2128293    4.2128293    4.2128293    -1190.186    2799.8504   -2024.0731   -4346.3353    -782.1948   -352.93348    101.88859    74.769004 
   19300     105.2331    -164.6363  0.095217119   -164.54109    69.711444    4.2128164    4.2128164    4.2128164    69.711444     3881.542    -3346.154   -326.25367   -29.540711    1689.8812    1471.2847    74.768316 
   19400    99.407452   -164.63089  0.089945951   -164.54094   -1765.4513    4.2118902    4.2118902    4.2118902   -1765.4513   -2183.6818   -1020.9473   -2091.7249    628.29424   -418.31647    2018.4845    74.719014 
   19500     68.02428   -164.60251  0.061549798   -164.54096    1282.1658    4.2120751    4.2120751    4.2120751    1282.1658    2892.4628    1556.3207   -602.28628   -1563.1762   -149.73046    270.76727    74.728856 
   19600    71.663006   -164.60576  0.064842194   -164.54092    493.10908    4.2121404    4.2121404    4.2121404    493.10908    1671.1111   -225.98108    34.197226   -1101.2112    962.01613    874.08686    74.732329 
   19700    120.66829   -164.64985    0.1091832   -164.54066     -1579.07    4.2113016    4.2113016    4.2113016     -1579.07   -2233.2315   -1173.5157   -1330.4628    711.13134   -28.452638   -225.67352    74.687689 
   19800    116.20927   -164.64587   0.10514859   -164.54073    184.75245    4.2118228    4.2118228    4.2118228    184.75245    2097.9062    88.443221   -1632.0921    398.01729    639.70927   -148.77514    74.715423 
   19900    97.554846   -164.62908  0.088269675   -164.54081    2411.3809    4.2116344    4.2116344    4.2116344    2411.3809    1759.5722    5246.4578    228.11277   -1569.8093   -304.79773    587.91462    74.705401 
   20000     131.1012   -164.65929   0.11862312   -164.54067     2085.947    4.2107564    4.2107564    4.2107564     2085.947    2754.3761    3077.0644    426.40057   -212.23212   -760.08269   -916.43076    74.658686 
   20100    147.63348   -164.67426   0.13358188   -164.54067    -470.0625    4.2117983    4.2117983    4.2117983    -470.0625    3083.3191   -2338.2415   -2155.2652    237.22157   -943.52318   -1588.5159    74.714121 
   20200    120.88418   -164.65016   0.10937854   -164.54079    1812.4707    4.2115473    4.2115473    4.2115473    1812.4707    1327.5961    1177.2038    2932.6123    292.20285      416.421   -113.83526    74.700767 
   20300    89.745289   -164.62199  0.081203424   -164.54078    1055.1283     4.210895     4.210895     4.210895    1055.1283   -570.56434    2640.5322     1095.417    560.53428   -1957.4406    948.60944    74.666062 
   20400    65.275715   -164.60005  0.059062839   -164.54099    1604.2038     4.211747     4.211747     4.211747    1604.2038    3703.6422    2198.1458   -1089.1766   -1382.9181   -1045.3393    -484.9398    74.711393 
   20500    74.197386   -164.60806  0.067135354   -164.54092    641.80274     4.211918     4.211918     4.211918    641.80274    493.04814   -61.797798    1494.1579   -155.83992    594.17484    797.70958    74.720494 
   20600    91.304961   -164.62344  0.082614647   -164.54082   -1528.3778     4.211535     4.211535     4.211535   -1528.3778   -1712.0883   -479.45588   -2393.5893    1278.6299   -656.40278    843.90433    74.700112 
   20700     71.46995   -164.60567  0.064667513     -164.541    1995.7561    4.2122222    4.2122222    4.2122222    1995.7561    4808.6214    2771.0058    -1592.359   -864.09367    648.38549    554.37263     74.73668 
   20800    78.171589   -164.61176  0.070731297   -164.54102    1250.3416    4.2123448    4.2123448    4.2123448    1250.3416    1040.4314     3784.237   -1073.6436   -1061.2526    732.31963    1822.0564    74.743208 
   20900    119.90299   -164.64937   0.10849074   -164.54088    205.50039    4.2117906    4.2117906    4.2117906    205.50039    2455.1229   -66.417369   -1772.2044      157.574    663.77401   -234.90877    74.713711 
   21000    125.04846   -164.65394   0.11314647   -164.54079   -600.47457    4.2129036    4.2129036    4.2129036   -600.47457    2487.9718   -2674.8748   -1614.5208   -150.38506    1490.7089    398.29432     74.77296 
   21100    107.25477   -164.63774  0.097046367   -164.54069   -170.52539    4.2128565    4.2128565    4.2128565   -170.52539   -2571.7319    2221.8966   -161.74092   -716.61503     690.9324    1442.4179    74.770452 
   21200     101.5862   -164.63249  0.091917332   -164.54057   -4.7646075     4.212289     4.212289     4.212289   -4.7646075   -526.62056     1607.079   -1094.7522   -270.63382   -646.94991    3.7841931     74.74024 
   21300    104.26257   -164.63496  0.094338968   -164.54062   -1997.2513    4.2135145    4.2135145    4.2135145   -1997.2513    180.36515    -1689.575    -4482.544   -1054.9114   -396.41644   -1275.4904    74.805489 
   21400    120.44757    -164.6496   0.10898349   -164.54062   -2105.1779    4.2134271    4.2134271    4.2134271   -2105.1779   -3419.9561   -1635.2793   -1260.2982    268.17447    437.46788     191.4298    74.800836 
   21500    119.59967   -164.64898   0.10821629   -164.54076   -3419.1186    4.2130057    4.2130057    4.2130057   -3419.1186    -3507.014   -2271.3636   -4478.9781    760.41277   -2243.1903    728.22629    74.778393 
   21600    89.038049   -164.62166  0.080563498    -164.5411   -464.72382    4.2135878    4.2135878    4.2135878   -464.72382    1911.1319      1394.95   -4700.2534   -1901.7603   -1287.1313   -283.36081    74.809396 
   21700    94.490656   -164.62657  0.085497131   -164.54107   -1312.4468    4.2135078    4.2135078    4.2135078   -1312.4468   -1342.9346    -989.0481   -1605.3578   -283.86378   -750.62045    181.52045    74.805136 
   21800    107.52496   -164.63821  0.097290841   -164.54092   -3033.5576    4.2131113    4.2131113    4.2131113   -3033.5576   -871.82107   -3623.2175   -4605.6342    948.18434   -1211.8369    -1228.553    74.784017 
   21900    81.412827   -164.61467  0.073664037   -164.54101   -679.10169    4.2136904    4.2136904    4.2136904   -679.10169    1325.3507   -1170.7837   -2191.8721    -554.9671    438.57125    308.28152    74.814862 
   22000    67.234284   -164.60178  0.060834993   -164.54095   -925.60691    4.2134409    4.2134409    4.2134409   -925.60691   -2644.9469    1977.9772    -2109.851   -314.38868   -380.84779     1355.236    74.801571 
   22100    75.513842   -164.60909  0.068326511   -164.54076    335.36614    4.2127011    4.2127011    4.2127011    335.36614    2921.0057    1571.4549   -3486.3622   -30.214452      235.233    -1246.027    74.762176 
   22200    94.194981   -164.62597  0.085229599   -164.54074   -495.93753    4.2134221    4.2134221    4.2134221   -495.93753    1959.4082   -244.33927   -3202.8815   -377.68403     1166.568   -827.32108    74.800568 
   22300    124.37855   -164.65323   0.11254032   -164.54069   -914.58488    4.2129803    4.2129803    4.2129803   -914.58488   -1977.5416    998.80255   -1765.0156    801.64105     1260.567    538.96357    74.777044 
   22400    119.89192   -164.64928   0.10848073    -164.5408    2.4933747    4.2122828    4.2122828    4.2122828    2.4933747    1518.4461    726.74733   -2237.7133    529.10773   -512.61387    361.48936    74.739907 
   22500    99.619956    -164.6311   0.09013823   -164.54096    1190.4433    4.2127524    4.2127524    4.2127524    1190.4433    2338.2542    3866.5465   -2633.4708   -1210.1665    136.25027   -485.13252     74.76491 
   22600       121.34   -164.65065   0.10979099   -164.54086    -756.2531    4.2124756    4.2124756    4.2124756    -756.2531   -2046.7853   -875.40336    653.42934    755.48618     645.5211    294.98906    74.750173 
   22700    117.35432   -164.64698   0.10618466    -164.5408   -2145.5213    4.2120497    4.2120497    4.2120497   -2145.5213   -2033.2272   -1959.7397    -2443.597    297.25653   -1511.4277    480.34403    74.727504 
   22800    77.234378   -164.61084  0.069883288   -164.54095    690.76925     4.212345     4.212345     4.212345    690.76925    559.42429    3281.5909   -1768.7074   -1432.4858   -201.17005     1199.858    74.743222 
   22900    76.283807    -164.6099  0.069023191   -164.54087   -366.57073    4.2120184    4.2120184    4.2120184   -366.57073   -2901.8712    2042.7357   -240.57668    -46.68644   -1000.1094    1110.7359    74.725834 
   23000    84.292583   -164.61716    0.0762697   -164.54089    478.88521    4.2114098    4.2114098    4.2114098    478.88521    2957.1482    2572.3735   -4092.8661    -391.6783   -660.24108   -1457.3081    74.693449 
   23100    101.04812   -164.63231  0.091430459   -164.54088    829.77489    4.2119485    4.2119485    4.2119485    829.77489    2441.0775    1763.2256   -1714.9785   -1218.6952    534.79766    1100.2608    74.722118 
   23200    127.24208   -164.65594    0.1151313   -164.54081   -502.30086    4.2116708    4.2116708    4.2116708   -502.30086   -1812.0682    1383.2708   -1078.1053   -232.38533   -918.68773    1157.5219    74.707337 
   23300    100.98721    -164.6323  0.091375351   -164.54092    2664.8003    4.2110082    4.2110082    4.2110082    2664.8003    5348.5602    4020.2302   -1374.3897   -1203.0316   -254.35516   -1147.8637    74.672085 
   23400    92.647501   -164.62471  0.083829406   -164.54088    2681.5159     4.211627     4.211627     4.211627    2681.5159     2624.151    5149.9508    270.44588   -1273.7876    510.53017    -1580.423    74.705005 
   23500    130.83811   -164.65888   0.11838508    -164.5405   -624.47262    4.2116688    4.2116688    4.2116688   -624.47262   -2465.2748    510.43751     81.41948    1085.2148    761.39841   -849.71673    74.707229 
   23600    105.97082    -164.6364  0.095884622   -164.54052    573.11447    4.2112164    4.2112164    4.2112164    573.11447    159.74331    2197.4862    -637.8861   -139.07199   -998.38301   -212.16065    74.683161 
   23700    70.880179   -164.60484  0.064133875    -164.5407     2786.397    4.2116167    4.2116167    4.2116167     2786.397    1790.4494    7320.0721   -751.33045   -1257.1563   -409.50266    -870.2386     74.70446 
   23800    94.346261   -164.62606  0.085366479    -164.5407    616.63701    4.2117017    4.2117017    4.2117017    616.63701    -632.5998     2661.115   -178.60416    894.74089    178.56859   -1248.5741    74.708981 
   23900    98.168609    -164.6298   0.08882502   -164.54098    1238.4425     4.211368     4.211368     4.211368    1238.4425    1959.9552     5310.033   -3554.6608    143.22759   -1051.7307   -1216.4491    74.691225 
   24000    105.46832    -164.6365  0.095429955   -164.54107    767.35418    4.2121696    4.2121696    4.2121696    767.35418    2666.5449    2331.4495   -2695.9319   -3.0688039    342.47161    1226.5723    74.733884 
   24100    112.30157   -164.64258   0.10161282   -164.54097   -707.77905    4.2123678    4.2123678    4.2123678   -707.77905   -1493.7166    -201.8843   -427.73629    896.05607   -895.38931    841.94675    74.744431 
   24200    71.392421   -164.60576  0.064597363   -164.54117    1968.1312    4.2118937    4.2118937    4.2118937    1968.1312    3730.1253    6032.6594    -3858.391   -580.00598     82.99609   -1365.7835    74.719198 
   24300    84.871294   -164.61785  0.076793331   -164.54106   -156.09099    4.2126348    4.2126348    4.2126348   -156.09099    234.63912    1945.3576   -2648.2697   -461.38182    736.93179    1187.0362    74.758648 
   24400    120.44661   -164.64972   0.10898262   -164.54074   -3192.7033    4.2129197    4.2129197    4.2129197   -3192.7033   -5234.2276   -1202.7877   -3141.0947     802.8591   -77.090856    1218.1546    74.773818 
   24500     86.38311   -164.61895  0.078161253   -164.54079   -969.58804    4.2125075    4.2125075    4.2125075   -969.58804    383.63703    1220.1868   -4512.5879   -1164.8508    60.259856    344.38344    74.751872 
   24600    90.954424     -164.623  0.082297474   -164.54071   -58.034256    4.2128815    4.2128815    4.2128815   -58.034256   -588.33716    3414.8252   -3000.5908   -398.74949    253.44452   -757.28601    74.771784 
   24700    132.53064   -164.66055   0.11991651   -164.54063   -3098.6983    4.2133393    4.2133393    4.2133393   -3098.6983   -3570.5274   -278.02525   -5447.5423    1053.0796    472.43933   -557.79904    74.796163 
   24800    128.69942   -164.65722   0.11644994   -164.54077   -1070.9646    4.2128669    4.2128669    4.2128669   -1070.9646   -84.121403    1862.6355    -4991.408   -1201.1493    -1198.168    597.65716    74.771006 
   24900    130.62277     -164.659   0.11819023   -164.54081   -1443.8913    4.2133063    4.2133063    4.2133063   -1443.8913    546.23014   -1910.3105   -2967.5937    -751.3932   -694.19709    431.50633    74.794401 
   25000    115.87963    -164.6457   0.10485032   -164.54085   -1987.3634    4.2134912    4.2134912    4.2134912   -1987.3634   -2083.3537   -1872.1323   -2006.6041   -234.28993   -478.41812   -1255.9963    74.804251 
   25100     69.73614   -164.60418  0.063098725   -164.54108    1729.2653    4.2127153    4.2127153    4.2127153    1729.2653    2590.1512    7053.2774   -4455.6328   -1197.9049   -888.06575   -1584.1806    74.762933 
   25200    83.307576    -164.6163  0.075378446   -164.54092   -1888.5156    4.2133897    4.2133897    4.2133897   -1888.5156    738.97075   -1678.8661   -4725.6516   -457.98391   -163.69346    1564.2166    74.798842 
   25300    89.152794   -164.62147  0.080667322    -164.5408    -1747.992    4.2134369    4.2134369    4.2134369    -1747.992   -2930.0403   -697.65968   -1616.2761   -98.171524   -1018.2908    294.54576    74.801359 
   25400    56.999332   -164.59266  0.051574194   -164.54109    572.36272    4.2127887    4.2127887    4.2127887    572.36272    4499.6308    3155.4847   -5938.0273    -1892.978    177.85075   -1540.7212    74.766841 
   25500    84.734769   -164.61762  0.076669799   -164.54095   -660.93366    4.2130835    4.2130835    4.2130835   -660.93366    969.97111     1702.267   -4655.0391   -225.74746    892.60418   -257.08906    74.782535 
   25600    115.53042   -164.64542   0.10453435   -164.54088   -1451.4617    4.2132364    4.2132364    4.2132364   -1451.4617   -2495.9193    2239.4372   -4097.9029    1024.3255    650.62698    378.15773    74.790682 
   25700    109.78882   -164.64021   0.09933923   -164.54087   -749.17733    4.2126193    4.2126193    4.2126193   -749.17733    2869.9377   -699.19704   -4418.2727    -702.8013    152.04099    698.60456    74.757822 
   25800    124.27845   -164.65321   0.11244975   -164.54076   -787.96876    4.2126192    4.2126192    4.2126192   -787.96876    -308.6835   -1576.5274   -478.69538    1092.8697    406.10059   -873.02108    74.757817 
   25900    112.96179   -164.64288    0.1022102   -164.54067    -1718.248    4.2128734    4.2128734    4.2128734    -1718.248   -3160.2367    1515.4339   -3509.9413     1067.956    914.70392   -1180.6945    74.771353 
   26000    87.646532   -164.61994  0.079304424   -164.54063    1469.9676    4.2119347    4.2119347    4.2119347    1469.9676    1671.6968    5620.2824   -2882.0764   -382.94678   -834.52044    719.05868    74.721378 
   26100    111.80245   -164.64174    0.1011612   -164.54058   -1100.5429    4.2122937    4.2122937    4.2122937   -1100.5429    327.93912   -2222.3746   -1407.1933    1305.1989   -68.275789    1784.1917     74.74049 
   26200    114.32665   -164.64408   0.10344516   -164.54063   -1045.5256    4.2125182    4.2125182    4.2125182   -1045.5256   -1839.7908   -192.69402   -1104.0921    345.62448   -972.21233   -453.83168    74.752437 
   26300     90.96036   -164.62322  0.082302845   -164.54092    2592.7691     4.211456     4.211456     4.211456    2592.7691     5130.536    5980.7947   -3333.0234   -433.78702   -781.76908   -963.88069    74.695908 
   26400    107.06257   -164.63782   0.09687246   -164.54095   -79.096742    4.2119421    4.2119421    4.2119421   -79.096742    2419.0845    695.19113   -3351.5659    279.86889   -805.46111    2440.9225    74.721777 
   26500    108.25658   -164.63888  0.097952833   -164.54093    1186.7241    4.2120973    4.2120973    4.2120973    1186.7241   -219.36493    2710.0782    1069.4591   -554.14732    -1013.226    1128.6044    74.730034 
   26600    93.308857   -164.62538  0.084427815   -164.54095    510.94956    4.2114401    4.2114401    4.2114401    510.94956    5749.9758   -1458.9433   -2758.1839   -2206.0053   -374.29492    17.808025    74.695062 
   26700    92.756787   -164.62482   0.08392829   -164.54089    153.91179     4.211605     4.211605     4.211605    153.91179    370.48204    1079.8349   -988.58154    -234.3081    371.45593   -385.53894    74.703833 
   26800    69.490217   -164.60373  0.062876209   -164.54085    1018.7639    4.2120109    4.2120109    4.2120109    1018.7639   -1395.8377     5762.101   -1309.9716    -370.8541    368.62528    101.55624    74.725436 
   26900    68.414925   -164.60271  0.061903262   -164.54081    1144.5899    4.2113317    4.2113317    4.2113317    1144.5899    4552.6794    1855.4725   -2974.3821   -1246.1616   -302.10786    1350.2874    74.689295 
   27000    113.32543   -164.64317   0.10253923   -164.54063    196.04088    4.2116453    4.2116453    4.2116453    196.04088   -41.907464    190.95787    439.07223    697.64537    794.75528   -680.06417    74.705982 
   27100    118.10613   -164.64755   0.10686491   -164.54069   -454.44852    4.2123766    4.2123766    4.2123766   -454.44852   -358.99312    2103.7554   -3108.1079   -895.27378    1172.9161   -1867.0407    74.744902 
   27200     102.1676   -164.63324  0.092443389    -164.5408    3416.9478    4.2112858    4.2112858    4.2112858    3416.9478    5883.5771    6444.0015   -2076.7353    -218.8758    151.57216    394.51131    74.686853 
   27300    122.58706   -164.65168   0.11091935   -164.54077    627.48751    4.2119289    4.2119289    4.2119289    627.48751    1041.3758    1562.2112   -721.12446     1537.608    461.32568    1912.5466    74.721071 
   27400    125.94926   -164.65478   0.11396154   -164.54082   -366.20551    4.2127451    4.2127451    4.2127451   -366.20551   -743.09472    596.75641   -952.27822   -64.090068   -966.23907   -277.32192    74.764517 
   27500    102.59483   -164.63359   0.09282996   -164.54076    399.24168    4.2118961    4.2118961    4.2118961    399.24168    3719.5419    509.83294   -3031.6498    187.35246   -150.14189   -692.39856    74.719329 
   27600    78.929256   -164.61226  0.071416849   -164.54084   -1252.5452    4.2124221    4.2124221    4.2124221   -1252.5452    -2318.364    2902.5153   -4341.7869    869.36527   -596.02639    1909.7279    74.747323 
   27700    64.162642   -164.59907  0.058055707   -164.54102    599.06109    4.2129163    4.2129163    4.2129163    599.06109   -1434.4154    4946.6189   -1715.0203   -325.24415   -956.61167    1620.5422    74.773634 
   27800    92.512065   -164.62461  0.083706861   -164.54091    -2322.504    4.2124122    4.2124122    4.2124122    -2322.504     2534.809   -3092.3353   -6409.9857   -117.00861   -1262.0481    1038.9526    74.746799 
   27900    119.66573   -164.64914   0.10827607   -164.54087   -2644.1442    4.2128258    4.2128258    4.2128258   -2644.1442   -3215.4467   -212.61312   -4504.3728    1194.0283   -299.69961   -410.64561    74.768818 
   28000    97.282115   -164.62901  0.088022902   -164.54098   -74.693016    4.2133396    4.2133396    4.2133396   -74.693016    1130.6874     2158.211   -3512.9774   -506.83141    11.051606    12.177936    74.796178 
   28100     94.98891   -164.62692  0.085947962   -164.54097    254.56507    4.2124464    4.2124464    4.2124464    254.56507    5292.4416    803.24504   -5331.9914    139.33302   -447.45915    2222.5857    74.748616 
   28200    127.17707    -164.6558   0.11507248   -164.54073   -846.55518    4.2128242    4.2128242    4.2128242   -846.55518   -983.87488   -63.269045   -1492.5216    784.73518     1079.468   -81.494696    74.768732 
   28300    118.13551   -164.64749   0.10689149    -164.5406   -2146.8073    4.2137481    4.2137481    4.2137481   -2146.8073    908.28105   -3059.4629   -4289.2399   -1622.3047     677.4528   -1500.8291    74.817935 
   28400    79.287416   -164.61243   0.07174092   -164.54069    1231.1272     4.212403     4.212403     4.212403    1231.1272    5176.5172    2197.0566   -3680.1923    413.66298    975.42458    608.06626    74.746309 
   28500    73.245632   -164.60703  0.066274187   -164.54076    334.75037    4.2127969    4.2127969    4.2127969    334.75037   -272.70453    4406.0422   -3129.0866    145.30527    398.31497    1683.4717    74.767275 
   28600    97.147254   -164.62873  0.087900877   -164.54083   -1004.6672    4.2135914    4.2135914    4.2135914   -1004.6672    690.00984    636.14856     -4340.16   -1073.6541    -158.4927    68.608416    74.809589 
   28700    116.79994   -164.64649   0.10568304   -164.54081   -1070.9263    4.2124294    4.2124294    4.2124294   -1070.9263    3143.7717   -1951.6206   -4404.9298   -202.61846    293.83478   -497.20964    74.747711 
   28800    106.52168   -164.63738  0.096383051     -164.541    -1359.035    4.2128479    4.2128479    4.2128479    -1359.035   -1225.0734    1761.9933    -4614.025   -563.47549   -397.69911    1160.6823     74.76999 
   28900    85.365235   -164.61833  0.077240259   -164.54109    1189.1494     4.213133     4.213133     4.213133    1189.1494    2789.6061    2537.0175   -1759.1754   -1048.8868   -980.14471    1783.7309    74.785174 
   29000    99.982983   -164.63134  0.090466704   -164.54088   -1116.7644     4.212119     4.212119     4.212119   -1116.7644    2515.9069   -606.21039   -5259.9898     615.1355   -1782.9612    1144.8977     74.73119 
   29100    116.29748   -164.64603    0.1052284   -164.54081   -2589.5861    4.2126523    4.2126523    4.2126523   -2589.5861   -3523.5481   -690.33248   -3554.8778     647.2732   -552.91996   -818.61399    74.759577 
   29200    83.975719   -164.61688  0.075982995   -164.54089   -643.24619    4.2130969    4.2130969    4.2130969   -643.24619    1842.0013   -2225.0475   -1546.6923   -551.50388   -311.34928    197.71482    74.783252 
   29300    64.086582   -164.59882  0.057986886   -164.54083    994.04439    4.2116274    4.2116274    4.2116274    994.04439    3555.4892     4239.721    -4813.077     1365.593   -553.96173    2405.2315    74.705025 
   29400    101.81389   -164.63285  0.092123348   -164.54072    344.88587    4.2120483    4.2120483    4.2120483    344.88587   -1229.0826    4316.8863   -2053.1461    960.61951    211.70204    138.73219    74.727425 
   29500    132.58856   -164.66072   0.11996891   -164.54075   -1185.6303    4.2128483    4.2128483    4.2128483   -1185.6303    2620.8007   -3052.9194   -3124.7723    201.29712   -464.65763   -1207.0359    74.770013 
   29600    124.85863   -164.65376   0.11297471   -164.54079     1321.154    4.2113034    4.2113034    4.2113034     1321.154    4101.3612    1304.2508     -1442.15    2182.5921     1227.206    287.51347    74.687786 
   29700    112.85889   -164.64292   0.10211709    -164.5408    1479.1786    4.2118494    4.2118494    4.2118494    1479.1786    1142.7456    4058.1783   -763.38819   -236.31256   -93.025113    1388.3447    74.716843 
   29800    104.87044   -164.63577  0.094888979   -164.54088    981.27322     4.212544     4.212544     4.212544    981.27322    4138.4808    1253.3533   -2448.0144   -160.58429    557.64791    451.26973    74.753814 
   29900     107.7328   -164.63813  0.097478904   -164.54065    441.19104    4.2112141    4.2112141    4.2112141    441.19104     1251.033    1347.8299   -1275.2898    323.25717    39.573296   -1014.1992    74.683036 
   30000    95.412362   -164.62704   0.08633111   -164.54071   -1480.2775    4.2120554    4.2120554    4.2120554   -1480.2775   -2199.8752   -9.0420627   -2231.9151   -1128.1041   -315.92015    298.54742    74.727804 
   30100    55.206878   -164.59095  0.049952343     -164.541    1843.2611    4.2123754    4.2123754    4.2123754    1843.2611     4049.493    1884.7825    -404.4922   -762.98347   -50.831691    1493.8458    74.744836 
   30200    62.881594   -164.59785  0.056896587   -164.54096    1268.5316    4.2112203    4.2112203    4.2112203    1268.5316    992.36127    7390.6837   -4577.4503    304.03053   -1334.2432    1070.2017    74.683366 
   30300    110.53489   -164.64085    0.1000143   -164.54084   -1146.1248    4.2122088    4.2122088    4.2122088   -1146.1248   -1508.5387    1735.4913   -3665.3271   -1070.1759     440.1459   -1169.7607    74.735969 
   30400    112.87664   -164.64302   0.10213316   -164.54088    517.50287    4.2127327    4.2127327    4.2127327    517.50287     4075.336   -3046.2863    523.45887   -779.87089   -51.226042     164.0574    74.763861 
   30500     100.9881   -164.63228  0.091376159    -164.5409    1119.9381    4.2114724    4.2114724    4.2114724    1119.9381    2604.5422    4574.5449   -3819.2728    548.88712   -225.52059    2469.7061    74.696778 
   30600    111.09796    -164.6413   0.10052377   -164.54078    950.59995    4.2122219    4.2122219    4.2122219    950.59995    954.07642    4162.7499   -2265.0264   -679.49624   -550.20432    386.91115    74.736666 
   30700    109.02652   -164.63944  0.098649489   -164.54079   -439.23455    4.2130179    4.2130179    4.2130179   -439.23455    2002.1994   -706.05299   -2613.8501    933.07916   -678.31111   -848.60665    74.779046 
   30800    108.72958   -164.63902  0.098380809   -164.54064   -739.01594     4.211784     4.211784     4.211784   -739.01594   -1005.7231    898.21295   -2109.5377    1704.9331    510.02021   -261.41481    74.713361 
   30900    104.36677   -164.63503  0.094433242    -164.5406   -1237.1108    4.2125853    4.2125853    4.2125853   -1237.1108   -1912.5023     245.9647   -2044.7946   -447.11482   -1116.9988    1477.3485    74.756013 
   31000    81.904312   -164.61501  0.074108743    -164.5409   -326.27974    4.2131968    4.2131968    4.2131968   -326.27974    1007.8694    2793.9208   -4780.6294     1010.776   -381.41473    820.29891    74.788569 
   31100    104.11207   -164.63495  0.094202786   -164.54075   -273.91627    4.2120512    4.2120512    4.2120512   -273.91627   -2201.5901    4694.2944    -3314.453    1039.6172    -1519.147   -1599.3035    74.727583 
   31200    132.50456   -164.66065   0.11989291   -164.54075   -3172.3631    4.2131818    4.2131818    4.2131818   -3172.3631   -1855.0406   -3986.9055   -3675.1431    38.306305   -808.53068   -702.54476    74.787771 
   31300    104.82689   -164.63581   0.09484957   -164.54096   -226.87417    4.2134052    4.2134052    4.2134052   -226.87417    3137.4856   -2440.5616   -1377.5465    1018.8546    123.48133    722.27855    74.799667 
   31400    91.944854   -164.62417  0.083193636   -164.54098    160.38401    4.2121481    4.2121481    4.2121481    160.38401    625.69821     5192.396   -5336.9422     522.1331   -938.10443    984.46691    74.732741 
   31500    90.814029   -164.62312  0.082170442   -164.54095   -1276.7672    4.2130897    4.2130897    4.2130897   -1276.7672    1622.3527   -92.228054   -5360.4263    -722.5406    786.03431   -1695.5639    74.782866 
   31600    73.639322   -164.60754  0.066630406   -164.54091     803.5347    4.2131947    4.2131947    4.2131947     803.5347     3773.419   -1144.7079   -218.10699    438.90127    246.22421   -995.89097     74.78846 
   31700     89.81414   -164.62202  0.081265721   -164.54075   -1650.4059    4.2122837    4.2122837    4.2122837   -1650.4059    70.914735    441.57775   -5463.7103    478.57516    687.54287    1441.7982    74.739955 
   31800    93.680918   -164.62555  0.084764464   -164.54079    -597.9485    4.2129927    4.2129927    4.2129927    -597.9485     1679.485    945.33465   -4418.6652   -1071.8521    274.51891    210.33713    74.777704 
   31900    77.065412   -164.61069  0.069730404   -164.54096    1451.3681    4.2131157    4.2131157    4.2131157    1451.3681    2910.0426    4588.9922   -3144.9306    999.67045    401.36983   -652.00337    74.784254 
   32000    123.16674   -164.65214   0.11144385    -164.5407   -943.17257    4.2121632    4.2121632    4.2121632   -943.17257   -963.11489     847.8657   -2714.2685   -187.29689    408.14149   -1143.4509    74.733542 
   32100    149.96925    -164.6764   0.13569533    -164.5407   -2113.8149    4.2129694    4.2129694    4.2129694   -2113.8149   -261.71063   -4263.5382   -1816.1957   -999.12273   -821.17604    1106.0422    74.776462 
   32200    106.67188   -164.63746  0.096518962   -164.54094   -87.780519    4.2130457    4.2130457    4.2130457   -87.780519    1564.6378    2044.8277   -3872.8071    554.55014   -700.96112    1243.3875    74.780528 
   32300    96.048408   -164.62769  0.086906618   -164.54078    352.48695    4.2117728    4.2117728    4.2117728    352.48695   -1454.5963    5331.5576   -2819.5004   -425.52542   -2003.1767   -1163.7575    74.712767 
   32400    94.378499   -164.62629  0.085395649    -164.5409   -1572.0244    4.2127509    4.2127509    4.2127509   -1572.0244   -298.77528   -600.44852   -3816.8493   -117.10023   -805.01255   -995.34479    74.764826 
   32500    85.007494   -164.61785  0.076916567   -164.54093    -240.1839    4.2128366    4.2128366    4.2128366    -240.1839    382.35988    1140.1076   -2243.0191    1227.1596   -936.26784    710.15615    74.769391 
   32600     104.4785   -164.63529  0.094534345   -164.54076   -1466.6901    4.2118141    4.2118141    4.2118141   -1466.6901   -2042.6261    2738.5883   -5096.0324     -61.6187   -1488.7568    1530.3158    74.714963 
   32700    81.856021   -164.61502  0.074065048   -164.54095    452.49495    4.2124402    4.2124402    4.2124402    452.49495     3037.328    3477.2353   -5157.0785   -68.019701   -730.27417   -1393.2078    74.748285 
   32800     74.53327   -164.60847  0.067439269   -164.54103    3456.6575    4.2122428    4.2122428    4.2122428    3456.6575    3571.5353     6241.079    557.35825    1776.2513   -241.58125   -1262.6347    74.737779 
   32900    137.21231   -164.66485   0.12415258    -164.5407   -1565.4722    4.2116298    4.2116298    4.2116298   -1565.4722    6.4312021   -1238.1978   -3464.6499    948.83476    582.20741    106.88913    74.705157 
   33000    125.12991   -164.65394   0.11322017   -164.54072   -104.35113    4.2122297    4.2122297    4.2122297   -104.35113    2780.4749   -624.77654   -2468.7517     670.9754    193.47668   -36.734297    74.737083 
   33100    70.909045   -164.60516  0.064159994     -164.541    2875.7779    4.2121103    4.2121103    4.2121103    2875.7779    3267.2264    5777.5919   -417.48455       1836.1    694.48767   -1035.6908    74.730727 
   33200    90.270314   -164.62238  0.081678477   -164.54071   -174.77764    4.2114951    4.2114951    4.2114951   -174.77764   -430.15576    2199.2115   -2293.3886   -318.17153    442.38994   -2741.3607    74.697989 
   33300    100.70594    -164.6319  0.091120848   -164.54078   -205.11848     4.212203     4.212203     4.212203   -205.11848   -797.15923     1973.453   -1791.6492    469.81153   -30.464486   -23.881858    74.735663 
   33400    99.096927   -164.63044  0.089664982   -164.54077   -574.00375     4.212483     4.212483     4.212483   -574.00375   -815.74488    1997.0848   -2903.3512    1321.0105    349.06079     362.6317    74.750563 
   33500    115.99508   -164.64561   0.10495479   -164.54066   -338.01883    4.2115146    4.2115146    4.2115146   -338.01883   -1851.2525    2637.3895   -1800.1935   -750.06765    -1070.592   -1195.8943    74.699026 
   33600    92.456402   -164.62467  0.083656496   -164.54101    1610.4959    4.2120794    4.2120794    4.2120794    1610.4959    1519.0199    6058.3531   -2745.8852   -133.00588   -172.48569   -1457.9084    74.729081 
   33700    106.10141   -164.63696  0.096002787   -164.54096    1276.4731    4.2123289    4.2123289    4.2123289    1276.4731    793.45481    4441.1084    -1405.144    388.58124   -1308.4765    349.15199    74.742363 
   33800    143.34584   -164.67034   0.12970233   -164.54064   -1855.0444    4.2118228    4.2118228    4.2118228   -1855.0444   -2521.4422   -688.54139   -2355.1497   -1188.2337    -1370.758    1480.0091    74.715425 
   33900    89.936942   -164.62234  0.081376835   -164.54096    58.077852    4.2124876    4.2124876    4.2124876    58.077852    1525.1713     2989.945   -4340.8827   -486.07733   -1612.6302   -333.72822    74.750812 
   34000    59.730854   -164.59506  0.054045732   -164.54101    2275.7659    4.2123695    4.2123695    4.2123695    2275.7659    1509.8798    5526.9978   -209.58001    741.56798   -559.17135   -705.15476    74.744523 
   34100    93.520728   -164.62541   0.08461952   -164.54079   -1926.8564    4.2120599    4.2120599    4.2120599   -1926.8564   -3068.5628    1523.8232   -4235.8296   -307.57575   -178.54568   -255.34017    74.728043 
   34200    90.868555    -164.6231  0.082219778   -164.54088   -290.33171    4.2125552    4.2125552    4.2125552   -290.33171   -989.25154    3499.2181   -3380.9617    1080.3677    -722.1585     1379.273    74.754411 
   34300    97.478683   -164.62905  0.088200761   -164.54085    218.90006    4.2125773    4.2125773    4.2125773    218.90006    336.64052    42.483491    277.57618    631.54685    236.71922   -371.17395    74.755586 
   34400    114.81682   -164.64457   0.10388867   -164.54068   -1228.3295    4.2121395    4.2121395    4.2121395   -1228.3295    -1051.415    314.82048   -2948.3941   -436.18918    191.44648   -2102.9952    74.732283 
   34500     99.83756   -164.63122  0.090335123   -164.54089    1864.8259    4.2125342    4.2125342    4.2125342    1864.8259    2315.0964    5264.8941   -1985.5127    1485.5968    637.84193    121.56605    74.753292 
   34600    116.57293   -164.64622   0.10547764   -164.54074    -744.5305    4.2129121    4.2129121    4.2129121    -744.5305    1246.8556   -1665.4538   -1814.9933    1443.2264    1071.3976    221.00074    74.773411 
   34700    123.55105   -164.65239   0.11179159    -164.5406   -1372.2633    4.2123027    4.2123027    4.2123027   -1372.2633   -996.27296    -1941.299   -1179.2179   -109.13497   -147.12968   -519.24453    74.740969 
   34800    76.867271   -164.61049  0.069551122   -164.54094    1006.4541    4.2127625    4.2127625    4.2127625    1006.4541    3682.8039    3083.5933   -3747.0349    890.57392    -59.80046   -1673.8865    74.765446 
   34900    76.953238    -164.6105  0.069628907   -164.54087   -190.74174    4.2129146    4.2129146    4.2129146   -190.74174    1052.1948     1838.864    -3463.284    874.60356   -337.78621    -505.7102    74.773545 
   35000    101.04617   -164.63218  0.091428697   -164.54075   -1096.7398    4.2123859    4.2123859    4.2123859   -1096.7398   -3067.3237    2316.2063   -2539.1021   -196.57942   -691.34369    915.83603    74.745395 
   35100    93.814493    -164.6259  0.084885324   -164.54102   -1075.5985    4.2130805    4.2130805    4.2130805   -1075.5985     302.5711     1202.186   -4731.5527       804.03   -1300.2224   -14.309959    74.782378 
   35200    109.60314   -164.64007  0.099171223    -164.5409   -604.38261    4.2129079    4.2129079    4.2129079   -604.38261    632.59455   -1782.7346    -663.0078    231.97124   -661.86432   -1195.4724     74.77319 
   35300     117.8007   -164.64739   0.10658854    -164.5408   -2154.5402     4.212567     4.212567     4.212567   -2154.5402   -2152.7283      512.118   -4823.0102   -323.87327   -906.04707   -1165.3294     74.75504 
   35400       96.888   -164.62857  0.087666298    -164.5409   -54.155513     4.212936     4.212936     4.212936   -54.155513    989.78035     2698.729   -3850.9759    1176.9892   -1111.8626      1193.84    74.774686 
   35500    106.39631   -164.63706  0.096269621   -164.54079   -1249.8969    4.2129355    4.2129355    4.2129355   -1249.8969    407.80592   -4626.6476    469.15079   -399.55884    -162.4799    50.391747    74.774659 
   35600     110.5204   -164.64063   0.10000118   -164.54063    -2697.814    4.2126037    4.2126037    4.2126037    -2697.814   -1904.2589   -1877.1566   -4312.0266   -885.03338   -297.52938    -1055.532    74.756993 
   35700    83.805535   -164.61666  0.075829009   -164.54083    820.55685    4.2127349    4.2127349    4.2127349    820.55685    3325.0617    2854.4674   -3717.8586    934.00803    387.36338   -124.99062    74.763974 
   35800    86.818571   -164.61944  0.078555267   -164.54088   -246.92188    4.2127388    4.2127388    4.2127388   -246.92188     627.1068     588.4332   -1956.3057    257.16873    197.90178    628.04026    74.764185 
   35900    104.52716   -164.63538  0.094578373    -164.5408    551.16975    4.2121668    4.2121668    4.2121668    551.16975   -1158.3498    3160.8678   -349.00876   -497.32171   -53.697468    918.00803    74.733734 
   36000     109.1289    -164.6396  0.098742121   -164.54086    552.51541    4.2126264    4.2126264    4.2126264    552.51541    4279.1299     254.7036   -2876.2873   -23.671227   -786.47951   -507.95959      74.7582 
   36100    115.37687   -164.64524   0.10439542   -164.54084    4.6539139    4.2124432    4.2124432    4.2124432    4.6539139    2234.1962   -78.536272   -2141.6982    -228.8128     492.2097   -25.819089    74.748445 
   36200    95.207695   -164.62702  0.086145923   -164.54087    1234.9775    4.2119353    4.2119353    4.2119353    1234.9775     299.5436    4426.6121   -1021.2233    695.62792   -547.76567    1041.5971     74.72141 
   36300    73.685807   -164.60763  0.066672467   -164.54096    766.51428    4.2124271    4.2124271    4.2124271    766.51428    3579.5595    1891.0624   -3171.0791    1582.1133   -796.58968     831.9485     74.74759 
   36400    97.764059   -164.62922  0.088458975   -164.54076   -634.28527    4.2122834    4.2122834    4.2122834   -634.28527    655.28754     -2687.87    129.72663    -443.4574   -76.375532   -718.76336     74.73994 
   36500     98.68042   -164.63001  0.089288118   -164.54072   -2215.3826    4.2121567    4.2121567    4.2121567   -2215.3826   -2505.0956    833.34466    -4974.397    525.56789   -775.82523    -831.9983    74.733198 
   36600    67.361132   -164.60187  0.060949768   -164.54092    1553.5901     4.212065     4.212065     4.212065    1553.5901    4122.4302     3869.924    -3331.584    1918.8109    47.996282    905.57639    74.728316 
   36700    91.489164   -164.62364  0.082781318   -164.54086    540.83194    4.2120083    4.2120083    4.2120083    540.83194   -996.65508     433.9927    2185.1582    663.67035    465.19812    190.13526    74.725298 
   36800    132.25756   -164.66039   0.11966942   -164.54072    -1430.067    4.2120107    4.2120107    4.2120107    -1430.067    -2169.321    596.56203   -2717.4419    248.14939   -174.92074   -676.68244    74.725426 
   36900    129.17792   -164.65763    0.1168829   -164.54075     1025.977    4.2120222    4.2120222    4.2120222     1025.977    6257.7253   -1154.1127   -2025.6816    484.34136    193.85519    -1098.335     74.72604 
   37000    115.63565   -164.64537   0.10462957   -164.54074    74.089376    4.2120586    4.2120586    4.2120586    74.089376   -12.029402    560.53818   -326.24065    551.53928   -323.68465   -8.8016896    74.727975 
   37100    96.291196    -164.6279  0.087126298   -164.54077    2009.4303    4.2117311    4.2117311    4.2117311    2009.4303    644.81243     5031.376    352.10259    378.64092   -65.938859    730.96174    74.710546 
   37200    98.112018   -164.62955  0.088773815   -164.54077    538.56104    4.2121121    4.2121121    4.2121121    538.56104    3792.5504    197.44884   -2374.3161   -433.58899   -1501.7969   -73.722591    74.730821 
   37300    119.14364    -164.6484   0.10780367    -164.5406   -1789.5038    4.2121713    4.2121713    4.2121713   -1789.5038   -1806.5463   -495.70015    -3066.265   -1394.3547    118.53452   -280.03156    74.733975 
   37400    83.156715   -164.61603  0.075241943   -164.54079    752.20037    4.2118922    4.2118922    4.2118922    752.20037   -199.60111    4082.1285   -1625.9263    838.23414   -1297.2189    497.96366    74.719119 
   37500    56.261541   -164.59198  0.050906625   -164.54107    1977.0375     4.212031     4.212031     4.212031    1977.0375    3885.6839    4589.1463   -2543.7176    1102.9441   -1188.6055    1226.2325    74.726503 
   37600     107.9444   -164.63857  0.097670357    -164.5409   -538.22544    4.2122507    4.2122507    4.2122507   -538.22544   -1437.6238   -659.90891    482.85638   -944.09817    -191.5574    12.199046    74.738198 
   37700    123.03807   -164.65211   0.11132743   -164.54078   -2212.6042    4.2125552    4.2125552    4.2125552   -2212.6042    394.43218   -2665.7229   -4366.5217    66.659456   -838.96677    136.50903    74.754408 
   37800    81.809213   -164.61509  0.074022695   -164.54106    1588.4128    4.2123036    4.2123036    4.2123036    1588.4128    8604.6388   -1055.3005      -2784.1    753.06784    632.31779    1066.2866    74.741015 
   37900    76.536259   -164.61013  0.069251616   -164.54088    874.58621    4.2123992    4.2123992    4.2123992    874.58621     243.1435    -197.8806    2578.4957    1340.4362    418.44172    615.30696    74.746105 
   38000    88.682402   -164.62118  0.080241701   -164.54094    182.79139    4.2125111    4.2125111    4.2125111    182.79139    3138.0722     635.1789   -3224.8769    1101.1951    328.59219     287.1509    74.752061 
   38100    107.81058   -164.63834  0.097549278   -164.54079   -598.52424    4.2127144    4.2127144    4.2127144   -598.52424    5801.4748   -4132.7824   -3464.2652   -349.64212   -125.99335    -650.5064    74.762886 
   38200    115.91135   -164.64565   0.10487903   -164.54077   -2186.4943     4.213003     4.213003     4.213003   -2186.4943   -2979.3179   -1602.8417   -1977.3233      778.094    314.87664     269.7301    74.778251 
   38300    78.371336   -164.61192  0.070912032     -164.541    1750.6075    4.2127065    4.2127065    4.2127065    1750.6075    3595.0731    3016.2956   -1359.5462    1587.1532   -259.73078    680.01972    74.762464 
   38400     105.5607   -164.63648  0.095513538   -164.54096   -495.61997    4.2129077    4.2129077    4.2129077   -495.61997    1767.8412   -224.29303   -3030.4081    765.81069   -1284.9903   -48.230751    74.773178 
   38500    163.85722   -164.68897   0.14826146    -164.5407   -4420.7224    4.2132737    4.2132737    4.2132737   -4420.7224   -4023.1141   -4509.7021   -4729.3511    -824.8967   -155.65964   -1004.8078    74.792665 
   38600     114.2026   -164.64425   0.10333291   -164.54092   -1491.4777    4.2130189    4.2130189    4.2130189   -1491.4777    2591.9662    -3806.806   -3259.5932    831.62451   -1754.0606     -375.519    74.779099 
   38700    68.552892   -164.60308  0.062028097   -164.54105     690.6031    4.2126571    4.2126571    4.2126571     690.6031    4436.5108    875.68924   -3240.3907    1244.3722   -566.80786    657.23037    74.759834 
   38800    96.694641   -164.62833  0.087491343   -164.54084   -2111.8827    4.2129613    4.2129613    4.2129613   -2111.8827   -3257.9945   -1707.0851   -1370.5684     751.3374    -293.2395   -78.844792    74.776029 
   38900    100.20383   -164.63151  0.090666532   -164.54084   -2266.6096     4.213009     4.213009     4.213009   -2266.6096    2551.2143   -3672.2123   -5678.8308   -19.146619   -623.05686   -6.7061683    74.778568 
   39000    93.070587   -164.62523  0.084212223   -164.54102   -887.51446    4.2126956    4.2126956    4.2126956   -887.51446    4303.9818   -2813.5528   -4152.9723   -438.76381    198.23722    40.726701    74.761883 
   39100     81.99744   -164.61515  0.074193007   -164.54096   -211.90698    4.2127255    4.2127255    4.2127255   -211.90698   -2590.9847   -54.380476    2009.6443    1890.9461    352.58374     350.1223    74.763476 
   39200    74.842042   -164.60874  0.067718652   -164.54102    2980.5551    4.2122527    4.2122527    4.2122527    2980.5551    9350.1917    2203.1993   -2611.7256     1042.519    587.02725     848.3704    74.738307 
   39300    137.21908   -164.66493   0.12415871   -164.54077   -1254.0613    4.2123799    4.2123799    4.2123799   -1254.0613     2611.378   -3882.4188    -2491.143   -939.95738   -710.65664    1.5128547    74.745075 
   39400    139.09347   -164.66652   0.12585469   -164.54067   -1493.4126    4.2125011    4.2125011    4.2125011   -1493.4126   -372.13851   -3451.8219   -656.27756   -151.96625    928.42138    404.14946    74.751528 
   39500    63.367564   -164.59831  0.057336304   -164.54098      3980.28     4.211832     4.211832     4.211832      3980.28     10508.07    1856.8085   -424.03823    1056.6598   -1047.5304    871.69986    74.715913 
   39600    89.234303   -164.62149  0.080741073   -164.54075     664.2097    4.2118701    4.2118701    4.2118701     664.2097     1249.437    2083.9416   -1340.7495    1126.4496   -927.97074    538.20915    74.717941 
   39700    125.99869    -164.6547   0.11400627   -164.54069   -1927.1207    4.2122247    4.2122247    4.2122247   -1927.1207   -201.04591   -1749.7682   -3830.5481   -427.96657   -293.60588   -508.41169    74.736817 
   39800    90.371609   -164.62265  0.081770131   -164.54088    376.80878    4.2119247    4.2119247    4.2119247    376.80878     4343.464   -1344.5628   -1868.4749    191.68869   -2215.9622    83.407441    74.720848 
   39900    82.444287   -164.61544  0.074597324   -164.54084    1262.2554     4.211595     4.211595     4.211595    1262.2554    1093.9976    3635.4827   -942.71412    1013.9928   -290.44103    789.88663    74.703302 
   40000    88.608468   -164.62119  0.080174804   -164.54102    766.67886    4.2118904    4.2118904    4.2118904    766.67886    982.28419    678.42112    639.33129    1965.7921   -940.52243   -94.673701    74.719024 
   40100    106.48604    -164.6373  0.096350808   -164.54095    814.59607    4.2118515    4.2118515    4.2118515    814.59607    6983.6212   -1689.7505   -2850.0825     758.3749   -725.15571   -427.39423    74.716954 
   40200     129.1439   -164.65767   0.11685211   -164.54082   -1481.5071    4.2118747    4.2118747    4.2118747   -1481.5071    916.75206   -3078.8659   -2282.4074    -221.1672   -449.05367   -948.12224     74.71819 
   40300    83.132361   -164.61615  0.075219907   -164.54093    1265.4149    4.2120031    4.2120031    4.2120031    1265.4149    1850.0455   -1042.2256    2988.4249    2175.9476    644.81171    87.503091     74.72502 
   40400    70.110572   -164.60439  0.063437519   -164.54095    2565.9007    4.2118625    4.2118625    4.2118625    2565.9007     8382.727    2535.2898   -3220.3148     1458.433     471.8855    684.93111    74.717536 
   40500      129.755   -164.65807   0.11740505   -164.54067   -2873.2613    4.2122017    4.2122017    4.2122017   -2873.2613   -3173.1493   -2155.8229   -3290.8116    206.66133   -110.49174   -483.79526    74.735592 
   40600    116.95043   -164.64654   0.10581921   -164.54072   -605.04368    4.2123499    4.2123499    4.2123499   -605.04368    1800.5103   -2279.5796   -1336.0617   -315.31012    1475.5144   -681.09007     74.74348 
   40700    90.321574   -164.62262  0.081724859    -164.5409    478.68617    4.2123511    4.2123511    4.2123511    478.68617    2060.8486     1396.871   -2021.6611    287.82802   -807.03704    424.80789    74.743542 
   40800    118.35265   -164.64788   0.10708797   -164.54079   -766.71132    4.2123086    4.2123086    4.2123086   -766.71132   -3011.8719    2004.2161   -1292.4781    833.77828    567.23913    964.06262    74.741284 
   40900    121.92017   -164.65116   0.11031593   -164.54084    -1130.771    4.2128164    4.2128164    4.2128164    -1130.771    4013.8383   -3425.5875   -3980.5638   -252.88589    216.59962   -181.30121    74.768316 
   41000    117.70088   -164.64732   0.10649823   -164.54082   -1340.3297    4.2128641    4.2128641    4.2128641   -1340.3297    2137.6945   -4287.4679   -1871.2159   -801.89155   -1515.0847    258.97212    74.770855 
   41100    100.29653   -164.63154  0.090750404   -164.54079   -594.05631    4.2125448    4.2125448    4.2125448   -594.05631     448.6408   -529.44664   -1701.3631   -826.15387   -335.71609    797.87933    74.753858 
   41200    63.328889   -164.59837   0.05730131   -164.54106    516.29689    4.2129171    4.2129171    4.2129171    516.29689    4712.2422   -1665.7354   -1497.6162    1224.4202   -996.13714    417.75174    74.773678 
   41300     85.39306   -164.61812  0.077265435   -164.54085   -38.666537    4.2128521    4.2128521    4.2128521   -38.666537    5281.2663   -1210.1444   -4187.1215    733.39942   -1124.4727    247.09708    74.770214 
   41400    100.66295   -164.63184   0.09108195   -164.54076   -2696.6905    4.2128879    4.2128879    4.2128879   -2696.6905   -278.99118   -3692.0411   -4119.0393   -1120.7635    -967.8108   -910.78072    74.772121 
   41500     65.10297    -164.5999  0.058906535   -164.54099    1760.3677    4.2128279    4.2128279    4.2128279    1760.3677    5407.7664   -1955.7509    1829.0876    1238.1261   -2.1717913    372.04917     74.76893 
   41600    89.875833    -164.6222  0.081321542   -164.54088    19.206572     4.212904     4.212904     4.212904    19.206572     3178.324    1057.2259   -4177.9301    1136.0822   -1060.3406     894.2765    74.772978 
   41700    124.96387   -164.65384   0.11306994   -164.54077    -2209.914      4.21279      4.21279      4.21279    -2209.914   -493.95592   -2941.9885   -3193.7977    892.39018     125.8263   -869.62522    74.766911 
   41800    109.06489   -164.63951  0.098684206   -164.54082    702.02752    4.2128164    4.2128164    4.2128164    702.02752    7580.5308   -4799.1078   -675.34046    512.45947    386.84891   -1463.3355    74.768315 
   41900    114.35142   -164.64419   0.10346757   -164.54072   -1756.5503     4.212855     4.212855     4.212855   -1756.5503   -1089.0854   -2020.3401   -2160.2253    501.67551   -614.34251    36.047558    74.770373 
   42000      109.233   -164.63956  0.098836318   -164.54072   -19.427817    4.2122417    4.2122417    4.2122417   -19.427817    -268.0117     1451.823   -1242.0948    812.33453    1049.5266    965.92242    74.737721 
   42100     97.35527   -164.62895  0.088089094   -164.54086   -582.10171    4.2127263    4.2127263    4.2127263   -582.10171    3729.7278   -953.99759   -4522.0354    1034.2706   -22.166803    -782.9078     74.76352 
   42200    114.56096   -164.64435   0.10365717   -164.54069   -1511.6876    4.2125503    4.2125503    4.2125503   -1511.6876   -2377.3898   -889.51435   -1268.1586    96.907011   -532.83998   -688.99277    74.754147 
   42300     96.57888   -164.62819    0.0873866    -164.5408    -205.0673     4.212062     4.212062     4.212062    -205.0673    221.67707    236.51917   -1073.3982    -818.4366   -83.069181    44.724638    74.728156 
   42400    81.947481   -164.61515  0.074147803     -164.541     696.6654    4.2123975    4.2123975    4.2123975     696.6654    2646.1302    48.863433   -604.99742    1231.8612    265.93724    746.53491    74.746016 
   42500    113.52087   -164.64353   0.10271607   -164.54082   -134.74056    4.2121281    4.2121281    4.2121281   -134.74056     910.3435    979.22982    -2293.795    473.39132   -288.23706    773.87767    74.731673 
   42600    103.99533   -164.63493  0.094097163   -164.54083   -831.68581    4.2118604    4.2118604    4.2118604   -831.68581    3406.8267   -3576.2773   -2325.6069   -1136.5242    251.57576   -1141.8514    74.717429 
   42700    84.824955    -164.6177  0.076751402   -164.54095    2454.8674    4.2119488    4.2119488    4.2119488    2454.8674    6674.0762   -2908.4488    3598.9747    214.13017    305.70616    359.08738    74.722133 
   42800    106.18946   -164.63682  0.096082453   -164.54073   -952.99167    4.2120265    4.2120265    4.2120265   -952.99167   -686.87828    1254.7028   -3426.7995   -649.14034   -1003.1956    1623.9782    74.726268 
   42900    94.996773   -164.62676  0.085955077   -164.54081    908.36834    4.2114895    4.2114895    4.2114895    908.36834    3340.2268      1542.37   -2157.4918    51.556234    748.49771   -456.90464    74.697688 
   43000    89.959886    -164.6222  0.081397595    -164.5408    1561.0385    4.2120245    4.2120245    4.2120245    1561.0385    4446.0604    146.88757    90.167608    354.92462    -273.3942   -1267.2958    74.726159 
   43100    111.64385   -164.64168    0.1010177   -164.54066   -1244.0496    4.2121226    4.2121226    4.2121226   -1244.0496   -3241.1799    363.76573   -854.73458   -1040.5851   -916.76856    198.72851     74.73138 
   43200    94.888322   -164.62675  0.085856948   -164.54089    2558.0399    4.2113912    4.2113912    4.2113912    2558.0399    3893.2709    3228.7039    552.14479   -708.04736   -102.96545    985.82953    74.692461 
   43300    97.585619   -164.62916  0.088297519   -164.54087    271.16089    4.2123363    4.2123363    4.2123363    271.16089    2581.2475    1807.9964   -3575.7613    817.45842   -1650.6112   -779.59137    74.742755 
   43400    114.19821   -164.64409   0.10332894   -164.54076    416.05169    4.2121235    4.2121235    4.2121235    416.05169    615.74516    551.99946    80.410441    462.47434   -1074.4825   -1417.9714    74.731427 
   43500    89.214142   -164.62166   0.08072283   -164.54094    860.16323    4.2118731    4.2118731    4.2118731    860.16323    5663.4027   -2021.1862   -1061.7269    43.854792   -747.62813   -809.35564    74.718102 
   43600    89.929665   -164.62225  0.081370251   -164.54088    149.20488    4.2126681    4.2126681    4.2126681    149.20488    2776.2703   -692.93887   -1635.7168    1846.9751    119.02683    757.08098    74.760422 
   43700    101.43181    -164.6325  0.091777629   -164.54073   -997.42308    4.2125912    4.2125912    4.2125912   -997.42308   -1127.7949    2267.5529   -4132.0272    713.76942   -267.45387    563.19743    74.756323 
   43800    76.184309   -164.60983  0.068933164   -164.54089   -547.07546    4.2123159    4.2123159    4.2123159   -547.07546    4072.6907   -1186.4285   -4527.4886    991.98302    1130.8137   -2173.5709    74.741672 
   43900     95.71963   -164.62742  0.086609133   -164.54081    67.122798    4.2128252    4.2128252    4.2128252    67.122798    1262.7307    -2566.133    1504.7707    1219.3421    633.34288   -402.18283    74.768784 
   44000    124.82818   -164.65367   0.11294716   -164.54072   -3827.0418    4.2130006    4.2130006    4.2130006   -3827.0418   -4421.2794   -1883.9688   -5175.8773   -590.65713    702.93324    1626.2115    74.778122 
   44100    97.912962   -164.62947  0.088593705   -164.54088    737.58109    4.2122682    4.2122682    4.2122682    737.58109    5308.2859    624.01206   -3719.5547    474.38133    1853.8471   -165.79855    74.739132 
   44200    111.97205   -164.64209   0.10131466   -164.54078   -816.74722    4.2131018    4.2131018    4.2131018   -816.74722    914.38352   -1188.4995   -2176.1257    28.102431    502.15273   -1291.2923    74.783514 
   44300    133.61384   -164.66158   0.12089661   -164.54068   -2781.5346    4.2130358    4.2130358    4.2130358   -2781.5346   -990.58448   -3754.8162   -3599.2032   -1647.3391   -118.11584   -34.691093    74.779999 
   44400     106.7428    -164.6374  0.096583131   -164.54081    667.44459    4.2124471    4.2124471    4.2124471    667.44459    6107.7546    -1195.808   -2909.6128   -1386.3087   -488.25569    912.97524    74.748656 
   44500    98.400178   -164.62985  0.089034549   -164.54081   -1462.0056    4.2133184    4.2133184    4.2133184   -1462.0056    98.253283    1834.7102   -6318.9803   -511.74091   -1179.8875    -171.7658     74.79505 
   44600    85.629174   -164.61836  0.077479076   -164.54088    567.23177    4.2127151    4.2127151    4.2127151    567.23177     1759.931     2330.886   -2389.1217   -686.18645   -1509.3859   -1254.6668     74.76292 
   44700    72.388457   -164.60645  0.065498597   -164.54095    516.46794    4.2123927    4.2123927    4.2123927    516.46794    6080.9941   -1548.6774   -2982.9129   -199.68625    -819.0051   -890.44004    74.745756 
   44800    100.65421   -164.63194  0.091074042   -164.54086   -1191.9883    4.2130909    4.2130909    4.2130909   -1191.9883    699.05728   -2049.6524   -2225.3699    475.05507   -1010.3337    1037.6706    74.782934 
   44900    87.116899   -164.61973  0.078825201    -164.5409    21.958663    4.2125613    4.2125613    4.2125613    21.958663    2330.7348     698.8803   -2963.7391   -553.84459   -1057.2482    630.50721    74.754736 
   45000    59.363214   -164.59479  0.053713083   -164.54107    2065.1488    4.2120608    4.2120608    4.2120608    2065.1488    9295.4907    677.57313   -3777.6174    1730.1828    767.41296   -2558.3342     74.72809 
   45100    112.13254   -164.64232   0.10145988   -164.54086   -589.42769    4.2128019    4.2128019    4.2128019   -589.42769    804.31467   -3067.3205    494.72278    1672.5459    73.044258   -616.54564    74.767544 
   45200    128.96222   -164.65743   0.11668773   -164.54075   -2463.9339    4.2124857    4.2124857    4.2124857   -2463.9339     1353.082    -3551.114   -5193.7696    139.37964     1138.755    1279.6449    74.750711 
   45300    87.016218   -164.61965  0.078734103   -164.54092    1841.0638    4.2117132    4.2117132    4.2117132    1841.0638    6800.6348    2711.2742   -3988.7177    1163.7366    1215.8509   -485.62244    74.709591 
   45400    94.889946   -164.62659  0.085858417   -164.54073    142.92066    4.2124097    4.2124097    4.2124097    142.92066   -2036.7107    4297.6307    -1832.158    22.575644    346.24777   -1854.2229    74.746661 
   45500    111.99721   -164.64213   0.10133743    -164.5408   -428.09262    4.2119243    4.2119243    4.2119243   -428.09262    1728.7635    449.32623   -3462.3676    -82.29079    266.38332   -886.08821     74.72083 
   45600    119.51219   -164.64887   0.10813714   -164.54073   -68.034981    4.2116492    4.2116492    4.2116492   -68.034981    2350.1161   -198.00499   -2356.2161    489.71505   -453.89856     392.2023    74.706187 
   45700    116.73319   -164.64634   0.10562264   -164.54072   -1049.3143    4.2124319    4.2124319    4.2124319   -1049.3143   -1456.4061    1721.0188   -3412.5556   -313.65994    187.92271   -265.76728    74.747848 
   45800    80.334987   -164.61367  0.072688785   -164.54098    2588.6046    4.2116438    4.2116438    4.2116438    2588.6046    5167.5305    3296.0626   -697.77933   -445.89207   -1386.2776   -1522.9478    74.705897 
   45900    98.547197   -164.63006  0.089167575   -164.54089    1062.5332    4.2115461    4.2115461    4.2115461    1062.5332    5482.3288    478.85219   -2773.5813    321.99653    72.808874   -1090.1212    74.700702 
   46000    143.08774   -164.67013    0.1294688   -164.54066   -2590.9602    4.2125278    4.2125278    4.2125278   -2590.9602   -1196.9309   -3548.9825   -3026.9671   -582.31767   -1194.5104    1054.7718    74.752953 
   46100    91.554815   -164.62374   0.08284072    -164.5409    842.57536     4.211804     4.211804     4.211804    842.57536    3857.3605     515.6991   -1845.3335   -922.78724   -742.65613    617.92675    74.714426 
   46200    53.535722   -164.58943  0.048440246   -164.54099    2901.7105    4.2113889    4.2113889    4.2113889    2901.7105    6429.8056    5887.3571   -3612.0314    727.65002    638.46401     -2287.17    74.692334 
   46300     99.32291   -164.63069  0.089869456   -164.54082   -864.08149    4.2124489    4.2124489    4.2124489   -864.08149   -2992.9675    1202.7273   -802.00431   -305.27731   -70.968643   -40.031926    74.748749 
   46400    111.66993   -164.64175    0.1010413   -164.54071   -1207.4527    4.2122338    4.2122338    4.2122338   -1207.4527    2912.2098   -2482.8908   -4051.6769   -484.74013    466.54665    1449.6421      74.7373 
   46500    93.702559   -164.62562  0.084784044   -164.54084    390.94584    4.2119632    4.2119632    4.2119632    390.94584    3319.6357    1416.9334   -3563.7316   -73.246407    340.22594   -547.92851    74.722899 
   46600    81.372031   -164.61455  0.073627124   -164.54092    1518.6742    4.2124736    4.2124736    4.2124736    1518.6742    779.54968     4152.243   -375.77017   -998.82592    306.52985   -1584.2622    74.750065 
   46700    88.941949   -164.62155  0.080476544   -164.54107     1580.477      4.21219      4.21219      4.21219     1580.477      7740.49    1403.3887   -4402.4475    569.78457    94.353132   -1009.9796    74.734967 
   46800    134.75142   -164.66269   0.12192592   -164.54077   -1501.9339    4.2124847    4.2124847    4.2124847   -1501.9339     1478.036   -1414.3742   -4569.4635    1355.1724    104.14194    640.56024    74.750654 
   46900    117.72989    -164.6473   0.10652448   -164.54078    -1223.452    4.2130667    4.2130667    4.2130667    -1223.452     645.9998   -809.24404   -3507.1117    497.08078    250.68713   -579.05778    74.781642 
   47000    56.620863   -164.59226  0.051231747   -164.54103    2175.7566    4.2125051    4.2125051    4.2125051    2175.7566    5711.9138    3161.4349    -2346.079    786.18703   -1324.7362   -1919.4585    74.751742 
   47100    88.739813   -164.62115  0.080293648   -164.54086   -278.40855    4.2126833    4.2126833    4.2126833   -278.40855    848.25444    3192.7458   -4876.2259    1214.1909    361.84763   -1175.0043    74.761228 
   47200    129.88142    -164.6583   0.11751944   -164.54078   -4522.4745    4.2135854    4.2135854    4.2135854   -4522.4745   -3288.8923   -5317.6781    -4960.853    542.92766   -1167.4804    954.29484     74.80927 
   47300    97.421677   -164.62913  0.088149181   -164.54098   -983.89834    4.2129394    4.2129394    4.2129394   -983.89834    2865.8566   -4214.1004   -1603.4512    1046.1074    -334.7316    266.38367    74.774863 
   47400    87.657753   -164.62024  0.079314577   -164.54093   -1018.9025    4.2128378    4.2128378    4.2128378   -1018.9025    1264.9275    1241.5162   -5563.1511    552.56348    19.768053   -2390.3793    74.769457 
   47500    104.11128   -164.63518  0.094202076   -164.54098   -1639.5819    4.2132913    4.2132913    4.2132913   -1639.5819    225.88233   -1209.1091    -3935.519   -1298.4519    -475.9974    21.626666    74.793602 
   47600     125.2312    -164.6542   0.11331182   -164.54088   -1605.4137     4.212964     4.212964     4.212964   -1605.4137    4768.8342   -4025.4583   -5559.6171   -493.59119   -189.33702    1271.7214    74.776173 
   47700    135.84222   -164.66372   0.12291289    -164.5408   -3997.1432    4.2131426    4.2131426    4.2131426   -3997.1432   -2167.6525   -3137.9945   -6685.7824   -1174.5493   -58.004549   -571.94552    74.785687 
   47800    82.720252   -164.61581  0.074847023   -164.54096    1337.0739    4.2128918    4.2128918    4.2128918    1337.0739    3430.8768    1977.1474   -1396.8026   -1509.1901    348.03936   -1305.9358    74.772333 
   47900    71.591151   -164.60573  0.064777178   -164.54095    912.81433    4.2125688    4.2125688    4.2125688    912.81433    5287.1139    2574.0125   -5122.6834   -224.49316   -504.87214   -884.10231    74.755133 
   48000    126.38178   -164.65495   0.11435289    -164.5406   -2267.7004    4.2127005    4.2127005    4.2127005   -2267.7004   -1495.6517   -1121.8742   -4185.5754    -556.5466    758.63596    1197.2971    74.762144 
   48100    102.74004   -164.63373  0.092961347   -164.54077   -148.49466     4.212674     4.212674     4.212674   -148.49466    4107.8261    -3714.591   -838.71911   -95.654743   -607.57709   -38.578554    74.760736 
   48200    64.047379   -164.59893  0.057951414   -164.54098    2219.2389    4.2120533    4.2120533    4.2120533    2219.2389    6536.0398    689.28674   -567.60988    819.72489   -249.83007    -1540.044    74.727693 
   48300    95.601048   -164.62731  0.086501837   -164.54081    1263.9914    4.2119583    4.2119583    4.2119583    1263.9914    3765.0492    3643.1742   -3616.2491    732.45677    659.41666   -700.62294    74.722638 
   48400    108.72171   -164.63922  0.098373685   -164.54085    -762.3908    4.2123759    4.2123759    4.2123759    -762.3908    4434.1262   -3082.9481   -3638.3505    1188.4247   -445.88278     1562.659    74.744863 
   48500    104.46876   -164.63537  0.094525532   -164.54085    1251.2635    4.2117793    4.2117793    4.2117793    1251.2635    5015.8035   -2022.7767     760.7638    1812.5271    8.4362677    533.83951    74.713109 
   48600    99.146912   -164.63046   0.08971021   -164.54075   -384.49143    4.2118099    4.2118099    4.2118099   -384.49143    334.15681    2686.3831   -4174.0142    726.62305    256.23669   -2222.0625    74.714741 
   48700    70.989312   -164.60522  0.064232621   -164.54099    2105.6353    4.2117755    4.2117755    4.2117755    2105.6353    4419.3111    3406.9132   -1509.3183   -394.53785   -8.3566225    124.92893    74.712911 
   48800     100.0756   -164.63131  0.090550507   -164.54076    841.10664    4.2116123    4.2116123    4.2116123    841.10664    2679.9203    944.82149   -1101.4218    532.24376    78.605986     1089.023    74.704222 
   48900    127.86057    -164.6563   0.11569093   -164.54061   -2665.3172    4.2118013    4.2118013    4.2118013   -2665.3172   -2459.7792   -2487.3187   -3048.8538   -312.91869    388.62129   -391.78489    74.714282 
   49000     83.10618   -164.61615  0.075196218   -164.54095    3148.8755     4.211437     4.211437     4.211437    3148.8755    6631.7263    941.20267    1873.6974    127.02587   -121.37678   -1556.8415    74.694895 
   49100    95.689306   -164.62742  0.086581695   -164.54084    797.53992    4.2116437    4.2116437    4.2116437    797.53992    3240.0651    2924.0936    -3771.539   -119.88151   -1210.4364   -1293.5788    74.705893 
   49200    136.45201   -164.66416   0.12346464   -164.54069   -688.66641    4.2116425    4.2116425    4.2116425   -688.66641      915.012    580.19063   -3561.2019   -1461.5422    107.97548    993.65984    74.705831 
   49300    114.52544   -164.64445   0.10362503   -164.54083    676.94636    4.2117815    4.2117815    4.2117815    676.94636    4810.7134   -2597.5062   -182.36815   -556.79278    -1957.699    148.51963    74.713225 
   49400    107.27346   -164.63788  0.097063278   -164.54082    109.77925    4.2118604    4.2118604    4.2118604    109.77925    527.80204    717.74319   -916.20749    1.1137846   -470.42036   -1565.1961    74.717427 
   49500    104.09962   -164.63493  0.094191528   -164.54073    459.80403    4.2117682    4.2117682    4.2117682    459.80403    31.471402    4829.5715   -3481.6308   -294.26793   -478.76144   -863.31785     74.71252 
   49600    82.957493   -164.61593  0.075061683   -164.54087    283.64741    4.2121367    4.2121367    4.2121367    283.64741    2844.1765    208.56178    -2201.796    -145.9905   -730.48446    1878.2444    74.732133 
   49700    104.20911   -164.63497  0.094290592   -164.54068    -281.8685    4.2123055    4.2123055    4.2123055    -281.8685   -846.22424   -2232.1714    2232.7902   -67.866962      25.0146    976.84918    74.741117 
   49800    98.745773   -164.63008  0.089347251   -164.54073   -1597.5315    4.2124918    4.2124918    4.2124918   -1597.5315     223.5001   -907.19632   -4108.8982   -326.82308    1004.5727   -1570.5334    74.751032 
   49900    67.909715   -164.60248  0.061446137   -164.54103    2160.5202    4.2124371    4.2124371    4.2124371    2160.5202    7116.0114    1857.1631   -2491.6139    395.62476     1015.459    526.11288    74.748124 
   50000    103.01581    -164.6341  0.093210868   -164.54089   -753.72389    4.2129187    4.2129187    4.2129187   -753.72389    496.04016    330.99274   -3088.2046    255.49323    1480.4549    1114.2559    74.773761 
   50100    111.10113   -164.64143   0.10052664   -164.54091      -1708.1    4.2129514    4.2129514    4.2129514      -1708.1    3214.3944   -3219.8545   -5118.8399    128.00288    1789.2228    530.50083    74.775502 
   50200    82.674665   -164.61579  0.074805774   -164.54099    1536.7605     4.212864     4.212864     4.212864    1536.7605    6518.4887   -1426.7339    -481.4734    1313.3032    108.59365   -1047.6435    74.770849 
   50300    99.097839   -164.63045  0.089665807   -164.54079   -2168.6127    4.2133764    4.2133764    4.2133764   -2168.6127   -1588.2579    901.10183   -5818.6821    615.38342    362.03473   -1156.4596    74.798136 
   50400    92.680644    -164.6247  0.083859394   -164.54084   -483.68006    4.2129805    4.2129805    4.2129805   -483.68006     2777.596    216.28786   -4444.9241    113.53595     139.9995    1033.2573    74.777055 
   50500    86.037909   -164.61864  0.077848908   -164.54079   -920.69517    4.2132656    4.2132656    4.2132656   -920.69517    2083.1694     -4209.33   -635.92492    517.59452   -1636.2202    353.17177    74.792237 
   50600    117.87711   -164.64725   0.10665768    -164.5406    -3130.027    4.2135351    4.2135351    4.2135351    -3130.027   -2431.8592   -4729.4141   -2228.8075    273.98588   -936.85366    -1427.895    74.806591 
   50700    108.63826   -164.63905  0.098298178   -164.54075   -1350.4645    4.2130775    4.2130775    4.2130775   -1350.4645     2017.306   -359.05989   -5709.6395    625.04585   -1427.1645   -1431.2412    74.782216 
   50800    102.16558    -164.6333  0.092441567   -164.54086   -987.54615    4.2131973    4.2131973    4.2131973   -987.54615    2192.3531   -465.83118   -4689.1603   -663.22206   -1523.8936    1547.9501      74.7886 
   50900    132.66404   -164.66072   0.12003721   -164.54068   -2164.7894    4.2132115    4.2132115    4.2132115   -2164.7894   -2882.1167   -3077.1097   -535.14178   -1233.3254   -434.34329    779.07147    74.789355 
   51000    115.94448   -164.64577     0.104909   -164.54086   -1894.3887    4.2128595    4.2128595    4.2128595   -1894.3887    2227.2449   -2396.2029   -5514.2082   -1093.9831    644.30081    -1326.232     74.77061 
   51100    94.456902   -164.62641   0.08546659   -164.54095    20.567732    4.2128239    4.2128239    4.2128239    20.567732    2642.1707    563.53431   -3144.0018    97.254626    277.88471     140.1865    74.768715 
   51200    96.924404   -164.62846  0.087699238   -164.54076   -1495.2679    4.2128638    4.2128638    4.2128638   -1495.2679   -3135.8475    1072.2758   -2422.2321   -857.99521    1243.7724    663.30611    74.770842 
   51300    74.990109   -164.60874  0.067852627   -164.54089    168.04733    4.2122451    4.2122451    4.2122451    168.04733    4996.1934     -1340.68   -3151.3715   -905.85919     1604.832    1081.6506    74.737902 
   51400    83.594806   -164.61659  0.075638337   -164.54095    543.82587    4.2123733    4.2123733    4.2123733    543.82587    3322.4614   -2871.6136    1180.6298   -150.98024    45.325037   -324.44937    74.744725 
   51500    104.97545   -164.63576  0.094983994   -164.54077   -966.68917    4.2124131    4.2124131    4.2124131   -966.68917     1688.097   -630.99985   -3957.1647   -262.77463    1686.1839   -957.14689    74.746847 
   51600    84.038185   -164.61695  0.076039515   -164.54091     2625.878    4.2114349    4.2114349    4.2114349     2625.878    7687.7704    3058.5754   -2868.7116    1315.5501    63.639023    1191.1019    74.694782 
   51700    99.326523   -164.63071  0.089872726   -164.54084    1653.9553    4.2117727    4.2117727    4.2117727    1653.9553    2618.9793     1313.435    1029.4515    424.80284    -525.1597    912.69446    74.712761 
   51800    123.99105   -164.65285   0.11218971   -164.54066    137.05981    4.2118528    4.2118528    4.2118528    137.05981    1297.0316   -1129.6186    243.76651    71.099975   -435.39848   -586.86504    74.717021 
   51900    100.51799   -164.63169  0.090950794   -164.54074    1815.7884    4.2111792    4.2111792    4.2111792    1815.7884    5461.8109    2083.8388   -2098.2845     1580.202   -543.05935   -979.49138    74.681181 
   52000    92.866722   -164.62474  0.084027762   -164.54071       1121.4    4.2116498    4.2116498    4.2116498       1121.4    487.20035    3755.0071   -878.00742    594.47102   -600.26862    1558.8184    74.706218 
   52100    91.654374   -164.62362  0.082930804   -164.54069      684.865    4.2116699    4.2116699    4.2116699      684.865   -1580.9357    539.08561    3096.4451    131.76847    394.05055    692.33022    74.707289 
   52200    86.567607   -164.61913   0.07832819    -164.5408    1468.6426    4.2111182    4.2111182    4.2111182    1468.6426    6630.0635   -471.96078   -1752.1749   -30.680502    816.66402   -899.19671    74.677934 
   52300    112.99117   -164.64294   0.10223678    -164.5407   -524.55977    4.2118251    4.2118251    4.2118251   -524.55977    1227.5657   -1101.1013   -1700.1436     459.0203   -435.48121   -207.00167    74.715546 
   52400    103.39968   -164.63445  0.093558206   -164.54089    496.49297    4.2118021    4.2118021    4.2118021    496.49297    1738.7523    1505.8188   -1755.0922   -36.293282    1236.2441    144.43108    74.714326 
   52500    83.436799   -164.61656  0.075495369   -164.54106    2546.2277     4.211266     4.211266     4.211266    2546.2277    7313.8805     3247.693   -2922.8904   -295.00012    626.73675    1155.3792    74.685797 
   52600    121.65062   -164.65087   0.11007204    -164.5408   -1020.3444    4.2121857    4.2121857    4.2121857   -1020.3444   -2232.1348   -1067.5073    238.60883    -1614.333   -40.475306   -312.08066    74.734738 
   52700    118.70186   -164.64817   0.10740393   -164.54077   -968.42846    4.2122305    4.2122305    4.2122305   -968.42846    1959.1432   -1094.8946    -3769.534   -990.43299    1274.8572   -1125.0722    74.737125 
   52800    81.037068   -164.61419  0.073324042   -164.54086    996.09376    4.2117414    4.2117414    4.2117414    996.09376    3152.2708    2438.5697   -2602.5592    1356.3824   -635.95413     555.3121    74.711091 
   52900    91.579873   -164.62353  0.082863394   -164.54066   -431.81167    4.2125643    4.2125643    4.2125643   -431.81167   -4114.3823    2180.2269    638.72046   -726.79282   -390.48124    902.55214    74.754894 
   53000    101.21685   -164.63232  0.091583136   -164.54074   -883.64018     4.212667     4.212667     4.212667   -883.64018    728.96036   -2508.9295   -870.95141   -883.90342   -151.98249    -233.2027    74.760359 
   53100    113.73798   -164.64355   0.10291251   -164.54064   -653.42951    4.2123014    4.2123014    4.2123014   -653.42951    3891.1333   -1999.2518     -3852.17    295.20665    205.56417   -561.18437      74.7409 
   53200     121.4436   -164.65058   0.10988472   -164.54069   -1378.5294    4.2130925    4.2130925    4.2130925   -1378.5294   -391.55408    364.42592     -4108.46    510.27534    -47.28572    1224.1611    74.783017 
   53300    85.829319   -164.61878  0.077660172   -164.54112    1272.5123    4.2128235    4.2128235    4.2128235    1272.5123    3100.4542    922.72313   -205.64032    875.93824    1122.6075    761.91546    74.768693 
   53400     98.28751   -164.62992  0.088932604   -164.54099    443.18506    4.2126652    4.2126652    4.2126652    443.18506    5091.8095    811.43791   -4573.6922    281.57884    852.42985    223.86736    74.760266 
   53500    125.93639   -164.65468   0.11394989   -164.54073   -3722.7788    4.2137747    4.2137747    4.2137747   -3722.7788   -1839.6635   -4404.8189   -4923.8541   -105.35893   -82.301826    308.59794    74.819353 
   53600    67.510255   -164.60206  0.061084698   -164.54098    322.73686    4.2131453    4.2131453    4.2131453    322.73686    4725.8457    -1285.796   -2471.8391    701.87345    2040.0804     497.9675    74.785831 
   53700    44.756148    -164.5816  0.040496304    -164.5411    510.58985    4.2128463    4.2128463    4.2128463    510.58985     2811.131    2311.3439   -3590.7053    1627.4195    168.57142    1473.6514    74.769908 
   53800     89.07013   -164.62148  0.080592525   -164.54089   -2291.3023    4.2137227    4.2137227    4.2137227   -2291.3023   -2927.6808   -2669.2883   -1276.9379    -786.2933    281.72382   -83.877944    74.816582 
   53900    102.89635   -164.63397  0.093102776   -164.54087   -1686.1806    4.2132553    4.2132553    4.2132553   -1686.1806    4716.3658   -4812.6048   -4962.3028   -416.99502    475.78095   -711.97297    74.791684 
   54000    110.82921   -164.64123    0.1002806   -164.54095   -1910.7368    4.2128715    4.2128715    4.2128715   -1910.7368    780.56948   -1793.5379    -4719.242    1605.0897   -698.39755   -25.120883    74.771248 
   54100    109.45356   -164.63991  0.099035881   -164.54087   -254.84502    4.2133272    4.2133272    4.2133272   -254.84502   -1383.8543    2016.1134   -1396.7942   -64.578474   -399.86638    837.87459    74.795514 
   54200     109.3865   -164.63987  0.098975202    -164.5409    -329.1319    4.2128416    4.2128416    4.2128416    -329.1319    1979.7144   -875.82379   -2091.2863    519.81321    201.35168   -384.91558    74.769657 
   54300    153.20921    -164.6792   0.13862691   -164.54058   -2606.8942    4.2125418    4.2125418    4.2125418   -2606.8942   -1362.4457   -2333.1888   -4125.0481    -619.5993    498.76838   -947.57437    74.753696 
   54400     129.9032    -164.6582   0.11753915   -164.54066   -2658.7014    4.2131264    4.2131264    4.2131264   -2658.7014   -2062.8069    -2312.203   -3601.0943   -24.575652   -322.69762    154.42801    74.784823 
   54500     57.27133   -164.59274  0.051820303   -164.54092    2633.2866    4.2120073    4.2120073    4.2120073    2633.2866    4635.4778    622.68272    2641.6991    1479.1871    1584.7369     280.2072    74.725246 
   54600    89.697227   -164.62196  0.081159936    -164.5408    468.17917    4.2117763    4.2117763    4.2117763    468.17917    768.61066    2626.1789    -1990.252    60.899216    586.77725    511.69674    74.712948 
   54700    126.44653    -164.6552   0.11441147   -164.54079   -3116.8736    4.2128164    4.2128164    4.2128164   -3116.8736   -508.26499   -5044.7793   -3797.5763   -1584.8689    918.33209    215.71869    74.768314 
   54800    85.354296   -164.61834  0.077230361   -164.54111    2354.0107    4.2116881    4.2116881    4.2116881    2354.0107    9049.4792   -1675.1401   -312.30701   -5.4235719    2238.0404    291.33981    74.708258 
   54900    74.517661   -164.60862  0.067425146   -164.54119    1450.2474    4.2114713    4.2114713    4.2114713    1450.2474    1696.7984    4600.3626   -1946.4188    1760.4293    177.11437    1461.6576    74.696722 
   55000    87.045095   -164.61982  0.078760232   -164.54106    1792.3726    4.2119899    4.2119899    4.2119899    1792.3726    1791.3569    2734.6643    851.09654   -494.31114    529.70795    763.56527    74.724319 
   55100     103.3626   -164.63443  0.093524656   -164.54091    853.32964    4.2114301    4.2114301    4.2114301    853.32964    4955.1539   -633.45692   -1761.7081   -29.622545    180.33951    315.44199     74.69453 
   55200    113.31769    -164.6433   0.10253223   -164.54077   -863.81531    4.2113605    4.2113605    4.2113605   -863.81531   -1208.6341   -492.11082   -890.70106    775.11068   -337.69117    239.22551    74.690823 
   55300    70.987663   -164.60499   0.06423113   -164.54076    3065.2964    4.2115853    4.2115853    4.2115853    3065.2964    3029.2728    3299.7363      2866.88    541.17302   -609.01235    1067.9029    74.702789 
   55400    69.952117   -164.60413  0.063294146   -164.54084    2614.7984    4.2111461    4.2111461    4.2111461    2614.7984    3961.4197     1777.205    2105.7704     2008.962   -139.40908    62.979745    74.679418 
   55500     142.6674   -164.66963   0.12908846   -164.54054   -569.22192    4.2113656    4.2113656    4.2113656   -569.22192   -346.29279    117.66108   -1479.0341   -353.81642   -378.15821   -762.01252    74.691096 
   55600    139.84872    -164.6672   0.12653806   -164.54066   -1220.6881    4.2122622    4.2122622    4.2122622   -1220.6881    2615.2031   -2838.9084    -3438.359   -199.89337   -1112.0237    -266.2982    74.738812 
   55700    87.145852   -164.61989  0.078851398   -164.54103    3535.2636    4.2113541    4.2113541    4.2113541    3535.2636    5742.7677    2060.0447    2802.9782    1937.6892    1602.4381   -32.925648    74.690485 
   55800     102.9584   -164.63412   0.09315892   -164.54096    1165.7142    4.2116056    4.2116056    4.2116056    1165.7142   -804.13724    6333.1402   -2031.8603    719.39859      64.6763    741.21656    74.703869 
   55900    121.54976   -164.65103   0.10998078   -164.54105   -1908.7039    4.2126397    4.2126397    4.2126397   -1908.7039    380.02331   -2141.4468   -3964.6882   -1067.3761    1673.7168   -360.31735    74.758905 
   56000    99.750692    -164.6313  0.090256522   -164.54105   -412.24975     4.212025     4.212025     4.212025   -412.24975    961.20018   -1666.9676   -530.98184   -222.37872    2301.5681   -661.83758    74.726188 
   56100    73.569054   -164.60761  0.066566826   -164.54104   -1659.9212    4.2124476    4.2124476    4.2124476   -1659.9212   -3756.4068    1495.3646   -2718.7215    793.86597    866.48627    449.93323    74.748681 
   56200    58.878538   -164.59436  0.053274538   -164.54109    671.26321    4.2129709    4.2129709    4.2129709    671.26321    1784.5723    547.39503   -318.17765    222.78933     1392.015    998.16771    74.776543 
   56300    99.623464   -164.63099  0.090141404   -164.54085   -2192.9281    4.2127331    4.2127331    4.2127331   -2192.9281   -966.37063   -1370.7212   -4241.6925    600.56134    1170.5743    223.62506    74.763883 
   56400    141.76239   -164.66905   0.12826959   -164.54078   -3474.4819    4.2129997    4.2129997    4.2129997   -3474.4819   -2315.0941   -3016.5374   -5091.8142   -1082.7443    413.38222   -418.09116    74.778074 
   56500    108.54498   -164.63914  0.098213777   -164.54092    237.14508    4.2132745    4.2132745    4.2132745    237.14508    3608.7913   -782.99569   -2114.3603    229.68952    -383.6063    479.36346    74.792711 
   56600    90.697461   -164.62296  0.082064968   -164.54089    1172.1094    4.2125876    4.2125876    4.2125876    1172.1094    2093.3481    2188.6147    -765.6346    2198.2964     121.2968    545.30814    74.756132 
   56700      129.959   -164.65827   0.11758964   -164.54068   -814.77578    4.2129787    4.2129787    4.2129787   -814.77578   -728.85106    1905.4321   -3620.9084   -516.11556   -1176.1969    279.99362    74.776958 
   56800    123.81668   -164.65263   0.11203193    -164.5406   -2713.2563    4.2138289    4.2138289    4.2138289   -2713.2563    1827.1264   -4852.6785   -5114.2167   -765.71812   -929.86221   -74.590694    74.822238 
   56900    76.016428   -164.60956  0.068781261   -164.54078    978.25861     4.212774     4.212774     4.212774    978.25861    1816.2591   -963.72238    2082.2391     1109.668    688.73104   -14.745139    74.766058 
   57000    65.255228   -164.59996  0.059044301   -164.54091   -327.18098      4.21311      4.21311      4.21311   -327.18098   -1127.3194    2883.7548   -2737.9783    758.92024   -738.48872    1149.2822    74.783948 
   57100    80.209313   -164.61368  0.072575072   -164.54111   -1030.5508    4.2136027    4.2136027    4.2136027   -1030.5508     3455.524   -2103.9386   -4443.2379    74.411302    873.03563    316.22991    74.810189 
   57200    102.16126   -164.63347  0.092437655   -164.54103   -1349.0386    4.2127876    4.2127876    4.2127876   -1349.0386   -601.60699   -488.87365   -2956.6352    144.46604    1239.6456   -506.04572    74.766784 
   57300    106.82957   -164.63767  0.096661639     -164.541   -2978.9604    4.2130737    4.2130737    4.2130737   -2978.9604   -2540.2681   -1150.5769    -5246.036    214.08447    629.48619   -142.31215    74.782018 
   57400    84.481739   -164.61755  0.076440853   -164.54111     612.0716    4.2130916    4.2130916    4.2130916     612.0716    2452.5378    978.82844   -1595.1514     1458.342    1191.4167     1206.781     74.78297 
   57500    97.343254   -164.62897  0.088078221   -164.54089   -1256.9099    4.2124902    4.2124902    4.2124902   -1256.9099    -2853.035    2826.3188   -3744.0134    1593.8279    1416.1031    148.69285    74.750951 
   57600    131.92328   -164.65998   0.11936696   -164.54061   -2367.5781    4.2126601    4.2126601    4.2126601   -2367.5781   -2493.2176   -929.77247   -3679.7442   -1117.0047    585.12996   -1258.8653    74.759995 
   57700    115.32811   -164.64502   0.10435129   -164.54067   -1179.4041    4.2128003    4.2128003    4.2128003   -1179.4041    497.37884   -2627.8861   -1407.7049    699.82294   -85.758611   -629.84248     74.76746 
   57800    93.252119   -164.62506  0.084376477   -164.54068    1113.7956    4.2117572    4.2117572    4.2117572    1113.7956    232.67252    1562.9067    1545.8075    1886.5947    969.50551   -243.80717    74.711934 
   57900    112.12789   -164.64208   0.10145567   -164.54063    1140.6969     4.211905     4.211905     4.211905    1140.6969    1057.2301    3568.3356    -1203.475    -287.7704   -885.14434    558.88789      74.7198 
   58000    120.93258   -164.65017   0.10942234   -164.54075   -76.356282    4.2122511    4.2122511    4.2122511   -76.356282    3396.7997    171.32749   -3797.1961   -313.30025    484.00871   -861.64094    74.738222 
   58100     112.1719   -164.64232   0.10149549   -164.54082    2018.8692    4.2113636    4.2113636    4.2113636    2018.8692    1584.6929    2499.7018    1972.2128   -718.42417    736.09831   -1079.3248    74.690991 
   58200    100.33352   -164.63169   0.09078388   -164.54091    373.30141    4.2117946    4.2117946    4.2117946    373.30141    177.95575     2387.866   -1445.9175   -38.391774   -274.29917    833.99286    74.713926 
   58300    72.607553   -164.60683   0.06569684   -164.54114    2202.5274    4.2117983    4.2117983    4.2117983    2202.5274    3406.9177    4288.8496   -1088.1853    561.20897    933.92989     1081.251    74.714123 
   58400    69.916152   -164.60428  0.063261604   -164.54102    1140.9505    4.2113087    4.2113087    4.2113087    1140.9505   -1652.4029    5322.0169   -246.76235   -210.32777     1013.737    80.791406    74.688067 
   58500    82.786934   -164.61577  0.074907358   -164.54086   -752.97189    4.2117979    4.2117979    4.2117979   -752.97189    249.42131   -617.00689   -1891.3301   -1003.3795    508.68341   -151.01299    74.714099 
   58600      73.0599   -164.60696  0.066106133   -164.54085    1296.6026    4.2117355    4.2117355    4.2117355    1296.6026    2421.3564    933.43967    535.01163    1035.6657    422.35262    1310.2577    74.710782 
   58700    81.034105   -164.61416  0.073321361   -164.54084    903.34112    4.2112502    4.2112502    4.2112502    903.34112   -223.83253    4184.6692   -1250.8133    969.88007    562.05601    659.59619    74.684957 
   58800    109.51967   -164.63985  0.099095698   -164.54076    1429.1571    4.2116611    4.2116611    4.2116611    1429.1571    2932.9236     3667.088   -2312.5402   -604.19815   -482.40301   -308.51106    74.706819 
   58900    126.41967   -164.65512   0.11438718   -164.54073    307.00505    4.2120266    4.2120266    4.2120266    307.00505    1700.5014    2392.4843   -3171.9706    777.96278   -781.29806   -586.72846     74.72627 
   59000       139.04   -164.66643   0.12580632   -164.54062     313.5189     4.211694     4.211694     4.211694     313.5189    -415.9514    1529.6704   -173.16232    886.36514    605.96931   -483.69579     74.70857 
   59100    128.53924   -164.65689   0.11630501   -164.54058    180.53815    4.2121836    4.2121836    4.2121836    180.53815   -874.89798    2565.0653   -1148.5528    716.40137   -1239.9305    897.80297    74.734627 
   59200    101.78968   -164.63285  0.092101444   -164.54075     325.8601    4.2123589    4.2123589    4.2123589     325.8601    100.12158    4254.6619   -3377.2032    690.64335    957.06942   -951.76688    74.743957 
   59300    101.66417    -164.6327  0.091987881   -164.54071   -175.49618    4.2120539    4.2120539    4.2120539   -175.49618   -2711.4868    2045.9925    139.00573   -711.68444    1079.6364   -1729.5099    74.727727 
   59400    96.565688   -164.62817  0.087374664   -164.54079   -2158.6358    4.2127095    4.2127095    4.2127095   -2158.6358   -1686.4795   -2320.2114   -2469.2164    407.89501     451.0991   -93.839893    74.762624 
   59500    76.838477   -164.61051  0.069525069   -164.54098     272.3895    4.2126177    4.2126177    4.2126177     272.3895     2244.222    1477.1574   -2904.2109    1702.5344     1573.993    839.91873    74.757739 
   59600    78.040884   -164.61156  0.070613032   -164.54095    -960.4298    4.2124796    4.2124796    4.2124796    -960.4298     -2057.74    3061.4932   -3885.0425    136.71181    1978.5375   -230.16677    74.750385 
   59700    80.497105   -164.61389  0.072835472   -164.54105    10.353454    4.2128312    4.2128312    4.2128312    10.353454    2307.2974    2645.5483   -4921.7854   -687.34568    1087.6531   -889.52725    74.769101 
   59800    92.057354   -164.62432  0.083295428   -164.54102    82.748655    4.2129308    4.2129308    4.2129308    82.748655    2747.2805    1246.1172   -3745.1517    932.64533    685.02023    153.49731    74.774409 
   59900    109.55376   -164.63996   0.09912654   -164.54084   -1662.3285    4.2128537    4.2128537    4.2128537   -1662.3285   -446.55345   -1296.6783   -3243.7537    275.97305    787.92975     329.1259    74.770304 
   60000    91.347234   -164.62348  0.082652897   -164.54083    947.61031      4.21292      4.21292      4.21292    947.61031    1787.6327     2919.534   -1864.3357   -83.436422   -1022.5378    564.13524    74.773831 
   60100    88.685725   -164.62097  0.080244708   -164.54073   -133.01543    4.2130603    4.2130603    4.2130603   -133.01543    534.22782    3034.0966   -3967.3707   -170.39655    -877.3953   -699.19494    74.781305 
   60200    117.62604   -164.64705   0.10643052   -164.54062   -1091.7183    4.2128632    4.2128632    4.2128632   -1091.7183    209.44925   -2172.2394   -1312.3649   -977.65108   -445.89656   -681.31591    74.770806 
   60300    118.15092   -164.64759   0.10690544   -164.54069   -1773.8151    4.2132356    4.2132356    4.2132356   -1773.8151   -1239.9737   -2053.1696   -2028.3021    246.55796   -2062.8673    1212.3755    74.790635 
   60400    113.18492   -164.64315   0.10241209   -164.54073   -1231.4096     4.213155     4.213155     4.213155   -1231.4096   -326.48717    1957.9587   -5325.7003   -147.81006   -29.334599    138.12077    74.786348 
   60500    113.96485   -164.64397   0.10311779   -164.54085   -1467.0161    4.2128839    4.2128839    4.2128839   -1467.0161   -2614.6536     1679.113   -3465.5077   -840.43146     234.5007     -801.579    74.771912 
   60600     100.6769   -164.63221  0.091094576   -164.54111   -1406.1534    4.2130312    4.2130312    4.2130312   -1406.1534   -1444.3777    1390.2281   -4164.3105     23.49041    213.70916    314.98473    74.779756 
   60700    109.78002   -164.64039  0.099331272   -164.54105   -1640.1877    4.2129422    4.2129422    4.2129422   -1640.1877   -561.80066   -1009.1375   -3349.6249    1254.8741    1264.3139    1004.3654    74.775016 
   60800    101.96391   -164.63322  0.092259086   -164.54096   -2831.1326    4.2127828    4.2127828    4.2127828   -2831.1326   -3736.5122     -1577.41   -3179.4756     299.3344    2136.0957    498.05853    74.766529 
   60900     60.02353   -164.59542  0.054310551   -164.54111    1383.9721    4.2124313    4.2124313    4.2124313    1383.9721    1656.9098    4636.4754    -2141.469    293.31384     1575.451   -515.13416    74.747811 
   61000    76.316952      -164.61  0.069053182   -164.54094   -112.03096    4.2124917    4.2124917    4.2124917   -112.03096    1145.7686    1033.7512   -2515.6127    1002.1393    1417.3696    -523.6522    74.751028 
   61100    108.51987   -164.63892  0.098191058   -164.54073   -1114.2631    4.2123455    4.2123455    4.2123455   -1114.2631    1772.0104   -2969.4257    -2145.374    765.56833    1603.2337   -166.33311    74.743244 
   61200    96.683046    -164.6283  0.087480852   -164.54082    1614.1562    4.2122329    4.2122329    4.2122329    1614.1562    3209.6667     2157.246   -524.44428    1283.9465   -601.31317    922.39735    74.737252 
   61300    108.98502   -164.63929  0.098611933   -164.54068     676.1024    4.2121517    4.2121517    4.2121517     676.1024    1614.7186    4007.4494   -3593.8609    20.261814    549.04993   -1419.4758    74.732932 
   61400    116.52088   -164.64617   0.10543054   -164.54074    1489.3325     4.211778     4.211778     4.211778    1489.3325    2232.9394    2895.0538   -659.99574   -1110.9072   -242.09096   -1433.3867    74.713039 
   61500    103.09407   -164.63417  0.093281681   -164.54089    1520.1861    4.2119193    4.2119193    4.2119193    1520.1861    1438.9375    2205.2048    916.41604    673.61328   -1702.0672    341.80971    74.720559 
   61600    120.97157   -164.65016   0.10945762    -164.5407   -348.85544    4.2120377    4.2120377    4.2120377   -348.85544    645.68876   -623.31119   -1068.9439    -122.6269   -112.40532    282.82071    74.726865 
   61700    100.51457   -164.63175  0.090947693    -164.5408   -564.77173    4.2118892    4.2118892    4.2118892   -564.77173   -2399.2677    1299.9202   -594.96766   -705.75906   -241.41838   -97.443393    74.718962 
   61800    58.672104   -164.59413  0.053087753   -164.54105    2096.1276    4.2118123    4.2118123    4.2118123    2096.1276    2197.3693    5183.2581   -1092.2444   -301.97693   -275.40284   -82.429589    74.714866 
   61900    93.235756   -164.62519  0.084361672   -164.54083   -355.50648    4.2120214    4.2120214    4.2120214   -355.50648    2119.9647   -1733.0612    -1453.423    55.816652    340.49904    553.24328    74.725998 
   62000    112.05447    -164.6422   0.10138924   -164.54081   -1982.7627    4.2119804    4.2119804    4.2119804   -1982.7627   -980.31703   -1741.2471    -3226.724   -207.62763    1113.0621    1212.1761    74.723812 
   62100    86.336271   -164.61912  0.078118872     -164.541    2063.9004    4.2117713    4.2117713    4.2117713    2063.9004    2685.6527    5509.8582   -2003.8096    264.99033    312.31802    885.19145    74.712684 
   62200    106.07712   -164.63685  0.095980806   -164.54087   -313.41568    4.2120594    4.2120594    4.2120594   -313.41568   -144.91802    2629.2545   -3424.5835    8.9039035    696.39938   -313.38342    74.728019 
   62300    111.56676   -164.64179   0.10094794   -164.54084    193.77218    4.2118688    4.2118688    4.2118688    193.77218    1112.6129    1474.5535   -2005.8499    495.68776    1068.2333   -48.671673    74.717872 
   62400    102.87286   -164.63388  0.093081523    -164.5408    1100.5489    4.2119979    4.2119979    4.2119979    1100.5489    604.13559    1085.3001    1612.2111    1413.9138   -1093.4329    1149.7304    74.724746 
   62500    126.13508    -164.6547   0.11412967   -164.54057   -1626.6053    4.2123134    4.2123134    4.2123134   -1626.6053   -1654.5486   -556.33216   -2668.9352   -540.89892    1012.9937   -648.83117    74.741537 
   62600    98.302348   -164.62964   0.08894603    -164.5407    847.96676    4.2119313    4.2119313    4.2119313    847.96676    720.55886    3033.6606   -1210.3192   -369.14066   -19.393202   -1312.3549    74.721198 
   62700    73.373612   -164.60725  0.066389986   -164.54086    2111.1215    4.2120704    4.2120704    4.2120704    2111.1215    2997.1256    3140.1432    196.09567    918.61178    -951.5026   -229.50582    74.728605 
   62800    118.78444   -164.64808   0.10747866    -164.5406   -748.04813    4.2124215    4.2124215    4.2124215   -748.04813    3086.1946   -3240.3864   -2089.9525    555.77025    576.50015   -176.97734    74.747291 
   62900    110.10042   -164.64049  0.099621173   -164.54087   -796.00032    4.2123623    4.2123623    4.2123623   -796.00032    571.75625    748.43707   -3708.1943    134.93318    646.91413    295.40017    74.744138 
   63000    70.719055   -164.60518  0.063988087    -164.5412    2133.1008    4.2124234    4.2124234    4.2124234    2133.1008    3366.7843    6056.8949   -3024.3769    118.09076    1070.1748   -558.46184    74.747394 
   63100    88.489285   -164.62111  0.080066965   -164.54104   -499.47641     4.212834     4.212834     4.212834   -499.47641    1622.4785   -952.84707   -2168.0607    79.598142    1191.6555   -521.06175    74.769254 
   63200    87.703396   -164.62045  0.079355876   -164.54109   -1052.5524    4.2127768    4.2127768    4.2127768   -1052.5524    1511.8981   -707.07312    -3962.482    755.48025    1390.5198    705.04583    74.766205 
   63300    81.738158   -164.61506  0.073958403    -164.5411   -282.51979    4.2128588    4.2128588    4.2128588   -282.51979    551.18503   -174.34636    -1224.398    637.55156    210.46017    1465.9113    74.770575 
   63400    104.31872   -164.63529  0.094389774    -164.5409   -2879.3148    4.2131518    4.2131518    4.2131518   -2879.3148   -2494.7958   -1505.1064   -4638.0421   -806.18176    872.79458   -282.16693    74.786175 
   63500     88.77657   -164.62121  0.080326906   -164.54088   -316.98787    4.2127022    4.2127022    4.2127022   -316.98787     1763.438    2189.8813   -4904.2829      16.4028    93.523423    -355.6405    74.762237 
   63600    100.16018   -164.63141  0.090627038   -164.54078   -327.58366    4.2128891    4.2128891    4.2128891   -327.58366    574.34406     -659.536   -897.55903    819.02025   -1883.2585    869.38446    74.772187 
   63700    153.61071   -164.67952    0.1389902   -164.54053    -3542.627     4.213117     4.213117     4.213117    -3542.627   -1533.0682   -3731.3478   -5363.4649   -1047.2502   -179.52752    384.71704    74.784321 
   63800    131.78111   -164.65995   0.11923832   -164.54072   -1238.9752    4.2127165    4.2127165    4.2127165   -1238.9752   -964.62234    1904.4811   -4656.7844    -274.4188    -1308.724    4.7646913    74.762995 
   63900    99.611848   -164.63108  0.090130893   -164.54095    734.64392    4.2127829    4.2127829    4.2127829    734.64392    351.04574    3391.1462   -1538.2601   -84.451342    -1349.029    21.972294    74.766533 
   64000    115.53178   -164.64531   0.10453558   -164.54077   -1276.2697    4.2128481    4.2128481    4.2128481   -1276.2697    727.83159   -3883.8596   -672.78109    424.36616   -245.86503   -388.16813    74.770001 
   64100    98.678152   -164.63014  0.089286066   -164.54085   -655.94828    4.2124682    4.2124682    4.2124682   -655.94828    1518.3383   -893.92698   -2592.2562    466.99168    431.01996    788.89353    74.749779 
   64200    79.851573   -164.61321  0.072251382   -164.54096    343.57619     4.212575     4.212575     4.212575    343.57619      1894.19    947.50973   -1810.9712    -230.3157    1009.1593   -5.7804885    74.755465 
   64300    78.702412   -164.61212  0.071211597   -164.54091   -495.50382    4.2126129    4.2126129    4.2126129   -495.50382    910.63405   -580.02742   -1817.1181    92.814783    1857.5905   -815.86846    74.757483 
   64400     60.73178   -164.59599  0.054951391   -164.54104    1324.2268    4.2122157    4.2122157    4.2122157    1324.2268     5252.294    3189.9725    -4469.586    2039.3869    1881.1854   -129.95758    74.736337 
   64500     84.27726   -164.61722  0.076255836   -164.54096    525.00114    4.2125091    4.2125091    4.2125091    525.00114    2977.4357   -794.18595   -608.24634    1443.8976     706.9259    697.01787    74.751957 
   64600    122.88157   -164.65199   0.11118583    -164.5408   -1946.6793    4.2125866    4.2125866    4.2125866   -1946.6793    -1034.116   -507.44046   -4298.4815   -621.75172    2300.4273   -744.24217    74.756082 
   64700    95.704721    -164.6275  0.086595643    -164.5409    946.09219    4.2119456    4.2119456    4.2119456    946.09219    1507.2139    4963.7672   -3632.7046    348.23343    934.07062   -1021.1673    74.721963 
   64800    89.300272   -164.62164  0.080800763   -164.54084    1781.5697    4.2120789    4.2120789    4.2120789    1781.5697    488.36792    2263.0446    2593.2965    972.72207   -905.97113   -168.61091    74.729057 
   64900    126.95404   -164.65544   0.11487069   -164.54057   -1186.2863    4.2121922    4.2121922    4.2121922   -1186.2863    208.40017   -3025.9502   -741.30892    38.475853    131.19438   -48.251255    74.735086 
   65000    123.18567   -164.65206   0.11146099    -164.5406   -404.52067    4.2118113    4.2118113    4.2118113   -404.52067     198.9199    866.04926   -2278.5312   -44.838678   -1309.3545    685.31272    74.714811 
   65100    106.50371   -164.63703  0.096366791   -164.54066    562.41312    4.2120429    4.2120429    4.2120429    562.41312   -267.42555    2612.8387   -658.17375   -1029.0185   -771.42933    89.243621    74.727142 
   65200    102.80268   -164.63372  0.093018026    -164.5407    258.08826     4.211973     4.211973     4.211973    258.08826    1026.5806   -311.38494    59.069088   -9.1492021   -651.35874   -322.01738    74.723418 
   65300    100.75798   -164.63211  0.091167936   -164.54094    982.65677    4.2116591    4.2116591    4.2116591    982.65677    2835.3104    3531.9626   -3419.3027    828.29584   -126.11357    1231.8743    74.706714 
   65400    117.63904   -164.64732   0.10644227   -164.54088    -975.1071    4.2121841    4.2121841    4.2121841    -975.1071   -844.66691    -433.5769   -1647.0775   -873.48651   -60.831253    1580.2264    74.734657 
   65500    108.76516   -164.63929  0.098413006   -164.54087   -560.89176    4.2119898    4.2119898    4.2119898   -560.89176   -1640.6488    1275.4218   -1317.4483   -558.75034    1180.7836    239.53158    74.724312 
   65600    69.273384    -164.6038  0.062680013   -164.54112    1509.7972    4.2116669    4.2116669    4.2116669    1509.7972    1400.6874    6368.4902    -3239.786    1573.8821    1226.4148    224.32234    74.707129 
   65700    75.994848   -164.60979  0.068761736   -164.54103    687.39659    4.2121178    4.2121178    4.2121178    687.39659   -759.61861    157.11249    2664.6959    1220.1645    13.762024    416.04823    74.731125 
   65800    104.89631   -164.63568  0.094912386   -164.54077   -990.60749    4.2122337    4.2122337    4.2122337   -990.60749    823.15801   -1212.4789   -2582.5016   -259.91764    1865.5564    -407.2238    74.737294 
   65900    95.810875   -164.62745  0.086691693   -164.54075    -372.9633    4.2121312    4.2121312    4.2121312    -372.9633    1395.2076    2193.2938   -4707.3912    196.64286     546.7269   -725.57046    74.731837 
   66000    83.459766   -164.61633   0.07551615   -164.54082    1837.2885    4.2123235    4.2123235    4.2123235    1837.2885    977.44116    3747.7879    786.63658    453.56977   -423.43613   -701.63791    74.742074 
   66100    95.184376   -164.62692  0.086124824    -164.5408    894.85127    4.2122754    4.2122754    4.2122754    894.85127    3692.5468    365.55464   -1373.5477    1671.7222    339.91307   -1419.1926    74.739517 
   66200    120.09375   -164.64943   0.10866334   -164.54077    509.37543    4.2122598    4.2122598    4.2122598    509.37543    3617.9679    1561.9675   -3651.8091    838.44322   -624.43375   -212.90081    74.738684 
   66300    132.58751   -164.66065   0.11996797   -164.54068   -1219.8514    4.2128952    4.2128952    4.2128952   -1219.8514   -1005.7012   -643.57229   -2010.2807   -1234.9926    569.81215   -802.65854     74.77251 
   66400    98.289948   -164.62977  0.088934811   -164.54083    192.77538    4.2125374    4.2125374    4.2125374    192.77538    -69.46562     100.1106    547.68117    324.87615    738.51417   -1242.7673     74.75346 
   66500    75.584832   -164.60933  0.068390744   -164.54093    1343.8229    4.2123525    4.2123525    4.2123525    1343.8229    2096.1771    4721.4116   -2786.1199    1905.9018    627.84045    277.84377     74.74362 
   66600     104.4488   -164.63541  0.094507466   -164.54091   -2966.4145     4.213219     4.213219     4.213219   -2966.4145   -2578.7256   -4752.4025   -1568.1153    36.664828    320.01546    1138.6666    74.789753 
   66700    110.94814   -164.64123   0.10038821   -164.54084   -2540.7986     4.212926     4.212926     4.212926   -2540.7986   -1276.5536   -2317.4812   -4028.3611   -722.53028    1828.9807    329.62989    74.774153 
   66800    82.390921   -164.61555  0.074549036     -164.541   -1619.9181    4.2127515    4.2127515    4.2127515   -1619.9181   -229.45468     2833.741   -7464.0407    739.90386    1323.5166    414.62508    74.764858 
   66900    77.139432   -164.61077  0.069797379   -164.54097     5.089123    4.2129198    4.2129198    4.2129198     5.089123   -1687.2079    2053.4685   -350.99317    899.75802   -41.214743    653.64712     74.77382 
   67000    104.13983   -164.63514  0.094227906   -164.54091   -1007.4161    4.2127342    4.2127342    4.2127342   -1007.4161    1214.8369    324.28674   -4561.3718    619.22955    1081.0052    374.15073    74.763937 
   67100    131.77211   -164.66003   0.11923018    -164.5408   -2416.4564    4.2128193    4.2128193    4.2128193   -2416.4564   -78.627077   -1190.0301    -5980.712   -284.28044    -533.2877    1144.0495    74.768468 
   67200    117.65419   -164.64722   0.10645598   -164.54077   -120.60289    4.2129499    4.2129499    4.2129499   -120.60289   -1449.6811    1114.1648   -26.292441   -822.38318   -625.23697    525.70614    74.775425 
   67300    78.163254   -164.61156  0.070723755   -164.54083    1342.7139    4.2124601    4.2124601    4.2124601    1342.7139    2415.6436    1012.1071    600.39107      1701.36    -325.1794   -736.53974    74.749349 
   67400    95.669907    -164.6273  0.086564143   -164.54073    1660.7115    4.2122421    4.2122421    4.2122421    1660.7115    3606.1202    3123.8782    -1747.864    804.44937   -1111.7514    182.34092     74.73774 
   67500     128.8151   -164.65716   0.11655461   -164.54061    -2500.515    4.2129834    4.2129834    4.2129834    -2500.515   -321.20512   -4605.5305   -2574.8095   -1664.7448   -243.00165   -121.20072     74.77721 
   67600    93.886231   -164.62575  0.084950235    -164.5408    590.89595    4.2122926    4.2122926    4.2122926    590.89595    2814.1424    -58.08689   -983.36767    299.69296    897.32743    -990.9147    74.740429 
   67700    65.457495   -164.60017  0.059227317   -164.54094    2210.0939    4.2120117    4.2120117    4.2120117    2210.0939    3030.8634    7704.0615   -4104.6433    1876.8069    896.12305    -334.7668    74.725478 
   67800    88.137056   -164.62082  0.079748261   -164.54108   -857.51451    4.2126454    4.2126454    4.2126454   -857.51451   -2012.9778    386.20024   -945.76593    865.63836    616.88748   -428.23598     74.75921 
   67900    107.60659   -164.63836  0.097364704   -164.54099    85.098395     4.212096     4.212096     4.212096    85.098395    1777.3288     1178.533   -2700.5666    249.87029    2714.4288   -1271.0638    74.729966 
   68000    111.72021   -164.64211    0.1010868   -164.54102   -2580.0519    4.2123423    4.2123423    4.2123423   -2580.0519   -2261.5987    195.69884   -5674.2558    83.927125     2238.387   -888.89456    74.743077 
   68100    86.740072   -164.61947   0.07848424   -164.54099    976.24737    4.2122627    4.2122627    4.2122627    976.24737   -2805.3457    3640.8176    2093.2702    782.98787    1298.3409    -693.8794    74.738839 
   68200    72.548948   -164.60658  0.065643813   -164.54094    1370.3781    4.2118217    4.2118217    4.2118217    1370.3781    2061.4815    3274.7599    -1225.107    1831.3867    1672.0627   -844.64457    74.715368 
   68300    123.56394   -164.65254   0.11180325   -164.54074    -1532.087    4.2119834    4.2119834    4.2119834    -1532.087   -515.71305    288.67096   -4369.2189    -65.40312   -220.09149    675.58443    74.723971 
   68400    139.16063   -164.66654   0.12591546   -164.54062   -1353.3856    4.2122467    4.2122467    4.2122467   -1353.3856    -737.6143   -1202.5576   -2119.9849   -1232.7849    232.39844    230.03647    74.737987 
   68500    87.986529   -164.62047   0.07961206   -164.54086    1287.0821    4.2117289    4.2117289    4.2117289    1287.0821    2475.1518     2039.326   -653.23155    1317.3056   -265.79385   -407.10522    74.710426 
   68600    98.753686   -164.63002   0.08935441   -164.54067    2733.2087    4.2115762    4.2115762    4.2115762    2733.2087    1790.8913    8229.0809   -1820.3461    917.13792   -1137.0636    835.96504    74.702302 
   68700    135.09316   -164.66289   0.12223513   -164.54065   -2300.0768     4.212502     4.212502     4.212502   -2300.0768   -2107.4291   -2413.2712   -2379.5303   -1201.0481   -1366.4765    1572.4267    74.751575 
   68800    117.40039     -164.647   0.10622634   -164.54077    1071.1152    4.2117389    4.2117389    4.2117389    1071.1152    2892.7376   -66.017967    386.62594   -43.000501    336.13716    754.60485    74.710963 
   68900    97.914707   -164.62948  0.088595285   -164.54088   -3.1250771    4.2120645    4.2120645    4.2120645   -3.1250771   -716.96857    3427.6789   -2720.0855    755.77469      347.598     1010.744    74.728288 
   69000     72.99033   -164.60715  0.066043184    -164.5411    449.96595    4.2124831    4.2124831    4.2124831    449.96595   -917.42026    1838.9609    428.35723    1263.7556    178.03937    307.65358    74.750571 
   69100    65.873125   -164.60071  0.059603388   -164.54111    2479.8618    4.2118232    4.2118232    4.2118232    2479.8618    6141.5191    3209.6615   -1911.5952    984.60406    2061.2562   -616.92926    74.715445 
   69200    105.94246   -164.63672  0.095858963   -164.54086   -3252.1419    4.2125688    4.2125688    4.2125688   -3252.1419   -500.25817   -1952.7989   -7303.3686   -745.63113    1707.8934    116.52498    74.755131 
   69300    87.377006   -164.61994  0.079060551   -164.54088    691.25761    4.2126043    4.2126043    4.2126043    691.25761    2091.1926    1901.0421   -1918.4619    590.28106    1634.2428   -547.72159    74.757022 
   69400    50.938594   -164.58715   0.04609031   -164.54106    2144.2734    4.2121312    4.2121312    4.2121312    2144.2734    5363.9346    3795.4548   -2726.5693    2501.2361    2209.3096   -1784.2599    74.731841 
   69500    110.42872    -164.6407  0.099918229   -164.54078   -290.84723    4.2124757    4.2124757    4.2124757   -290.84723   -212.27631    3241.1127   -3901.3781   -9.5650286    636.09107    -722.4804    74.750175 
   69600     141.2685   -164.66848   0.12782271   -164.54066   -2377.4087     4.213133     4.213133     4.213133   -2377.4087    133.23074   -3595.1755   -3670.2812   -1292.2793    906.90401    -1043.718    74.785175 
   69700    103.60559   -164.63459  0.093744512   -164.54084   -14.861655    4.2124361    4.2124361    4.2124361   -14.861655     2469.878   -1759.7993   -754.66365    810.32206     1117.763    -1498.004    74.748071 
   69800    111.61761   -164.64167   0.10099396   -164.54068    430.47776    4.2124926    4.2124926    4.2124926    430.47776   -1129.1122     4018.348   -1597.8026    822.74576   -134.23658   -372.04742    74.751078 
   69900    118.66793   -164.64817   0.10737324    -164.5408    -3243.439    4.2133861    4.2133861    4.2133861    -3243.439   -1320.6212   -3292.6657   -5117.0301    21.857564   -1068.2222    516.33296    74.798654 
   70000    108.13312   -164.63858  0.097841117   -164.54074    214.88021     4.212473     4.212473     4.212473    214.88021    4252.1567   -156.23847   -3451.2775    55.536042    599.46217    133.86903    74.750031 
   70100    120.37036   -164.64959   0.10891363   -164.54068   -3720.2547    4.2130588    4.2130588    4.2130588   -3720.2547   -2497.7173   -1567.2228   -7095.8242    60.097093    371.07763    578.15305    74.781225 
   70200    90.379365   -164.62269  0.081777149   -164.54091    -702.7211    4.2131393    4.2131393    4.2131393    -702.7211    716.96173    912.74519   -3737.8702    1652.7431    267.83341     612.5617    74.785508 
   70300    72.982316   -164.60714  0.066035933    -164.5411    1678.3182    4.2123114    4.2123114    4.2123114    1678.3182    4204.7732    3974.2348   -3144.0534    1411.0164    1356.0717   -138.82216    74.741433 
   70400    115.71335   -164.64563   0.10469987   -164.54093   -3338.7258    4.2129857    4.2129857    4.2129857   -3338.7258   -2865.7191   -1205.3368   -5945.1215   -795.14315    762.34584    1708.7257    74.777328 
   70500    97.884746   -164.62954  0.088568176   -164.54097    670.93821    4.2128282    4.2128282    4.2128282    670.93821    4725.4102   -697.44757    -2015.148     236.3287    984.17383    745.88512    74.768944 
   70600    62.370737    -164.5976  0.056434354   -164.54116    961.71368    4.2120614    4.2120614    4.2120614    961.71368    3323.6378      1132.08   -1570.5768    2085.6412    1736.3705   -755.57729    74.728126 
   70700    89.316126   -164.62172  0.080815107   -164.54091    1115.9119    4.2121505    4.2121505    4.2121505    1115.9119    1129.1621    4194.0949   -1975.5212    90.780489    442.35199    9.6865357    74.732866 
   70800    97.439714   -164.62894  0.088165501   -164.54078    -559.9771    4.2126835    4.2126835    4.2126835    -559.9771    5374.2955   -1608.5899   -5445.6369    -938.7619   -171.70684    250.58229    74.761241 
   70900    90.810847   -164.62285  0.082167563   -164.54069    1032.6208    4.2117576    4.2117576    4.2117576    1032.6208     4252.351    1122.4961   -2276.9846    39.950362    1105.5625   -635.15452    74.711957 
   71000     108.8166     -164.639  0.098459548   -164.54054    833.41794    4.2119504    4.2119504    4.2119504    833.41794    658.45296    3264.6532   -1422.8524    163.83988   -126.44427   -282.20373    74.722215 
   71100    105.72978   -164.63642   0.09566653   -164.54076   -468.87331    4.2124888    4.2124888    4.2124888   -468.87331    2384.7877   -65.777904   -3725.6297    1364.6538   -420.15284    -438.0568    74.750877 
   71200     112.4874   -164.64259   0.10178097    -164.5408    2291.7372    4.2114298    4.2114298    4.2114298    2291.7372    2522.7722     4072.395    280.04443    78.648055    1431.0482   -893.67556    74.694514 
   71300    132.13094   -164.66031   0.11955485   -164.54075   -2352.6739    4.2122405    4.2122405    4.2122405   -2352.6739   -3027.7727   -1308.1058   -2722.1431   -801.52066    762.17306   -261.49272    74.737656 
   71400    99.344582   -164.63086  0.089889066   -164.54097    1415.2947    4.2121448    4.2121448    4.2121448    1415.2947    4647.7555    785.72175    -1187.593    1476.9098    1538.4644   -290.20541    74.732562 
   71500    80.667923   -164.61401  0.072990032   -164.54102    1019.4477    4.2114961    4.2114961    4.2114961    1019.4477     1369.225    3220.1151    -1530.997    1621.8215    2074.6088   -1343.0598    74.698041 
   71600    100.01739   -164.63141  0.090497838   -164.54091   -1525.4063    4.2121485    4.2121485    4.2121485   -1525.4063   -1316.4935    1548.4763   -4808.2018    -428.1763    1225.9354    789.95514    74.732761 
   71700    91.366175   -164.62349  0.082670035   -164.54082     559.0367     4.212246     4.212246     4.212246     559.0367    4940.4023    1149.3905   -4412.6828    134.91141    1333.1692    217.57507    74.737952 
   71800    84.467375   -164.61726  0.076427856   -164.54083   -718.41219    4.2117408    4.2117408    4.2117408   -718.41219   -89.915497     1315.289     -3380.61    1302.9802    1925.9766   -882.95728    74.711059 
   71900     98.71617   -164.63004  0.089320465   -164.54072    1119.7911    4.2119478    4.2119478    4.2119478    1119.7911    201.81537    3555.3163   -397.75821    297.84975    113.42383    315.29001    74.722077 
   72000     108.3302   -164.63875  0.098019443   -164.54073   -770.01353    4.2124999    4.2124999    4.2124999   -770.01353    1893.4742   -368.70987    -3834.805   -123.29375   -1013.8172    1247.6652    74.751467 
   72100    120.46337   -164.64969   0.10899779   -164.54069     281.5273    4.2117404    4.2117404    4.2117404     281.5273   -915.28738    2125.1431   -365.27381   -662.49708    188.16542    677.79245    74.711042 
   72200    115.97292   -164.64564   0.10493474    -164.5407    88.479813    4.2123894    4.2123894    4.2123894    88.479813    629.42318   -584.17404     220.1903    110.01126   -1562.5805    709.14224    74.745583 
   72300    94.358087    -164.6262   0.08537718   -164.54082    413.34768    4.2126215    4.2126215    4.2126215    413.34768    4868.4776   -240.63019   -3387.8044    2050.5634   -981.19372    455.83098    74.757939 
   72400    97.421764   -164.62886  0.088149259   -164.54071    1674.3596    4.2117554    4.2117554    4.2117554    1674.3596    2394.9471    4175.3185   -1547.1869    224.80041  -0.84085727   -361.10395    74.711841 
   72500    100.57778    -164.6318  0.091004886   -164.54079   -1671.9087    4.2128205    4.2128205    4.2128205   -1671.9087    632.52151    -630.5075     -5017.74   -1004.9318   -423.69351    1249.2485    74.768535 
   72600    84.413839   -164.61728  0.076379415    -164.5409    1518.7729    4.2126999    4.2126999    4.2126999    1518.7729    5846.9713     2118.136   -3408.7885    1268.9935    1052.2409   -125.09554    74.762112 
   72700    85.773246   -164.61851  0.077609436    -164.5409   -615.29546    4.2123858    4.2123858    4.2123858   -615.29546    16.320094     1405.935   -3268.1415     987.7056    2105.2794    -1709.311    74.745393 
   72800    91.663811   -164.62397  0.082939343   -164.54104   -608.17918    4.2129932    4.2129932    4.2129932   -608.17918    209.78769    1170.3247   -3204.6499    11.062293    1727.8584   -204.33666    74.777732 
   72900    96.042283     -164.628  0.086901076    -164.5411   -632.49126    4.2131107    4.2131107    4.2131107   -632.49126    819.87504    993.53491   -3710.8837   -340.69641    2263.7699   -565.83889    74.783987 
   73000    106.57841   -164.63741  0.096434384   -164.54098   -3075.5387    4.2127848    4.2127848    4.2127848   -3075.5387   -3921.6965   -930.85083   -4374.0689    -448.8166    3032.4343   -1490.8603    74.766633 
   73100     95.10647   -164.62697  0.086054333   -164.54091   -389.79719     4.213104     4.213104     4.213104   -389.79719    899.32206   -256.12697   -1812.5867    240.46265     1019.959   -458.82825    74.783628 
   73200    93.945832    -164.6258  0.085004163    -164.5408   -2335.9049    4.2133046    4.2133046    4.2133046   -2335.9049    37.559115   -251.51485    -6793.759    777.27882    390.15412    123.19159    74.794314 
   73300    119.13098    -164.6484   0.10779221   -164.54061   -1635.5822    4.2125283    4.2125283    4.2125283   -1635.5822   -2385.2792    2282.1342   -4803.6015   -1150.3056    625.95567    127.57571    74.752978 
   73400    118.28359   -164.64765   0.10702548   -164.54063   -1810.8426    4.2132031    4.2132031    4.2132031   -1810.8426   -928.04047    -965.9461   -3538.5412    187.28998   -1075.4988    668.24251    74.788904 
   73500    112.71163   -164.64266   0.10198385   -164.54068   -337.24779    4.2129308    4.2129308    4.2129308   -337.24779     1795.749    1159.9034   -3967.3958    2082.3706   -135.83689    644.00215    74.774408 
   73600    122.59534   -164.65163   0.11092684    -164.5407    99.754141    4.2122437    4.2122437    4.2122437    99.754141   -235.04999    1907.2915    -1372.979    371.48403   -695.38364    31.105509    74.737826 
   73700    108.56228   -164.63914  0.098229435   -164.54091   -372.49027    4.2128823    4.2128823    4.2128823   -372.49027    905.91191    818.03447   -2841.4172     132.9579    -1114.278     2504.192    74.771822 
   73800    98.515981   -164.63008   0.08913933   -164.54094    1407.6699    4.2124526    4.2124526    4.2124526    1407.6699    2531.5256     3649.719   -1958.2351     873.8597    -51.91335    666.39257    74.748946 
   73900    92.566652   -164.62468  0.083756252   -164.54092   -1341.8507    4.2122032    4.2122032    4.2122032   -1341.8507    355.98648   -735.39448    -3646.144    1180.0609    1028.9128   -794.17219    74.735671 
   74000    56.571067    -164.5923  0.051186691   -164.54111    1903.1276    4.2123777    4.2123777    4.2123777    1903.1276    5303.5132    3203.6102   -2797.7405    1238.6049    603.67403    654.80554    74.744961 
   74100    63.757038    -164.5987  0.057688708   -164.54101    381.24287    4.2123346    4.2123346    4.2123346    381.24287    1579.0879    4242.3277   -4677.6869   -335.46278    919.73352    254.76519    74.742663 
   74200    95.928846   -164.62753  0.086798436   -164.54073   -1925.4879    4.2121397    4.2121397    4.2121397   -1925.4879   -2081.0223    2039.0797   -5734.5211   -1323.7644    1961.8226   -385.18958    74.732291 
   74300    83.084683   -164.61603  0.075176767   -164.54085     1399.734    4.2122628    4.2122628    4.2122628     1399.734    1440.5282    3226.5973   -467.92341    545.00639     380.4019   -274.33031    74.738843 
   74400    100.36996   -164.63159  0.090816848   -164.54077    15.588047    4.2121086    4.2121086    4.2121086    15.588047    93.941359    2101.5838    -2148.761    1021.5057    800.27456   -548.58015    74.730638 
   74500    137.49143   -164.66499   0.12440514   -164.54058   -152.80797    4.2117148    4.2117148    4.2117148   -152.80797   -1725.1565     2903.058   -1636.3254   -1220.5257    1087.3284   -476.35884    74.709676 
   74600    122.14859   -164.65126   0.11052261   -164.54074      427.598    4.2121471    4.2121471    4.2121471      427.598   -932.61335    3308.6269   -1093.2196   -267.65173   -492.57137    287.57238    74.732686 
   74700      120.305   -164.64948    0.1088545   -164.54063    957.65253    4.2117917    4.2117917    4.2117917    957.65253     1382.065    3415.4623   -1924.5697      925.112    923.39151   -371.59345    74.713769 
   74800    125.04104   -164.65371   0.11313976   -164.54057    -734.4034    4.2117619    4.2117619    4.2117619    -734.4034    296.37604    148.70059   -2648.2868    325.81663    132.11338   -774.36686    74.712187 
   74900    90.598204   -164.62289  0.081975159   -164.54092    926.30241    4.2121098    4.2121098    4.2121098    926.30241    1854.3483    5240.5578   -4315.9989    689.52293    32.395115    1389.7447    74.730702 
   75000      97.4959   -164.62905  0.088216339   -164.54083    808.65175    4.2117796    4.2117796    4.2117796    808.65175   -45.092776     5454.614    -2983.566   -137.48174    655.87778   -63.585921    74.713125 
   75100    105.25609   -164.63604  0.095237921    -164.5408   -1669.3831    4.2118812    4.2118812    4.2118812   -1669.3831   -2334.3024    1316.4835   -3990.3302    751.63848    1736.0158   -951.47819    74.718534 
   75200    68.447929   -164.60311  0.061933124   -164.54118    2722.0233    4.2118141    4.2118141    4.2118141    2722.0233    2362.4173    6414.6164   -610.96363    1729.9583    1016.8907    605.33694    74.714962 
   75300     86.86721   -164.61975  0.078599277   -164.54115    169.15778     4.211857     4.211857     4.211857    169.15778   -1288.4903    2110.5926   -314.62893   -206.90765    548.28604    876.38724    74.717248 
   75400    102.98987   -164.63408  0.093187395   -164.54089   -785.63845    4.2120105    4.2120105    4.2120105   -785.63845   -1447.7457    3528.5147   -4437.6843   -982.96052    1172.7575    638.06809    74.725415 
   75500    67.906219   -164.60243  0.061442974   -164.54099    2219.6081    4.2121354    4.2121354    4.2121354    2219.6081     1744.319     6170.661   -1256.1557    924.19842   -456.87926    492.96732    74.732062 
   75600    84.499672   -164.61726  0.076457079   -164.54081    420.92773     4.212063     4.212063     4.212063    420.92773    2209.8058     857.3997   -1804.4224    1395.2244    133.37947    333.47451     74.72821 
   75700    108.86664   -164.63916  0.098504819   -164.54065   -23.443985    4.2121095    4.2121095    4.2121095   -23.443985    1619.3213    2407.1641   -4096.8173    369.16428   -177.11099    573.35739    74.730683 
   75800     99.75538   -164.63102  0.090260764   -164.54076    788.08706    4.2124531    4.2124531    4.2124531    788.08706    725.51675    5418.0476   -3779.3032   -48.950545   -1466.5131    1853.4512    74.748972 
   75900    123.06944   -164.65196   0.11135582    -164.5406    30.093814    4.2123403    4.2123403    4.2123403    30.093814    379.47055    2120.5158   -2409.7049    444.03587   -52.912512   -387.20004    74.742971 
   76000    127.55869   -164.65618   0.11541778   -164.54076   -1021.5705     4.212563     4.212563     4.212563   -1021.5705   -2018.6332    630.58145   -1676.6596    1289.0764    8.9526723   -770.43533    74.754825 
   76100    110.74782   -164.64116   0.10020695   -164.54095    120.91773    4.2128184    4.2128184    4.2128184    120.91773   -221.77646    3359.6931   -2775.1635    1582.3739      529.161    423.83238    74.768422 
   76200     130.2903    -164.6587   0.11788941   -164.54081   -2753.3485    4.2129571    4.2129571    4.2129571   -2753.3485   -4025.8031   -1688.5446   -2545.6979   -834.84541    1252.3829   -815.13779    74.775806 
   76300    104.46162   -164.63544  0.094519068   -164.54092   -2752.6331    4.2130661    4.2130661    4.2130661   -2752.6331   -3769.2553    1695.1956   -6183.8397    35.565924    2480.6622   -1549.9946     74.78161 
   76400    58.217917   -164.59384  0.052676795   -164.54116    477.02799     4.212919     4.212919     4.212919    477.02799    1678.6161    4106.2383   -4353.7704    1307.3344    1696.3711   -1017.5377    74.773781 
   76500    83.312092   -164.61632  0.075382532   -164.54094   -2607.2153    4.2130449    4.2130449    4.2130449   -2607.2153   -1948.9568   -3270.6915   -2601.9974   -303.60396    1560.8725   -576.80168    74.780482 
   76600    95.680389    -164.6274  0.086573627   -164.54083   -2044.2756    4.2130769    4.2130769    4.2130769   -2044.2756   -1541.9814    3307.5011   -7898.3465   -1062.2103    1962.4076   -294.21546    74.782186 
   76700    78.942441    -164.6124  0.071428779   -164.54097    284.93052    4.2129983    4.2129983    4.2129983    284.93052      660.872    3751.6577   -3557.7381   -101.52426    144.72031   -372.58031    74.778002 
   76800    95.868066    -164.6276  0.086743441   -164.54085    198.54762    4.2128236    4.2128236    4.2128236    198.54762    1140.0267   -158.89116   -385.49272    667.27246    564.09602   -571.10411    74.768698 
   76900    110.67209   -164.64097   0.10013843   -164.54083    351.96927    4.2129196    4.2129196    4.2129196    351.96927    534.96828    2686.5591   -2165.6196    874.77142    -558.8264    348.35583     74.77381 
   77000    121.66178   -164.65081   0.11008214   -164.54073   -240.51522    4.2129696    4.2129696    4.2129696   -240.51522    994.84972    839.33055   -2555.7259     60.76382   -1857.8169    2430.4301    74.776473 
   77100    125.09898   -164.65375   0.11319219   -164.54056   -640.69924    4.2126595    4.2126595    4.2126595   -640.69924    942.94857   -308.93996   -2556.1063   -311.67655   -1231.4503    183.79785    74.759961 
   77200    88.371154   -164.62074  0.079960077   -164.54078    414.08068     4.212622     4.212622     4.212622    414.08068    509.19146    3803.6184   -3070.5678    2181.1417   -550.71802   -163.85682    74.757965 
   77300    83.503329   -164.61645  0.075555567    -164.5409    504.66677    4.2125774    4.2125774    4.2125774    504.66677    3272.4715    2430.8545   -4189.3257    2319.1864   -408.14027    787.32417    74.755593 
   77400    116.15214   -164.64583    0.1050969   -164.54073   -2829.4927    4.2126487    4.2126487    4.2126487   -2829.4927   -3339.1676   -2529.9799   -2619.3308   -503.87651   -214.14622    214.99526    74.759387 
   77500      101.948   -164.63314  0.092244693    -164.5409   -1737.8768    4.2126801    4.2126801    4.2126801   -1737.8768   -3503.0816    4300.6078   -6011.1564    240.06785    1507.6228    50.063767    74.761056 
   77600    80.247144   -164.61374  0.072609302   -164.54113    313.35795    4.2124278    4.2124278    4.2124278    313.35795    525.14588    3359.4819   -2944.5539    1144.0074    856.87574   -884.84362    74.747629 
   77700    95.761311    -164.6277  0.086646846   -164.54105   -709.57119    4.2122187    4.2122187    4.2122187   -709.57119   -3463.0918   -132.43135    1466.8096    598.27171    1827.6787   -1158.8912    74.736499 
   77800    112.70078   -164.64293   0.10197403   -164.54095   -392.66722    4.2122572    4.2122572    4.2122572   -392.66722    -1179.537    4503.4642   -4501.9288    227.07752    2555.7508   -602.07688    74.738546 
   77900     115.5118   -164.64547    0.1045175   -164.54095   -1000.6347    4.2121527    4.2121527    4.2121527   -1000.6347    27.725159   -115.25992   -2914.3692   -863.09633    793.67016    -593.6444    74.732984 
   78000    91.513461   -164.62367  0.082803302   -164.54087    1367.1626     4.211671     4.211671     4.211671    1367.1626    1644.9783    3307.6423   -851.13291    126.63514    1770.9069   -1569.4506    74.707347 
   78100    78.976008   -164.61222  0.071459152   -164.54076    2229.1933    4.2117994    4.2117994    4.2117994    2229.1933    2637.2971    6561.9899   -2511.7071    1333.0847    153.02237   -923.13279    74.714178 
   78200    114.50074   -164.64419   0.10360267   -164.54059    222.14669    4.2118741    4.2118741    4.2118741    222.14669     2163.443    802.98183   -2299.9847    105.09353   -439.01227    401.61111    74.718154 
   78300    126.92866   -164.65543   0.11484772   -164.54059    39.258738    4.2116607    4.2116607    4.2116607    39.258738   -569.05919    1892.5648   -1205.7294   -1153.1087   -351.45373   -881.43066    74.706801 
   78400    94.977997   -164.62674  0.085938088    -164.5408    1935.1357     4.211692     4.211692     4.211692    1935.1357    615.68007    5555.2683   -365.54118    1737.5167    114.50257     -1079.06    74.708465 
   78500    88.019148   -164.62058  0.079641575   -164.54094    2698.3586    4.2115442    4.2115442    4.2115442    2698.3586    4441.2745     4035.411   -381.60957    1504.8489   -333.75684   -292.07307    74.700602 
   78600     102.9557   -164.63426  0.093156483   -164.54111    57.450566    4.2117389    4.2117389    4.2117389    57.450566   -2036.3872    835.99922    1372.7397   -62.435065   -663.14952   -124.18961    74.710962 
   78700    102.92722   -164.63409  0.093130711   -164.54096    134.52181    4.2120797    4.2120797    4.2120797    134.52181    1660.9177    2868.0544   -4125.4067   -91.606645     742.8882     492.8496    74.729097 
   78800    81.939519   -164.61509  0.074140599   -164.54095   -257.64436    4.2120884    4.2120884    4.2120884   -257.64436    3242.5881    516.20077   -4531.7219   -346.36352   -140.34856   -455.81605     74.72956 
   78900    55.679858    -164.5914  0.050380306   -164.54102    1330.8051    4.2118908    4.2118908    4.2118908    1330.8051    487.71537    3686.8218   -182.12194     1496.468    1087.2385   -552.86695    74.719046 
   79000    77.692392   -164.61121  0.070297709   -164.54092    722.14629    4.2122594    4.2122594    4.2122594    722.14629    2571.5225    4970.6694    -5375.753    1418.6549     1107.793     159.1915    74.738664 
   79100    127.40268   -164.65596   0.11527662   -164.54068   -2974.8046    4.2125419    4.2125419    4.2125419   -2974.8046   -1624.4732   -2870.5634   -4429.3773   -1480.1436   -383.97936    886.99182    74.753701 
   79200    119.57215   -164.64892   0.10819139   -164.54073   -293.49849    4.2122799    4.2122799    4.2122799   -293.49849   -2079.7595    2651.7039     -1452.44    16.239717    887.31408   -371.95119    74.739755 
   79300    98.896685   -164.63035  0.089483799   -164.54086    681.67898    4.2125786    4.2125786    4.2125786    681.67898    689.13258    3490.4492   -2134.5448    2236.6041    354.93955   -179.93769    74.755656 
   79400    130.12454   -164.65844   0.11773941    -164.5407   -629.77393    4.2125503    4.2125503    4.2125503   -629.77393    187.04874    298.75894   -2375.1295    932.80584    256.55238    171.21905    74.754151 
   79500     144.5268   -164.67142   0.13077089   -164.54065   -2378.8466    4.2127979    4.2127979    4.2127979   -2378.8466   -2869.1685   -785.87218   -3481.4992   -476.43981    71.938202   -726.66239    74.767328 
   79600    112.77133   -164.64282   0.10203787   -164.54078   -1115.6216    4.2130272    4.2130272    4.2130272   -1115.6216    2377.0223   -1358.6741   -4365.2131    1118.8149    965.89156   -991.79036    74.779542 
   79700    82.784791   -164.61571  0.074905419   -164.54081    551.76692     4.212629     4.212629     4.212629    551.76692    4712.2501    2117.5259   -5174.4753    945.95359    107.82485   -1163.6331    74.758339 
   79800    69.998352   -164.60434   0.06333598     -164.541   -347.31294      4.21281      4.21281      4.21281   -347.31294   -239.09125    1510.3843   -2313.2318    1324.6919    305.51923    -1102.172    74.767977 
   79900    85.017952    -164.6179  0.076926029   -164.54097     165.1624    4.2130905    4.2130905    4.2130905     165.1624     4929.204    341.55128   -4775.2681    120.89422    1561.0297   -1192.5235    74.782911 
   80000    101.08559   -164.63239  0.091464369   -164.54092   -2522.5835     4.213217     4.213217     4.213217   -2522.5835    851.26079   -2788.5211   -5630.4903   -1553.1272    532.14439    -1647.031    74.789645 
   80100    65.038803   -164.60004  0.058848476   -164.54119    1112.5144    4.2128388    4.2128388    4.2128388    1112.5144    1412.2082    2226.0231   -300.68808    1588.9425    1713.9627   -1369.9637     74.76951 
   80200     60.11638   -164.59563  0.054394564   -164.54124    1740.8392    4.2129935    4.2129935    4.2129935    1740.8392     5493.711    3369.3121   -3640.5055    1393.8489    1033.8091   -573.68196    74.777744 
   80300    117.06195   -164.64689   0.10592011   -164.54097   -3111.1172     4.213091     4.213091     4.213091   -3111.1172   -983.44916   -3348.3327   -5001.5698   -1118.3164   -33.550801    654.08168    74.782938 
   80400    114.39334   -164.64434    0.1035055   -164.54083   -1001.0309    4.2127426    4.2127426    4.2127426   -1001.0309    1732.6676   -464.94226    -4270.818   -553.47509    238.85894    33.293616    74.764389 
   80500    84.030797   -164.61691  0.076032831   -164.54088   -186.94587    4.2127842    4.2127842    4.2127842   -186.94587    3263.1836    682.59201   -4506.6132    1711.2674    396.99967   -69.888716    74.766602 
   80600    107.48848   -164.63788  0.097257837   -164.54062   -81.411109    4.2123141    4.2123141    4.2123141   -81.411109    509.92093    2730.2933   -3484.4475    1439.6538   -419.37335    1142.6928    74.741575 
   80700     125.5407   -164.65435   0.11359186   -164.54076   -1424.3941    4.2124034    4.2124034    4.2124034   -1424.3941   -579.65649   -112.29169   -3581.2341    689.60086   -1308.1564    656.12573     74.74633 
   80800      136.618   -164.66434   0.12361484   -164.54073   -1012.1898      4.21247      4.21247      4.21247   -1012.1898    1638.8364   -2551.6628   -2123.7429    12.323012    237.87004    698.44844    74.749875 
   80900    132.77763   -164.66089   0.12013999   -164.54075   -892.47042    4.2121529    4.2121529    4.2121529   -892.47042   -1564.7199    1771.0423   -2883.7337   -35.836753   -1040.8272   -11.111335    74.732993 
   81000     86.01297   -164.61898  0.077826342   -164.54116    1495.8683    4.2118441    4.2118441    4.2118441    1495.8683    2537.9302    1874.7909    74.883916    2743.5059    903.73194   -373.82886    74.716559 
   81100    96.160894   -164.62811  0.087008398    -164.5411    1507.3525    4.2119251    4.2119251    4.2119251    1507.3525    5370.8206    856.62004   -1705.3832    342.35355     1370.022   -996.76049    74.720869 
   81200    125.60728   -164.65448   0.11365211   -164.54082   -3461.2825    4.2121827    4.2121827    4.2121827   -3461.2825   -1643.0541   -3051.5215    -5689.272   -1425.1545     716.6044   -1272.4648    74.734579 
   81300    63.613462   -164.59861  0.057558797   -164.54105     2106.236    4.2116292    4.2116292    4.2116292     2106.236    6765.0192    1436.7299    -1883.041    1210.7466    1904.1785    -1421.385    74.705123 
   81400    46.302633   -164.58292  0.041895595   -164.54102    2493.0149    4.2117132    4.2117132    4.2117132    2493.0149    4640.1668    5328.4122   -2489.5343    1520.4498    1604.3146   -1598.7649    74.709591 
   81500    102.70347   -164.63364  0.092928261   -164.54071   -1117.8887    4.2118199    4.2118199    4.2118199   -1117.8887   -628.16946   -224.06101   -2501.4357     78.71115    1084.9729   -716.71178    74.715272 
   81600    108.60785   -164.63895  0.098270664   -164.54068    1212.0717    4.2115964    4.2115964    4.2115964    1212.0717    5183.2793    93.901857   -1640.9662   -662.31208       809.45   -958.95341    74.703376 
   81700    103.57476   -164.63452  0.093716619    -164.5408    953.60317    4.2117856    4.2117856    4.2117856    953.60317    1209.6002    1908.3846   -257.17528    887.06472    1461.4245   -1297.1397    74.713445 
   81800    105.39128   -164.63614  0.095360249   -164.54078    2329.8362     4.211592     4.211592     4.211592    2329.8362    1881.1862    4419.7524    688.57003    1578.5995   -470.08177    546.57956    74.703143 
   81900    102.40226   -164.63354  0.092655715   -164.54089    1712.9301    4.2117987    4.2117987    4.2117987    1712.9301     6411.342     356.6698   -1629.2215    1473.8633   -746.25279    653.38933    74.714145 
   82000    130.18169   -164.65847   0.11779113   -164.54068   -367.91324    4.2122121    4.2122121    4.2122121   -367.91324    3262.1548   -2665.2009   -1700.6936    -817.2824    57.024952    585.24368    74.736147 
   82100    110.66687   -164.64078   0.10013371   -164.54065    -575.5434    4.2122756    4.2122756    4.2122756    -575.5434    1397.8269    1243.3234   -4367.7805   -708.13326   -1236.7114    458.36562    74.739526 
   82200    57.739704   -164.59327  0.052244098   -164.54102     1911.214    4.2122158    4.2122158    4.2122158     1911.214    6488.3264    1742.4208   -2497.1052    3003.7517    890.48649    288.69343    74.736342 
   82300    89.342923   -164.62175  0.080839355   -164.54091    89.630706    4.2125584    4.2125584    4.2125584    89.630706    972.60293    1504.5439   -2208.2547     321.3375    396.69457    140.53188    74.754581 
   82400     122.5802   -164.65175   0.11091314   -164.54084   -4043.2676    4.2129722    4.2129722    4.2129722   -4043.2676   -2877.9178   -3762.6901    -5489.195   -869.63641    130.09433    448.61915    74.776609 
   82500    93.968939   -164.62617  0.085025071   -164.54115   -464.23198    4.2127334    4.2127334    4.2127334   -464.23198    2468.2363   -1232.6049   -2628.3273    235.26155    987.14396   -233.66522    74.763898 
   82600    87.289491   -164.62011  0.078981366   -164.54113   -1307.2043    4.2130493    4.2130493    4.2130493   -1307.2043   -4277.8658    3444.6771   -3088.4243    998.91823    1572.2317   -1254.2338    74.780718 
   82700    102.41056   -164.63367  0.092663228   -164.54101    -1866.932    4.2131371    4.2131371    4.2131371    -1866.932   -28.587579   -1777.8026   -3794.4058    1095.0555    573.73389   -291.31167     74.78539 
   82800    120.65852   -164.65004   0.10917437   -164.54087   -2499.6772    4.2132141    4.2132141    4.2132141   -2499.6772     1920.228   -3648.9011   -5770.3584    56.994002    448.44335   -666.07532    74.789491 
   82900    124.72643   -164.65361    0.1128551   -164.54076   -3413.2448    4.2133784    4.2133784    4.2133784   -3413.2448   -3390.5572   -1658.7368   -5190.4404   -77.803817    888.29037   -1193.6622    74.798242 
   83000     89.74163   -164.62202  0.081200112   -164.54082    569.61532    4.2129856    4.2129856    4.2129856    569.61532    2196.3341    2738.4152   -3225.9033    1280.6932   -1216.7141   -211.39469    74.777322 
   83100     93.51526   -164.62541  0.084614573    -164.5408   -53.217774    4.2130467    4.2130467    4.2130467   -53.217774    3144.6359    944.70629   -4248.9956    2411.3846    323.21284   -202.26259    74.780579 
   83200    135.36733   -164.66309    0.1224832    -164.5406   -1785.1181     4.213232     4.213232     4.213232   -1785.1181   -725.73753   -2562.2744   -2067.3424   -964.13451   -38.080657    -809.4801    74.790445 
   83300    117.91702   -164.64746   0.10669379   -164.54077   -785.42756    4.2131239    4.2131239    4.2131239   -785.42756    1421.2283   -424.11557   -3353.3954   -596.80833   -272.03034   -349.27533    74.784689 
   83400    79.706673   -164.61315  0.072120273   -164.54103    1168.3923     4.212804     4.212804     4.212804    1168.3923    4007.5161    1666.2418   -2168.5811     1768.669    1215.7787   -577.10872    74.767655 
   83500    78.260744   -164.61199  0.070811966   -164.54118    551.97393    4.2128065    4.2128065    4.2128065    551.97393    420.49742    3013.6996   -1778.2752    369.56167    883.73586   -518.20243    74.767786 
   83600    82.203773   -164.61546  0.074379701   -164.54108   -808.66136    4.2127831    4.2127831    4.2127831   -808.66136    4550.5182   -2028.1245   -4948.3777   -131.53037    547.66495    701.44778    74.766545 
   83700    86.973195   -164.61965  0.078695175   -164.54095   -1055.7962    4.2125347    4.2125347    4.2125347   -1055.7962    2439.3394   -1114.8357   -4491.8924   -1007.9211    1087.5715   -382.30396    74.753319 
   83800    72.925563   -164.60685  0.065984582   -164.54087    -853.8593     4.212475     4.212475     4.212475    -853.8593   -2880.7292     4409.622   -4090.4707     141.8001    1888.0851   -1104.7202    74.750141 
   83900    61.098447   -164.59616  0.055283159   -164.54088    1776.0334     4.212113     4.212113     4.212113    1776.0334     3494.199    3326.6311   -1492.7299     1863.586   -55.873381    1006.3621     74.73087 
   84000    116.07139   -164.64574   0.10502383   -164.54071   -696.63944    4.2121271    4.2121271    4.2121271   -696.63944   -338.45525    1346.9537   -3098.4167    488.37198     111.5795    611.89927    74.731619 
   84100    153.63774    -164.6796   0.13901466   -164.54059   -2287.2961     4.212257     4.212257     4.212257   -2287.2961   -3958.5854    -631.5347   -2271.7683    -1136.048    101.69477    559.50521    74.738535 
   84200    118.56314   -164.64812   0.10727842   -164.54084    1865.5933    4.2117759    4.2117759    4.2117759    1865.5933    1635.1877    3614.3835    347.20884    708.33219    -1848.078    659.10118     74.71293 
   84300    110.98057   -164.64117   0.10041756   -164.54075    1705.2536    4.2114873    4.2114873    4.2114873    1705.2536    1764.8786     4929.979   -1579.0968    2201.4299    535.26771    324.86718    74.697575 
   84400    130.21491   -164.65849   0.11782118   -164.54067    52.982901    4.2117161    4.2117161    4.2117161    52.982901    587.53137    1324.3646   -1752.9473   -666.14898   -985.99248    12.842489     74.70975 
   84500     113.2702   -164.64322   0.10248926   -164.54073    389.38177    4.2116946    4.2116946    4.2116946    389.38177    2809.5426    1808.8269   -3450.2242    438.09007   -483.70178    336.46633    74.708603 
   84600     94.27904   -164.62606  0.085305657   -164.54075    533.32871    4.2114477    4.2114477    4.2114477    533.32871    1228.2518    2791.3138   -2419.5794     702.6374    336.96161   -783.82047    74.695467 
   84700     71.90487   -164.60595  0.065061037   -164.54089    1419.6591    4.2115603    4.2115603    4.2115603    1419.6591   -1155.4237    6551.5497   -1137.1489    715.35915    1097.4785   -1364.5737    74.701455 
   84800    62.752049   -164.59789  0.056779372   -164.54111    2232.9329    4.2115142    4.2115142    4.2115142    2232.9329       3139.9    4969.3509   -1410.4523    1179.3059    750.32133    8.5693117    74.699002 
   84900    103.88826   -164.63496  0.094000278   -164.54096   -329.66062    4.2116346    4.2116346    4.2116346   -329.66062   -405.95735    1248.9913   -1832.0158   -856.44273    1298.5458   -1754.5961     74.70541 
   85000    103.14774   -164.63422  0.093330247   -164.54089    -381.5866    4.2119425    4.2119425    4.2119425    -381.5866   -1932.7997    2910.4861   -2122.4462    207.59622    2125.0977   -1880.6512    74.721797 
   85100    59.234357    -164.5947  0.053596491    -164.5411    3502.3759    4.2115855    4.2115855    4.2115855    3502.3759    4703.3332     5504.676    299.11841    2307.0806    106.06401    181.78977    74.702799 
   85200     88.05122   -164.62061  0.079670594   -164.54094    1176.5289    4.2116903    4.2116903    4.2116903    1176.5289    2253.2882    4291.2788   -3014.9803    1029.7675    936.77732   -117.64759    74.708376 
   85300    119.99368   -164.64937   0.10857281   -164.54079   -1066.3026    4.2123315    4.2123315    4.2123315   -1066.3026    1014.0607    1080.6118   -5293.5804   -762.95962    295.87802    408.97152    74.742501 
   85400    102.61219   -164.63361  0.092845662   -164.54076    1031.1755    4.2121899    4.2121899    4.2121899    1031.1755    2270.8547    3395.0486   -2572.3768      262.721   -1018.4356    565.58406    74.734962 
   85500    112.49644   -164.64241   0.10178915   -164.54062   -109.40623    4.2121915    4.2121915    4.2121915   -109.40623   -471.95189    2880.9003   -2737.1671    959.89613    607.83176    344.10079     74.73505 
   85600    116.15648   -164.64595   0.10510082   -164.54085   -509.59934    4.2127012    4.2127012    4.2127012   -509.59934   -2054.1424    3620.7126   -3095.3682   -300.19879   -901.44872    1234.4229    74.762182 
   85700    113.64148   -164.64375    0.1028252   -164.54093    158.59771    4.2126403    4.2126403    4.2126403    158.59771   -544.38278    4191.8135   -3171.6376    422.09182   -629.92102    1558.8575    74.758937 
   85800    141.21949   -164.66855   0.12777836   -164.54077   -3534.6601    4.2129464    4.2129464    4.2129464   -3534.6601   -3878.1119   -2604.1812   -4121.6873   -1557.9191   -295.68361   -183.16181    74.775236 
   85900     105.4125   -164.63639  0.095379449   -164.54101   -1883.9762    4.2132837    4.2132837    4.2132837   -1883.9762   -3818.9486    2149.0728   -3982.0528    88.102716     953.8975    -421.3145    74.793197 
   86000    57.047635   -164.59284  0.051617899   -164.54122    490.90736    4.2129376    4.2129376    4.2129376    490.90736    2286.6972    3549.8962   -4363.8713    1291.0743    3.4937281    861.31658    74.774769 
   86100    91.561947   -164.62374  0.082847174   -164.54089   -2984.1544    4.2131893    4.2131893    4.2131893   -2984.1544   -1603.0642    -550.7842   -6798.6148   -1032.7385    611.57334   -1283.0424    74.788171 
   86200    93.124446   -164.62505  0.084260956   -164.54079   -2414.1399    4.2135944    4.2135944    4.2135944   -2414.1399   -1651.9422    1850.2073   -7440.6848    124.14265    1240.9957   -812.01835    74.809746 
   86300    67.646647    -164.6022  0.061208107     -164.541    189.12513    4.2130921    4.2130921    4.2130921    189.12513    2590.1155    1077.6159    -3100.356    2055.5443   -454.04396   -267.64461    74.782997 
   86400    99.425185   -164.63076  0.089961997    -164.5408   -636.14465    4.2130352    4.2130352    4.2130352   -636.14465   -455.93037    1491.1269   -2943.6305    1118.3215    1244.1005   -359.76099    74.779964 
   86500    110.08357   -164.64038  0.099605923   -164.54077   -764.49168    4.2134896    4.2134896    4.2134896   -764.49168   -165.89574    3580.1068   -5707.6861    434.57969    199.49047   -64.211231    74.804164 
   86600    110.12141   -164.64043  0.099640168   -164.54079    709.35224    4.2129617    4.2129617    4.2129617    709.35224    2178.4549    2235.9653   -2286.3635    998.36691   -349.30691   -592.44602    74.776054 
   86700    130.40101   -164.65859   0.11798957    -164.5406   -1694.3712      4.21297      4.21297      4.21297   -1694.3712   -462.88231   -2169.7177   -2450.5135    795.97818    403.50489   -828.79063    74.776496 
   86800    101.94952   -164.63304  0.092246066    -164.5408   -719.05745    4.2132506    4.2132506    4.2132506   -719.05745   -624.10221    3047.4102   -4580.4803    1548.7893     92.73615    324.44827    74.791438 
   86900    83.647033   -164.61661  0.075685593   -164.54092    767.21901    4.2125778    4.2125778    4.2125778    767.21901    2720.5843    3664.3175   -4083.2448    647.64258   -186.12128    915.87095    74.755611 
   87000    109.46515   -164.63978  0.099046365   -164.54073   -2942.6938    4.2127474    4.2127474    4.2127474   -2942.6938   -2470.8409   -1034.7616    -5322.479     -1561.81   -31.539628   -1780.0809     74.76464 
   87100    95.976643   -164.62773  0.086841684   -164.54088   -902.53729    4.2129279    4.2129279    4.2129279   -902.53729   -3003.9006    4286.5862   -3990.2975    489.11271    1426.8684    -811.8236    74.774252 
   87200    88.466704   -164.62103  0.080046533   -164.54098   -284.29051    4.2123486    4.2123486    4.2123486   -284.29051    1225.0592    250.33998   -2328.2707    1041.2564   -293.36863    366.42567    74.743413 
   87300    111.30358    -164.6416   0.10070981   -164.54089   -1372.1304    4.2122989    4.2122989    4.2122989   -1372.1304   -3121.2367    1802.7527   -2797.9071    -896.6168    589.73313   -806.74008    74.740767 
   87400    101.28133   -164.63254  0.091641477    -164.5409    347.68977    4.2124898    4.2124898    4.2124898    347.68977   -217.86155    5851.3872   -4590.4563   -40.843992    980.50209    201.85626    74.750928 
   87500    98.022442   -164.62963  0.088692765   -164.54094    180.79112    4.2118632    4.2118632    4.2118632    180.79112    3139.1103   -566.90932   -2029.8276    77.046235   -712.08878   -537.86439    74.717577 
   87600     109.9478   -164.64023  0.099483077   -164.54075    353.59987    4.2116259    4.2116259    4.2116259    353.59987     464.2417    1599.4835   -1002.9256    217.72002    981.94936    93.204788    74.704945 
   87700    91.190729   -164.62325  0.082511288   -164.54074    728.52365    4.2120688    4.2120688    4.2120688    728.52365    2132.0371     5300.089   -5246.5552    359.93179   -659.55408    1027.6933     74.72852 
   87800    88.802691   -164.62101  0.080350541   -164.54066    2268.1782    4.2113157    4.2113157    4.2113157    2268.1782    4101.5353     4493.141   -1790.1416   -69.714354   -737.50865   -31.453665    74.688442 
   87900    108.30354   -164.63861  0.097995316   -164.54062    815.94111    4.2114013    4.2114013    4.2114013    815.94111    39.604347    3012.0735   -603.85452   -304.43007     -523.624    -389.2672    74.692998 
   88000     109.2516   -164.63959  0.098853143   -164.54073    1023.6316     4.211946     4.211946     4.211946    1023.6316    -34.80386    4733.1107    -1627.412    1568.8986    117.08941     418.6636    74.721981 
   88100    106.96028   -164.63754  0.096779905   -164.54076    2205.9211     4.211272     4.211272     4.211272    2205.9211    3474.8652    2943.8382    199.05982    90.267373   -327.66593     539.8426    74.686118 
   88200    101.18442   -164.63241  0.091553793   -164.54086    434.69134    4.2115835    4.2115835    4.2115835    434.69134   -728.46421    3817.3964   -1784.8581   -1158.7157   -32.758162   -2348.3744    74.702692 
   88300    87.220729   -164.61987  0.078919149   -164.54095    2125.1042    4.2119429    4.2119429    4.2119429    2125.1042    3064.2098    6160.5565   -2849.4538    1057.5094    1725.0378   -1223.6458    74.721816 
   88400    90.493793   -164.62274  0.081880686   -164.54086   -447.57113    4.2116913    4.2116913    4.2116913   -447.57113    4156.1606   -2123.5342   -3375.3399    1121.0895    90.389346   -950.69063    74.708426 
   88500    86.883096   -164.61951  0.078613651    -164.5409   -165.50917     4.211822     4.211822     4.211822   -165.50917    -93.52948    3061.9672   -3464.9652    1061.4969    1713.1279   -1477.3549    74.715383 
   88600    74.961562   -164.60878  0.067826796   -164.54095    830.46698    4.2123809    4.2123809    4.2123809    830.46698    3483.9943    4821.5844   -5814.1777    943.32115    1166.7743   -763.87929    74.745131 
   88700    95.778311   -164.62749  0.086662228   -164.54083   -748.57052    4.2120068    4.2120068    4.2120068   -748.57052    1422.6759    694.93601   -4363.3235   -428.98927    269.32087   -1891.0849    74.725216 
   88800    121.49749   -164.65067   0.10993348   -164.54073   -325.85889    4.2121417    4.2121417    4.2121417   -325.85889   -2156.4311    2613.2913   -1434.4369    1053.3451    1040.1113   -645.22659      74.7324 
   88900    124.22507   -164.65316   0.11240145   -164.54076   -1311.8961    4.2129403    4.2129403    4.2129403   -1311.8961   -349.55287    585.51175   -4171.6472    1232.5575    -299.1365    811.74248    74.774911 
   89000    122.21995   -164.65126   0.11058718   -164.54068    38.856773    4.2122285    4.2122285    4.2122285    38.856773    537.57164    2180.4946   -2601.4959   -725.70604   -902.63754   -76.160563     74.73702 
   89100    112.98236    -164.6429   0.10222881   -164.54067    -868.3511    4.2126268    4.2126268    4.2126268    -868.3511   -1779.7636    2675.4075   -3500.6972   -795.35627   -1238.4723   -16.587475     74.75822 
   89200    103.09972   -164.63398  0.093286795    -164.5407   -744.89421    4.2132453    4.2132453    4.2132453   -744.89421    2218.0534    1266.1202   -5718.8563    415.01179   -93.858091    874.36995    74.791153 
   89300    100.17931   -164.63124   0.09064434    -164.5406   -946.96557    4.2126398    4.2126398    4.2126398   -946.96557    2643.9281   -1163.2185   -4321.6064     -738.019   -1283.7497    747.86102    74.758914 
   89400    81.693734   -164.61472  0.073918207    -164.5408   -1060.6387    4.2129565    4.2129565    4.2129565   -1060.6387   -666.84783    2796.1625   -5311.2308   -824.77121   -640.74961   -1101.4019    74.775778 
   89500    72.080281   -164.60614  0.065219753   -164.54092     1252.333    4.2132457    4.2132457    4.2132457     1252.333    5320.8219    3994.0063   -5557.8292   -384.51952    671.38575    150.04376    74.791176 
   89600     97.21157   -164.62884  0.087959071   -164.54088   -1417.2642    4.2128389    4.2128389    4.2128389   -1417.2642    1637.0986   -1232.0786   -4656.8127   -177.41454   -293.80638   -261.32438    74.769513 
   89700    100.95775   -164.63234  0.091348698   -164.54099   -408.12516     4.212975     4.212975     4.212975   -408.12516     -46.8115    1398.8938   -2576.4578    1367.3323    1688.9314   -808.80372     74.77676 
   89800    86.748268   -164.61954  0.078491656   -164.54105    163.71851     4.213336     4.213336     4.213336    163.71851    4181.6852    131.18278   -3821.7125    475.63874    1376.6694   -996.19575    74.795985 
   89900    96.291164   -164.62802  0.087126269   -164.54089   -1157.6071    4.2126464    4.2126464    4.2126464   -1157.6071    868.60663    1053.1594   -5394.5874   -263.21025    1012.6993   -2039.2025    74.759266 
   90000    95.393568   -164.62715  0.086314105   -164.54084   -645.35778     4.212853     4.212853     4.212853   -645.35778    1081.5671    1439.2404   -4456.8808    1607.9116     1149.673   -552.18464    74.770266 
   90100    94.171147   -164.62598  0.085208033   -164.54077   -1621.1004    4.2132871    4.2132871    4.2132871   -1621.1004    1671.1677   -1544.7119   -4989.7568    1753.6006    1075.5468    12.557079     74.79338 
   90200    109.86367   -164.64001  0.099406961    -164.5406   -1172.1711    4.2123525    4.2123525    4.2123525   -1172.1711   -577.18597    1139.8067   -4079.1339    114.64473   -195.52215   -933.67806    74.743621 
   90300    107.09683   -164.63768  0.096903465   -164.54077   -1100.6411     4.212586     4.212586     4.212586   -1100.6411   -1207.6266    2213.2276   -4307.5242   -26.369517   -590.84176   -1266.7618    74.756051 
   90400    115.04437   -164.64488   0.10409456   -164.54079     197.1919    4.2127377    4.2127377    4.2127377     197.1919    1541.3492    2754.7461   -3704.5196   -287.70004     853.5902    228.24114    74.764125 
   90500    137.74682   -164.66532   0.12463621   -164.54068   -1456.4433    4.2120256    4.2120256    4.2120256   -1456.4433   -2234.5528   -769.68638   -1365.0906    247.05842   -1174.8878    98.209913    74.726221 
   90600    113.81874   -164.64381   0.10298559   -164.54083    215.69491    4.2121609    4.2121609    4.2121609    215.69491    728.64124    1348.8825    -1430.439    636.55839    190.96381    -783.6535    74.733418 
   90700    93.401753   -164.62547  0.084511869   -164.54096    1626.9837    4.2122343    4.2122343    4.2122343    1626.9837    5109.3946     2552.333   -2780.7763   -979.42259   -88.644237    187.92213    74.737328 
   90800    104.12505   -164.63498  0.094214535   -164.54076   -1465.2364    4.2117632    4.2117632    4.2117632   -1465.2364   -381.42999    223.03249   -4237.3118   -622.44008   -303.08076   -10.359733    74.712252 
   90900    75.415291   -164.60913   0.06823734   -164.54089    1722.1091    4.2118489    4.2118489    4.2118489    1722.1091    5702.3211    1971.9471    -2507.941    969.34345    876.33468    165.09839    74.716814 
   91000    69.457578   -164.60375  0.062846677    -164.5409    811.36875     4.212217     4.212217     4.212217    811.36875    4065.6139   -54.626949   -1576.8807   -94.689589    832.59159   -14.433003    74.736408 
   91100    100.75944   -164.63187   0.09116926    -164.5407   -172.31289    4.2115434    4.2115434    4.2115434   -172.31289    252.23358    2618.7871   -3387.9594   -310.46495   -98.856518   -637.90672    74.700555 
   91200    92.079148   -164.62418  0.083315148   -164.54087    1343.6922    4.2118874    4.2118874    4.2118874    1343.6922    4311.5744    2397.2967   -2677.7946   -177.46432   -149.75947    1092.3788    74.718865 
   91300    97.659222   -164.62921  0.088364116   -164.54085    1418.4641    4.2120982    4.2120982    4.2120982    1418.4641    1993.1469     2070.754    191.49152    366.65258    869.51883    859.77093    74.730083 
   91400     120.4857   -164.64977   0.10901799   -164.54075    319.93259    4.2115157    4.2115157    4.2115157    319.93259    576.00908    529.68356   -145.89488    551.78078   -700.82648   -430.17931    74.699082 
   91500    99.989695   -164.63132  0.090472777   -164.54085    590.43332    4.2121066    4.2121066    4.2121066    590.43332    4389.8208    223.59499   -2842.1158   -486.49516    49.219414   -868.79006    74.730531 
   91600    97.159632   -164.62861  0.087912077   -164.54069    1428.3307    4.2122373    4.2122373    4.2122373    1428.3307    3996.3614    3410.0252   -3121.3944   -904.21531    873.64344    206.84842    74.737489 
   91700    104.80057   -164.63537   0.09482576   -164.54054    -1480.613    4.2119094    4.2119094    4.2119094    -1480.613   -454.04447   -1201.9731   -2785.8213    1176.2943   -614.36488   -3.6578109    74.720032 
   91800    83.678443   -164.61651  0.075714013   -164.54079    1206.2172    4.2122927    4.2122927    4.2122927    1206.2172    5345.0641     1064.932   -2791.3445    1642.3521    1266.2117   -1223.5609    74.740438 
   91900    103.82804   -164.63464  0.093945789   -164.54069   -450.60835    4.2127161    4.2127161    4.2127161   -450.60835    1109.0406    607.04011   -3067.9058   -26.272881    457.82051   -1170.0741    74.762977 
   92000     124.8148   -164.65359   0.11293506   -164.54066   -2345.3804    4.2122762    4.2122762    4.2122762   -2345.3804   -2892.3458   -79.831598   -4063.9637    488.61867    756.21418   -1130.9497    74.739558 
   92100    98.956393   -164.63055  0.089537824   -164.54102    898.23866    4.2126409    4.2126409    4.2126409    898.23866    3717.0274    2155.7218   -3178.0332    966.87791     1198.303   -444.46307     74.75897 
   92200    108.21411   -164.63887  0.097914405   -164.54096   -2004.3051    4.2131612    4.2131612    4.2131612   -2004.3051   -3404.4446   -1104.7788    -1503.692    1225.7157    1665.6982   -165.22636    74.786677 
   92300    117.51597   -164.64719   0.10633092   -164.54086   -1552.9327    4.2125149    4.2125149    4.2125149   -1552.9327    639.51943   -935.96452   -4362.3531    786.74852   -276.78817   -611.26642    74.752265 
   92400    90.708284     -164.623  0.082074762   -164.54093   -1760.2621    4.2132895    4.2132895    4.2132895   -1760.2621    3521.3172   -1571.5259   -7230.5776   -1353.8503   -42.198729    1071.1318     74.79351 
   92500     88.09015    -164.6205  0.079705819   -164.54079   -944.84172    4.2131815    4.2131815    4.2131815   -944.84172     -1222.23    1658.0532   -3270.3483   -587.18683    689.98161     1233.658    74.787757 
   92600    89.834378   -164.62201  0.081284033   -164.54073   -850.00103     4.212583     4.212583     4.212583   -850.00103    2283.7634    -1487.506   -3346.2605     163.9295    -1258.027    515.85611     74.75589 
   92700    91.255178   -164.62334  0.082569603   -164.54077   -727.89377    4.2132343    4.2132343    4.2132343   -727.89377    4572.1867   -1511.9792   -5243.8888   -961.98774    14.398693    946.45687     74.79057 
   92800    114.60663   -164.64444   0.10369849   -164.54074   -83.056773    4.2131247    4.2131247    4.2131247   -83.056773    362.74685    1896.3136   -2508.2307   -1639.1628   -818.22011    1550.4958    74.784733 
   92900    105.00676   -164.63584  0.095012327   -164.54082   -930.07266    4.2125882    4.2125882    4.2125882   -930.07266    807.11002   -1671.6502   -1925.6778   -433.01444   -1134.3806    1114.6635    74.756166 
   93000    91.768463   -164.62399  0.083034034   -164.54096    2073.3666    4.2128551    4.2128551    4.2128551    2073.3666    5945.3568     2613.711   -2338.9679    495.23954    461.55563   -322.96838    74.770376 
   93100    109.74661    -164.6402  0.099301039    -164.5409   -1923.6597     4.213142     4.213142     4.213142   -1923.6597    -1138.662   -1951.2974   -2681.0196    857.15178    409.85755   -1015.6058    74.785651 
   93200    94.733663   -164.62655  0.085717009   -164.54083   -287.16391    4.2122378    4.2122378    4.2122378   -287.16391     5164.901   -1772.3249   -4254.0679      161.422   -5.6701642   -895.65971    74.737511 
   93300    76.318918   -164.60991  0.069054961   -164.54086    616.04456    4.2127079    4.2127079    4.2127079    616.04456    4654.6802     2669.589   -5476.1355   -262.90085    806.41318   -508.12662    74.762538 
   93400    87.971146   -164.62031  0.079598142   -164.54071   -1749.5605    4.2127077    4.2127077    4.2127077   -1749.5605   -3719.3954    528.57757   -2057.8637    1993.8279    1588.6995   -923.77075    74.762527 
   93500    93.949699   -164.62571  0.085007662   -164.54071    1303.1882    4.2116967    4.2116967    4.2116967    1303.1882    6069.7145    29.096087    -2189.246    1514.5349   -485.79515   -1659.6657    74.708713 
   93600    114.20571   -164.64409   0.10333572   -164.54075    -1758.174    4.2126236    4.2126236    4.2126236    -1758.174    1245.7954   -1331.1513    -5189.166   -795.27802    1008.1278   -632.59233    74.758051 
   93700    119.88045    -164.6492   0.10847035   -164.54073    669.11113    4.2120694    4.2120694    4.2120694    669.11113     -2862.65    4003.5627     866.4207   -290.13855    698.31771    217.12053    74.728549 
   93800    101.09575   -164.63237  0.091473561    -164.5409    1261.0242    4.2114546    4.2114546    4.2114546    1261.0242    3197.2878    -90.64826    676.43314    459.68388   -642.63543   -52.169565     74.69583 
   93900     117.7177   -164.64729   0.10651345   -164.54077   -173.07574    4.2121339    4.2121339    4.2121339   -173.07574    2447.8451    76.897889   -3043.9702     451.1475    1005.6624    878.87421    74.731983 
   94000    116.98431    -164.6465   0.10584986   -164.54065    119.89063    4.2118491    4.2118491    4.2118491    119.89063    935.90771     677.0848   -1253.3206   -510.69238   -1138.4958     1125.756    74.716823 
   94100    78.781736   -164.61207   0.07128337   -164.54078    576.55018    4.2113269    4.2113269    4.2113269    576.55018    4606.6077   -1196.7051   -1680.2521    -1430.228   -524.08143      1153.18    74.689037 
   94200    87.236214   -164.61959  0.078933159   -164.54065    2200.6517    4.2117144    4.2117144    4.2117144    2200.6517    2463.5097    6465.6845    -2327.239   -279.60975     266.0583    597.88454    74.709654 
   94300    103.16748   -164.63401  0.093348107   -164.54066   -1177.8848    4.2119246    4.2119246    4.2119246   -1177.8848   -1901.9241   -349.99742    -1281.733    1257.0414    745.67781    513.14593    74.720846 
   94400    97.691854   -164.62918  0.088393642   -164.54079    2270.2236    4.2110815    4.2110815    4.2110815    2270.2236    7393.0083   -162.67293   -419.66447   -233.04598   -616.41393    874.78982     74.67598 
   94500    108.42255   -164.63894  0.098103002   -164.54083    385.68373    4.2120704    4.2120704    4.2120704    385.68373   -241.07002    3710.2173   -2312.0961    -1747.202    464.99575    838.97636    74.728603 
   94600    95.517019   -164.62744  0.086425806   -164.54101    890.52926    4.2119782    4.2119782    4.2119782    890.52926   -1310.2433     2543.873    1437.9581    464.17344    580.27485    22.664682    74.723694 
   94700    91.689414    -164.6239  0.082962508   -164.54093     2755.131    4.2114115    4.2114115    4.2114115     2755.131     7546.541    175.23069    543.62136    224.71244   -764.31829   -1047.6263    74.693538 
   94800    112.11025    -164.6422   0.10143971   -164.54076    -2620.212    4.2126969    4.2126969    4.2126969    -2620.212    838.74083   -3104.1595   -5595.2172   -532.80107    1160.8408   -273.32276    74.761951 
   94900     76.25303   -164.60989  0.068995344    -164.5409    2387.6854    4.2120171    4.2120171    4.2120171    2387.6854    4431.7619    2699.9016     31.39266   -985.02349    -941.3206    96.847253    74.725767 
   95000    62.385002    -164.5973  0.056447261   -164.54085    779.82431     4.212026     4.212026     4.212026    779.82431    4220.5983   -744.35285   -1136.7725   -1175.5364   -1020.4448   -420.54783    74.726237 
   95100    113.48503   -164.64341   0.10268364   -164.54073    -1704.313    4.2129616    4.2129616    4.2129616    -1704.313   -1382.8199     1069.354   -4799.4732    998.94646    183.79514   -565.85536    74.776047 
   95200    114.38011   -164.64428   0.10349352   -164.54079   -1030.5006    4.2128713    4.2128713    4.2128713   -1030.5006    629.95694   -1804.5459   -1916.9128    808.23043   -1298.0025   -655.49159     74.77124 
   95300    98.265777   -164.62982   0.08891294   -164.54091   -761.80283    4.2126582    4.2126582    4.2126582   -761.80283    2608.8053   -3320.9158    -1573.298   -1024.4308   -574.42039   -320.30059    74.759894 
   95400    119.88447   -164.64927   0.10847399    -164.5408    -630.6547    4.2132383    4.2132383    4.2132383    -630.6547   -4511.6799    5520.7633   -2901.0475   -561.21938    96.548851   -322.46582    74.790784 
   95500    114.41016   -164.64448   0.10352072   -164.54096   -2964.9685    4.2134286    4.2134286    4.2134286   -2964.9685    -2351.416   -3276.0382   -3267.4512    1735.0407    797.38966    20.043975    74.800915 
   95600     110.8577   -164.64113   0.10030638   -164.54082   -589.19507    4.2127705    4.2127705    4.2127705   -589.19507    4565.7346   -3279.5586   -3053.7611    574.20495    -287.2237    296.09253    74.765874 
   95700    104.58709   -164.63528  0.094632593   -164.54065   -3509.2676    4.2137198    4.2137198    4.2137198   -3509.2676   -2895.1147   -540.61928   -7092.0687   -1152.4991    1419.8888    597.04238    74.816425 
   95800    67.444893   -164.60193  0.061025557    -164.5409    140.66516    4.2131873    4.2131873    4.2131873    140.66516    2251.1047    599.75053   -2428.8597   -836.91638    359.73385    701.99145    74.788065 
   95900    94.976429   -164.62672  0.085936669   -164.54078   -304.33842    4.2128615    4.2128615    4.2128615   -304.33842    1926.9615   -994.38613   -1845.5906   -341.99906    311.57485    250.91091    74.770715 
   96000     133.8829   -164.66169   0.12114006   -164.54055   -4853.9698    4.2139131    4.2139131    4.2139131   -4853.9698   -2695.2501   -4681.9809   -7184.6784    500.53112    1815.1933    1709.5841     74.82672 
   96100    90.777552   -164.62308  0.082137437   -164.54094    2141.7315    4.2129184    4.2129184    4.2129184    2141.7315    6045.7169     342.7235     36.75397   -1176.2802   -917.67911    1584.2845    74.773747 
   96200    81.684505   -164.61497  0.073909857   -164.54106    156.66886      4.21268      4.21268      4.21268    156.66886      2026.63   -1569.1935    12.570145   -2719.2369    -559.5822    741.26355    74.761056 
   96300    115.13389   -164.64505   0.10417556   -164.54087   -713.80852    4.2130366    4.2130366    4.2130366   -713.80852   -1204.4649    2775.7737   -3712.7343    88.219438   -538.26491    100.62033     74.78004 
   96400    100.17858   -164.63147  0.090643685   -164.54083   -921.73163    4.2128475    4.2128475    4.2128475   -921.73163    3489.9266   -3382.6709   -2872.4506    842.38615   -921.19086   -261.98174    74.769972 
   96500    74.822447   -164.60856  0.067700922   -164.54086   -183.94267    4.2122601    4.2122601    4.2122601   -183.94267    4067.4884   -2545.7186   -2073.5977   -1310.8982   -1164.3501   -151.58773    74.738702 
   96600    69.136566   -164.60336  0.062556218    -164.5408    1410.0293    4.2123443    4.2123443    4.2123443    1410.0293    -743.9173    7879.1421   -2905.1368   -1155.9181   -630.52829   -577.84206    74.743184 
   96700    83.586198   -164.61647  0.075630548   -164.54084   -806.58154    4.2123995    4.2123995    4.2123995   -806.58154    786.55169     -924.073   -2282.2233    274.70734   -472.60638   -1082.1958    74.746122 
   96800    129.13537   -164.65757    0.1168444   -164.54072     6.696789    4.2117136    4.2117136    4.2117136     6.696789   -280.46561    271.76287    28.793105    484.17392   -921.36649   -1588.4412    74.709612 
   96900    130.03409   -164.65848   0.11765758   -164.54083   -1485.8286    4.2123356    4.2123356    4.2123356   -1485.8286   -1869.3546    801.06668   -3389.1978    211.38486    1349.2318    -1146.415     74.74272 
   97000    94.034167   -164.62602  0.085084091   -164.54094    3203.5042    4.2116045    4.2116045    4.2116045    3203.5042    4914.6738    2817.8102    1878.0286   -1388.9337   -720.48883   -143.79481    74.703807 
   97100    117.73566   -164.64737    0.1065297   -164.54084    1166.9432    4.2112488    4.2112488    4.2112488    1166.9432   -592.57854    2255.5944    1837.8136   -1293.2533     521.2482   -564.84271    74.684882 
   97200    140.16081   -164.66755   0.12682045   -164.54073   -2669.0462    4.2121616    4.2121616    4.2121616   -2669.0462   -154.99016   -2325.8476   -5526.3007    1820.3726    1061.8375    1076.1132    74.733458 
   97300     96.25015   -164.62789  0.087089159    -164.5408    1588.4359     4.211604     4.211604     4.211604    1588.4359    4890.8665    350.69588   -476.25475   -481.37491   -584.53309    1084.9399     74.70378 
   97400    62.500992   -164.59735  0.056552211    -164.5408    708.89642    4.2112896    4.2112896    4.2112896    708.89642    1638.8202    633.10891   -145.23983    -2093.196    268.22917    787.03156    74.687053 
   97500     81.20503   -164.61426  0.073476018   -164.54078    1777.1511    4.2116166    4.2116166    4.2116166    1777.1511    947.60961    6507.3099   -2123.4663   -264.46945   -223.22455    1360.8412     74.70445 
   97600    115.29377   -164.64503   0.10432023   -164.54071   -1008.1543    4.2118908    4.2118908    4.2118908   -1008.1543    321.36893   -2511.1391   -834.69263    814.47042    213.88771    1264.6437    74.719042 
   97700    116.04878    -164.6458   0.10500338    -164.5408    44.535725    4.2113907    4.2113907    4.2113907    44.535725   -344.08307   -614.44246    1092.1327    68.574403   -40.511973    1288.5091    74.692433 
   97800    87.231614   -164.61989  0.078928997   -164.54096    3287.5697    4.2117128    4.2117128    4.2117128    3287.5697    2191.5229     7220.117    451.06921   -866.83343    639.28858     750.1411     74.70957 
   97900    88.387955   -164.62099  0.079975279   -164.54102    1126.9508    4.2120621    4.2120621    4.2120621    1126.9508    3859.3267    -607.5915    129.11708   -1768.4363   -538.03232   -145.32527    74.728164 
   98000    119.49642   -164.64877   0.10812287   -164.54065    714.32809    4.2116186    4.2116186    4.2116186    714.32809   -271.39669    1908.7023     505.6787    385.48278   -182.12944   -1266.7277    74.704557 
   98100    110.17067   -164.64031  0.099684741   -164.54063   -1855.9067    4.2125742    4.2125742    4.2125742   -1855.9067    2122.6931    -2119.965   -5570.4481    1011.7567    1339.6073    -502.8232    74.755422 
   98200    64.829663   -164.59948  0.058659241   -164.54082    2314.1952    4.2121347    4.2121347    4.2121347    2314.1952    5507.1498    2355.4911   -920.05538   -2337.2129   -1002.3109   -284.86014    74.732023 
   98300    69.120155   -164.60344  0.062541369    -164.5409    1420.2024    4.2118905    4.2118905    4.2118905    1420.2024    297.00838      3689.79    273.80884    -1909.039    128.21608   -1006.8186    74.719031 
   98400    123.12164   -164.65223   0.11140305   -164.54083   -2570.3783    4.2130324    4.2130324    4.2130324   -2570.3783   -388.61863   -1716.4544   -5606.0619    930.23065   -294.50876   -542.84563    74.779815 
   98500    133.39845   -164.66153   0.12070172   -164.54082   -1055.4295     4.212777     4.212777     4.212777   -1055.4295   -1202.0227   -1452.8794   -511.38643   -376.81755   -1209.3887   -753.68828    74.766217 
   98600    98.325556   -164.63002  0.088967029   -164.54105   -903.94557    4.2124888    4.2124888    4.2124888   -903.94557   -1660.3998   -953.95071   -97.486243   -1134.1849   -515.33122   -676.55473    74.750873 
   98700    92.220125   -164.62447  0.083442707   -164.54103    824.63211    4.2130593    4.2130593    4.2130593    824.63211   -553.39469    5033.6082   -2006.3171   -1191.4494   -1026.2114     642.0042    74.781247 
   98800    112.67143   -164.64275   0.10194748    -164.5408   -3105.5184    4.2133881    4.2133881    4.2133881   -3105.5184   -2624.5191   -3878.2551   -2813.7811   -202.69453   -617.76761    278.40864     74.79876 
   98900    109.31247   -164.63972  0.098908218   -164.54081   -2774.7831    4.2129493    4.2129493    4.2129493   -2774.7831   -3348.8363   -1846.3395   -3129.1736    1315.9442   -361.42189  -0.55813308    74.775393 
   99000    81.322078   -164.61439  0.073581925   -164.54081   -1341.3993    4.2135004    4.2135004    4.2135004   -1341.3993   -987.12936    1468.9311   -4505.9997    -263.7509    836.62465    704.98835    74.804739 
   99100    64.438987   -164.59918   0.05830575   -164.54088   -701.02725    4.2133307    4.2133307    4.2133307   -701.02725    457.18438    660.11022   -3220.3764   -2159.2635   -272.90087    546.69552    74.795702 
   99200    98.980023   -164.63042  0.089559205   -164.54086    305.11726    4.2128109    4.2128109    4.2128109    305.11726    -2170.416     3781.346   -695.57822    527.05937    1100.1151    41.765192    74.768024 
   99300     142.2155   -164.66934   0.12867958   -164.54066   -3974.9029    4.2138874    4.2138874    4.2138874   -3974.9029   -1151.8159   -4989.4526   -5783.4401    1302.5181    1868.8494    1431.8762    74.825356 
   99400    114.57782   -164.64457   0.10367242    -164.5409    521.78389    4.2130741    4.2130741    4.2130741    521.78389     349.1549     1752.565   -536.36825   -1173.6707    530.42075    897.22062    74.782038 
   99500    82.185629   -164.61548  0.074363284   -164.54112    1415.6144    4.2125783    4.2125783    4.2125783    1415.6144    1054.9279    2510.9222    680.99299    -1187.646    1200.5014    420.10385    74.755638 
   99600    99.577623   -164.63113  0.090099926   -164.54103   -976.63644    4.2133136    4.2133136    4.2133136   -976.63644      500.772    1107.7809   -4538.4622    -569.3271   -259.94798     778.5551    74.794792 
   99700     102.8126   -164.63386  0.093027005   -164.54084   -1237.1058    4.2128331    4.2128331    4.2128331   -1237.1058   -2062.8949    -277.0328   -1371.3898    512.00051    -418.8551   -327.16832    74.769203 
   99800    77.319304   -164.61081  0.069960131   -164.54085   -1668.7424    4.2125211    4.2125211    4.2125211   -1668.7424   -737.77837   -2091.7784   -2176.6703    71.788185   -324.68537   -228.41724    74.752594 
   99900    62.089525   -164.59706  0.056179907   -164.54088    1168.0581     4.212705     4.212705     4.212705    1168.0581    -736.6834    6023.4684   -1782.6106   -1779.9868   -1064.8102    688.50754    74.762383 
  100000    81.340355   -164.61449  0.073598462   -164.54089   -591.03759    4.2124146    4.2124146    4.2124146   -591.03759   -2529.7493    1295.3538   -538.71726   -1303.5024   -1360.5942   -862.57063    74.746923 
Loop time of 32.7363 on 1 procs for 100000 steps with 8 atoms

Pair  time (%) = 10.9118 (33.3322)
Kspce time (%) = 7.85964 (24.0089)
Neigh time (%) = 0 (0)
Comm  time (%) = 1.63469 (4.9935)
Outpt time (%) = 0.0573063 (0.175054)
Other time (%) = 12.273 (37.4903)

Nlocal:    8 ave 8 max 8 min
Histogram: 1 0 0 0 0 0 0 0 0 0
Nghost:    2189 ave 2189 max 2189 min
Histogram: 1 0 0 0 0 0 0 0 0 0
Neighs:    2472 ave 2472 max 2472 min
Histogram: 1 0 0 0 0 0 0 0 0 0

Total # of neighbors = 2472
Ave neighs/atom = 309
Neighbor list builds = 0
Dangerous builds = 0
unfix 20
unfix 21
print "seeds:1203010"
seeds:1203010
