LAMMPS (10 Feb 2015)
# ---- initialize simulations
clear
units metal
dimension 3
boundary p p p
atom_style charge
atom_modify map array
# ---- create atoms
read_data /Users/eugeneragasa/pyflamestk_git/pypospack/tests/tests_integration/workflow/WorkflowLammpsThermalExpansion/param_1256/MgO_NaCl_unit.npt.T400/lammps.structure
  triclinic box = (0 0 0) to (4.2565 4.2565 4.2565) with tilt (0 0 0)
  1 by 1 by 1 MPI processor grid
  reading atoms ...
  8 atoms
# ---- define interatomic potential
include potential.mod
mass 1 24.305
mass 2 15.999

group Mg type 1
4 atoms in group Mg
group O type 2
4 atoms in group O

set group Mg charge 1.66039996869
  4 settings made for charge
set group O charge -1.66039996869
  4 settings made for charge

variable R_cut equal 10.0

pair_style buck/coul/long ${R_cut}
pair_style buck/coul/long 10
pair_coeff 1 1 0.0 0.5 0.0 ${R_cut}
pair_coeff 1 1 0.0 0.5 0.0 10
pair_coeff 1 2 1528.2261267 0.282600919639 0.0 ${R_cut}
pair_coeff 1 2 1528.2261267 0.282600919639 0.0 10
pair_coeff 2 2 6677.06285722 0.138925130231 8.13419383626 ${R_cut}
pair_coeff 2 2 6677.06285722 0.138925130231 8.13419383626 10

kspace_style pppm 1.0e-5

neighbor 1.0 bin
neigh_modify every 1 delay 0 check yes
# ---- define settings
compute eng all pe/atom
compute eatoms all reduce sum c_eng
# ---- run minimization
reset_timestep 0
fix 1 all box/relax iso 0.0 vmax 0.001
thermo 10
thermo_style custom step pe lx ly lz xy xz yz press pxx pyy pzz pxy pxz pyz c_eatoms
min_style cg
minimize 1e-25 1e-25 5000 10000
PPPM initialization ...
  G vector (1/distance) = 0.352851
  grid = 8 8 8
  stencil order = 5
  estimated absolute RMS force accuracy = 3.9608e-05
  estimated relative force accuracy = 2.75062e-06
  using double precision FFTs
  3d grid and FFT values/proc = 3375 512
Neighbor list info ...
  1 neighbor list requests
  update every 1 steps, delay 0 steps, check yes
  master list distance cutoff = 11
Memory usage per processor = 4.06549 Mbytes
Step PotEng Lx Ly Lz Xy Xz Yz Press Pxx Pyy Pzz Pxy Pxz Pyz eatoms 
       0   -110.92329       4.2565       4.2565       4.2565            0            0            0    120138.29    120138.29    120138.29    120138.29 1.5343687e-10 -1.0407196e-10 -1.3145771e-10   -110.92329 
      10   -111.05478     4.299065     4.299065     4.299065            0            0            0    61836.089    61836.089    61836.089    61836.089 1.0666232e-10 -5.0344756e-11 -1.3613158e-10   -111.05478 
      20   -111.10767      4.34163      4.34163      4.34163            0            0            0    10591.608    10591.608    10591.608    10591.608 -1.2465538e-10 -9.1160209e-12 2.8254225e-10   -111.10767 
      25   -111.10952     4.351169     4.351169     4.351169            0            0            0   -6.6622077   -6.6622077   -6.6622077   -6.6622077 -1.5540302e-10 -3.5403029e-11 3.0098099e-10   -111.10952 
Loop time of 0.0140162 on 1 procs for 25 steps with 8 atoms

Minimization stats:
  Stopping criterion = linesearch alpha is zero
  Energy initial, next-to-last, final = 
        -110.923293971     -111.109518965     -111.109518965
  Force two-norm initial, final = 17.348 0.0010058
  Force max component initial, final = 17.348 0.0010053
  Final line search alpha, max atom move = 0.00777135 7.8125e-06
  Iterations, force evaluations = 25 41

Pair  time (%) = 0.00373578 (26.6534)
Kspce time (%) = 0.00224376 (16.0084)
Neigh time (%) = 0 (0)
Comm  time (%) = 0.000415802 (2.96659)
Outpt time (%) = 2.69413e-05 (0.192216)
Other time (%) = 0.00759387 (54.1794)

Nlocal:    8 ave 8 max 8 min
Histogram: 1 0 0 0 0 0 0 0 0 0
Nghost:    2189 ave 2189 max 2189 min
Histogram: 1 0 0 0 0 0 0 0 0 0
Neighs:    2344 ave 2344 max 2344 min
Histogram: 1 0 0 0 0 0 0 0 0 0

Total # of neighbors = 2344
Ave neighs/atom = 293
Neighbor list builds = 0
Dangerous builds = 0
unfix 1
# ---- define output variables ----
variable natoms equal "count(all)"
variable tot_energy equal "c_eatoms"
variable length_x equal "lx"
variable length_y equal "ly"
variable length_z equal "lz"
variable tilt_xy equal "xy"
variable tilt_xz equal "xz"
variable tilt_yz equal "yz"
variable tot_press equal "press"
variable press_xx equal "pxx"
variable press_yy equal "pyy"
variable press_zz equal "pzz"
variable press_xy equal "pxy"
variable press_xz equal "pxz"
variable press_yz equal "pyz"

# ---- output ----
print "pypospack:output_section:begin"
pypospack:output_section:begin
print "tot_energy = ${tot_energy}"
tot_energy = -111.109518965105
print "num_atoms = ${natoms}"
num_atoms = 8
print "xx = ${length_x}"
xx = 4.35116899821938
print "yy = ${length_y}"
yy = 4.35116899821938
print "zz = ${length_z}"
zz = 4.35116899821938
print "xy = ${tilt_xy}"
xy = 0
print "xz = ${tilt_xz}"
xz = 0
print "yz = ${tilt_yz}"
yz = 0
print "tot_press = ${tot_press}"
tot_press = -6.66220766530753
print "pxx = ${press_xx}"
pxx = -6.66220766529406
print "pyy = ${press_yy}"
pyy = -6.66220766581444
print "pzz = ${press_zz}"
pzz = -6.6622076648141
print "pxy = ${press_xy}"
pxy = -1.55403020158447e-10
print "pxz = ${press_xz}"
pxz = -3.54030294322521e-11
print "pyz = ${press_yz}"
pyz = 3.00980987063428e-10
print "pypospack:output_section:done"
pypospack:output_section:done
print "pypospack:lammps_sim:done"
pypospack:lammps_sim:done
#------------------------------------------------------------------------------
# RUN THERMOSTAT
# running using an NPT Nose-Hoover style thermostat
#------------------------------------------------------------------------------
variable tempdamp equal 0.1
variable pressdamp equal 1.0
# set initial velocities
velocity all create 400 5279480 mom yes dist gaussian loop all
# fix for Nose-Hoover style thermostat
fix 20 all npt temp 400 400 0.1 aniso 0.0 0.0 1.0 drag 1.0 couple xyz
variable boxx equal lx
variable boxy equal ly
variable boxz equal lz
variable boxp equal press
variable boxt equal temp
# calculate averages every 10000 steps
reset_timestep 0
fix 21 all ave/time 10 10 100 v_boxx v_boxy v_boxz v_boxp v_boxt file lattice.out
thermo_style custom step temp pe ke etotal press lx ly lz press pxx pyy pzz pxy pxz pyz vol
thermo_modify flush yes
thermo 100
run 100000
PPPM initialization ...
  G vector (1/distance) = 0.351894
  grid = 8 8 8
  stencil order = 5
  estimated absolute RMS force accuracy = 4.14019e-05
  estimated relative force accuracy = 2.8752e-06
  using double precision FFTs
  3d grid and FFT values/proc = 3375 512
Memory usage per processor = 3.06549 Mbytes
Step Temp PotEng KinEng TotEng Press Lx Ly Lz Press Pxx Pyy Pzz Pxy Pxz Pyz Volume 
       0          400   -111.10953   0.36192841    -110.7476    4683.8666     4.351169     4.351169     4.351169    4683.8666    4126.7604    7302.2498    2622.5897    -1378.669    244.24554   -1314.1675    82.379254 
     100    121.20812   -110.80351   0.10967165   -110.69384   -3267.7234    4.3756623    4.3756623    4.3756623   -3267.7234   -5470.4968    8104.3723   -12437.046    1036.3205   -655.09238    2763.3092    83.778271 
     200    343.76745   -110.91138   0.31104802   -110.60033    3817.2487    4.3594034    4.3594034    4.3594034    3817.2487   -1269.7704    12462.867    258.64933   -1797.7406   -441.95763   -853.01709     82.84784 
     300    151.82281   -110.65279   0.13737246   -110.51542   -2426.4037    4.3798666    4.3798666    4.3798666   -2426.4037   -11098.058    12405.492   -8586.6455   -146.24431     1936.592    5437.8508    84.019994 
     400    423.01368   -110.82812   0.38275167   -110.44537    1976.7569    4.3681835    4.3681835    4.3681835    1976.7569    4783.9918   -4011.2523    5157.5313     935.5821   -322.93357    -389.7569    83.349427 
     500    397.41437   -110.76321   0.35958888   -110.40362   -1466.7189    4.3800547    4.3800547    4.3800547   -1466.7189   -13769.904    23643.777   -14274.029    4208.4108   -1423.0133   -4176.5287    84.030818 
     600    494.85824   -110.82996   0.44775813    -110.3822    4138.0391     4.372698     4.372698     4.372698    4138.0391    4387.0311    9200.3501    -1173.264   -4839.5889   -2516.4795    1909.5978    83.608118 
     700    393.86766   -110.73471   0.35637973   -110.37833   -2008.0211    4.3793574    4.3793574    4.3793574   -2008.0211   -10201.189    21830.458   -17653.332   -3163.7894   -623.97326      2273.02    83.990691 
     800    388.64005   -110.73135   0.35164969    -110.3797   -4683.2334     4.374798     4.374798     4.374798   -4683.2334   -2884.5484   -8540.4157   -2624.7361   -128.16756    590.32326    4052.7195    83.728634 
     900    304.30716   -110.66095   0.27534351   -110.38561    1628.3004    4.3769916    4.3769916    4.3769916    1628.3004   -6064.8337     18201.98   -7252.2451    513.59798    2126.3166   -5110.6198    83.854649 
    1000    403.57244   -110.74932   0.36516083   -110.38416   -442.79765    4.3778977    4.3778977    4.3778977   -442.79765   -9343.2774    18445.122   -10430.237     5044.359    240.54354   -511.16211    83.906737 
    1100    432.81734    -110.7744   0.39162222   -110.38278    5105.4359    4.3718598    4.3718598    4.3718598    5105.4359    511.81632    16759.674   -1955.1824   -4601.4612   -2091.4004   -4849.5592    83.560045 
    1200    556.64677   -110.88546   0.50366569    -110.3818   -13004.672    4.3829935    4.3829935    4.3829935   -13004.672   -12271.372   -4711.8825   -22030.762   -2383.5233   -3545.6055    2413.5927    84.200074 
    1300    324.57417   -110.67803   0.29368153   -110.38435    7603.7473    4.3678666    4.3678666    4.3678666    7603.7473    4929.0325    24786.656   -6904.4464    2594.9016   -3753.9621   -41.935679    83.331286 
    1400    253.76366   -110.61698   0.22961069   -110.38737   -1259.3132    4.3840027    4.3840027    4.3840027   -1259.3132   -12326.105    20774.368   -12226.203    6036.5774    1476.1603    315.14886    84.258253 
    1500    441.54894   -110.78371   0.39952276   -110.38419   -2273.7844    4.3715119    4.3715119    4.3715119   -2273.7844     258.5484    5304.9699   -12384.871   -3918.8152    558.68965   -3944.8892    83.540101 
    1600     375.7341   -110.72535   0.33997211   -110.38538    2123.9092    4.3771704    4.3771704    4.3771704    2123.9092   -5800.4504     11281.41    890.76768    2520.4853    2610.4117    102.01284    83.864922 
    1700    492.65791   -110.82888   0.44576723   -110.38311   -3187.7376     4.378342     4.378342     4.378342   -3187.7376    -18034.22    19497.926   -11026.918   -679.15013    1325.2331    6022.1731    83.932285 
    1800    361.45414   -110.71128    0.3270513   -110.38423    7579.4378    4.3709986    4.3709986    4.3709986    7579.4378   -5446.0878    26072.582    2111.8198    3932.3212   -4525.3478   -693.21049    83.510676 
    1900    431.78189   -110.77315   0.39068533   -110.38247   -9140.5992    4.3817253    4.3817253    4.3817253   -9140.5992   -19312.566    6022.0921   -14131.324   -2175.3505   -1613.2984   -661.43308    84.127007 
    2000    309.52779   -110.66224   0.28006725   -110.38217    1612.9657     4.371628     4.371628     4.371628    1612.9657    969.04457    8412.9008   -4543.0482    -1509.051    -3553.499    666.32387    83.546757 
    2100    374.74054   -110.72207   0.33907311     -110.383   -1486.1331    4.3783918    4.3783918    4.3783918   -1486.1331   -6133.7337    17785.545   -16110.211    1192.8652    292.31719    1216.9728    83.935149 
    2200    475.94344   -110.81487   0.43064363   -110.38422    -1049.363    4.3754879    4.3754879    4.3754879    -1049.363   -10473.267    14703.767   -7378.5892    4469.3761    3073.7642   -3543.2337    83.768253 
    2300    452.15043    -110.7963   0.40911521   -110.38719   -2021.6771    4.3758559    4.3758559    4.3758559   -2021.6771   -12714.232    13534.773   -6885.5714    3485.1425   -1254.7513   -5046.3385     83.78939 
    2400    357.55295   -110.71071   0.32352142   -110.38719   -1596.1998    4.3769173    4.3769173    4.3769173   -1596.1998   -16319.418    13916.799   -2385.9804   -5971.7475    712.25509    1312.6857    83.850379 
    2500     433.6434   -110.77557   0.39236966    -110.3832   -4377.0963    4.3755742    4.3755742    4.3755742   -4377.0963   -16387.495    5458.8636   -2202.6573    4528.0617   -2001.1906    3520.4359     83.77321 
    2600    268.79393   -110.62562    0.2432104   -110.38241    964.71691    4.3788116    4.3788116    4.3788116    964.71691    -6031.843    20541.125   -11615.131   -3753.9469   -3474.0437    2098.3078    83.959297 
    2700    537.71432   -110.86767   0.48653522   -110.38114   -2388.8522    4.3709653    4.3709653    4.3709653   -2388.8522   -3509.0396    7003.2555   -10660.773    8484.5887   -12.438856   -249.52361     83.50877 
    2800    366.24521   -110.71562   0.33138636   -110.38424   -3777.6468    4.3836467    4.3836467    4.3836467   -3777.6468   -11912.081    13571.073   -12991.933   -4925.3985    324.38127   -2664.5612    84.237727 
    2900    463.75841   -110.80143   0.41961835   -110.38182    4292.1642     4.368769     4.368769     4.368769    4292.1642   -4599.3691    23667.296   -6191.4342   -4860.8205    389.40261    1263.1234    83.382948 
    3000    270.95855   -110.63032   0.24516899   -110.38515    2028.6147    4.3810453    4.3810453    4.3810453    2028.6147    -23722.63    36440.821   -6632.3469   -69.837843   -133.94499    1871.9137    84.087846 
    3100    425.23229   -110.77082   0.38475911   -110.38606    898.76903    4.3727893    4.3727893    4.3727893    898.76903   -4278.2363     9875.689   -2901.1457   -550.20454   -2658.9158    2445.5662    83.613358 
    3200    415.15049   -110.76302   0.37563688   -110.38738   -3365.3492    4.3766793    4.3766793    4.3766793   -3365.3492   -15805.224    15062.685   -9353.5095    1956.9351   -1921.4898    -7652.401    83.836701 
    3300    382.65343   -110.73207   0.34623287   -110.38584   -4328.4837    4.3797029    4.3797029    4.3797029   -4328.4837   -14519.296    18352.995    -16819.15   -2724.7017    765.46268    -1104.177    84.010575 
    3400    349.68393   -110.70141   0.31640137   -110.38501     8622.713    4.3692854    4.3692854    4.3692854     8622.713   -2280.2453     34936.51   -6788.1257    2030.2441    -1148.668    1966.0556    83.412519 
    3500    475.86147   -110.81858   0.43056946   -110.38801   -12179.823     4.384456     4.384456     4.384456   -12179.823   -22922.046     8529.633   -22147.055    342.61741    1120.2044    5811.5544    84.284392 
    3600    476.14463   -110.81756   0.43082566   -110.38673    6434.9887    4.3657971    4.3657971    4.3657971    6434.9887     2213.318      20784.9   -3693.2516    2708.6201     2515.013   -4883.3874    83.212895 
    3700    217.31612   -110.58441   0.19663219   -110.38778   -2929.0706    4.3866632    4.3866632    4.3866632   -2929.0706   -19183.298    29402.738   -19006.652   -4575.1131   -1960.3838    444.17916    84.411742 
    3800    555.92662   -110.88464   0.50301409   -110.38162   -2304.1723    4.3683078    4.3683078    4.3683078   -2304.1723    -8237.538    807.42938    517.59188    2388.9876   -1660.3325   -3632.7796    83.356545 
    3900    242.35931   -110.60536    0.2192918   -110.38607    3254.3326    4.3814715    4.3814715    4.3814715    3254.3326   -9684.6861    39157.515   -19709.831   -1789.5414   -1945.0986    5409.5686    84.112392 
    4000    406.71562   -110.75171   0.36800484    -110.3837    4296.6305    4.3731886    4.3731886    4.3731886    4296.6305   -10193.027    27305.408   -4222.4891    3172.0399   -1926.8157   -287.14475    83.636261 
    4100    526.99194   -110.86219   0.47683338   -110.38535   -3901.1891    4.3773606    4.3773606    4.3773606   -3901.1891    -12937.94    18721.062    -17486.69   -1610.9255   -1358.7943   -760.03987    83.875856 
    4200    407.49682   -110.75856   0.36871169   -110.38984   -4733.3777    4.3750264    4.3750264    4.3750264   -4733.3777   -3293.9217    3146.1312   -14052.343   -1101.3269   -1069.4338    -4946.319     83.74175 
    4300    419.79433   -110.77088   0.37983873   -110.39104   -1364.1823    4.3762233    4.3762233    4.3762233   -1364.1823   -14514.649    24176.771   -13754.669     1659.107    959.16025    3042.3094    83.810497 
    4400    285.50905   -110.64547   0.25833459   -110.38713    679.37281     4.379201     4.379201     4.379201    679.37281   -12687.249      33602.8   -18877.432    3430.6746    491.07711    4112.4839    83.981697 
    4500    454.10886   -110.79464   0.41088724   -110.38375   -2897.9502    4.3692689    4.3692689    4.3692689   -2897.9502   -1720.7695   -6285.8786   -687.20259    3707.0543   -2466.9189    551.41232    83.411575 
    4600    323.89603   -110.67908   0.29306793   -110.38601   -2889.8694    4.3858686    4.3858686    4.3858686   -2889.8694   -20586.795    31516.401   -19599.215     -4891.74   -1492.1377   -2884.5835     84.36588 
    4700    450.18689   -110.79142   0.40733856   -110.38408    16040.847    4.3627266    4.3627266    4.3627266    16040.847    15358.273    33504.697   -740.42826   -7248.6441   -1063.1368   -4806.2682    83.037448 
    4800    377.90634     -110.728   0.34193759   -110.38606    -10299.96    4.3898222    4.3898222    4.3898222    -10299.96   -20690.266    11010.801   -21220.415   -296.10815   -2005.4356    3001.2401    84.594242 
    4900    493.90256   -110.82853   0.44689341   -110.38164    9540.5119    4.3627218    4.3627218    4.3627218    9540.5119    8319.1253    25176.583   -4874.1728     6327.775    135.67326    1209.9724    83.037174 
    5000    307.02992   -110.66359   0.27780713   -110.38578   -12158.814    4.3866631    4.3866631    4.3866631   -12158.814   -22072.456    11303.432   -25707.419   -1499.1223    284.74063    2405.7333    84.411737 
    5100    431.64775   -110.77218   0.39056396   -110.38162    -1785.849    4.3692088    4.3692088    4.3692088    -1785.849   -11180.525    11370.143    -5547.165    -1525.822    412.01794   -6726.3902    83.408131 
    5200    520.52334   -110.85321   0.47098045   -110.38223   -3914.6059    4.3765504    4.3765504    4.3765504   -3914.6059   -4592.0646    8621.0305   -15772.784    -3352.675   -1894.2734    1309.8478    83.829292 
    5300    288.23436   -110.64928   0.26080051   -110.38848     5454.984    4.3776735    4.3776735    4.3776735     5454.984   -300.50904    29665.861     -13000.4    5779.3848    -4165.847   -68.625784    83.893845 
    5400    416.77505   -110.76588   0.37710683   -110.38877     6891.241    4.3698726    4.3698726    4.3698726     6891.241   -964.05818    21273.703    364.07871    6908.9487   -686.45187    4507.0638    83.446152 
    5500    252.25346   -110.61492   0.22824423   -110.38667     -5600.19     4.385704     4.385704     4.385704     -5600.19   -3012.2567    9679.1215   -23467.435    4889.4819    -893.6557     529.3887    84.356385 
    5600    487.33708   -110.82055   0.44095283   -110.37959     4804.262    4.3619708    4.3619708    4.3619708     4804.262   -1324.2331    7127.5737    8609.4455   -5163.6816   -931.06855   -3587.2062    82.994301 
    5700    336.73782   -110.68488   0.30468746   -110.38019   -11836.352    4.3919081    4.3919081    4.3919081   -11836.352    -27881.09    26148.097   -33776.063    596.49082    2604.2536   -1143.4237    84.714888 
    5800    557.35483   -110.88039   0.50430636   -110.37608    13994.668    4.3584046    4.3584046    4.3584046    13994.668    13017.222    22695.442    6271.3408   -2259.1864    1546.9259   -162.81949    82.790905 
    5900    424.82978   -110.76582   0.38439492   -110.38142   -12183.398      4.38975      4.38975      4.38975   -12183.398   -13904.018    8857.9126   -31504.088    6769.5096   -2129.8266     5022.777    84.590068 
    6000     390.0835   -110.73456   0.35295575    -110.3816    8254.0691     4.365547     4.365547     4.365547    8254.0691    25295.877   -6574.9267    6041.2565   -2285.1934   -3263.9384    1158.7859      83.1986 
    6100    312.25909   -110.66941   0.28253859   -110.38687   -676.55771    4.3807018    4.3807018    4.3807018   -676.55771   -11104.197    18757.216   -9682.6921   -4559.2361   -4067.5515   -2981.7514    84.068069 
    6200    288.05818   -110.64423   0.26064109   -110.38359    3559.6392    4.3753691    4.3753691    4.3753691    3559.6392   -8489.1336    23230.398   -4062.3464   -2082.2241   -2419.6157   -6309.3323    83.761428 
    6300    431.32502   -110.77205   0.39027194   -110.38177   -332.85678    4.3718289    4.3718289    4.3718289   -332.85678   -10963.401    13216.788   -3251.9574    1359.0869    1142.7096    648.41624    83.558276 
    6400    600.04713   -110.92274   0.54293525   -110.37981   -14942.193    4.3816653    4.3816653    4.3816653   -14942.193   -19209.129   -8522.1157   -17095.333     2375.822    747.08151    1306.4765    84.123551 
    6500    478.78731   -110.81667   0.43321682   -110.38346    3872.5458     4.366541     4.366541     4.366541    3872.5458    5033.9237     16526.59   -9942.8768   -2878.3868    2759.2559    4485.4332    83.255439 
    6600    273.90881   -110.63365   0.24783844   -110.38581    549.47007    4.3853321    4.3853321    4.3853321    549.47007   -10155.115    27773.195    -15969.67    581.43447     203.6649   -2842.7378    84.334926 
    6700    426.76266   -110.76754   0.38614382    -110.3814    5551.0935    4.3648217    4.3648217    4.3648217    5551.0935    10143.792    9042.1625    -2532.674   -6496.5234   -2772.8261   -2142.1366    83.157137 
    6800    280.27032   -110.63766   0.25359448   -110.38407   -5487.7565    4.3835362    4.3835362    4.3835362   -5487.7565   -15149.891    4179.2034    -5492.582    5994.0153   -2526.6027   -1128.7485    84.231354 
    6900    506.78979   -110.83926   0.45855405    -110.3807    1011.8297    4.3714861    4.3714861    4.3714861    1011.8297   -14397.569    19329.283    -1896.225   -2983.3292   -2283.4432    5525.4679    83.538622 
    7000     323.7838   -110.67679   0.29296639   -110.38383    12721.761    4.3717005    4.3717005    4.3717005    12721.761   -1493.6035    41527.325   -1868.4386    1751.3193    625.33513    2085.2031    83.550915 
    7100    475.54261   -110.81469   0.43028095   -110.38441   -11342.351    4.3836027    4.3836027    4.3836027   -11342.351   -21645.445    2737.2727   -15118.882   -3439.7972    2681.3759   -470.86521    84.235188 
    7200    451.99226   -110.79119   0.40897209   -110.38221    6344.1143    4.3635267    4.3635267    4.3635267    6344.1143     6843.596    13752.017   -1563.2702    3016.3518    905.01188   -4639.5224    83.083145 
    7300    269.88507   -110.62708   0.24419768   -110.38288   -12982.919    4.3897362    4.3897362    4.3897362   -12982.919   -21604.366    4874.1415   -22218.534    5348.5343   -1265.4102   -214.41334    84.589269 
    7400    334.57108   -110.68155   0.30272694   -110.37883    14234.783    4.3642255    4.3642255    4.3642255    14234.783   -2599.7645     44248.06    1056.0544    3644.5332   -730.08532     6517.935    83.123066 
    7500    524.69249    -110.8564    0.4747528   -110.38165   -11826.049    4.3844112    4.3844112    4.3844112   -11826.049   -19726.152   -12243.423   -3508.5714   -1383.0237   -3432.1826    3934.4159    84.281805 
    7600    395.51088    -110.7417   0.35786655   -110.38384     9414.227    4.3671608    4.3671608    4.3671608     9414.227    -2442.371    20099.267    10585.785   -4119.0391   -1951.5572   -2775.3455    83.290899 
    7700    346.16383   -110.69873   0.31321631   -110.38551   -4491.3674    4.3802125    4.3802125    4.3802125   -4491.3674    -26232.35    15499.252   -2741.0043    2044.3171    963.18807    -3945.058    84.039903 
    7800    303.82003   -110.65781   0.27490275   -110.38291    1665.3727    4.3757043    4.3757043    4.3757043    1665.3727   -7946.7342    23873.657   -10930.805   -2957.7842    -157.8673    423.00249    83.780685 
    7900     510.0502   -110.84329   0.46150414   -110.38179   -820.43187     4.370632     4.370632     4.370632   -820.43187    -7113.443    8232.3508   -3580.2034    3021.0577    1071.1809    2554.1696    83.489668 
    8000    473.47248    -110.8102   0.42840785   -110.38179   -9417.7208    4.3835274    4.3835274    4.3835274   -9417.7208   -23636.383    14153.987   -18770.767   -435.84229   -237.85425    3073.4765    84.230848 
    8100     315.1622   -110.66721   0.28516539   -110.38204    18068.237    4.3665823    4.3665823    4.3665823    18068.237    488.20779    44897.777    8818.7275   -2151.2308   -850.35807   -6880.2995    83.257803 
    8200    389.59604   -110.73679   0.35251468   -110.38428   -6143.7756    4.3813885    4.3813885    4.3813885   -6143.7756    -22317.82    4943.3699   -1056.8763    497.39986   -816.77852   -4851.7304    84.107608 
    8300    392.27154   -110.73889   0.35493554   -110.38395   -3705.2325    4.3705094    4.3705094    4.3705094   -3705.2325   -14738.272    -2475.959    6098.5332    -126.6213   -2138.4409    1819.4785     83.48264 
    8400    321.56337   -110.67621    0.2909573   -110.38525    4510.2309    4.3780589    4.3780589    4.3780589    4510.2309   -4179.9656    22301.138   -4590.4799    3506.9976    26.066878    5071.0607    83.916008 
    8500    419.73954   -110.76427   0.37978915   -110.38448   -2897.4292    4.3744499    4.3744499    4.3744499   -2897.4292   -18416.879    26803.553   -17078.961   -1437.0166      599.021    1526.0453     83.70865 
    8600    454.05418    -110.7973   0.41083776   -110.38646   -5128.3513    4.3760672    4.3760672    4.3760672   -5128.3513   -9436.0531    3454.9029   -9403.9039   -2242.5484   -481.74653   -5347.7391    83.801528 
    8700    481.03446   -110.82078   0.43525009   -110.38553   -2887.3653    4.3772929    4.3772929    4.3772929   -2887.3653   -12448.033     12818.99   -9033.0528   -2203.4558    184.15615   -3191.0996    83.871967 
    8800    401.60124   -110.74706   0.36337724   -110.38368    3583.6959    4.3705359    4.3705359    4.3705359    3583.6959   -17665.005    14987.131    13428.961    4934.8285   -1522.1958    6101.4732    83.484159 
    8900    189.22646   -110.55562   0.17121608   -110.38441    4553.0324    4.3841955    4.3841955    4.3841955    4553.0324   -19949.532    40061.459   -6452.8296   -53.309147    -2391.915    6437.9154    84.269369 
    9000    479.52362   -110.81312   0.43388305   -110.37924     11072.55    4.3625117    4.3625117    4.3625117     11072.55    8824.4064    6530.2383    17863.006    3700.1352     328.7706    2130.8867    83.025178 
    9100    436.31293   -110.77579   0.39478511   -110.38101   -21381.613    4.3902006    4.3902006    4.3902006   -21381.613   -31181.429   -8571.5222   -24391.888    -2175.521   -1250.0501   -4776.0056    84.616116 
    9200    459.79824   -110.79595   0.41603511   -110.37992    12267.523    4.3621705    4.3621705    4.3621705    12267.523    4836.8124    32840.795   -875.03766   -415.78427    -1287.758   -2108.9024    83.005701 
    9300    460.05402   -110.80027   0.41626655     -110.384   -12132.262    4.3859701    4.3859701    4.3859701   -12132.262   -29529.777    5868.5969   -12735.606   -1232.4361    1383.1203    2766.8051    84.371739 
    9400    286.26161   -110.64304   0.25901552   -110.38403    6606.8959    4.3673505    4.3673505    4.3673505    6606.8959    -15028.01    28019.162    6829.5367    2838.8965   -3925.1243    5540.6833    83.301751 
    9500    384.36367   -110.73224   0.34778033   -110.38446    -3528.597    4.3755007    4.3755007    4.3755007    -3528.597   -7762.4174   -16419.217    13595.844    3106.3303    -2999.084   -4353.2725    83.768991 
    9600    398.24128   -110.74303   0.36033708   -110.38269   -6423.8902    4.3808251    4.3808251    4.3808251   -6423.8902   -15250.365    6404.8293   -10426.135   -3795.2365    496.02364   -2651.4833     84.07517 
    9700    386.59808   -110.73181   0.34980207   -110.38201    6720.4134    4.3650969    4.3650969    4.3650969    6720.4134    -6356.736    26816.107   -298.13039    -182.2016   -1877.6062   -2693.3665    83.172868 
    9800    421.39425   -110.76287   0.38128637   -110.38159   -10134.783     4.387237     4.387237     4.387237   -10134.783   -19729.409     12085.56   -22760.501   -2558.7372    486.35893    8276.3586    84.444872 
    9900    531.32791    -110.8602   0.48075666   -110.37944    4997.8917    4.3633314    4.3633314    4.3633314    4997.8917   -7517.8779    9843.4223    12668.131     3628.131     2000.596    185.95342     83.07199 
   10000     284.6832   -110.64211   0.25758734   -110.38452   -4663.2927    4.3843337    4.3843337    4.3843337   -4663.2927    -26525.44    15942.329   -3406.7665    946.57392   -99.658614   -1436.5017    84.277335 
   10100    363.68203   -110.71071   0.32906715   -110.38165    7049.8914    4.3696034    4.3696034    4.3696034    7049.8914   -5026.6432    13019.844    13156.474   -196.95332   -2809.7523   -7616.8297    83.430731 
   10200    416.25859   -110.75905   0.37663952   -110.38241    1371.9676    4.3739959    4.3739959    4.3739959    1371.9676   -9937.6698    12676.727    1376.8461   -1300.2568   -2980.7769    1692.8683    83.682588 
   10300    514.58477   -110.84782   0.46560712   -110.38222    -13593.57    4.3793705    4.3793705    4.3793705    -13593.57   -15463.792   -8785.7069   -16531.213   -3061.8191   -918.49898    3329.5692    83.991447 
   10400     314.9781    -110.6705    0.2849988    -110.3855    14980.678    4.3667066    4.3667066    4.3667066    14980.678    3661.7318    32983.073    8297.2282     5471.418    1479.8736    2558.7639    83.264917 
   10500    431.25542    -110.7759   0.39020897   -110.38569   -11989.072    4.3834355    4.3834355    4.3834355   -11989.072   -25043.466   -486.61724   -10437.132    1148.0684    3232.6798   -3837.4431    84.225551 
   10600    262.08384   -110.62063   0.23713896   -110.38349    9163.7781    4.3654493    4.3654493    4.3654493    9163.7781   -402.90093     3145.605     24748.63    6304.9134    2642.2655    1213.4879    83.193012 
   10700    500.03448   -110.83376   0.45244171   -110.38131   -9398.2763    4.3817793    4.3817793    4.3817793   -9398.2763   -20277.409   -1230.6129   -6686.8066   -1075.9041   -127.41983    800.01044    84.130117 
   10800    377.13634   -110.72262   0.34124088   -110.38138    -747.4559    4.3707893    4.3707893    4.3707893    -747.4559   -14736.189     12646.21   -152.38859   -982.81974   -3320.5233    7824.8937    83.498682 
   10900    458.39181   -110.79622   0.41476254   -110.38146   -6856.0398    4.3746423    4.3746423    4.3746423   -6856.0398   -15315.714    3638.5875   -8890.9929    2560.3641   -1711.0102   -2812.9105    83.719697 
   11000    403.02498   -110.74483   0.36466547   -110.38016    245.16212    4.3792853    4.3792853    4.3792853    245.16212   -18423.107    21632.977   -2474.3832    482.01293   -577.77321   -4692.6106    83.986546 
   11100    456.38848    -110.7927   0.41294989   -110.37975    2219.0279    4.3672401    4.3672401    4.3672401    2219.0279   -4854.1371   -5323.8562    16835.077    1511.9218       1507.5    1045.4735    83.295437 
   11200      261.501   -110.61984    0.2366116   -110.38323    1863.7405    4.3829036    4.3829036    4.3829036    1863.7405   -8972.8163    18303.493   -3739.4549   -3494.2694     5650.843    3098.4737    84.194895 
   11300    412.99558   -110.75345   0.37368708   -110.37976    9366.0598    4.3670932    4.3670932    4.3670932    9366.0598    302.12571    16936.724     10859.33     1511.604    2279.2324    3274.2428    83.287028 
   11400    384.29187   -110.72945   0.34771536   -110.38173   -4792.8304    4.3758169    4.3758169    4.3758169   -4792.8304   -10001.222    11546.239   -15923.508    -522.7266   -2474.9256   -1984.7392    83.787153 
   11500     442.0713    -110.7813    0.3999954    -110.3813   -4545.4531    4.3780907    4.3780907    4.3780907   -4545.4531   -14454.624     875.5575    -57.29237    2069.0396   -3082.2222   -696.50787    83.917836 
   11600    464.94042   -110.80246   0.42068786   -110.38177    5313.6091    4.3687587    4.3687587    4.3687587    5313.6091   -8574.3286    19407.841    5107.3146    4952.9962   -3358.1014   -2220.9467    83.382357 
   11700    379.45478   -110.72745   0.34333866   -110.38412   -7110.1715    4.3815037    4.3815037    4.3815037   -7110.1715   -22559.434   -1821.4341    3050.3532   -1459.7127   -2586.9604    8944.3888    84.114245 
   11800    387.10174   -110.73103   0.35025779   -110.38077    5206.1903    4.3688323    4.3688323    4.3688323    5206.1903   -5270.4225    10251.251    10637.742   -5072.9996    4323.2977   -5719.4744    83.386575 
   11900    465.05675    -110.8005   0.42079312    -110.3797   -8407.2866    4.3769531    4.3769531    4.3769531   -8407.2866   -15044.879   -8356.6695    -1820.311   -1934.6313     1841.942   -25.657368    83.852433 
   12000    364.89794   -110.71094   0.33016733   -110.38078   -6571.0534    4.3769202    4.3769202    4.3769202   -6571.0534   -13057.642   -14856.004    8200.4859    1153.5003   -2933.0314   -1021.8355    83.850546 
   12100    314.49101   -110.66674   0.28455807   -110.38218    10420.475    4.3687516    4.3687516    4.3687516    10420.475   -1544.7716    12552.015    20254.182    1866.7254   -1433.5766    4792.6068    83.381951 
   12200    450.86779   -110.79082   0.40795465   -110.38286   -6324.4422    4.3806911    4.3806911    4.3806911   -6324.4422   -11196.128   -2528.3025   -5248.8964    8100.2114   -3532.9574   -291.15769    84.067451 
   12300    357.92549   -110.70649   0.32385851   -110.38264    4896.7449    4.3692981    4.3692981    4.3692981    4896.7449   -3928.9123    12031.834    6587.3126    577.47392    926.84822    -1887.714    83.413246 
   12400      434.448   -110.77541   0.39309768   -110.38231   -4681.8927    4.3768917    4.3768917    4.3768917   -4681.8927   -11727.069    -14861.76     12543.15   -1789.2705     2224.389   -3436.1476    83.848907 
   12500    417.49103   -110.75984   0.37775465   -110.38208   -7006.1304    4.3752736    4.3752736    4.3752736   -7006.1304   -22504.943   -5288.7047    6775.2564     105.3435    1839.8064    1490.4656    83.755949 
   12600      375.717   -110.72252   0.33995664   -110.38256   -2358.6444     4.371117     4.371117     4.371117   -2358.6444   -19189.162   -2422.1789    14535.408   -3458.7996    -3366.002    9776.5829    83.517462 
   12700    392.46554   -110.73932   0.35511107   -110.38421    1585.8682    4.3762468    4.3762468    4.3762468    1585.8682   -13288.898    20232.355   -2185.8528    3076.4514    297.75735    310.41078    83.811849 
   12800    507.75604    -110.8437   0.45942833   -110.38427   -245.10446    4.3725129    4.3725129    4.3725129   -245.10446   -7160.4731    6367.8802    57.279546    3710.8219     -797.177   -6161.7355    83.597499 
   12900    288.51906   -110.64562   0.26105811   -110.38457    4180.7949    4.3762222    4.3762222    4.3762222    4180.7949   -5026.7301    2569.1544     14999.96    1791.6086    1516.2757   -3056.5361    83.810436 
   13000    387.41241   -110.73206   0.35053889   -110.38153   -2295.1048    4.3737066    4.3737066    4.3737066   -2295.1048    -1424.541   -13314.297    7853.5233   -2081.4165    3709.3984   -461.79722    83.665987 
   13100    395.46015   -110.73933   0.35782066   -110.38151   -1843.8733    4.3733623    4.3733623    4.3733623   -1843.8733   -14284.868    8281.7214     471.5267   -3804.7012   -2480.6472    1153.3169    83.646231 
   13200    347.38502   -110.69645   0.31432127   -110.38212   -949.60025     4.376513     4.376513     4.376513   -949.60025   -14262.956    13050.252   -1636.0969   -2633.6151   -1165.5625    411.82829    83.827141 
   13300    470.20436   -110.80655   0.42545079    -110.3811     3672.522    4.3694568    4.3694568    4.3694568     3672.522   -6927.9712    10943.088    7002.4487   -2569.2657   -1978.4928   -5380.0906    83.422338 
   13400    438.75339   -110.77846   0.39699329   -110.38147   -5306.1615    4.3792461    4.3792461    4.3792461   -5306.1615    -23408.95    2574.8811     4915.584    4223.0314    2760.4884    1378.8201    83.984293 
   13500     425.9828   -110.76506   0.38543819   -110.37962    -7354.557    4.3726394    4.3726394    4.3726394    -7354.557   -8697.1137   -17473.537    4106.9799    152.15131    2406.1679    284.59102    83.604758 
   13600    353.57831    -110.6997   0.31992508   -110.37978    -714.8462    4.3732664    4.3732664    4.3732664    -714.8462   -18527.046     13277.43    3105.0774   -487.70035   -2417.8826    751.23642     83.64073 
   13700    392.17258   -110.73434   0.35484599    -110.3795   -5089.7486    4.3782273    4.3782273    4.3782273   -5089.7486   -22277.404    5609.0398    1399.1185   -3272.9458    988.37634   -3796.6931    83.925687 
   13800    329.68168   -110.67928   0.29830291   -110.38098    7894.4894    4.3687948    4.3687948    4.3687948    7894.4894   -6983.4266    13141.786    17525.108   -5481.7924   -5640.9254   -9076.2082    83.384426 
   13900    465.53733   -110.80479   0.42122796   -110.38356   -2514.9651    4.3781611    4.3781611    4.3781611   -2514.9651   -9833.6231    2156.2002    132.52766    251.29613   -5382.3316     820.0597    83.921881 
   14000    373.16631   -110.72217   0.33764872   -110.38452    909.84709    4.3692155    4.3692155    4.3692155    909.84709   -5476.0167   -6462.9993    14668.557   -1847.3964    -379.9049    2376.2021    83.408519 
   14100    355.18229    -110.7063    0.3213764   -110.38492   -8762.6761    4.3774339    4.3774339    4.3774339   -8762.6761   -9492.6395   -6188.1837   -10607.205    3633.7016    898.79861    -1869.924     83.88007 
   14200    360.90616   -110.70988   0.32655548   -110.38332    4314.4515    4.3726861    4.3726861    4.3726861    4314.4515   -20655.671    14704.057    18894.969   -1104.8359    3684.4994   -3961.6293    83.607438 
   14300    465.74582   -110.80502    0.4214166    -110.3836    -181.0379    4.3715579    4.3715579    4.3715579    -181.0379   -16186.551   -2744.2603    18387.698    227.89679   -922.52625   -3400.0889    83.542739 
   14400    410.14115   -110.75596   0.37110433   -110.38486   -781.28347     4.378454     4.378454     4.378454   -781.28347   -20900.857    19927.711   -1370.7044   -2079.3102   -1545.7501    1080.3233    83.938729 
   14500    581.23628   -110.90862    0.5259148    -110.3827   -2990.5543    4.3679226    4.3679226    4.3679226   -2990.5543    -10691.05   -3402.7669    5122.1538   -2592.3497   -2595.1953    2442.3725    83.334494 
   14600    209.55402   -110.57531   0.18960888    -110.3857    2739.8176    4.3787105    4.3787105    4.3787105    2739.8176   -21275.392    21369.287    8125.5569    2059.8488    3259.3492   -3085.7225    83.953477 
   14700    361.13959   -110.71015   0.32676669   -110.38339   -197.80447    4.3727638    4.3727638    4.3727638   -197.80447   -9556.5869   -6533.0573    15496.231    557.34146    3647.2286   -3205.4492    83.611891 
   14800    332.66863   -110.68438   0.30100557   -110.38338    13471.557    4.3691415    4.3691415    4.3691415    13471.557    -7030.173    34055.912    13388.933    4105.0527    1764.4721   -5108.0248    83.404276 
   14900    467.58969   -110.80679   0.42308498    -110.3837   -12707.241    4.3831554    4.3831554    4.3831554   -12707.241   -10449.468   -15987.564   -11684.691    263.17961    5750.1581    682.33238    84.209406 
   15000    434.35141   -110.77431   0.39301028    -110.3813     7682.425    4.3612322    4.3612322    4.3612322     7682.425    8162.6505    10270.976    4613.6487   -1043.0912   -3608.7965   -4749.7431    82.952145 
   15100    351.16961   -110.69841   0.31774564   -110.38066   -15852.738      4.38762      4.38762      4.38762   -15852.738   -30258.025   -18697.924     1397.736   -2817.5525   -3564.7731    117.88046    84.466991 
   15200    214.71734   -110.57357   0.19428076   -110.37929    10359.041    4.3638335    4.3638335    4.3638335    10359.041   -8718.7764    12825.212    26970.688   -2949.6443   -2434.0361   -9042.1973    83.100666 
   15300    519.25745   -110.85315   0.46983505   -110.38331   -11530.453    4.3780413    4.3780413    4.3780413   -11530.453   -20761.404   -10214.451   -3615.5025    1537.9259    5.9383802     1841.442    83.914993 
   15400    484.25181   -110.82269   0.43816122   -110.38453   -2829.2494    4.3754266    4.3754266    4.3754266   -2829.2494   -19915.684    11734.853   -306.91708   -974.35319      1786.76    11.049553    83.764731 
   15500    511.14905   -110.84684    0.4624984   -110.38435   -1132.4473    4.3671823    4.3671823    4.3671823   -1132.4473   -3421.4765   -8210.7384     8234.873    2985.4776     1526.326   -2603.2975     83.29213 
   15600    312.68306   -110.66682    0.2829222    -110.3839   -5789.6377     4.383804     4.383804     4.383804   -5789.6377   -27638.517    4855.7584     5413.846   -523.82636   -342.07006   -3161.6588    84.246797 
   15700    341.94848   -110.68953   0.30940217   -110.38013    8706.9923    4.3647886    4.3647886    4.3647886    8706.9923   -8006.5722     4636.771    29490.778   -2714.6326   -5466.8812   -5572.5509    83.155245 
   15800     281.5677   -110.63921   0.25476838   -110.38445   -1867.5608    4.3795545    4.3795545    4.3795545   -1867.5608   -13337.532    10279.481   -2544.6307    -1306.457    914.82032   -2921.0742    84.002037 
   15900    527.10665    -110.8603   0.47693717   -110.38336   -1031.4817    4.3718541    4.3718541    4.3718541   -1031.4817    -2004.353    1602.0855   -2692.1776   -5012.0686   -1687.4908    6454.0168    83.559722 
   16000    476.28515    -110.8147   0.43095282   -110.38374    4271.8474    4.3726147    4.3726147    4.3726147    4271.8474   -5694.5849    3992.5642    14517.563    2798.4016     2817.368    1157.3694    83.603341 
   16100    281.60058   -110.63762   0.25479813   -110.38282    1063.0464    4.3783662    4.3783662    4.3783662    1063.0464   -9991.9313    1511.9527    11669.118    2379.3304     5206.451   -5292.1502    83.933674 
   16200    368.97824   -110.71296   0.33385927    -110.3791    3245.3235     4.369252     4.369252     4.369252    3245.3235   -16455.177    10500.676    15690.471    4020.6443    411.36419   -2734.2919    83.410605 
   16300    372.62889   -110.71877   0.33716245   -110.38161   -2983.0371    4.3769187    4.3769187    4.3769187   -2983.0371   -21282.089    20940.226    -8607.248    797.92089    815.60535   -2656.3318     83.85046 
   16400    430.86601   -110.77586   0.38985662     -110.386   -6948.9596    4.3721843    4.3721843    4.3721843   -6948.9596   -13052.193   -5798.6354   -1996.0508   -428.03092   -3780.9484    1852.0968    83.578657 
   16500    545.89711   -110.87954   0.49393918    -110.3856   -2686.1309    4.3729829    4.3729829    4.3729829   -2686.1309   -14443.618    1437.6871    4947.5385    1489.4717    1913.0223     1561.324    83.624459 
   16600    355.99111     -110.707   0.32210824   -110.38489   -1027.3322    4.3776879    4.3776879    4.3776879   -1027.3322   -13994.672    6162.5514    4750.1242   -3130.8838   -1018.5202   -5766.3981    83.894672 
   16700    265.50565   -110.62398   0.24023509   -110.38375    5064.2393    4.3681778    4.3681778    4.3681778    5064.2393   -8281.2745    14956.949    8517.0436    3850.7488    1363.0473     -6481.87      83.3491 
   16800    464.20558   -110.80202   0.42002297   -110.38199   -11458.696    4.3797569    4.3797569    4.3797569   -11458.696   -20690.792   -769.58919   -12915.706    -1828.404    -462.8369      4652.82     84.01368 
   16900    382.59721   -110.72886     0.346182   -110.38267     901.6993    4.3690509    4.3690509    4.3690509     901.6993   -7390.6657    6009.0466     4086.717   -1403.2327   -2951.7339   -1607.9101    83.399093 
   17000    470.51066   -110.81085   0.42572793   -110.38512   -7160.8939    4.3772646    4.3772646    4.3772646   -7160.8939   -20165.363    6731.8276   -8049.1461   -686.17554    1382.5027   -2783.6792    83.870337 
   17100    307.61539   -110.66313   0.27833687   -110.38479    11589.802    4.3719099    4.3719099    4.3719099    11589.802    -9215.313    27694.583    16290.135   -6033.2209   -2005.1931   -2875.7831    83.562919 
   17200    443.02749   -110.78391   0.40086058   -110.38305   -4224.4306    4.3724619    4.3724619    4.3724619   -4224.4306   -13412.374       1291.1   -552.01734    4475.9046   -362.22682   -4010.1647    83.594578 
   17300    355.19709   -110.70191   0.32138979   -110.38052    -4403.471    4.3776852    4.3776852    4.3776852    -4403.471   -14933.865   -812.59523    2536.0477   -2031.0602    721.95048    3921.0355    83.894521 
   17400    501.01402   -110.83249   0.45332801   -110.37916   -3522.9457     4.369909     4.369909     4.369909   -3522.9457    -3163.021   -3831.7679   -3574.0481    4049.7077      314.441    2295.8633     83.44824 
   17500     318.5802   -110.67088   0.28825806   -110.38262   -2148.4637    4.3784772    4.3784772    4.3784772   -2148.4637   -18691.688    9395.0478    2851.2488    -564.0915    -652.6127   -5590.1739    83.940062 
   17600    389.01618   -110.73374   0.35199002   -110.38175    6620.8354    4.3696472    4.3696472    4.3696472    6620.8354   -5861.9187    11960.554    13763.871    282.47329   -1850.8999   -4202.7382    83.433242 
   17700    423.78479   -110.76548   0.38344938   -110.38204   -1915.5313    4.3750072    4.3750072    4.3750072   -1915.5313   -15376.819    6635.6577    2994.5677     1904.446    1491.8251   -1381.3912     83.74065 
   17800    480.99876   -110.81751   0.43521778   -110.38229    -10731.72    4.3760118    4.3760118    4.3760118    -10731.72   -20166.655   -9518.3603   -2510.1442   -2249.4122   -144.32896    2945.1793    83.798346 
   17900    351.42759   -110.70206   0.31797907   -110.38408    1297.9546    4.3703027    4.3703027    4.3703027    1297.9546     111.9999    7475.2479   -3693.3839    4309.8375    1169.8477    4844.5984    83.470797 
   18000    389.00859   -110.73623   0.35198314   -110.38424   -3050.7448    4.3769094    4.3769094    4.3769094   -3050.7448   -18723.614    1701.7339    7869.6455   -4968.7633    -1048.939   -5682.5585    83.849922 
   18100    285.30059   -110.64216   0.25814597   -110.38401    10060.117    4.3720087    4.3720087    4.3720087    10060.117   -3062.8047     16104.83    17138.325    4061.3978    1076.0971   -7815.7685    83.568585 
   18200    511.44662   -110.84621   0.46276765   -110.38344   -4384.7674    4.3723369    4.3723369    4.3723369   -4384.7674   -9156.8829    -6915.709    2918.2898   -631.00902    908.61558    1251.5308    83.587408 
   18300    440.00594   -110.78083   0.39812662    -110.3827   -9012.8354    4.3786135    4.3786135    4.3786135   -9012.8354   -24041.074    232.43954    -3229.872    2072.1898    576.72304    1068.4954    83.947901 
   18400     436.0321   -110.77505     0.394531   -110.38052   -1971.9202    4.3688192    4.3688192    4.3688192   -1971.9202   -216.24726   -4244.7513   -1454.7621    1206.7683    1264.3353    267.12171     83.38582 
   18500     276.6317   -110.63328   0.25030217   -110.38298    1728.1967    4.3765283    4.3765283    4.3765283    1728.1967   -12757.894    3217.4873    14724.997   -4793.5324   -3190.3162   -1807.4904    83.828021 
   18600    402.44466   -110.74601   0.36414039   -110.38187    4447.5534     4.372548     4.372548     4.372548    4447.5534   -5859.9482    8323.9512    10878.657    4307.8664    3369.4432   -5431.5188    83.599515 
   18700    398.33481   -110.74267   0.36042171   -110.38225    1888.5252    4.3735316    4.3735316    4.3735316    1888.5252   -3116.0681    6644.5561    2137.0875   -3336.8161   -1007.6631   -899.05171    83.655946 
   18800    528.24492   -110.85853    0.4779671   -110.38057   -10617.826    4.3744369    4.3744369    4.3744369   -10617.826   -19191.125   -3804.5333   -8857.8195    196.36502    1143.6253     7273.374    83.707904 
   18900     386.7215   -110.73175   0.34991374   -110.38183   -1985.1415    4.3746082    4.3746082    4.3746082   -1985.1415   -8111.3434    10909.668   -8753.7492   -455.45034    860.57028   -3988.1841    83.717737 
   19000    282.27714   -110.63847   0.25541029   -110.38306    6287.8434      4.37142      4.37142      4.37142    6287.8434   -13017.082    10583.235    21297.378    1127.2071    841.81302   -5379.5769    83.534832 
   19100    418.74752   -110.76145   0.37889155   -110.38256   -2119.4261    4.3757296    4.3757296    4.3757296   -2119.4261    -6911.535   -1543.9043    2097.1609   -2877.6262   -1015.2902   -798.12085    83.782138 
   19200    355.47213   -110.70239   0.32163865   -110.38075    7621.0734    4.3737677    4.3737677    4.3737677    7621.0734     -4170.37    12515.172    14518.418   -4066.2461    -4386.274   -3606.8877    83.669492 
   19300    579.61775   -110.90537   0.52445032   -110.38092   -9644.9342    4.3717918    4.3717918    4.3717918   -9644.9342   -7345.3572   -7098.5106   -14490.935    3114.4312    1309.5705    5258.5791     83.55615 
   19400    317.70729   -110.67236   0.28746824    -110.3849    194.00606     4.374962     4.374962     4.374962    194.00606   -9082.8293     14305.96   -4641.1125     163.9887   -314.08559    2864.3359    83.738053 
   19500    395.78801   -110.74194   0.35811731   -110.38382    1490.9082     4.372457     4.372457     4.372457    1490.9082   -13324.897    3236.5078    14561.114     2502.865    3361.7621     -9061.08    83.594293 
   19600     312.6337    -110.6669   0.28287754   -110.38403    2793.6921    4.3743294    4.3743294    4.3743294    2793.6921   -11220.415    7194.2252    12407.266   -4488.7853   -1386.4037   -1118.9295    83.701731 
   19700     487.1225   -110.82226   0.44075867    -110.3815   -2081.2098    4.3737169    4.3737169    4.3737169   -2081.2098   -250.08454   -10129.836    4136.2907   -266.91063   -3201.4276    6126.6522    83.666578 
   19800    464.16225   -110.80104   0.41998376   -110.38105   -1280.7278    4.3738318    4.3738318    4.3738318   -1280.7278   -11759.405    11124.906   -3207.6842   -1323.4717    118.68967   -2953.2199    83.673173 
   19900    388.01685   -110.73348    0.3510858   -110.38239   -1093.6904    4.3726626    4.3726626    4.3726626   -1093.6904    1818.3645   -2074.9422   -3024.4934   -299.76212    1074.8162    3551.3209    83.606089 
   20000    289.19924   -110.64452   0.26167355   -110.38285    4815.9481    4.3753523    4.3753523    4.3753523    4815.9481   -12566.034    7649.3432    19364.535    5342.2507    4534.9329   -3624.0876    83.760466 
   20100    369.12392   -110.71531   0.33399108   -110.38132    3592.0125    4.3722445    4.3722445    4.3722445    3592.0125   -8225.8746   -2959.1676     21961.08   -213.11867    3063.4293    -6144.498    83.582108 
   20200    453.27171   -110.79106   0.41012977   -110.38093   -4887.6317    4.3754518    4.3754518    4.3754518   -4887.6317   -6339.4876   -9269.7752     946.3676    3105.5458     2392.376     2024.308     83.76618 
   20300    509.48253    -110.8404    0.4609905   -110.37941   -3628.3412    4.3725455    4.3725455    4.3725455   -3628.3412   -13681.486    2804.7279    -8.265647   -3705.7019   -3345.8576    4778.0916    83.599374 
   20400    361.01566   -110.70998   0.32665456   -110.38333   -415.62995       4.3745       4.3745       4.3745   -415.62995   -14721.161    31.645519    13442.625   -417.77514   -413.56252    -5564.113    83.711525 
   20500    375.27002   -110.72475    0.3395522    -110.3852    2904.9649    4.3723897    4.3723897    4.3723897    2904.9649   -8500.8204    8419.8865    8795.8285    589.61423    730.08468    2056.8221    83.590437 
   20600    389.05392    -110.7365   0.35202417   -110.38447   -402.73062    4.3735603    4.3735603    4.3735603   -402.73062   -10249.197   -2090.3331    11131.338   -265.48857    1408.2729   -1488.7559    83.657593 
   20700    426.23938   -110.76926   0.38567035   -110.38359   -1836.5408    4.3735307    4.3735307    4.3735307   -1836.5408   -3753.2423    2308.2862   -4064.6663    5216.3759    2335.4333   -1569.1938    83.655891 
   20800    464.22338   -110.80212   0.42003907   -110.38209    -1451.099    4.3729735    4.3729735    4.3729735    -1451.099   -534.18576   -5812.9702    1993.8588   -1020.7839   -2270.0166     3527.359    83.623921 
   20900    273.49889   -110.63114   0.24746754   -110.38368    5175.8885    4.3741241    4.3741241    4.3741241    5175.8885   -11344.832     11831.93    15040.567   -417.14858   -3747.2578   -7350.2839    83.689949 
   21000    396.23842   -110.74244   0.35852485   -110.38392    3657.2753    4.3719848    4.3719848    4.3719848    3657.2753   -5088.9442    917.64818    15143.122   -2727.3152   -3390.7459   -4410.4776    83.567214 
   21100    325.39464    -110.6776   0.29442391   -110.38318    3678.3149    4.3749871    4.3749871    4.3749871    3678.3149   -9412.3769    19100.797    1346.5248    2235.7011    1643.4833      2105.69    83.739496 
   21200    560.55351   -110.88738    0.5072006   -110.38018   -9763.3367    4.3722309    4.3722309    4.3722309   -9763.3367   -13730.616   -10783.306   -4776.0883   -841.95606    378.01861    4464.1333     83.58133 
   21300     359.6375   -110.70645   0.32540757   -110.38105    3213.9704    4.3754052    4.3754052    4.3754052    3213.9704   -11806.458    14869.459    6578.9097   -15.557853    15.244074   -1923.3689    83.763504 
   21400    470.51912   -110.80533   0.42573559   -110.37959   -5649.2569    4.3741394    4.3741394    4.3741394   -5649.2569   -13598.457   -5696.2382    2346.9241    4014.0583    2019.1133    3186.6022    83.690825 
   21500    307.37016   -110.66061   0.27811498   -110.38249    7194.1761    4.3695627    4.3695627    4.3695627    7194.1761   -10843.372    24933.727    7492.1727    -2379.034   -4236.8239   -6544.0175    83.428403 
   21600    401.57672   -110.74674   0.36335505   -110.38339   -1949.5157    4.3783314    4.3783314    4.3783314   -1949.5157   -283.60251   -835.64482   -4729.2999   -2740.8784    190.86829   -1869.7266    83.931676 
   21700    434.83049   -110.77604   0.39344376    -110.3826   -522.88938    4.3683753    4.3683753    4.3683753   -522.88938    2329.3543   -1247.3829   -2650.6395   -776.93384   -296.34859     6889.294    83.360408 
   21800     339.0073   -110.69125   0.30674093   -110.38451    3419.6028    4.3761057    4.3761057    4.3761057    3419.6028   -624.30892    4185.0767    6698.0406    20.667518    4433.3263   -2729.2431    83.803742 
   21900    429.25302   -110.77129   0.38839715   -110.38289    -914.7397     4.373118     4.373118     4.373118    -914.7397   -10258.177    1897.5909    5616.3675    1604.2317    1767.1387   -2368.4475    83.632211 
   22000     407.1121   -110.75188   0.36836358   -110.38352    1223.2042     4.368983     4.368983     4.368983    1223.2042   -12323.523    5802.7406    10190.395   -423.50772   -1781.2544   -721.59902      83.3952 
   22100    419.68551   -110.76269   0.37974026   -110.38295    -7737.677    4.3820621    4.3820621    4.3820621    -7737.677    -24091.19    2023.1438   -1144.9848   -1997.8279   -762.71497   -539.37927    84.146408 
   22200    528.38012    -110.8577   0.47808944   -110.37961    1860.6187    4.3643437    4.3643437    4.3643437    1860.6187   -912.93281    1532.0018     4962.787   -680.84474   -1805.7279    3001.2141    83.129818 
   22300     323.1777   -110.67547   0.29241797   -110.38305   -6060.8417    4.3822604    4.3822604    4.3822604   -6060.8417   -18643.733   -3818.7021    4279.9103    1415.8294    3612.1585    1122.8202    84.157833 
   22400    391.50537   -110.73604   0.35424228    -110.3818    8775.9514    4.3664221    4.3664221    4.3664221    8775.9514    7354.3968    12547.825    6425.6321    2616.2075    4685.4605   -7293.2198    83.248642 
   22500    346.19561   -110.69556   0.31324506   -110.38231    2890.7988    4.3743266    4.3743266    4.3743266    2890.7988     -7890.86    4489.7531    12073.503    2244.7533    1792.4602    2535.7742    83.701572 
   22600    415.33968   -110.75617   0.37580807   -110.38036   -6854.1195    4.3775697    4.3775697    4.3775697   -6854.1195   -7056.4525   -1279.0753   -12226.831    2856.8907    495.16637    1474.3227    83.887879 
   22700    404.77516   -110.74616   0.36624907   -110.37991    6210.9679    4.3655348    4.3655348    4.3655348    6210.9679    1855.2814    2741.2385    14036.384   -4935.5801   -759.70406   -2863.0345    83.197898 
   22800    407.29346   -110.74976   0.36852768   -110.38123   -13038.428    4.3827111    4.3827111    4.3827111   -13038.428   -19090.448   -273.88396   -19750.952   -3805.6487   -2292.0459     2333.139    84.183803 
   22900     374.7283   -110.71907   0.33906204   -110.38001    6109.1465    4.3652646    4.3652646    4.3652646    6109.1465     782.2698     12914.78    4630.3895   -828.56394   -719.29302   -7952.8798    83.182452 
   23000    371.26742   -110.71685   0.33593056   -110.38092   -1694.9429    4.3772401    4.3772401    4.3772401   -1694.9429   -12701.029    5415.0367    2201.1634    1836.4662    4510.0644   -2694.4451    83.868929 
   23100    538.31083     -110.867   0.48707495   -110.37993   -13933.782    4.3745505    4.3745505    4.3745505   -13933.782    -11815.91   -17642.815   -12342.621    2912.7467    2432.6595    8551.6967    83.714423 
   23200    276.96499   -110.63282   0.25060375   -110.38221    7121.6562    4.3688858    4.3688858    4.3688858    7121.6562   -2587.1851    13757.094    10195.059   -2399.0709   -398.75157   -1012.8074    83.389637 
   23300    496.56348   -110.82987   0.44930107   -110.38057   -12816.345    4.3797655    4.3797655    4.3797655   -12816.345   -16138.738   -3419.3562   -18890.941   -2300.5721   -48.543869   -844.94974    84.014175 
   23400    183.44126   -110.54883   0.16598151   -110.38284    12884.681    4.3667535    4.3667535    4.3667535    12884.681    3281.7913    26744.209    8628.0427   -3307.6404   -2636.4686    -1002.841    83.267599 
   23500    490.03451   -110.82691   0.44339352   -110.38351   -8392.0342    4.3766668    4.3766668    4.3766668   -8392.0342   -11912.461   -12282.374   -981.26736   -681.45681   -1781.8709   -3005.1572    83.835983 
   23600    438.90716   -110.78019   0.39713242   -110.38305   -4542.6132    4.3746357    4.3746357    4.3746357   -4542.6132   -14179.259    -4264.289    4815.7084    5545.8693    691.47076    1421.2054    83.719319 
   23700    431.91991   -110.77255   0.39081021   -110.38174    1512.4207     4.366983     4.366983     4.366983    1512.4207   -6525.0212    4776.7891    6285.4943   -232.60636    984.32774    6158.3588    83.280723 
   23800    356.98605   -110.70454   0.32300848   -110.38153   -4966.9857    4.3821305    4.3821305    4.3821305   -4966.9857   -23825.723    11358.324   -2433.5585   -336.45544    237.56967   -3766.7878    84.150352 
   23900    350.90435   -110.69712   0.31750563   -110.37961    8818.9497    4.3650248    4.3650248    4.3650248    8818.9497    583.89718    18647.986    7224.9661   -4403.5184    1175.2689    702.60151    83.168747 
   24000    441.62625   -110.78106   0.39959271   -110.38147   -6438.9536    4.3768667    4.3768667    4.3768667   -6438.9536   -4841.4255   -6975.7823   -7499.6531    355.53687     1219.955    4886.1164    83.847467 
   24100    424.49499   -110.76363   0.38409199   -110.37954   -3067.0621    4.3764309    4.3764309    4.3764309   -3067.0621   -11861.596   -14267.105    16927.515     544.8319    1789.9705   -1879.7414    83.822426 
   24200    445.05652   -110.78152   0.40269649   -110.37882    6786.9438    4.3655586    4.3655586    4.3655586    6786.9438   -2168.4936    21940.785    588.54004    3193.6471    3536.8285    2910.1809    83.199259 
   24300    259.78257   -110.61742   0.23505673   -110.38236    2539.7458    4.3808774    4.3808774    4.3808774    2539.7458   -16480.198    5972.0833    18127.352    4470.8424    1057.4212   -1360.5529     84.07818 
   24400    404.71858   -110.74578   0.36619788   -110.37958    5690.2086    4.3669174    4.3669174    4.3669174    5690.2086   -10627.423    22147.558    5550.4913   -2033.5114    998.55365   -5851.6866    83.276976 
   24500    483.02731   -110.81873   0.43705326   -110.38167   -6392.4941    4.3750622    4.3750622    4.3750622   -6392.4941   -11481.591   -7064.8785   -631.01239    683.84972   -1300.5501    3140.2675    83.743804 
   24600     414.6025   -110.75775   0.37514106   -110.38261    -4967.729    4.3740282    4.3740282    4.3740282    -4967.729   -10473.146   -13979.906    9549.8651   -3668.2676    -981.6886    7721.1645    83.684443 
   24700    511.43038   -110.84442   0.46275296   -110.38167     -2743.18    4.3709849    4.3709849    4.3709849     -2743.18    -16069.57    10274.862   -2434.8322    2923.2818    1017.7325   -3327.1836    83.509889 
   24800    240.40063   -110.60165   0.21751954   -110.38413    8127.3845    4.3766749    4.3766749    4.3766749    8127.3845   -4448.5225    6102.4433    22728.233      1183.14    1546.3098   -5993.7296     83.83645 
   24900     302.7791   -110.65799   0.27396089   -110.38403    1571.9518    4.3692706    4.3692706    4.3692706    1571.9518   -10804.237    15612.074   -91.981525    533.28866    4977.6954   -1377.2031    83.411671 
   25000    486.19732   -110.82302   0.43992155    -110.3831   -9589.7219    4.3767221    4.3767221    4.3767221   -9589.7219   -11114.367   -9214.6932   -8440.1058     718.7573   -721.62268   -1819.0339    83.839162 
   25100    454.47774   -110.79254   0.41122101   -110.38132   -3667.0219    4.3713299    4.3713299    4.3713299   -3667.0219   -4094.7078   -7175.8707    269.51295   -3282.3266   -1434.2161     8643.196    83.529664 
   25200     454.9934   -110.79374   0.41168759   -110.38205   -6039.3828    4.3728869    4.3728869    4.3728869   -6039.3828   -17950.935   -2733.6143    2566.4009   -1192.5788    2199.6719    1023.9494    83.618956 
   25300    309.84165   -110.66399   0.28035124   -110.38364    8687.7785    4.3742857    4.3742857    4.3742857    8687.7785   -7648.4646    17628.443    16083.357    1337.7999    1286.1577   -8341.1151    83.699223 
   25400    341.14873   -110.69282   0.30867854   -110.38414     2794.865    4.3708799    4.3708799    4.3708799     2794.865   -12559.385    15441.967    5502.0125    2959.0064   -148.51032   -2150.4727    83.503871 
   25500    352.80199   -110.70197   0.31922266   -110.38275   -6417.4199    4.3760142    4.3760142    4.3760142   -6417.4199   -11017.806    6763.6588   -14998.113    746.34613    2012.8558   -525.84608    83.798484 
   25600    589.90313   -110.91305   0.53375675   -110.37929   -4096.4059    4.3702557    4.3702557    4.3702557   -4096.4059   -2350.3671   -2942.1578   -6996.6929    2125.9871    1136.4894    1151.7867    83.468101 
   25700    347.78296   -110.69523   0.31468133   -110.38055   -3197.6972    4.3780768    4.3780768    4.3780768   -3197.6972   -20621.664    12976.544   -1947.9715   -2314.2271   -2169.4888    2543.7257    83.917034 
   25800    358.32794   -110.70534   0.32422265   -110.38112    7861.5842    4.3668633    4.3668633    4.3668633    7861.5842   -3312.9456    16344.885    10552.813   -823.24756   -38.840503   -1748.0404    83.273879 
   25900     394.4531   -110.74008   0.35690945   -110.38317    2196.8853    4.3766393    4.3766393    4.3766393    2196.8853   -16634.354    10406.325    12818.685    1350.8506    1279.0557   -6040.8573    83.834402 
   26000    381.30286   -110.72835   0.34501084   -110.38334   -7213.5239    4.3723058    4.3723058    4.3723058   -7213.5239    -10884.97   -5044.6559   -5710.9461   -1136.0283    4160.2528     3811.132    83.585626 
   26100    420.03597   -110.76331   0.38005738   -110.38325   -2170.9816    4.3704076    4.3704076    4.3704076   -2170.9816   -54.015719    7714.6766   -14173.606    171.08089    3885.3891     5403.673    83.476805 
   26200    480.28807   -110.81517   0.43457474   -110.38059   -5197.6965    4.3785127    4.3785127    4.3785127   -5197.6965   -15276.644    -1070.655     754.2096    219.69759   -2037.1895   -3529.8042    83.942102 
   26300    245.93848   -110.60438   0.22253031   -110.38185    11310.527     4.366797     4.366797     4.366797    11310.527   -3420.3352     25835.06    11516.856   -2345.4186    1272.6894   -2229.1957    83.270084 
   26400     432.3382   -110.77509   0.39118869    -110.3839   -6296.7065    4.3784352    4.3784352    4.3784352   -6296.7065   -19769.799   -11430.871     12310.55    562.98117   -2499.3389   -3337.7946    83.937646 
   26500    401.27073   -110.74633   0.36307819   -110.38325    733.63705    4.3695784    4.3695784    4.3695784    733.63705   -12096.419     1838.491    12458.839    3899.7951    2838.8558    282.94338    83.429304 
   26600    493.47515   -110.82939   0.44650669   -110.38288   -15022.604    4.3754006    4.3754006    4.3754006   -15022.604   -8487.4315   -13494.215   -23086.166   -335.13725    4370.9483    7276.5405    83.763237 
   26700    376.88847   -110.72295    0.3410166   -110.38194     3578.506     4.373784     4.373784     4.373784     3578.506   -12618.233    4140.2742    19213.476   -1762.5253   -2832.1436   -70.763524    83.670431 
   26800    399.62577   -110.74254    0.3615898   -110.38095     3833.634    4.3702133    4.3702133    4.3702133     3833.634    -7137.541     2936.939    15701.504    -1247.065   -844.17702   -7947.4278    83.465675 
   26900    243.02305   -110.60293   0.21989236   -110.38304     5530.861    4.3765456    4.3765456    4.3765456     5530.861   -14797.781    7303.3599    24087.004   -3226.9579   -4335.5725   -673.40803    83.829015 
   27000    525.53048   -110.85497   0.47551102   -110.37946   -4521.4788    4.3714822    4.3714822    4.3714822   -4521.4788   -10206.363   -1013.3048    -2344.768   -1663.7407   -686.61122    2120.7435    83.538398 
   27100    433.65416   -110.77251    0.3923794   -110.38013   -3815.7463    4.3734884    4.3734884    4.3734884   -3815.7463   -6679.8507   -3094.0341   -1673.3542   -624.82739   -880.02677    2435.1931    83.653467 
   27200    305.81763   -110.65831   0.27671022    -110.3816    132.16699    4.3753078    4.3753078    4.3753078    132.16699   -7980.9899   -2526.4877    10903.979    3821.9671    4886.2489    4072.7696     83.75791 
   27300    419.16189    -110.7606   0.37926649   -110.38133    877.54395    4.3703649    4.3703649    4.3703649    877.54395   -14640.341    5694.1639    11578.809     3928.062   -1850.2683   -7516.6781    83.474358 
   27400    326.51364   -110.67878    0.2954364   -110.38334    524.25966    4.3769531    4.3769531    4.3769531    524.25966   -17823.078    20491.782   -1095.9244    -1520.307   -2342.1804   -2389.2759    83.852434 
   27500    530.87616   -110.86271    0.4803479   -110.38236   -7151.8425    4.3685381    4.3685381    4.3685381   -7151.8425   -12412.599    322.20137   -9365.1305   -1529.1637    585.25472    2749.6165     83.36973 
   27600    447.52432   -110.78765   0.40492941   -110.38272   -8629.3439    4.3774993    4.3774993    4.3774993   -8629.3439   -16078.926   -5895.4941   -3913.6121   -2914.3374    -1751.016    3322.6724     83.88383 
   27700     320.2903   -110.67376    0.2898054   -110.38395    7011.9966    4.3705673    4.3705673    4.3705673    7011.9966   -4064.4041    4775.8725    20324.522    1255.0468    8686.4308   -1399.5933    83.485961 
   27800    344.98385   -110.69786   0.31214864   -110.38572   -146.87214    4.3728347    4.3728347    4.3728347   -146.87214   -8441.4051    5828.3614    2172.4272    2466.7557    3499.3587   -1278.3161    83.615958 
   27900    279.21558   -110.63732   0.25264012   -110.38468    3123.2864    4.3774833    4.3774833    4.3774833    3123.2864   -9270.0515    21855.673   -3215.7627    4337.7561    707.37431   -1527.2971    83.882911 
   28000    514.97234   -110.84806    0.4659578    -110.3821    2700.0474    4.3645962    4.3645962    4.3645962    2700.0474   -3308.5224     8850.965    2557.6994   -432.67424    833.78823    3625.9987    83.144246 
   28100     454.0092   -110.79304   0.41079707   -110.38224    -13284.56    4.3815271    4.3815271    4.3815271    -13284.56   -19406.488   -15214.261   -5232.9302   -1508.6514   -3466.4959    223.92659    84.115591 
   28200    395.19265    -110.7374   0.35757861   -110.37982    6177.5877    4.3694386    4.3694386    4.3694386    6177.5877    -13157.86    22023.976    9666.6468   -4081.3609   -565.41946   -3373.7825    83.421297 
   28300    365.00975   -110.71154    0.3302685   -110.38127    1269.2969    4.3723565    4.3723565    4.3723565    1269.2969   -13069.111    16995.745   -118.74339    1631.2332    1294.4439   -1969.4242    83.588534 
   28400    287.63134   -110.64223   0.26025488   -110.38197   -1170.2814    4.3774915    4.3774915    4.3774915   -1170.2814   -14468.916    10187.871     770.2007    5668.2838    1346.5164   -907.50218    83.883383 
   28500    586.25375   -110.90922   0.53045471   -110.37877   -3775.4443    4.3700443    4.3700443    4.3700443   -3775.4443    354.39173   -5596.6323   -6084.0923    2058.5693    1823.5066     5043.601    83.455991 
   28600     352.1025   -110.69964   0.31858974   -110.38105    6903.8949    4.3732972    4.3732972    4.3732972    6903.8949   -573.32597    9207.2245    12077.786   -2367.4614    1197.0696    174.81415    83.642494 
   28700     391.5578   -110.73512   0.35428973   -110.38083   -6191.7173    4.3783182    4.3783182    4.3783182   -6191.7173   -5409.4048    3163.3226    -16329.07   -4733.3172   -1594.7301    1215.6177    83.930916 
   28800     271.8601   -110.62794   0.24598474   -110.38195    18998.776    4.3644845    4.3644845    4.3644845    18998.776    1898.2426    30374.318    24723.767   -5612.6162   -3033.9315   -10401.461    83.137864 
   28900    376.04956   -110.72547   0.34025754   -110.38522   -13682.513    4.3826268    4.3826268    4.3826268   -13682.513   -17837.215   -5200.8807   -18009.442    -845.8017    -1924.873    1729.8978    84.178944 
   29000    440.38488   -110.78091    0.3984695   -110.38244   -3212.9255    4.3658355    4.3658355    4.3658355   -3212.9255    -6674.208   -1291.5408   -1673.0276    2588.1526   -4622.6664   -7.1001463    83.215096 
   29100    549.58066   -110.87912   0.49727213   -110.38184   -3425.8334    4.3749162    4.3749162    4.3749162   -3425.8334   -15696.827     1090.136    4329.1903    2226.5965    1817.2036    3187.0606    83.735421 
   29200    425.85581   -110.76836   0.38532329   -110.38303   -12114.458     4.378307     4.378307     4.378307   -12114.458   -22233.421    -346.0532   -13763.901    1302.1285   -1745.2837    1051.0198    83.930275 
   29300    284.21321   -110.63942   0.25716209   -110.38226    11644.543    4.3621195    4.3621195    4.3621195    11644.543    2091.7658    19141.635    13700.227   -2866.1642   -5145.2872   -3943.1412    83.002789 
   29400    385.95226   -110.72972   0.34921772    -110.3805   -12126.935    4.3849634    4.3849634    4.3849634   -12126.935   -18302.953   -8655.8221   -9422.0301   -1256.2678    436.39272   -222.72861    84.313656 
   29500    332.18051   -110.68035   0.30056391   -110.37978      3605.32    4.3610545    4.3610545    4.3610545      3605.32    13814.405    1153.6693    -4152.114   -1940.9652   -6016.4107    981.04904    82.942009 
   29600     445.5375   -110.78563   0.40313169    -110.3825   -9336.5588    4.3810853    4.3810853    4.3810853   -9336.5588   -15521.752   -9338.7163   -3149.2085    4711.0609    1690.9093    2165.4385    84.090151 
   29700    492.93864   -110.82645   0.44602124   -110.38043    5951.5436    4.3688547    4.3688547    4.3688547    5951.5436   -5521.7179    7647.8388     15728.51    1776.5232   -563.91637   -1927.6244    83.387858 
   29800    301.73774   -110.65483   0.27301865   -110.38181    2244.8847    4.3717559    4.3717559    4.3717559    2244.8847   -11719.702    15819.601    2634.7549    689.72665    128.37212   -247.16057    83.554089 
   29900    376.71662   -110.72128   0.34086111   -110.38042   -2217.1252    4.3751585    4.3751585    4.3751585   -2217.1252   -17824.218   -488.72488    11661.567   -2460.4269   -3500.4074    -4308.454    83.749337 
   30000    450.17135   -110.78806    0.4073245   -110.38074    22.462469    4.3679438    4.3679438    4.3679438    22.462469   -370.19358    6352.5829   -5915.0019   -2718.1546    106.02044    3471.6816    83.335708 
   30100    374.89598    -110.7224   0.33921376   -110.38319    -8602.744      4.37978      4.37978      4.37978    -8602.744   -18038.989   -15883.742    8114.4989    501.70638    264.96025    3612.6809    84.015011 
   30200    478.26114   -110.81407   0.43274073   -110.38133    8587.3543    4.3654337    4.3654337    4.3654337    8587.3543   -101.30527    14373.654    11489.714    2855.1665    584.19714   -3288.5961    83.192121 
   30300    319.58309   -110.67132    0.2891655   -110.38215    6449.8491    4.3779085    4.3779085    4.3779085    6449.8491   -13799.283    10593.968    22554.863    5397.9005     6247.051   -2334.3446     83.90736 
   30400    362.01635   -110.70972      0.32756   -110.38216   -2826.3338    4.3699542    4.3699542    4.3699542   -2826.3338    -1666.546     5800.139   -12612.594    2370.3771   -3699.1634    3310.5214    83.450831 
   30500    328.02882   -110.67955   0.29680737   -110.38275   -445.41124    4.3712463    4.3712463    4.3712463   -445.41124   -6887.6208    6912.6614   -1361.2744    1014.4574   -1032.2553    1689.9899    83.524874 
   30600    513.33593   -110.84526   0.46447714   -110.38079    -15036.69    4.3789521    4.3789521    4.3789521    -15036.69   -13545.891    -17970.99   -13593.189   -3615.7445    147.74801    2088.9918    83.967376 
   30700    329.48797   -110.68016   0.29812764   -110.38203    4209.0959    4.3652251    4.3652251    4.3652251    4209.0959   -10929.072    18217.424    5338.9353   -2492.7072   -7663.6659   -951.22983    83.180195 
   30800    506.78814    -110.8393   0.45855256   -110.38075   -6836.1733    4.3791721    4.3791721    4.3791721   -6836.1733   -17342.032     3840.384   -7006.8723    53.102232    4140.7871   -6598.7976    83.980032 
   30900    337.90109   -110.68615   0.30574001   -110.38041    2926.7959    4.3705256    4.3705256    4.3705256    2926.7959   -7138.0779    14967.208    951.25794    2882.7016   -609.79473    1098.0835    83.483571 
   31000    378.24275   -110.72379   0.34224199   -110.38155   -6422.6768    4.3686655    4.3686655    4.3686655   -6422.6768    250.68908   -2325.2158   -17193.504    2267.5186   -2887.0684    2808.1195    83.377025 
   31100    388.73461   -110.73355   0.35173524   -110.38181   -8772.3352    4.3815027    4.3815027    4.3815027   -8772.3352   -8791.4443   -7724.5572   -9801.0042    -2361.859    527.29746    1180.2988    84.114189 
   31200    337.41157   -110.68662   0.30529708   -110.38132    13888.359    4.3615084    4.3615084    4.3615084    13888.359    223.18893    29905.895    11535.994   -3767.5271   -3653.0477   -1034.2796    82.967907 
   31300    446.79225   -110.78787   0.40426702    -110.3836   -7409.1834    4.3790593    4.3790593    4.3790593   -7409.1834   -18161.419    3554.3054   -7620.4369   -1653.1607   -1406.9951    2080.1574    83.973543 
   31400    410.54047    -110.7517   0.37146564   -110.38023    6617.4615    4.3722118    4.3722118    4.3722118    6617.4615   -8866.0178     11049.11    17669.293    24.636797    189.65397   -3832.9994    83.580231 
   31500    545.35402   -110.87487   0.49344778   -110.38142   -3968.1582    4.3653493    4.3653493    4.3653493   -3968.1582    -7929.755    3770.0224   -7744.7419    2639.1175   -677.80235    4000.3465    83.187294 
   31600    260.62799   -110.62146   0.23582168   -110.38564   -7763.7268    4.3831397    4.3831397    4.3831397   -7763.7268   -14575.033   -6014.5904   -2701.5571   -328.62864   -978.75644   -673.68734    84.208499 
   31700    403.37511   -110.74691   0.36498227   -110.38193    16423.038    4.3607844    4.3607844    4.3607844    16423.038   -2592.1115    44138.792    7722.4337   -2603.7304   -1834.4689   -4076.9266    82.926595 
   31800    358.57818   -110.70887   0.32444907   -110.38442    867.64281    4.3785284    4.3785284    4.3785284    867.64281   -5944.7171   -648.21931    9195.8648   -4607.6039   -4203.4131    323.43557    83.943007 
   31900    404.69776    -110.7471   0.36617904   -110.38093    1221.9374    4.3737037    4.3737037    4.3737037    1221.9374    2948.7851   -1516.2099    2233.2369   -1538.4178    58.963096    1103.2334    83.665823 
   32000    531.20463   -110.85886   0.48064512   -110.37821    2470.2372    4.3660692    4.3660692    4.3660692    2470.2372    4321.4496   -180.87548    3270.1374     950.6675    2369.2238    2001.5207    83.228458 
   32100    260.04561   -110.61545   0.23529474   -110.38015   -5021.8012    4.3809945    4.3809945    4.3809945   -5021.8012   -3689.6981    4280.4656   -15656.171    6281.4338   -1444.5055   -293.37167    84.084923 
   32200    390.40181   -110.73143   0.35324376   -110.37819   -112.61776    4.3679583    4.3679583    4.3679583   -112.61776    -9509.073    19846.567   -10675.348    775.26064    6817.5093   -499.64399    83.336537 
   32300    426.55132   -110.76521    0.3859526   -110.37926    6181.7082    4.3720961    4.3720961    4.3720961    6181.7082   -9307.4151    14818.629    13033.911   -2120.6658    -448.5881   -8970.1186      83.5736 
   32400     459.0487   -110.79582   0.41535691   -110.38047   -7168.5132    4.3778119    4.3778119    4.3778119   -7168.5132   -9524.6015   -11594.247   -386.69152   -1263.9677    -4522.592    2568.7772    83.901803 
   32500    445.13035   -110.78246    0.4027633    -110.3797    2233.9547    4.3665021    4.3665021    4.3665021    2233.9547    179.64874    -1245.383    7767.5984   -1519.3061    472.78164    1804.2307    83.253219 
   32600    340.66239   -110.68963   0.30823849   -110.38139    584.74929       4.3746       4.3746       4.3746    584.74929    51.061315    19483.539   -17780.353    5280.7759   -2149.5601    896.72113     83.71727 
   32700    295.75472    -110.6518   0.26760508   -110.38419   -5802.6913    4.3726377    4.3726377    4.3726377   -5802.6913   -9224.1731    8041.7687    -16225.67    84.370554    1755.9283   -99.140303    83.604658 
   32800    389.67272   -110.73704   0.35258406   -110.38446     6135.653    4.3676758    4.3676758    4.3676758     6135.653   -4314.0926    9105.2597    13615.792    1531.1742    2411.5705   -4542.8865    83.320369 
   32900    512.75504   -110.84714   0.46395153   -110.38319   -6660.1714    4.3790592    4.3790592    4.3790592   -6660.1714   -17424.538   -12096.275    9540.2994   -2825.0918    817.79169    1405.8218    83.973536 
   33000    495.09733   -110.83014   0.44797447   -110.38217   -2359.9758    4.3672496    4.3672496    4.3672496   -2359.9758   -7931.8702   -4363.2645    5215.2073    451.82216    -743.6625    5678.5491    83.295983 
   33100    366.08047   -110.71386    0.3312373   -110.38262   -1360.1518    4.3749525    4.3749525    4.3749525   -1360.1518   -9205.9041    10885.985   -5760.5365     700.2757    334.78501    2068.1173    83.737506 
   33200    390.62172   -110.73554   0.35344275    -110.3821   -642.07266    4.3716372    4.3716372    4.3716372   -642.07266   -9495.6463    9218.9594   -1649.5311    2762.7276    72.732159   -7479.7018    83.547284 
   33300    200.86571   -110.56644   0.18174752   -110.38469    10639.658    4.3709276    4.3709276    4.3709276    10639.658   -1297.4094    1723.8848    31492.498    2382.7423     4844.719    -27.37417    83.506606 
   33400     481.9137    -110.8182   0.43604564   -110.38216   -2189.2452    4.3752439    4.3752439    4.3752439   -2189.2452   -1018.2178   -12120.431    6570.9136   -552.23279    2890.5596   -1873.0801    83.754242 
   33500    550.48197   -110.87889   0.49808765    -110.3808     972.7785    4.3699507    4.3699507    4.3699507     972.7785   -2339.1151   -5494.7223    10752.173    71.909873   -6758.8839    1988.4174    83.450627 
   33600     437.1294   -110.77627   0.39552387   -110.38075   -7168.6142    4.3757845    4.3757845    4.3757845   -7168.6142   -6935.6279   -15195.358    625.14292   -5194.5771    615.09906    2753.8544    83.785291 
   33700    288.88659    -110.6416   0.26139066   -110.38021    7917.6914    4.3693745    4.3693745    4.3693745    7917.6914     -4584.25     14354.37    13982.954   -686.17263   -453.71074   -3975.9129    83.417624 
   33800    368.02232   -110.71312   0.33299433   -110.38013   -2502.9422    4.3757638    4.3757638    4.3757638   -2502.9422   -10695.475    569.72456    2616.9237    1223.1019     817.0109    -1915.899    83.784101 
   33900    327.57753   -110.67837   0.29639904   -110.38197    4733.3513    4.3677676    4.3677676    4.3677676    4733.3513    506.31868    6417.3953    7276.3399    2582.1173    4356.7707    2491.8129    83.325622 
   34000    536.00388   -110.86672   0.48498757   -110.38174   -8751.1588    4.3774447    4.3774447    4.3774447   -8751.1588   -10340.964   -7585.3371    -8327.175    889.54818    1630.6379    4849.0352    83.880691 
   34100    504.33985   -110.83737   0.45633729   -110.38103    2317.1363    4.3684281    4.3684281    4.3684281    2317.1363   -1306.8794   -9878.5295    18136.818   -570.71474    -4222.663   -1979.4947    83.363428 
   34200    218.17263   -110.58202   0.19740718   -110.38462    2245.0423    4.3738808    4.3738808    4.3738808    2245.0423   -10390.673    9793.9933    7331.8061   -2771.7705   -2992.9064   -1470.7595    83.675982 
   34300    388.22691   -110.73283   0.35127586   -110.38156   -2888.5986    4.3749785    4.3749785    4.3749785   -2888.5986    -12317.07    6703.4855   -3052.2107   -271.19056    579.58162   -8160.0318    83.738998 
   34400    341.23156   -110.69014   0.30875349   -110.38138     7353.136    4.3674044    4.3674044    4.3674044     7353.136   -5014.8344    18703.335    8370.9073    1523.5125    1302.2422    1696.9298    83.304836 
   34500    481.79726   -110.81856   0.43594029   -110.38262   -13049.735    4.3770617    4.3770617    4.3770617   -13049.735   -10277.237   -10107.131   -18764.838     776.0078    603.16366    5955.1954    83.858674 
   34600    522.80468     -110.854   0.47304467   -110.38095    843.63463    4.3716265    4.3716265    4.3716265    843.63463   -6634.7615   -3168.7032    12334.369     1556.511   -1265.7905    2509.5606    83.546669 
   34700    371.11749   -110.71779    0.3357949     -110.382    5505.7203    4.3686113    4.3686113    4.3686113    5505.7203   -460.71483     12813.41    4164.4658   -2530.9641   -660.25004   -3923.9317    83.373917 
   34800    243.52544   -110.60505   0.22034694    -110.3847   -3351.8177    4.3772902    4.3772902    4.3772902   -3351.8177   -8519.0097    13696.927    -15233.37   -2048.8639    3131.9413   -2688.9654    83.871809 
   34900     412.4093   -110.75421    0.3731566   -110.38105     5832.637    4.3671509    4.3671509    4.3671509     5832.637    179.43611    11379.982    5938.4928    2784.3712   -2140.8214   -217.02816    83.290334 
   35000    518.20816   -110.85057   0.46888563   -110.38169   -9289.5718    4.3748923    4.3748923    4.3748923   -9289.5718   -7373.8325   -6258.2914   -14236.592    1263.6045    6290.8358    1681.2602    83.734049 
   35100    427.36882   -110.76895   0.38669229   -110.38226   -5263.3149    4.3749673    4.3749673    4.3749673   -5263.3149   -3951.8458     -6192.69   -5645.4087    656.59501    226.73761    2274.1108    83.738359 
   35200    438.78318   -110.77794   0.39702024   -110.38092    13064.167    4.3662077    4.3662077    4.3662077    13064.167   -1595.4968    31107.057    9680.9404     -2744.93   -4510.1285   -6192.2419    83.236378 
   35300    268.81843   -110.62701   0.24323257   -110.38377   -5080.0058    4.3795499    4.3795499    4.3795499   -5080.0058   -11290.256    3849.0429   -7798.8048    -2217.558   -207.06006   -4491.6747     84.00177 
   35400     266.1907    -110.6227   0.24085494   -110.38185    5075.4874     4.365422     4.365422     4.365422    5075.4874    6248.5146    10999.147   -2021.1997   -1397.2214    783.17189    3128.3928    83.191451 
   35500    562.33414   -110.88796   0.50881175   -110.37915   -9284.9952    4.3767888    4.3767888    4.3767888   -9284.9952   -14126.175    -11757.85    -1970.961    1446.1797    980.35896    1981.5193    83.842995 
   35600    439.66118   -110.77923   0.39781468   -110.38141   -5061.2241    4.3723163    4.3723163    4.3723163   -5061.2241   -1717.0991     2681.737    -16148.31    1530.0092    397.50247    3881.1881    83.586228 
   35700    406.57118   -110.74991   0.36787414   -110.38204    4548.3847    4.3706495    4.3706495    4.3706495    4548.3847   -7729.9649    14751.227    6623.8919   -3543.8126     4275.868   -982.63935    83.490671 
   35800    417.65704   -110.75908   0.37790486   -110.38117    1769.5544    4.3736572    4.3736572    4.3736572    1769.5544   -10230.736    10935.597    4603.8019   -2020.9378   -51.505739   -3252.5991    83.663151 
   35900    219.91052   -110.58208   0.19897966    -110.3831    1485.3876    4.3713652    4.3713652    4.3713652    1485.3876    9865.1378   -2602.2652   -2806.7098   -4683.1133   -291.85812    466.45116    83.531691 
   36000    456.46917   -110.79292   0.41302289   -110.37989   -5255.6471    4.3737472    4.3737472    4.3737472   -5255.6471   -7298.4353   -15769.266    7300.7601    3118.5865   -438.08317    3214.8304    83.668314 
   36100    478.71679   -110.81368   0.43315301   -110.38052    -97.52088    4.3702409    4.3702409    4.3702409    -97.52088    1777.3791    5245.4504   -7315.3921    447.62501     4308.295     2186.625    83.467255 
   36200     418.7466   -110.76099   0.37889072    -110.3821   -5371.3132    4.3759083    4.3759083    4.3759083   -5371.3132   -7381.5441   -8500.8408   -231.55478    386.72893    2469.5361   -577.24574    83.792403 
   36300    444.00387   -110.78299   0.40174403   -110.38124    6703.0584    4.3689719    4.3689719    4.3689719    6703.0584   -7057.0172    13830.074    13336.118   -129.17812   -5157.3894   -6797.6105    83.394568 
   36400    296.81052   -110.65073    0.2685604   -110.38217      6761.23    4.3723868    4.3723868    4.3723868      6761.23    13090.944   -6114.3341     13307.08   -5597.8561   -329.91541   -3154.5016    83.590269 
   36500    355.22441   -110.70239   0.32141451   -110.38098   -9039.5132    4.3765439    4.3765439    4.3765439   -9039.5132   -5044.1336    -12341.03    -9733.376   -1670.1279   -500.41094    2863.8332     83.82892 
   36600    405.24351   -110.74567   0.36667285     -110.379    6040.4775    4.3664917    4.3664917    4.3664917    6040.4775    19529.655   -8569.1756    7160.9531   -1960.3567    2129.8133    2440.0738    83.252622 
   36700    501.63821   -110.83422   0.45389279   -110.38032   -10128.567    4.3792305    4.3792305    4.3792305   -10128.567   -13147.182   -14950.362   -2288.1582    1897.6303    6492.1877    2982.0635    83.983393 
   36800    444.49211   -110.78379    0.4021858    -110.3816    1868.0948     4.368332     4.368332     4.368332    1868.0948    1399.9619   -12179.256    16383.579    1056.1103    2930.6308    819.91998    83.357927 
   36900    409.50639   -110.75191   0.37052999   -110.38138    4206.5578    4.3727777    4.3727777    4.3727777    4206.5578    5955.1474    2803.5158    3861.0101   -1981.5925   -6518.6527   -6009.6338    83.612689 
   37000    390.49131   -110.73459   0.35332474   -110.38126   -5978.6545    4.3753271    4.3753271    4.3753271   -5978.6545   -2348.9401   -5270.4419   -10316.581   -2585.9225   -93.382556   -545.66008    83.759018 
   37100    226.65726   -110.58722   0.20508425   -110.38214     8569.143    4.3665127    4.3665127    4.3665127     8569.143    24424.882   -2295.3492    3577.8963    -5044.214    3499.1503    3969.4991    83.253824 
   37200    420.20956   -110.76121   0.38021444     -110.381   -3873.1782     4.377502     4.377502     4.377502   -3873.1782   -13614.649   -3598.2718    5593.3863    1326.6173    1918.8131    1980.1711    83.883988 
   37300    486.47104   -110.82112   0.44016922   -110.38095    -814.6355      4.36901      4.36901      4.36901    -814.6355    487.82763    -11587.28     8655.546    1539.5348    349.27437   -599.10542    83.396749 
   37400    419.16579   -110.76044   0.37927002   -110.38117   -1781.0908    4.3746138    4.3746138    4.3746138   -1781.0908   -12069.679   -3812.8272    10539.233    -1027.775   -964.63111   -2140.3772     83.71806 
   37500    574.08764   -110.89864   0.51944656    -110.3792   -5992.7584    4.3730461    4.3730461    4.3730461   -5992.7584   -6989.0321    -7017.234   -3972.0092    1294.2719    113.63753   -378.45911    83.628089 
   37600    235.52762   -110.59513   0.21311034   -110.38202    7765.9295    4.3694407    4.3694407    4.3694407    7765.9295    5104.9055    2518.8578    15674.025   -5440.6449    2348.6038    4768.8999    83.421416 
   37700    279.97554   -110.63498   0.25332775   -110.38166   -715.01016    4.3771819    4.3771819    4.3771819   -715.01016   -3875.2142   -8344.4652    10074.649   -3634.3787    6800.4434    3722.8976    83.865583 
   37800    406.90474    -110.7474   0.36817596   -110.37922    9833.2937     4.367384     4.367384     4.367384    9833.2937    12739.413    2686.6938    14073.774   -2934.6462    3919.6576     3734.804    83.303671 
   37900    439.38602   -110.77907    0.3975657    -110.3815   -5131.5583    4.3763631    4.3763631    4.3763631   -5131.5583   -7230.4488   -9272.0522    1107.8261   -1858.5152    569.89468    2917.9236    83.818529 
   38000    521.79026   -110.85184    0.4721268   -110.37971   -3199.1616     4.371377     4.371377     4.371377   -3199.1616   -1262.1777   -6005.8602   -2329.4471    3105.4905   -7912.7262   -5463.3556    83.532366 
   38100    404.03566   -110.74619   0.36557995   -110.38061    1450.0573    4.3717434    4.3717434    4.3717434    1450.0573   -14311.166   -6643.7722    25305.109   -93.787637    935.33383    56.270467    83.553373 
   38200    270.59364   -110.62739   0.24483882   -110.38256   -5128.0254    4.3739079    4.3739079    4.3739079   -5128.0254   -4004.4014   -5299.4383   -6080.2364    972.02092    3984.2191    6457.6051    83.677537 
   38300    399.12906   -110.74252   0.36114036   -110.38138   -1971.2616    4.3706821    4.3706821    4.3706821   -1971.2616     4463.113   -4183.2678     -6193.63    -4707.958    3740.6498   -2098.6437    83.492539 
   38400    412.91741   -110.75441   0.37361635   -110.38079    1567.2965    4.3731008    4.3731008    4.3731008    1567.2965    2263.4508    3416.0712   -977.63248   -5177.3818    1116.6012    1098.5666    83.631226 
   38500     444.4697   -110.78431   0.40216552   -110.38214   -3786.4992    4.3715478    4.3715478    4.3715478   -3786.4992    6104.8443   -12197.848   -5266.4942    1842.5454   -1291.7334    4485.6472    83.542157 
   38600    394.91719   -110.73909   0.35732937   -110.38176    1382.1055    4.3735599    4.3735599    4.3735599    1382.1055   -12751.407   -1892.8464     18790.57    -1626.105   -5214.7692    -1327.011    83.657566 
   38700    356.51755   -110.70398   0.32258457   -110.38139   -5498.3325    4.3717403    4.3717403    4.3717403   -5498.3325    -8221.771   -7971.4864   -301.74006    2062.0242    2666.2924    4625.0611    83.553197 
   38800    369.23797   -110.71482   0.33409428   -110.38073   -10337.373    4.3722747    4.3722747    4.3722747   -10337.373   -9072.6326   -3529.4976   -18409.989   -1315.2179    4999.0571    4921.0446    83.583837 
   38900    419.13484    -110.7594   0.37924202   -110.38016   -132.00651    4.3747558    4.3747558    4.3747558   -132.00651    1558.0777    3881.8744   -5835.9717   -4111.0676   -1298.3084   -3827.9453    83.726212 
   39000    429.27469   -110.76975   0.38841676   -110.38133    1086.1446    4.3690891    4.3690891    4.3690891    1086.1446    7163.6655   -13592.687     9687.455   -2973.6617   -1071.4707   -1931.0003    83.401275 
   39100    313.57079   -110.66635   0.28372544   -110.38262    5243.9437    4.3749724    4.3749724    4.3749724    5243.9437    4484.1447   -858.27101    12105.957   -1473.7678   -6057.1572    5.7299201     83.73865 
   39200    410.69136    -110.7509   0.37160217   -110.37929    9.9463357    4.3729826    4.3729826    4.3729826    9.9463357    1413.8635   -15843.901    14459.876    1839.5104   -4541.2302    3427.9672    83.624444 
   39300    390.63636   -110.73277   0.35345599   -110.37932    -4630.701    4.3691632    4.3691632    4.3691632    -4630.701   -4177.4453    2566.3978   -12281.056    334.35445    3867.5772    5381.6301    83.405519 
   39400    412.20723   -110.75195   0.37297377   -110.37898    -10949.98    4.3813033    4.3813033    4.3813033    -10949.98    -9429.081   -13825.758   -9595.0999     1121.243    2266.3265   -215.77049    84.102704 
   39500    499.66733   -110.82948    0.4521095   -110.37737    11566.286    4.3594062    4.3594062    4.3594062    11566.286    3406.3795    10374.256    20918.222   -1839.3591   -1020.4198    465.78795    82.847996 
   39600    311.16628    -110.6637   0.28154979   -110.38215   -1517.8514    4.3836067    4.3836067    4.3836067   -1517.8514      1600.15   -19322.872    13169.167   -1056.7636   -3232.0871    1434.3085    84.235422 
   39700     434.8762   -110.77371   0.39348513   -110.38023    11582.811    4.3630463    4.3630463    4.3630463    11582.811    16614.392    1225.5855    16908.456   -827.31367   -5920.3942   -3299.5762    83.055702 
   39800    424.80293   -110.76614   0.38437062   -110.38177   -3101.8865    4.3723834    4.3723834    4.3723834   -3101.8865    1008.2272   -8953.6355    -1360.251    678.33341    3367.4652    2966.3001    83.590075 
   39900    330.35921    -110.6791   0.29891595   -110.38018   -9899.1515    4.3807395    4.3807395    4.3807395   -9899.1515    -4789.688    -12237.85   -12669.917    1668.2147    1545.2006    2576.4514    84.070239 
   40000    481.91565   -110.81294   0.43604741   -110.37689    9739.6943    4.3587078    4.3587078    4.3587078    9739.6943    1658.5573    4553.6441    23006.881   -2162.1772   -1185.4614   -4910.9585    82.808184 
   40100    345.16053   -110.69121    0.3123085    -110.3789    -3758.374     4.385168     4.385168     4.385168    -3758.374   -4010.2216   -11837.501    4572.6003   -2706.0275    -4208.508   -2226.8126    84.325456 
   40200    441.77336   -110.77661   0.39972582   -110.37689    6621.9324     4.364968     4.364968     4.364968    6621.9324    18424.973   -4608.4975    6049.3215   -1916.0663   -4922.4847    3092.4098    83.165496 
   40300    417.78546    -110.7571   0.37802106   -110.37907    3758.5218    4.3702983    4.3702983    4.3702983    3758.5218    17758.914   -2078.4219   -4404.9271   -1772.5201    366.59796    1319.5303    83.470543 
   40400    299.73407   -110.65219   0.27120569   -110.38098   -8468.2405    4.3796372    4.3796372    4.3796372   -8468.2405   -2840.2939   -10830.476   -11733.952    1142.0477    3331.0935    1326.5122    84.006793 
   40500    457.42086   -110.79334   0.41388401   -110.37945    2311.4722    4.3626638    4.3626638    4.3626638    2311.4722    1291.0633   -3608.4082    9251.7615     3411.935    4853.2677    3740.3669    83.033865 
   40600    400.46329   -110.74247    0.3623476   -110.38012   -1633.7747    4.3792741    4.3792741    4.3792741   -1633.7747   -9002.7632   -5146.9446    9248.3836   -547.00819   -6601.2587   -2143.3667    83.985898 
   40700    438.16304   -110.77677   0.39645912   -110.38031   -1124.7219    4.3706632    4.3706632    4.3706632   -1124.7219    10689.546   -9769.2799   -4294.4315   -2814.2709     -1162.07    1104.7158    83.491453 
   40800    415.21259   -110.75756   0.37569308   -110.38187    8485.0976    4.3678713    4.3678713    4.3678713    8485.0976    29187.978    -2877.438    -855.2472    -1095.072     29.50219   -2799.1133    83.331558 
   40900    317.81762   -110.67134   0.28756806   -110.38377   -4230.2288    4.3781097    4.3781097    4.3781097   -4230.2288   -3171.1351    -5274.023   -4245.5284   -4000.6963    2615.6368     3003.059    83.918927 
   41000      376.572    -110.7226   0.34073026   -110.38187    2564.4844    4.3632654    4.3632654    4.3632654    2564.4844    9211.2949   -3129.1355    1611.2937    1762.3588   -1526.7036    2581.5487    83.068219 
   41100    432.58412   -110.77171   0.39141121    -110.3803   -4648.0923    4.3788847    4.3788847    4.3788847   -4648.0923   -12217.076   -10226.016    8498.8141    1061.1624   -3474.6853   -2443.3426    83.963497 
   41200    416.32348   -110.75812   0.37669823   -110.38142    2880.9129    4.3679374    4.3679374    4.3679374    2880.9129    20580.244   -3537.5147   -8399.9906   -2002.4981   -5726.4431    3224.8127    83.335342 
   41300      420.907   -110.76427    0.3808455   -110.38342    2089.0592    4.3716707    4.3716707    4.3716707    2089.0592    18020.289   -16202.173    4449.0611    -1872.575     5292.912    3613.9127    83.549207 
   41400    379.10284    -110.7229   0.34302021   -110.37988    329.92139    4.3770622    4.3770622    4.3770622    329.92139    8119.5374   -1649.9031   -5479.8701   -5002.1168    4580.4245   -530.66166    83.858707 
   41500    418.77093   -110.75643   0.37891274   -110.37752   -2538.2018     4.364376     4.364376     4.364376   -2538.2018   -3935.6961   -287.50553   -3391.4038   -668.60695   -4937.2062    3731.9036    83.131665 
   41600    353.71342   -110.70123   0.32004733   -110.38118   -4232.9049    4.3781698    4.3781698    4.3781698   -4232.9049     2255.101   -7803.1971   -7150.6186   -276.38244    1275.2488    2133.0256     83.92238 
   41700    407.60897   -110.74955   0.36881316   -110.38074    5556.1351    4.3676683    4.3676683    4.3676683    5556.1351    11912.037    2957.6205    1798.7482    4572.2394    -7319.354   -2867.1663    83.319937 
   41800    399.53666   -110.74298   0.36150916   -110.38147    1125.8407     4.370753     4.370753     4.370753    1125.8407    19026.703   -13638.366   -2010.8146    -1626.704    2693.3042    122.69073    83.496598 
   41900    458.30654   -110.79422   0.41468539   -110.37954   -1462.7541    4.3764462    4.3764462    4.3764462   -1462.7541    4592.1519   -13610.237    4629.8225    34.635983    5219.5686   -432.72024    83.823308 
   42000    403.05036    -110.7439   0.36468844   -110.37921    3052.2365    4.3657466    4.3657466    4.3657466    3052.2365   -29.091726    3993.5393     5192.262    -568.9517   -2970.2339    3155.4118    83.210009 
   42100     371.7867    -110.7184   0.33640042     -110.382   -11340.662    4.3781518    4.3781518    4.3781518   -11340.662    5050.1679   -16683.522   -22388.633   -456.94773   -4756.8336    5604.3952    83.921348 
   42200    323.13418   -110.67384    0.2923786   -110.38147    11784.504     4.366304     4.366304     4.366304    11784.504    17991.807    7660.5067    9701.1968    4620.2327    248.60023   -222.33289    83.241884 
   42300    467.79212   -110.80427   0.42326814   -110.38101   -3684.9108    4.3737696    4.3737696    4.3737696   -3684.9108    16062.187   -14283.599   -12833.321   -430.11086    1518.5551    1295.4772    83.669603 
   42400    373.56378   -110.72015   0.33800836   -110.38214   -813.76195    4.3734287    4.3734287    4.3734287   -813.76195   -6617.9815   -9505.9457    13682.641     1657.299    2670.3303     1069.886    83.650041 
   42500    466.85588    -110.8035   0.42242101   -110.38108    2554.3776    4.3661518    4.3661518    4.3661518    2554.3776    4758.7354   -6396.4161    9300.8137   -3552.1072    4771.1882   -4155.1857    83.233182 
   42600    388.38723   -110.73282   0.35142093    -110.3814   -12539.102    4.3798681    4.3798681    4.3798681   -12539.102   -5449.1985   -14732.163   -17435.945   -289.47534   -8572.9833     3077.031    84.020082 
   42700    326.19409   -110.67586   0.29514727   -110.38071    6942.9804    4.3652154    4.3652154    4.3652154    6942.9804    15898.892   -1742.3102    6672.3589    1078.3184    2782.9836    2237.8778    83.179642 
   42800    438.58736    -110.7769   0.39684306   -110.38006   -3623.8387    4.3759281    4.3759281    4.3759281   -3623.8387    5818.7976   -9264.2056   -7426.1081    1897.5386     3447.401   -3881.3193     83.79354 
   42900    355.40628   -110.70296   0.32157907   -110.38138    1367.6944    4.3719668    4.3719668    4.3719668    1367.6944   -8122.4464   -10237.088    22462.618    1106.2113    1567.3665   -1524.4892     83.56618 
   43000    414.82163   -110.75722   0.37533932   -110.38189    1767.3247    4.3664431    4.3664431    4.3664431    1767.3247    -2149.796   -1343.4954    8795.2656    751.84149   -285.37035   -1311.0586    83.249844 
   43100    513.20442    -110.8449   0.46435814   -110.38054   -13831.705    4.3789896    4.3789896    4.3789896   -13831.705   -14353.842   -15296.392   -11844.882    390.54262   -4108.0385    1252.9795    83.969534 
   43200    328.07408   -110.67854   0.29684832   -110.38169       2096.6    4.3664182    4.3664182    4.3664182       2096.6    4017.0638    1953.8236    318.91257    -3551.499   -1962.7744    3395.2353    83.248416 
   43300    342.58354   -110.69223   0.30997679   -110.38226   -731.68149    4.3736342    4.3736342    4.3736342   -731.68149   -818.65387   -11362.327    9985.9361    1739.1098    5350.3072    2259.3447    83.661832 
   43400    338.11053   -110.68688   0.30592952   -110.38096   -142.45941    4.3764988    4.3764988    4.3764988   -142.45941   -1815.2822   -12836.359    14224.263    183.03031    6855.8279    1091.0488    83.826329 
   43500    419.54752   -110.76018   0.37961541   -110.38057    5424.7466    4.3619683    4.3619683    4.3619683    5424.7466    5845.9327    1300.5517    9127.7554   -1445.6408   -4317.6821    879.31987    82.994156 
   43600    535.89803   -110.86398    0.4848918   -110.37909   -18276.751    4.3834261    4.3834261    4.3834261   -18276.751   -18050.934   -17090.972   -19688.345    768.84237   -730.42647   -4175.9667    84.225011 
   43700    409.59232   -110.74868   0.37060774   -110.37807    4941.4426    4.3638112    4.3638112    4.3638112    4941.4426    8685.6537    4621.7592    1516.9149    -2782.382   -6571.2497    2107.6502    83.099393 
   43800    295.95147   -110.64873   0.26778311   -110.38095    -1697.457    4.3725531    4.3725531    4.3725531    -1697.457   -7692.2057   -6314.3998    8914.2344   -3706.0797    379.10567    3576.3175    83.599807 
   43900    279.28512   -110.63488   0.25270304   -110.38218    2146.1294    4.3764791    4.3764791    4.3764791    2146.1294    11067.793   -12825.203    8195.7989   -216.46991     5950.841   -2768.2952    83.825196 
   44000    503.43701   -110.83716   0.45552039   -110.38164    7196.2268    4.3624754    4.3624754    4.3624754    7196.2268    6178.4599     317.6763    15092.544    2769.0575    -478.8897   -1249.6721    83.023104 
   44100     459.9508   -110.79775   0.41617315   -110.38157   -11987.266    4.3818388    4.3818388    4.3818388   -11987.266   -8028.2081   -15581.953   -12351.636    1495.0356   -5081.5718     2453.795    84.133544 
   44200     551.7246   -110.87675   0.49921201   -110.37753    2674.1235    4.3661422    4.3661422    4.3661422    2674.1235    2429.0003    -3144.127    8737.4972    2686.9964   -366.23786    1611.9824    83.232632 
   44300     291.4188   -110.64447   0.26368185   -110.38079    5194.2073    4.3724484    4.3724484    4.3724484    5194.2073   -6176.6253   -1296.7625     23056.01   -1914.9874   -2293.7527    4059.3103      83.5938 
   44400    244.40417   -110.60334   0.22114203    -110.3822    -76.17945    4.3745301    4.3745301    4.3745301    -76.17945    11956.979   -12597.043    411.52503   -317.51584    5898.3383    4100.5652    83.713253 
   44500    467.27995   -110.80301   0.42280472    -110.3802    6100.1282    4.3660642    4.3660642    4.3660642    6100.1282    8325.3502    795.43285    9179.6014    410.91763    3709.0296   -1799.6207    83.228171 
   44600     445.4296   -110.78514   0.40303407   -110.38211   -722.53417    4.3736682    4.3736682    4.3736682   -722.53417    13155.744   -10939.946   -4383.3999   -1006.2149   -5834.2921   -278.48454    83.663782 
   44700    452.55215   -110.79142   0.40947869   -110.38194   -3638.2981    4.3731318    4.3731318    4.3731318   -3638.2981   -9912.9418   -11065.956    10064.004    1821.5298   -3504.9845    536.02147    83.633003 
   44800    480.33773   -110.81526   0.43461967   -110.38064    4704.3255    4.3674824    4.3674824    4.3674824    4704.3255   -787.06834   -5017.9031    19917.948   -727.06752     2087.361    1150.5719    83.309302 
   44900    243.86646   -110.60296    0.2206555   -110.38231   -4194.0343    4.3762224    4.3762224    4.3762224   -4194.0343    2940.4382   -3749.3094   -11773.232   -1182.7942    2822.1313    3555.7098    83.810449 
   45000    385.10583   -110.72893   0.34845185   -110.38047   -4806.9654    4.3697046    4.3697046    4.3697046   -4806.9654     14420.61   -9901.7891   -18939.717    1099.6264    161.79366   -1814.3887    83.436531 
   45100    391.24042   -110.73507   0.35400255   -110.38107    11282.168    4.3684586    4.3684586    4.3684586    11282.168    23029.021      2178.64    8638.8436   -588.89598   -2468.4519    462.71167    83.365176 
   45200    481.76244   -110.81861   0.43590878    -110.3827   -10849.388    4.3767037    4.3767037    4.3767037   -10849.388   -15471.157   -14428.578   -2648.4308    389.42189   -10312.397    4450.6771      83.8381 
   45300    407.41762   -110.74894   0.36864002    -110.3803    5655.7023    4.3672627    4.3672627    4.3672627    5655.7023   -2933.3698   -2492.8594    22393.336      1821.18    3928.0338   -2841.6399     83.29673 
   45400    478.38853    -110.8116   0.43285599   -110.37874   -6587.0876    4.3738135    4.3738135    4.3738135   -6587.0876    784.87481   -9045.8631   -11500.275    2104.2906    4282.7964    2118.4367    83.672124 
   45500    188.33034   -110.55284   0.17040525   -110.38244   -1767.1308    4.3719201    4.3719201    4.3719201   -1767.1308    20864.042   -2584.8188   -23580.615   -802.06935   -744.22486    3823.5572    83.563506 
   45600    435.83102   -110.77558   0.39434907   -110.38123    2054.8285    4.3705401    4.3705401    4.3705401    2054.8285    15760.107   -9165.8587   -429.76316   -431.91915   -2291.3208   -1744.9441    83.484397 
   45700    444.19092   -110.78297   0.40191328   -110.38105    2220.1926    4.3725309    4.3725309    4.3725309    2220.1926    1316.6463    2294.6445    3049.2869   -2149.9011    -7381.134   -1185.5222    83.598533 
   45800    450.54728   -110.78945   0.40766465   -110.38179   -2930.0391    4.3698021    4.3698021    4.3698021   -2930.0391   -9769.1004   -11206.359    12185.342     1791.413    -7.136082    208.05799    83.442116 
   45900    429.73573   -110.77005   0.38883392   -110.38121    2576.9158    4.3733609    4.3733609    4.3733609    2576.9158    13809.162    -3490.091   -2588.3234    3543.7139    4129.6899   -1222.1252    83.646149 
   46000     312.5357   -110.66619   0.28278887    -110.3834    3107.0889    4.3671108    4.3671108    4.3671108    3107.0889    25474.054   -4923.0182   -11229.769   -3111.8791    1520.9023    3282.7567    83.288038 
   46100    332.82864   -110.68535   0.30115035    -110.3842   -4892.7452    4.3752659    4.3752659    4.3752659   -4892.7452    13802.771   -10075.212   -18405.795   -713.96662   -8952.0855    2407.0187    83.755503 
   46200    511.86251   -110.84286   0.46314395   -110.37972    4229.9936    4.3696527    4.3696527    4.3696527    4229.9936    997.12894    283.51318    11409.339   -2941.3962    1008.9535   -1767.8731     83.43356 
   46300    462.27087   -110.79895    0.4182724   -110.38068   -1582.9212     4.371725     4.371725     4.371725   -1582.9212   -3641.0089   -9127.0527    8019.2982     1014.689   -1890.3905    2728.7911    83.552318 
   46400    389.38172   -110.73341   0.35232076   -110.38109    1954.2128    4.3725014    4.3725014    4.3725014    1954.2128    11872.472   -3284.4059   -2725.4275    2117.3071    3305.3191   -2872.1463    83.596841 
   46500     344.4872   -110.69167   0.31169926   -110.37997    5565.7458    4.3693619    4.3693619    4.3693619    5565.7458     23379.75   -2913.6048   -3768.9074    3018.8444    1403.6373     2173.291    83.416904 
   46600      346.281   -110.69419   0.31332233   -110.38087   -8798.0241     4.373726     4.373726     4.373726   -8798.0241    12778.598   -11622.072   -27550.598     64.45779   -5533.1467    4821.0183    83.667102 
   46700    406.87835   -110.74937   0.36815208   -110.38122    1809.5701    4.3682094    4.3682094    4.3682094    1809.5701   -4372.7721    1395.4252    8406.0573   -840.25561   -7298.5802   -3341.0439     83.35091 
   46800    505.98311   -110.83841   0.45782415   -110.38059    -3858.039    4.3744306    4.3744306    4.3744306    -3858.039   -8883.3142   -12440.625    9749.8218    1053.1487    2934.6067    3318.0499    83.707543 
   46900    407.63152   -110.74971   0.36883356   -110.38088   -1140.9799    4.3704161    4.3704161    4.3704161   -1140.9799    3173.8871   -5579.1386   -1017.6881    86.321291    1027.8222    2050.5331    83.477297 
   47000    359.43885   -110.70553   0.32522782   -110.38031    4218.2411    4.3700601    4.3700601    4.3700601    4218.2411    16826.209    58.535035   -4230.0207    3309.7985   -3788.7879   -993.88076    83.456894 
   47100    377.09634   -110.72185   0.34120469   -110.38064   -8175.9963    4.3753902    4.3753902    4.3753902   -8175.9963    7308.2202   -12467.969    -19368.24    1872.6562   -949.46652      3594.75    83.762642 
   47200    291.31722   -110.64581   0.26358994   -110.38222    763.98659    4.3669443    4.3669443    4.3669443    763.98659    114.86523    2902.9593   -725.86477    301.88069   -11707.225    5568.0711    83.278515 
   47300    478.90993   -110.81487   0.43332777   -110.38154   -2184.2351    4.3727971    4.3727971    4.3727971   -2184.2351    -12639.73   -15380.112    21467.137   -1650.7448    3609.5669   -1086.6747    83.613806 
   47400    492.43793   -110.82685   0.44556819   -110.38128   -7082.6089    4.3752287    4.3752287    4.3752287   -7082.6089    -5991.724   -13371.676   -1884.4269   -2341.6158    2153.2266    2957.7738    83.753367 
   47500    454.52099   -110.79283   0.41126015   -110.38157    3037.5169    4.3638258    4.3638258    4.3638258    3037.5169    13182.949   -6108.5102    2038.1115    554.46106   -2063.0295   -1995.4054    83.100229 
   47600    318.41773   -110.66933   0.28811106   -110.38122   -7081.6185    4.3816424    4.3816424    4.3816424   -7081.6185   -1231.7651   -19777.289   -235.80166    2565.3215   -6486.5311   -291.58363    84.122235 
   47700    288.85339   -110.64077   0.26136062    -110.3794    6333.8418    4.3630958    4.3630958    4.3630958    6333.8418    14652.955   -3145.7792    7494.3497    2070.3251   -5055.2202    10243.652    83.058534 
   47800    357.95755    -110.7052   0.32388752   -110.38131    -3059.115    4.3746798    4.3746798    4.3746798    -3059.115   -11521.427   -5796.3605    8140.4424    2950.7069   -2649.2004    331.30248     83.72185 
   47900    554.86457   -110.88285   0.50205312    -110.3808   -7989.4939    4.3738059    4.3738059    4.3738059   -7989.4939   -2515.8105   -12440.183   -9012.4883    697.64572    1929.8568    4206.3184    83.671688 
   48000    415.46185   -110.75782   0.37591861    -110.3819    6183.0529     4.363734     4.363734     4.363734    6183.0529    2727.3507    2995.1466    12826.662   -1367.9396   -98.419444    3600.7836    83.094985 
   48100    391.14699   -110.73495   0.35391801   -110.38103   -6855.0086    4.3785153    4.3785153    4.3785153   -6855.0086    1999.4063   -19385.022   -3179.4096   -398.15378    -8386.661   -5532.8905    83.942253 
   48200    295.81158    -110.6476   0.26765653   -110.37994    5369.4478    4.3669331    4.3669331    4.3669331    5369.4478    15787.235   -5818.5356    6139.6443    1193.5259   -835.76945    6888.3757    83.277872 
   48300    411.71061   -110.75449   0.37252441   -110.38197   -3059.6681    4.3701584    4.3701584    4.3701584   -3059.6681    114.73942   -5360.3772   -3933.3666    1183.3232   -2809.3953    3333.8875    83.462526 
   48400    400.73064   -110.74502    0.3625895   -110.38243   -4674.9374    4.3767135    4.3767135    4.3767135   -4674.9374   -1194.9614   -6058.7384   -6771.1125    1289.0236    2347.5869    408.98294    83.838662 
   48500    523.94129   -110.85324   0.47407309   -110.37916    3441.5243     4.364589     4.364589     4.364589    3441.5243   -530.06009    3626.2172    7228.4157    -3101.307   -1630.2556   -298.72946    83.143836 
   48600    301.54064   -110.65478   0.27284031   -110.38194    5068.3321    4.3761053    4.3761053    4.3761053    5068.3321    10128.873   -9003.5242    14079.647   -3670.7306   -6077.3573   -4314.6717    83.803717 
   48700    364.46085   -110.71018   0.32977184   -110.38041    1114.3683    4.3704395    4.3704395    4.3704395    1114.3683    9923.0458   -9404.1371    2824.1961   -102.03315    -6598.927   -1310.1958    83.478635 
   48800    397.69509    -110.7402   0.35984287   -110.38035    3845.0588    4.3673708    4.3673708    4.3673708    3845.0588    10062.854   -6759.2743    8231.5963    821.29764    3886.4463    3944.7667    83.302916 
   48900     430.5096   -110.76929   0.38953413   -110.37976    -8865.246    4.3776842    4.3776842    4.3776842    -8865.246   -5211.2299   -18733.041   -2651.4665    2529.7842   -3759.7278    1871.8522     83.89446 
   49000    462.73331   -110.79836   0.41869082   -110.37967    4983.0186    4.3645747    4.3645747    4.3645747    4983.0186   -2648.7725   -5214.0208    22811.849    1750.8835    1498.8906   -2676.5929    83.143017 
   49100    458.70201   -110.79749   0.41504322   -110.38244   -1319.7538    4.3756601    4.3756601    4.3756601   -1319.7538   -1778.2168   -16401.257    14220.212    317.90579   -4420.5606    2670.3949    83.778145 
   49200    315.35409   -110.66881   0.28533901   -110.38347    5299.2747    4.3673177    4.3673177    4.3673177    5299.2747    14130.991    538.57808    1228.2553   -3877.3675     -9366.31   -6706.7403    83.299875 
   49300     433.4278   -110.77489   0.39217458   -110.38272   -4642.1588    4.3720585    4.3720585    4.3720585   -4642.1588     6882.708   -8635.7551   -12173.429   -580.93351    4124.4503    1943.0125     83.57144 
   49400     318.7272    -110.6705   0.28839107    -110.3821      5756.78    4.3708273    4.3708273    4.3708273      5756.78    4421.7888     -6213.41    19061.961   -718.08459    2710.1881    5146.1405    83.500857 
   49500    387.86897   -110.73395   0.35095199     -110.383   -9217.2693    4.3722883    4.3722883    4.3722883   -9217.2693   -14265.442   -13172.326   -214.03943     1976.681   -2457.4664   -3172.9418    83.584617 
   49600    523.00291   -110.85471   0.47322402   -110.38148   -4442.4433    4.3690821    4.3690821    4.3690821   -4442.4433   -4379.2239   -14992.492    6044.3865    1939.2672   -4891.6561    1332.8474    83.400879 
   49700    433.57065   -110.77514   0.39230383   -110.38283   -3533.9038    4.3721093    4.3721093    4.3721093   -3533.9038    7028.7184   -9939.2638   -7691.1662   -1184.4016   -2302.4092    -1693.917    83.574355 
   49800    353.53535    -110.7032   0.31988621   -110.38331   -974.15995    4.3694903    4.3694903    4.3694903   -974.15995    5472.9678   -4295.5474   -4099.9002    -2115.923   -6366.3364   -955.72835    83.424255 
   49900    315.58018   -110.66854   0.28554358     -110.383    4184.2104    4.3719845    4.3719845    4.3719845    4184.2104    4306.9091   -625.93007    8871.6523   -4773.0195    6865.7898    5022.8902      83.5672 
   50000    341.10176   -110.69147   0.30863604   -110.38283   -3181.9228     4.370503     4.370503     4.370503   -3181.9228   -9360.2543    2690.4188   -2875.9328     360.3992   -6360.9804    4574.8438    83.482274 
   50100     423.7178   -110.76513   0.38338877   -110.38174   -4720.8746    4.3701375    4.3701375    4.3701375   -4720.8746   -10576.392   -2843.3546   -742.87719    2679.6576   -5221.0017   -3072.8609    83.461332 
   50200     549.0243   -110.87728   0.49676872   -110.38051   -4772.2355    4.3729741    4.3729741    4.3729741   -4772.2355   -2246.0794   -14442.747    2372.1201    4917.7929    456.08634    1880.1007    83.623955 
   50300    337.15834    -110.6867   0.30506795   -110.38163    7354.0816    4.3670747    4.3670747    4.3670747    7354.0816    11145.274   -4256.3356    15173.306   -395.36464   -1309.4509   -1407.3118    83.285974 
   50400    399.89856   -110.74262   0.36183662   -110.38079   -3926.7576    4.3758198    4.3758198    4.3758198   -3926.7576    3012.5871    -15996.72    1203.8604   -769.58434    2463.5652    1738.8868    83.787318 
   50500    352.65115   -110.69876   0.31908617   -110.37967     9091.841    4.3667444    4.3667444    4.3667444     9091.841    6608.4771    9764.7789    10902.267   -5134.0847   -1812.9029    6396.7557    83.267078 
   50600    400.27673   -110.74451   0.36217879   -110.38233   -6310.7888    4.3724888    4.3724888    4.3724888   -6310.7888   -11569.492    2366.1872   -9729.0614   -2897.8857   -4127.1699   -4807.3012    83.596119 
   50700    421.25545   -110.76321   0.38116079   -110.38204    1391.4628    4.3725315    4.3725315    4.3725315    1391.4628   -9408.3413    1038.0349    12544.695    3179.6809   -4592.3862   -3699.6069    83.598571 
   50800    442.09964   -110.78125   0.40002104   -110.38123    6425.7549    4.3667456    4.3667456    4.3667456    6425.7549    6025.8385    -2846.739    16098.165    2033.7762    5731.9009    176.76152    83.267146 
   50900    390.29995   -110.73621   0.35315159   -110.38306   -1370.8378    4.3738015    4.3738015    4.3738015   -1370.8378    2950.0819   -12223.829    5161.2333    1654.5977   -3668.2784   -1187.8521     83.67143 
   51000    438.70109   -110.77821   0.39694596   -110.38126    484.27837    4.3695428    4.3695428    4.3695428    484.27837    7394.7793   -4093.0138   -1848.9304   -2081.9897   -2058.3779    3206.0162    83.427264 
   51100    347.02325   -110.69736   0.31399393   -110.38336    1719.7059    4.3689393    4.3689393    4.3689393    1719.7059   -3848.7199   -2909.4402    11917.278   -508.83971   -4429.7452    1467.0827    83.392699 
   51200    349.93168   -110.70068   0.31662554   -110.38405   -4556.0952    4.3761043    4.3761043    4.3761043   -4556.0952   -11565.073    48.946761   -2152.1588   -2124.8113   -1171.9877   -9953.1359     83.80366 
   51300    422.95006   -110.76356    0.3826941   -110.38087    6804.3863    4.3654424    4.3654424    4.3654424    6804.3863   -8835.7707    5666.0933    23582.836    3299.6617    4615.2936    2193.9109    83.192618 
   51400    463.14863    -110.8002   0.41906661   -110.38113   -2987.1955    4.3742234    4.3742234    4.3742234   -2987.1955    3969.6148   -2643.9645   -10287.237    3395.7074    900.72466    2031.9353    83.695648 
   51500     320.8358   -110.67175   0.29029897   -110.38145    1589.8037    4.3711484    4.3711484    4.3711484    1589.8037   -768.30377   -9517.8369    15055.552    1499.3685   -913.11724   -1682.7518    83.519264 
   51600    448.32433   -110.78519   0.40565327   -110.37953   -258.70983    4.3666756    4.3666756    4.3666756   -258.70983    9924.0456   -6723.6158   -3976.5592   -2339.8849   -5947.3745    4754.9701    83.263139 
   51700    367.94268   -110.71494   0.33292227   -110.38201   -7185.4526    4.3775593    4.3775593    4.3775593   -7185.4526   -4566.5228   -15576.094   -1413.7414   -4254.0266   -1952.8229   -4158.1806    83.887279 
   51800    411.82336   -110.75488   0.37262643   -110.38225    7140.3569    4.3635404    4.3635404    4.3635404    7140.3569   -5605.0906    11514.095    15512.066   -1153.5754   -308.69425   -7024.3986    83.083923 
   51900    481.76382   -110.81777   0.43591003   -110.38186   -4782.1575    4.3781515    4.3781515    4.3781515   -4782.1575   -9327.9055   -1742.7771   -3275.7898    686.31886     2332.569    4375.4121    83.921328 
   52000    347.28276   -110.69487   0.31422874   -110.38064    10336.511    4.3661886    4.3661886    4.3661886    10336.511    1832.5504     7981.631    21195.351    5291.3222   -5393.2437    3277.0463    83.235283 
   52100     284.6105   -110.63912   0.25752156   -110.38159   -1251.8017     4.371787     4.371787     4.371787   -1251.8017     7828.377   -9740.6275   -1843.1547    3510.7913   -4764.7662   -3701.9501    83.555871 
   52200    496.25574   -110.82993   0.44902262   -110.38091   -8173.4186    4.3718736    4.3718736    4.3718736   -8173.4186    6067.1541   -14585.492   -16001.918    103.18338   -577.45882    3654.2854    83.560836 
   52300    335.49349   -110.68702   0.30356156   -110.38346    700.10355    4.3693577    4.3693577    4.3693577    700.10355    1566.1997   -9454.5143    9988.6253   -3806.4047    1001.2025   -6431.6492    83.416661 
   52400    547.36891    -110.8768   0.49527089   -110.38153   -11713.992    4.3730018    4.3730018    4.3730018   -11713.992   -14928.145   -13238.979   -6974.8518    121.18124    2254.1309    686.08409    83.625547 
   52500    349.69905   -110.69819   0.31641505   -110.38178     9687.611    4.3692081    4.3692081    4.3692081     9687.611    1027.8362    4166.8949    23868.102    804.18497   -81.234131     5909.083    83.408093 
   52600    384.73727   -110.73004   0.34811837   -110.38192   -5701.3558     4.370994     4.370994     4.370994   -5701.3558    1497.1669   -7018.4939    -11582.74    3264.7492   -6521.9729   -4945.8699    83.510413 
   52700     277.4388   -110.63301   0.25103246   -110.38198   -2056.5598    4.3717337    4.3717337    4.3717337   -2056.5598    7119.6319   -3902.9559   -9386.3553    4863.5962   -1994.5495    1016.4935     83.55282 
   52800    454.08336    -110.7913   0.41086417   -110.38044   -2820.7744    4.3700872    4.3700872    4.3700872   -2820.7744    13298.833   -12474.099   -9287.0565    -752.0987      2800.21   -1070.5984    83.458447 
   52900    397.08791   -110.74214   0.35929348   -110.38285    -3956.513     4.370592     4.370592     4.370592    -3956.513   -9241.9435   -15872.587    13244.991   -1523.1248   -766.88008   -5857.2027    83.487372 
   53000    492.30495   -110.82887   0.44544786   -110.38342   -2885.3293    4.3723913    4.3723913    4.3723913   -2885.3293    -2567.147   -15624.186    9535.3449   -1936.8571    623.40425    3534.8036    83.590529 
   53100    498.88459   -110.83307   0.45140126   -110.38167   -1113.6776    4.3692855    4.3692855    4.3692855   -1113.6776   -1256.1357   -3742.9088    1658.0118    1151.9997   -4936.4697    1918.9995    83.412524 
   53200    262.00869   -110.62023   0.23707096   -110.38316   -1582.0794    4.3706199    4.3706199    4.3706199   -1582.0794    15989.092   -3922.1838   -16813.147    2493.5057    698.83993   -4615.2192    83.488972 
   53300    325.62104   -110.67707   0.29462876   -110.38244    2680.9258    4.3739626    4.3739626    4.3739626    2680.9258    7052.5654   -1634.1721    2624.3841    6505.8214    6922.2446   -1697.4902    83.680678 
   53400    371.83706   -110.71858   0.33644599   -110.38213    8900.7984    4.3659389    4.3659389    4.3659389    8900.7984    9079.9092   -1650.4028    19272.889    1659.2702     3590.709   -4291.5715    83.221006 
   53500    399.28422   -110.74423   0.36128075   -110.38295   -5645.1706    4.3757064    4.3757064    4.3757064   -5645.1706   -8113.2534   -11908.119    3085.8611   -1008.5327   -4642.2427    -4524.944    83.780804 
   53600    597.89888   -110.91948   0.54099148   -110.37849   -3671.8227     4.370884     4.370884     4.370884   -3671.8227   -4378.6717   -11150.437    4513.6402     -3130.99   -2182.4631    5408.8413    83.504106 
   53700    380.00072   -110.72391   0.34383263   -110.38007    293.87722    4.3689151    4.3689151    4.3689151    293.87722    19345.999   -10435.765   -8028.6021   -2671.3206   -1422.3128   -533.70695    83.391313 
   53800    350.64352    -110.6989   0.31726962   -110.38163   -5353.5937    4.3751388    4.3751388    4.3751388   -5353.5937   -1980.7298   -15608.383    1528.3317    1103.1831    1774.8947   -2303.4173    83.748205 
   53900    320.99048   -110.67006   0.29043893   -110.37962    11397.811    4.3686781    4.3686781    4.3686781    11397.811    20894.074   -455.73091    13755.091    3095.3287    5038.3675   -3139.2658    83.377745 
   54000    453.70768   -110.79051   0.41052424   -110.37999    -4695.799    4.3705358    4.3705358    4.3705358    -4695.799   -8238.2841   -3732.9713   -2116.1414     3195.412   -4486.7287   -10134.058    83.484155 
   54100    384.73552   -110.73051   0.34811678    -110.3824   -2159.4833    4.3741236    4.3741236    4.3741236   -2159.4833    74.877101   -1996.2637   -4557.0633    -888.7105   -5151.4518    639.37462    83.689923 
   54200     475.0584   -110.81046   0.42984282   -110.38061    5457.3758    4.3654769    4.3654769    4.3654769    5457.3758    12773.219    1812.9177    1785.9912   -2593.2877    4205.6404    1808.3262    83.194592 
   54300    292.78455   -110.64822   0.26491761    -110.3833   -5596.6989    4.3762054    4.3762054    4.3762054   -5596.6989    2799.3407   -15636.563   -3952.8738   -522.86406    2749.6576   -198.48736    83.809467 
   54400    309.78388   -110.66183   0.28029896   -110.38153    7783.4587     4.367453     4.367453     4.367453    7783.4587    11637.391   -6350.7337    18063.719    2298.7235    2347.0323    403.51362     83.30762 
   54500    559.03194   -110.88601   0.50582385   -110.38019   -8492.9988    4.3723072    4.3723072    4.3723072   -8492.9988   -7953.8133   -14696.119   -2829.0638     299.4624   -2261.5182   -3566.2042    83.585702 
   54600    353.88689   -110.70356    0.3202043   -110.38336   -3619.0558    4.3712815    4.3712815    4.3712815   -3619.0558    4582.2181   -10004.473   -5434.9125     1053.285   -6652.0619   -4486.8011    83.526891 
   54700    523.45307   -110.85611   0.47363134   -110.38248   -1116.7012    4.3685959    4.3685959    4.3685959   -1116.7012   -3039.8642   -7274.3739    6964.1344   -2213.0736   -331.87186     4696.137    83.373039 
   54800    223.45069   -110.58611   0.20218288   -110.38393    9142.2288    4.3740722    4.3740722    4.3740722    9142.2288    13800.572   -3565.2065    17191.321   -4472.8758    5589.1561    1929.7626     83.68697 
   54900    375.21195   -110.72249   0.33949966   -110.38299    1583.0656    4.3673275    4.3673275    4.3673275    1583.0656    -74.69286    -1177.751    6001.6406   -885.05447   -1032.7007   -82.479344    83.300438 
   55000    390.71927   -110.73433     0.353531    -110.3808    417.33274     4.373099     4.373099     4.373099    417.33274     152.5149   -2057.4317     3156.915    2884.1599   -1104.0773    1015.0564    83.631124 
   55100    502.06683   -110.83496   0.45428062   -110.38068   -8679.6245    4.3705986    4.3705986    4.3705986   -8679.6245   -4026.6479   -13452.567   -8559.6586    665.10917     630.7494   -9031.1122    83.487754 
   55200    409.83189   -110.75286   0.37082451   -110.38204   -4918.1798     4.372038     4.372038     4.372038   -4918.1798   -525.59639    -21437.35    7208.4072    3110.1671   -2669.3935   -3342.6656    83.570268 
   55300    388.43263   -110.73264   0.35146201   -110.38118    3437.3427    4.3707243    4.3707243    4.3707243    3437.3427    4356.7581   -12608.932    18564.202    212.19154    6397.0115    2087.1937    83.494958 
   55400    403.99546    -110.7461   0.36554358   -110.38055    199.00382    4.3713423    4.3713423    4.3713423    199.00382    5232.9224   -5431.1432    795.23221    -5621.527    628.40939    481.60073    83.530378 
   55500    378.51065   -110.72307   0.34248439   -110.38059   -23.374568    4.3706512    4.3706512    4.3706512   -23.374568   -678.04287    5725.2735   -5117.3543   -1314.2402    -1321.508     2067.767    83.490766 
   55600    398.24847   -110.74129   0.36034359   -110.38095     -3954.34    4.3718666    4.3718666    4.3718666     -3954.34   -7659.3481    3797.3561    -8001.028   -64.795151   -3821.0242   -4480.3529     83.56044 
   55700    381.13133   -110.72639   0.34485564   -110.38153   -3592.5751    4.3713355    4.3713355    4.3713355   -3592.5751    1616.1442     -12781.4    387.53009    2655.4679    1992.7557   -9415.4264    83.529991 
   55800    369.91565   -110.71622   0.33470745   -110.38151   -525.95976    4.3706963    4.3706963    4.3706963   -525.95976     -3372.54   -14800.034    16594.694     2953.592    3348.8737   -166.87145    83.493353 
   55900    460.28178   -110.79696   0.41647263   -110.38049   -677.53996    4.3696644    4.3696644    4.3696644   -677.53996    15282.205   -12148.603   -5166.2212    466.24659    3559.5555     -2006.13    83.434227 
   56000    414.32018   -110.75667    0.3748856   -110.38178   -2351.4571    4.3720941    4.3720941    4.3720941   -2351.4571    930.11321   -12672.592    4688.1069   -3481.2378    -4114.007   -3704.1044    83.573485 
   56100    435.71029   -110.77525   0.39423983   -110.38101   -3210.8987    4.3693858    4.3693858    4.3693858   -3210.8987   -3425.2129    1234.8118    -7442.295   -496.64056    -4497.949    2340.6837    83.418271 
   56200    325.32798   -110.67694   0.29436359   -110.38258   -1099.6795    4.3729915    4.3729915    4.3729915   -1099.6795   -6984.3634   -3750.8913    7436.2163    1274.3562    2382.8489   -7168.7084    83.624957 
   56300    351.31507   -110.70013   0.31787726   -110.38225    3600.6227    4.3685069    4.3685069    4.3685069    3600.6227    8715.5438   -6994.8018    9081.1261    4382.8382    3198.7047   -6244.4228    83.367939 
   56400    378.25568    -110.7237   0.34225369   -110.38145    957.36553    4.3733534    4.3733534    4.3733534    957.36553    10808.759   -8340.3807    403.71861    6116.2171    4217.2982     1469.764    83.645717 
   56500    393.29274   -110.73602   0.35585954   -110.38016    5559.8129    4.3707352    4.3707352    4.3707352    5559.8129    16043.737   -8685.3999    9321.1019    1657.2171   -2189.5825   -3314.7964     83.49558 
   56600    531.46943   -110.85998   0.48088471    -110.3791   -5676.2284    4.3691024    4.3691024    4.3691024   -5676.2284   -2063.8249   -8101.6418   -6863.2186   -464.91422   -5164.6305    -981.2583    83.402039 
   56700    352.52878   -110.69889   0.31897545   -110.37992   -7297.1568    4.3763145    4.3763145    4.3763145   -7297.1568   -14566.626   -10730.201    3405.3556    -3425.662   -438.19108   -1281.4192    83.815739 
   56800    465.59743   -110.80052   0.42128234   -110.37924    113.86113    4.3652597    4.3652597    4.3652597    113.86113    15843.799    -11634.82   -3867.3955    222.85916    3397.1384   -5641.5099    83.182174 
   56900    291.13174   -110.64537   0.26342212   -110.38195      6188.03      4.37382      4.37382      4.37382      6188.03    14991.906   -7188.6042    10760.788    2755.6243    1104.7482   -1752.0744    83.672492 
   57000    385.22312   -110.72922   0.34855797   -110.38067    1182.3694    4.3730526    4.3730526    4.3730526    1182.3694    12453.724   -7045.7579   -1860.8581    7086.9768    1430.8036   -726.07997    83.628459 
   57100    401.26594   -110.74245   0.36307385   -110.37937    9705.7897    4.3656492    4.3656492    4.3656492    9705.7897    11825.068    10954.352    6337.9483    44.006744   -2984.9225   -266.70361    83.204439 
   57200    479.77572   -110.81367   0.43411115   -110.37956   -10015.841    4.3763559    4.3763559    4.3763559   -10015.841   -21194.985   -7147.3749   -1705.1626    814.68489   -580.04141    2639.6519    83.818118 
   57300    358.51205   -110.70527   0.32438923   -110.38088   -1109.1396    4.3685497    4.3685497    4.3685497   -1109.1396    10270.354   -4983.7158   -8614.0572   -3693.7122    2085.1305   -4186.2718    83.370391 
   57400    416.38988   -110.75859   0.37675832   -110.38183    4033.3529    4.3676962    4.3676962    4.3676962    4033.3529    18668.351   -12684.172    6115.8803    708.36174   -183.45508   -5488.2421    83.321535 
   57500    375.56298   -110.72204   0.33981727   -110.38223    -2312.904    4.3767279    4.3767279    4.3767279    -2312.904    10777.529   -14684.038   -3032.2028    5102.4201   -4364.1993    -957.2928    83.839496 
   57600    435.26146   -110.77411   0.39383372   -110.38028    4905.3607    4.3661356    4.3661356    4.3661356    4905.3607    3910.4812    11242.196   -436.59535    4337.3937   -2019.7301   -3589.3067    83.232253 
   57700    436.23203    -110.7751   0.39471191   -110.38039    1015.0867    4.3725468    4.3725468    4.3725468    1015.0867   -5665.9767    3619.0125    5092.2243   -3451.3245   -1417.7638    2336.6537    83.599446 
   57800    341.99449   -110.69077    0.3094438   -110.38132   -5771.8908    4.3738575    4.3738575    4.3738575   -5771.8908    -2918.465   -530.05563   -13867.152   -2586.1833    1359.9068    3979.1392    83.674648 
   57900    363.94835   -110.71032   0.32930811   -110.38101    5823.7484     4.364969     4.364969     4.364969    5823.7484    22226.969   -5319.5552    563.83173   -1349.6864    5036.6888   -3519.0111    83.165553 
   58000    393.68499   -110.73615   0.35621445   -110.37993   -4650.3376    4.3780615    4.3780615    4.3780615   -4650.3376    15186.921   -24152.779   -4985.1542    862.04265   -2186.0954   -1922.5881    83.916152 
   58100    497.16014   -110.82909   0.44984094   -110.37925   -3601.4426    4.3650718    4.3650718    4.3650718   -3601.4426   -4288.7325   -3312.4432    -3203.152    8565.9637   -3535.8574   -33.139939    83.171431 
   58200    420.65679   -110.76213    0.3806191   -110.38151    -589.6416    4.3738179    4.3738179    4.3738179    -589.6416   -4945.5403    800.26802    2376.3475    166.49461    563.40887   -3461.2432    83.672373 
   58300    409.87932   -110.75293   0.37086742   -110.38206   -3560.9786    4.3710892    4.3710892    4.3710892   -3560.9786    499.10179    1850.2625     -13032.3   -1959.4711    1291.6537    553.60193    83.515869 
   58400    216.64314    -110.5796   0.19602326   -110.38358    4713.8549    4.3686374    4.3686374    4.3686374    4713.8549    16802.696      4936.57    -7597.701   -4311.7184    1610.0326    57.526865    83.375411 
   58500    418.68836   -110.75852   0.37883803   -110.37968   -3157.3842    4.3747308    4.3747308    4.3747308   -3157.3842    22878.322   -17135.703   -15214.771    -2953.574    594.48462   -5221.5958    83.724779 
   58600     470.8004   -110.80527   0.42599009   -110.37928   -4643.7581    4.3670551    4.3670551    4.3670551   -4643.7581   -3752.7302   -10934.894    756.34956    1876.5309    -5015.487   -414.72323    83.284853 
   58700      494.653   -110.82914   0.44757243   -110.38157   -11393.699    4.3746487    4.3746487    4.3746487   -11393.699   -8148.8719   -15248.344   -10783.882    4232.3185   -2596.0289   -2444.6353    83.720064 
   58800    406.85046   -110.74985   0.36812684   -110.38173    5980.2782    4.3688026    4.3688026    4.3688026    5980.2782    19587.611   -3181.1903     1534.414   -2812.0681    3417.7422   -555.14451    83.384873 
   58900    291.92127   -110.64648    0.2641365   -110.38234    1151.5596    4.3710211    4.3710211    4.3710211    1151.5596      19834.4   -4102.3292   -12277.393   -2166.3478    5769.6809    2825.8398    83.511968 
   59000    273.10032    -110.6296   0.24710691   -110.38249      2174.14    4.3722552    4.3722552    4.3722552      2174.14    18862.072    1326.9522   -13666.605   -2169.8131    1031.5575   -2995.8118    83.582722 
   59100    522.24856   -110.85257   0.47254147   -110.38003   -2800.4199     4.368149     4.368149     4.368149   -2800.4199     -5497.22   -6704.4046     3800.365    789.77092    2808.5167   -974.30674    83.347452 
   59200    460.45586   -110.79817   0.41663014   -110.38154   -10637.432    4.3742846    4.3742846    4.3742846   -10637.432   -5149.7762    -11277.86   -15484.659     3979.258   -4271.0057   -1302.6951     83.69916 
   59300    369.63525    -110.7166   0.33445374   -110.38214    5505.0767    4.3687072    4.3687072    4.3687072    5505.0767    24517.017   -9676.1238     1674.337    3232.7968   -419.59014   -6183.4689    83.379412 
   59400    418.42069   -110.75931   0.37859583   -110.38071    76.121963    4.3717025    4.3717025    4.3717025    76.121963    14848.678   -7211.3374   -7408.9752   -6828.3588    1133.5861    652.23154    83.551031 
   59500    285.21478   -110.64034   0.25806833   -110.38227    83.061963    4.3701651    4.3701651    4.3701651    83.061963    5613.5845    5566.1296   -10930.528   -4431.8351    409.98832    2583.4101     83.46291 
   59600    443.65153   -110.78256   0.40142523   -110.38114   -3373.1871    4.3716447    4.3716447    4.3716447   -3373.1871   -12147.577    929.67804    1098.3381    7.7433241   -1573.0428   -1935.3714    83.547713 
   59700    434.58141   -110.77341   0.39321839   -110.38019   -741.30974    4.3711267    4.3711267    4.3711267   -741.30974   -2974.6213    187.09576    563.59637    3024.6739    -1855.429    1717.4285    83.518021 
   59800    424.58691   -110.76551   0.38417516   -110.38134   -3611.4149    4.3705426    4.3705426    4.3705426   -3611.4149    10012.779   -13990.267   -6856.7566    6520.5592   -876.84338   -4826.5682     83.48454 
   59900    334.58121   -110.68419   0.30273611   -110.38145    5142.3079    4.3728312    4.3728312    4.3728312    5142.3079    16187.553   -7422.6962    6662.0671    680.51491     2167.975   -5378.3889     83.61576 
   60000    457.15371   -110.79337   0.41364229   -110.37973    580.00842    4.3680873    4.3680873    4.3680873    580.00842    9919.7541   -3237.4126   -4942.3163   -4323.0136    5589.4555    804.91683    83.343921 
   60100    320.27838   -110.67212   0.28979461   -110.38232   -2583.2061    4.3740033    4.3740033    4.3740033   -2583.2061   -15420.051    927.56853    6742.8643   -1011.3393   -3074.7703   -486.10792    83.683013 
   60200    444.38722   -110.78367    0.4020909   -110.38158    3058.3063    4.3672856    4.3672856    4.3672856    3058.3063    4900.6634    2504.7252    1769.5305    2325.6563   -2034.8245    1310.5655     83.29804 
   60300    454.30783    -110.7924   0.41106727   -110.38133   -2856.8394    4.3734175    4.3734175    4.3734175   -2856.8394    -734.6995   -9494.1303    1658.3117    3144.4624   -2236.7483    986.95131    83.649396 
   60400    283.11399   -110.63776   0.25616749    -110.3816    6892.5672    4.3712946    4.3712946    4.3712946    6892.5672    20823.179   -5568.9281    5423.4505    2910.4735    1818.4188   -4875.9004    83.527644 
   60500    490.80375   -110.82337   0.44408954   -110.37928    1308.9832    4.3676872    4.3676872    4.3676872    1308.9832    9909.0312   -6106.9468    124.86523   -4230.3212    1650.0763    -362.3115    83.321019 
   60600    361.90789   -110.70838   0.32746186   -110.38092   -3224.9271    4.3754782    4.3754782    4.3754782   -3224.9271   -10646.364   -1241.6485    2213.2317   -2603.6962     2411.292    2818.6732    83.767697 
   60700    422.04986   -110.76355   0.38187958   -110.38167   -26.875316    4.3670341    4.3670341    4.3670341   -26.875316    1909.8242    6620.4032   -8610.8533    1576.3865   -5996.4224   -4725.1684    83.283652 
   60800    430.00862   -110.77035   0.38908084   -110.38127    2511.4569    4.3714569    4.3714569    4.3714569    2511.4569    2241.6995   -330.31026    5622.9816    5142.5892    376.09136   -1283.6606    83.536947 
   60900    349.97146   -110.69807   0.31666153    -110.3814   -381.11149    4.3754959    4.3754959    4.3754959   -381.11149    18826.555   -8887.6835   -11082.206    4928.0889    1928.6347   -3140.7221    83.768714 
   61000    333.76678   -110.68282   0.30199919   -110.38082    7432.8752    4.3639888    4.3639888    4.3639888    7432.8752    13178.014    1466.4381    7654.1739    1993.2133    1318.3755   -8003.4848    83.109539 
   61100    460.30401   -110.79634   0.41649274   -110.37985   -8975.0292    4.3777004    4.3777004    4.3777004   -8975.0292   -5550.2201   -14782.422   -6592.4457   -3665.5927    4352.4654    4493.0254    83.895392 
   61200    435.28396   -110.77289   0.39385407   -110.37904    -6893.781    4.3707981    4.3707981    4.3707981    -6893.781   -11382.165   -1453.1285   -7846.0496   -1379.2988   -5787.6572     2440.753    83.499187 
   61300    430.56091   -110.76953   0.38958056   -110.37995    2904.4847     4.365759     4.365759     4.365759    2904.4847    8940.5919   -693.52606    466.38831     1445.219   -2999.1058   -2132.6938    83.210719 
   61400    411.69027   -110.75349     0.372506   -110.38098   -5530.4115    4.3790993    4.3790993    4.3790993   -5530.4115    9829.5216   -12566.745   -13854.011     2959.135   -616.37577    430.40917    83.975844 
   61500    289.76663   -110.64405   0.26218693   -110.38187    11685.593     4.361686     4.361686     4.361686    11685.593    17917.165    5288.9529     11850.66    2195.3523    5819.2244    -7647.512    82.978042 
   61600    355.86343   -110.70343   0.32199271   -110.38143   -4079.0467    4.3766475    4.3766475    4.3766475   -4079.0467    5500.9049   -12669.791   -5068.2536   -452.76022     581.2403   -4543.8114    83.834872 
   61700    494.57448   -110.82679   0.44750139   -110.37929   -5818.3797    4.3689605    4.3689605    4.3689605   -5818.3797   -10420.595   -6522.1365   -512.40734   -2170.6215    1704.7333    2092.6804    83.393914 
   61800    397.11216   -110.74189   0.35931543   -110.38258    670.16192    4.3684994    4.3684994    4.3684994    670.16192    12862.978   -6456.9936   -4395.4984    807.80529   -4771.9132   -2587.5245    83.367515 
   61900    472.01504   -110.80943   0.42708913   -110.38234   -5739.1003    4.3758891    4.3758891    4.3758891   -5739.1003    6819.2444    -18553.37    -5483.175    3381.9277    1365.2365    1167.5506    83.791299 
   62000    378.76224   -110.72417   0.34271204   -110.38146    12461.652    4.3627671    4.3627671    4.3627671    12461.652    18868.482     4748.881    13767.592    4374.6615    4852.5716   -890.53353     83.03976 
   62100    247.58501   -110.60632   0.22402012    -110.3823    90.692163    4.3779252    4.3779252    4.3779252    90.692163    319.03398   -7403.4541    7356.4966    3794.0315    515.89856   -9384.1764    83.908315 
   62200    448.55778   -110.78444   0.40586451   -110.37858   -639.69965    4.3658165    4.3658165    4.3658165   -639.69965   -1942.7166    631.73247   -608.11485   -4286.7316   -239.01311   -661.73785    83.214008 
   62300    414.40248   -110.75566   0.37496007    -110.3807   -3887.0142    4.3731014    4.3731014    4.3731014   -3887.0142    4067.8526   -7280.2646   -8448.6307   -1245.6393   -5549.4055    2050.3651    83.631262 
   62400    494.84128   -110.82731   0.44774279   -110.37956   -7343.9979    4.3726747    4.3726747    4.3726747   -7343.9979    4517.0175   -20722.406   -5826.6054    -2564.321   -744.40767   -2340.8505    83.606784 
   62500    392.34272   -110.73436   0.35499994   -110.37936    4725.8734    4.3680697    4.3680697    4.3680697    4725.8734    17267.713    -13726.99    10636.897    274.43295    5930.6699    6326.8339    83.342915 
   62600    405.88174   -110.74814   0.36725033   -110.38089   -3108.9113    4.3737552    4.3737552    4.3737552   -3108.9113   -8375.9716   -16059.778    15109.016    3983.8995    5295.7093   -6413.4574    83.668775 
   62700    248.74909    -110.6078   0.22507341   -110.38272    3502.1195    4.3681551    4.3681551    4.3681551    3502.1195    6612.1864    4507.0351   -612.86284    3636.6465   -2994.2782   -5718.2852    83.347802 
   62800    511.80199   -110.84359    0.4630892    -110.3805   -8873.9485    4.3715135    4.3715135    4.3715135   -8873.9485   -7666.2449   -1370.2529   -17585.348   -1656.5978    1362.7033     1874.423    83.540192 
   62900    336.04492   -110.68647   0.30406051   -110.38241    857.41815    4.3708982    4.3708982    4.3708982    857.41815    9528.6744   -2623.6703   -4332.7497   -2067.5333    -3581.093    -1426.892     83.50492 
   63000    436.92462   -110.77712   0.39533858   -110.38179   -1366.9504    4.3670252    4.3670252    4.3670252   -1366.9504    7175.2518   -13828.178    2552.0748    2347.4303    3169.3762    1260.5673    83.283141 
   63100     435.1909   -110.77573   0.39376987   -110.38196   -4206.2577    4.3761617    4.3761617    4.3761617   -4206.2577   -7502.4594   -22610.164    17493.851   -794.91712    3199.1852    1441.7892    83.806958 
   63200    354.06225   -110.70311   0.32036297   -110.38274    4947.9542    4.3638098    4.3638098    4.3638098    4947.9542    6111.5654    2536.4383    6195.8588    5120.8933   -5623.0063   -9024.3905    83.099316 
   63300    446.62637    -110.7857   0.40411693   -110.38158   -11650.586    4.3765335    4.3765335    4.3765335   -11650.586   -12486.331   -4405.5298   -18059.897   -753.60254   -3244.6732   -978.11379    83.828321 
   63400    389.57305   -110.73253   0.35249388   -110.38004    4267.6072    4.3695024    4.3695024    4.3695024    4267.6072    9160.6786    6918.7157   -3276.5727   -1407.0232   -2840.9818    4533.6754     83.42495 
   63500    375.99486   -110.72048   0.34020805   -110.38027    3737.7179    4.3673477    4.3673477    4.3673477    3737.7179     2126.368   -3672.1945     12758.98   -3185.9174    2991.9464    -764.7109    83.301596 
   63600    309.60089   -110.66199   0.28013339   -110.38186    1172.5221    4.3769682    4.3769682    4.3769682    1172.5221    3220.6393   -21907.757    22204.684   -1323.8797    2763.5855    6938.4863    83.853306 
   63700     536.9257    -110.8652   0.48582166   -110.37938    4321.6722    4.3633408    4.3633408    4.3633408    4321.6722    3685.1176   -6141.8964    15421.795    1298.5959    7114.4545   -3131.2285    83.072524 
   63800    387.54432   -110.73216   0.35065824    -110.3815   -7745.1446    4.3763615    4.3763615    4.3763615   -7745.1446    2119.3252   -12920.169    -12434.59    1155.1036   -4766.6172   -8069.0954    83.818437 
   63900    506.83473   -110.83908   0.45859472   -110.38049   -4202.8013    4.3672024    4.3672024    4.3672024   -4202.8013   -1950.0734   -4249.5998   -6408.7309    2712.5063    198.78769    4239.5282    83.293277 
   64000    306.89127   -110.66055   0.27768167   -110.38287    7272.4719    4.3716465    4.3716465    4.3716465    7272.4719    7113.0741   -2719.0024    17423.344     -1288.13    1307.4501    3399.7673    83.547816 
   64100    316.45868   -110.66971   0.28633847   -110.38337    346.22144    4.3704984    4.3704984    4.3704984    346.22144    -13.48925   -14054.835    15106.989    1024.6032    1511.3909   -1798.0716    83.482007 
   64200    398.06635   -110.74358    0.3601788    -110.3834    2244.0641     4.367143     4.367143     4.367143    2244.0641    7873.9942   -8209.9294    7068.1274   -2920.1192      251.502    8035.1839    83.289878 
   64300    547.44757    -110.8764   0.49534207   -110.38106   -12802.823     4.376073     4.376073     4.376073   -12802.823   -1937.0958   -20708.792   -15762.582    2979.0066   -3397.1177   -4983.2878    83.801864 
   64400    381.29782   -110.72582   0.34500628   -110.38082    4380.9687     4.361669     4.361669     4.361669    4380.9687    10699.124   -3188.5849    5632.3669    219.27477   -150.95543   -5383.8509    82.977073 
   64500    363.85238   -110.71125   0.32922128   -110.38203   -8555.5684     4.379984     4.379984     4.379984   -8555.5684    -7939.252   -26727.596    9000.1432   -911.12975   -2283.3792    9036.5889    84.026751 
   64600    365.82019   -110.71068    0.3310018   -110.37968    10671.791    4.3632007    4.3632007    4.3632007    10671.791     14864.41   -755.28206    17906.246   -62.346744    9395.5782   -1582.4739    83.064525 
   64700    368.95699   -110.71504   0.33384004    -110.3812    -3556.695    4.3742811    4.3742811    4.3742811    -3556.695    11208.967   -14488.947   -7390.1054   -4247.9599    2991.5191    3417.3106    83.698958 
   64800     449.9089     -110.786   0.40708703   -110.37891   -1445.8156     4.372338     4.372338     4.372338   -1445.8156    6232.3838   -6562.0182   -4007.8125   -4656.6051    493.32515    4854.4561    83.587468 
   64900    422.59973   -110.76099   0.38237712   -110.37861    6921.8625    4.3651824    4.3651824    4.3651824    6921.8625    17142.958    1137.1482    2485.4809   -426.57874   -3735.5887    -10221.31    83.177754 
   65000    353.68898   -110.70128   0.32002522   -110.38125   -7146.7438    4.3759375    4.3759375    4.3759375   -7146.7438   -11995.775   -18520.503    9076.0463    5429.7857   -270.52237    890.29224    83.794077 
   65100    367.26874   -110.71453   0.33231247   -110.38222    4855.9862    4.3647095    4.3647095    4.3647095    4855.9862     22045.33   -10038.115    2560.7445    1330.1301     1871.559     4615.191    83.150723 
   65200    448.91521   -110.78864   0.40618792   -110.38245   -2191.9721     4.372793     4.372793     4.372793   -2191.9721    10768.258   -16280.247   -1063.9275    2392.2029    447.27162   -1353.2646    83.613571 
   65300    429.81451   -110.77126    0.3889052   -110.38235   -6494.3877    4.3722332    4.3722332    4.3722332   -6494.3877     8509.144   -17529.573   -10462.734    -4850.865   -3279.6367    8526.9102    83.581461 
   65400    471.42092   -110.80752   0.42655155   -110.38097    2969.7481      4.36718      4.36718      4.36718    2969.7481    8815.9524    -2580.544     2673.836   -1827.8982   -6075.3388    811.44853    83.291999 
   65500     385.5277   -110.72954   0.34883357    -110.3807   -1807.0017    4.3753966    4.3753966    4.3753966   -1807.0017   -6263.0031   -8299.1041     9141.102   -103.64836    3712.4022   -6873.9843    83.763009 
   65600    233.56155   -110.59337    0.2113314   -110.38204    3941.3453    4.3663476    4.3663476    4.3663476    3941.3453    25411.882   -11383.417   -2204.4296    4768.5964    4085.9408    6089.9232    83.244382 
   65700    386.88409   -110.73252   0.35006085   -110.38246    1493.5657    4.3716035    4.3716035    4.3716035    1493.5657    22005.733   -12654.862   -4870.1742    1264.9961    6248.5203   -1601.4433    83.545352 
   65800    425.18196    -110.7664   0.38471357   -110.38169   -5074.9233    4.3728004    4.3728004    4.3728004   -5074.9233    14963.701   -16373.263   -13815.208    2046.0758   -2304.4393    1898.4977    83.613993 
   65900    505.18749   -110.83751   0.45710426    -110.3804   -3256.2395    4.3649129    4.3649129    4.3649129   -3256.2395    11710.164   -12761.669   -8717.2132   -1565.2195     639.1294    9753.3219    83.162347 
   66000    503.36168   -110.83529   0.45545223   -110.37984   -7219.8097    4.3769606    4.3769606    4.3769606   -7219.8097    6769.3635   -15970.906   -12457.887    121.26514   -1600.7673    -5403.446    83.852865 
   66100    209.00148   -110.57104   0.18910894   -110.38193    9620.1216    4.3637056    4.3637056    4.3637056    9620.1216    35559.492   -6056.4791   -642.64821    3060.4934    3259.2929    5210.0182    83.093363 
   66200    374.63565   -110.72196   0.33897821   -110.38298   -7775.4652      4.37402      4.37402      4.37402   -7775.4652    6514.0766   -15724.723   -14115.749    3714.1303   -259.17442     2081.242    83.683973 
   66300    404.23547   -110.74673   0.36576075   -110.38097    2550.5572    4.3701374    4.3701374    4.3701374    2550.5572    6513.3736    2369.9527   -1231.6547    524.60198    35.926487   -6367.8233    83.461324 
   66400    470.71667   -110.80784   0.42591433   -110.38192   -6107.5288     4.369228     4.369228     4.369228   -6107.5288    6667.5305   -10057.943   -14932.174   -3698.8664   -4219.2381    10744.732    83.409232 
   66500    472.01295   -110.80841   0.42708724   -110.38133   -4052.4635    4.3742552    4.3742552    4.3742552   -4052.4635    10525.111   -8292.3741   -14390.128   -2199.9903    1179.1748    2743.1338    83.697472 
   66600     328.8012   -110.67892   0.29750623   -110.38141    7652.3921    4.3680066    4.3680066    4.3680066    7652.3921    24432.119   -8970.2692    7495.3267   -160.36189    6718.4356    832.45994    83.339302 
   66700    330.49625   -110.68072   0.29903996   -110.38168   -6061.3788    4.3727884    4.3727884    4.3727884   -6061.3788    2322.1615   -19960.252   -546.04594    3912.6542    4822.4668    4412.9548    83.613303 
   66800    352.76533   -110.69995   0.31918949   -110.38076    3777.4871    4.3719333    4.3719333    4.3719333    3777.4871    4621.3191    515.82935    6195.3129    996.89813   -1601.7181   -4509.9611    83.564264 
   66900    524.03114   -110.85389   0.47415438   -110.37973    -4364.192    4.3701914    4.3701914    4.3701914    -4364.192   -8771.4415   -4110.5584   -210.57606     558.2419   -4881.4332   -2326.2261     83.46442 
   67000     357.2047   -110.70496   0.32320632   -110.38175    3819.7741    4.3709451    4.3709451    4.3709451    3819.7741    21268.459   -1347.2437   -8461.8928   -4392.8512   -3667.8401    9144.4845    83.507612 
   67100    480.57189   -110.81519   0.43483154   -110.38036    857.26288    4.3716895    4.3716895    4.3716895    857.26288    697.08244    -3705.887    5580.5932    1651.1659   -716.29787    707.00551    83.550286 
   67200    301.46746   -110.65476   0.27277409   -110.38199    6632.4187    4.3664322    4.3664322    4.3664322    6632.4187    13846.547   -13768.496    19819.206    918.74534    4786.1113    2167.6098    83.249218 
   67300    363.69285    -110.7123   0.32907693   -110.38322   -5474.2871    4.3749221    4.3749221    4.3749221   -5474.2871   -5688.7996   -12140.263    1406.2011    1685.7493   -4502.6491    3426.7357    83.735763 
   67400    550.31022    -110.8779   0.49793225   -110.37997    871.42336    4.3674388    4.3674388    4.3674388    871.42336   -957.75931   -4931.9979    8504.0272   -625.26351   -1858.5603   -5288.7739    83.306806 
   67500    371.19151   -110.71904   0.33586188   -110.38317    2974.2681     4.371772     4.371772     4.371772    2974.2681     12216.68    -4036.957    743.08103   -2699.7253    1373.3001    6581.3806    83.555012 
   67600    369.94377   -110.71707    0.3347329   -110.38234    5454.5695     4.372998     4.372998     4.372998    5454.5695    2144.6779   -6652.6915    20871.722   -4159.6598    6534.3805    6177.6742    83.625329 
   67700    309.10681   -110.66104   0.27968634   -110.38135    11501.495    4.3675904    4.3675904    4.3675904    11501.495    11300.703   -4152.7361    27356.517    -2287.657    5825.4896    2708.4929    83.315481 
   67800    330.24212   -110.68051   0.29881001    -110.3817   -7496.9524    4.3735813    4.3735813    4.3735813   -7496.9524   -1970.7292   -16892.366   -3627.7621     909.1914    2035.3362    5845.3507    83.658796 
   67900    516.67923   -110.84729   0.46750222   -110.37979   -7666.6386    4.3702071    4.3702071    4.3702071   -7666.6386    415.49352   -15165.737    -8249.673   -44.724672   -5243.4544   -1756.2732    83.465317 
   68000    511.67851   -110.84498   0.46297747   -110.38201   -3439.1614     4.368701     4.368701     4.368701   -3439.1614   -11285.041   -9721.6854    10689.242    3256.9486   -5280.2302    -1372.747    83.379055 
   68100    328.83331   -110.68172   0.29753529   -110.38418    2305.5982    4.3743629    4.3743629    4.3743629    2305.5982     9881.779   -14128.155    11163.171   -717.35093    4248.7989    7825.1772    83.703654 
   68200    436.62821   -110.77582   0.39507038   -110.38075    4246.1126    4.3687927    4.3687927    4.3687927    4246.1126    234.38075   -6602.9761    19106.933    773.68425   -326.75597    1984.0431    83.384303 
   68300    327.51467   -110.67827   0.29634215   -110.38193    1091.2986    4.3677759    4.3677759    4.3677759    1091.2986      15908.2   -648.65178   -11985.653   -3977.9797    1470.8107     4617.203    83.326095 
   68400    326.09987   -110.67817   0.29506201   -110.38311   -7486.4133    4.3761685    4.3761685    4.3761685   -7486.4133   -2196.0234   -17537.097   -2726.1199   -250.70236    -5173.927    4068.6013    83.807347 
   68500    523.60371    -110.8536   0.47376764   -110.37984    4988.0573    4.3631855    4.3631855    4.3631855    4988.0573   -700.52496   -3681.5333     19346.23   -54.497677   -446.00618   -4421.5887    83.063655 
   68600     345.3621   -110.69611   0.31249088   -110.38362    939.30704    4.3763144    4.3763144    4.3763144    939.30704    683.59213   -16529.166    18663.495    1895.8845    3678.9332    3456.6007    83.815733 
   68700    487.95782    -110.8232   0.44151449   -110.38168    1362.7341     4.367544     4.367544     4.367544    1362.7341    13649.928    -13871.43    4309.7042   -717.83781    6262.8583    4499.1452    83.312825 
   68800    398.19199   -110.74115   0.36029248   -110.38086    2269.9258    4.3707894    4.3707894    4.3707894    2269.9258    12608.713   -5258.4717   -540.46413   -2462.1839   -3009.9154    407.91173    83.498688 
   68900    345.94922    -110.6947   0.31302213   -110.38168   -8217.2068    4.3741699    4.3741699    4.3741699   -8217.2068    -2482.865   -12670.229   -9498.5264   -2189.4402   -4994.5537    6667.3983    83.692577 
   69000    288.82417   -110.64269   0.26133418   -110.38135     11361.02    4.3652932    4.3652932    4.3652932     11361.02    9661.9929   -4090.3069    28511.375    -2093.772   -1560.3178    -2124.298    83.184088 
   69100    535.87435   -110.86595   0.48487037   -110.38108   -9590.4484    4.3765752    4.3765752    4.3765752   -9590.4484   -16620.154   -11853.801   -297.39012    4453.0981   -574.52948   -1694.6581    83.830719 
   69200     329.8832   -110.68236   0.29848525   -110.38387    7579.8965    4.3632085    4.3632085    4.3632085    7579.8965    23586.412   -3372.9111    2526.1884    2841.7553    2742.2896    10594.389    83.064965 
   69300    517.79047   -110.85005    0.4685077   -110.38154   -9795.1958    4.3746297    4.3746297    4.3746297   -9795.1958   -830.55069   -17523.663   -11031.373    477.16753   -4558.6657   -301.12669    83.718971 
   69400    333.38971   -110.68289   0.30165801   -110.38123   -1404.9315    4.3710957    4.3710957    4.3710957   -1404.9315   -1213.1761   -8619.8071    5618.1888   -1781.5039   -5108.8304     1102.444    83.516244 
   69500    258.97769   -110.61649   0.23432845   -110.38216    2094.5252    4.3675202    4.3675202    4.3675202    2094.5252    3990.4144   -12499.195    14792.356   -2119.0659   -1520.1247    3832.1522    83.311464 
   69600    480.71686   -110.81496   0.43496272      -110.38   -6620.9117    4.3759484    4.3759484    4.3759484   -6620.9117   -14515.009   -11394.348    6046.6219   -2244.2563    4133.5432   -8131.3394    83.794703 
   69700    493.49759   -110.82609   0.44652699   -110.37956   -972.30251    4.3675754    4.3675754    4.3675754   -972.30251   -81.028262    879.22376    -3715.103    1036.2234    398.52074    4512.6222    83.314622 
   69800    390.45021   -110.73583   0.35328755   -110.38254    515.28154    4.3714121    4.3714121    4.3714121    515.28154    452.63593   -11045.413    12138.622    1596.0633   -771.21436    11343.862    83.534377 
   69900    356.74168   -110.70521   0.32278736   -110.38242    3465.2273    4.3708219    4.3708219    4.3708219    3465.2273    2182.5639   -10495.606    18708.724    1649.4121   -4651.4043    47.605793    83.500549 
   70000    366.48904     -110.715   0.33160699   -110.38339    115.10644     4.367996     4.367996     4.367996    115.10644   -933.85657   -9252.9596    10532.135    -1063.221   -5247.2711    3720.2672    83.338696 
   70100    363.64555   -110.71204   0.32903414   -110.38301   -4774.8973      4.37216      4.37216      4.37216   -4774.8973    8748.7855   -19193.435    -3880.042   -1769.2716    3573.1884    2333.0096    83.577264 
   70200    536.33491   -110.86733    0.4852871   -110.38205    -1847.045    4.3680182    4.3680182    4.3680182    -1847.045   -9730.0948   -3106.2659    7295.2257    1452.4231   -1395.5206   -2405.9956    83.339963 
   70300    403.58234   -110.74927   0.36516978    -110.3841   -2502.8707    4.3746668    4.3746668    4.3746668   -2502.8707    862.13788   -14709.957     6339.207    540.01698   -2955.0965    9817.4964    83.721105 
   70400    288.19857   -110.64427   0.26076812    -110.3835    9172.5345    4.3635927    4.3635927    4.3635927    9172.5345     11383.78   -3477.3277    19611.151    3672.8899   -4260.0805    5972.3559    83.086911 
   70500     434.1094   -110.77573   0.39279131   -110.38294   -8064.1978    4.3780034    4.3780034    4.3780034   -8064.1978    -484.4662   -14811.404   -8896.7238    3646.3279   -1780.9369   -3072.5547    83.912814 
   70600    302.65349   -110.65556   0.27384724   -110.38171     1469.039    4.3665327    4.3665327    4.3665327     1469.039    17198.985     -8806.41   -3985.4578    1651.4964    3951.6766    6792.2633    83.254967 
   70700    428.04905   -110.76795   0.38730778   -110.38064   -5505.2984    4.3699008    4.3699008    4.3699008   -5505.2984    1464.6094   -17853.831   -126.67371   -2675.1002    5712.8642   -5719.1348    83.447767 
   70800    486.83466   -110.82028   0.44049823   -110.37978   -7767.6188     4.377388     4.377388     4.377388   -7767.6188   -12801.325   -23790.643    13289.111   -522.83487    2275.1211    2344.3779     83.87743 
   70900    405.31946   -110.74712   0.36674156   -110.38038    9172.7819    4.3604695    4.3604695    4.3604695    9172.7819    20075.664     -7158.95    14601.632   -1748.9601   -6136.4609    12092.569    82.908636 
   71000    460.74434   -110.79691   0.41689116   -110.38002    -14477.22    4.3821785    4.3821785    4.3821785    -14477.22   -5391.8466   -22079.717   -15960.098    391.05861   -544.36465   -2259.3477    84.153117 
   71100    370.83097   -110.71453   0.33553565     -110.379    11572.199    4.3602285    4.3602285    4.3602285    11572.199     14371.75    2038.4068    18306.441    3502.7204    107.89785    2382.4579    82.894889 
   71200    208.21213   -110.57103   0.18839472   -110.38264     236.2552    4.3746214    4.3746214    4.3746214     236.2552    7361.7364   -11205.129    4552.1583     667.2515    3959.2114    542.90713    83.718495 
   71300    479.24679    -110.8159   0.43363256   -110.38226   -2251.6526    4.3690225    4.3690225    4.3690225   -2251.6526   -8211.7137   -9949.9016    11406.657    958.95724   -4104.0105   -8644.0402    83.397465 
   71400    466.70807   -110.80637   0.42228727   -110.38408    4159.6099    4.3688422    4.3688422    4.3688422    4159.6099    8768.8603   -9434.8572    13144.826   -2143.6681   -2962.1467    4102.3462    83.387141 
   71500    533.04109   -110.86525   0.48230678   -110.38294   -11613.985    4.3748745    4.3748745    4.3748745   -11613.985   -2180.2331    -23232.06   -9429.6607    1413.3315   -380.53995    7576.4896    83.733031 
   71600    354.15309   -110.70165   0.32044516    -110.3812    6998.1607     4.367065     4.367065     4.367065    6998.1607    9059.4228   -14641.416    26576.475   -298.68121    4518.5531   -4269.3037    83.285418 
   71700    305.63559   -110.65768   0.27654551   -110.38114   -28.286824    4.3724648    4.3724648    4.3724648   -28.286824   -1366.5645   -14311.404    15593.108    4038.7107    6007.4881     2978.436    83.594741 
   71800    289.95277    -110.6445   0.26235536   -110.38214   -1126.1218     4.369225     4.369225     4.369225   -1126.1218    7060.9286   -4201.5948   -6237.6992    757.13215   -3833.2367   -1955.5534     83.40906 
   71900    523.55284   -110.85494   0.47372161   -110.38122   -3257.0679     4.370385     4.370385     4.370385   -3257.0679   -9362.6335    311.08878   -719.65903    -1853.243    1402.4221   -4872.0153    83.475512 
   72000    459.22295   -110.79803   0.41551458   -110.38251   -2681.0251     4.371815     4.371815     4.371815   -2681.0251   -291.32701   -8358.0429    606.29474   -2561.9488    -2652.868    10468.389     83.55748 
   72100     316.0354   -110.66902   0.28595547   -110.38306    4042.2235    4.3670576    4.3670576    4.3670576    4042.2235    2951.5887    -14376.28    23551.362   -3695.4109    5908.4403    904.59692    83.284995 
   72200    407.96992   -110.75058   0.36913976   -110.38144   -7281.2971    4.3748762    4.3748762    4.3748762   -7281.2971   -416.02774   -25022.608     3594.744    1992.4753    1825.1315   -4475.3708    83.733127 
   72300    387.56536   -110.73127   0.35067728   -110.38059   -3283.1977    4.3683905    4.3683905    4.3683905   -3283.1977    10838.645   -8128.5399   -12559.699    395.17769   -1909.0318     3833.135     83.36128 
   72400    418.35653   -110.76058   0.37853778   -110.38204   -3264.0625    4.3720184    4.3720184    4.3720184   -3264.0625   -2781.0969   -14717.014    7705.9239    5417.9295   -4677.5708   -4705.6256    83.569141 
   72500    451.27272   -110.79151   0.40832104   -110.38319    733.41387    4.3708047    4.3708047    4.3708047    733.41387   -6314.6705   -4336.9234    12851.836    911.51844   -2274.9638    2392.4008    83.499565 
   72600    404.42489   -110.74919   0.36593214   -110.38326    6952.6484    4.3680266    4.3680266    4.3680266    6952.6484   -3706.4585   -4704.2471    29268.651   -495.94064     4711.192    9899.0993    83.340449 
   72700    347.79007   -110.69751   0.31468776   -110.38282   -4625.7963    4.3751872    4.3751872    4.3751872   -4625.7963    4324.0934   -15565.801    -2635.681   -2126.7525    3960.3637   -3701.6359    83.750986 
   72800    468.52783   -110.80473   0.42393383   -110.38079    231.43087    4.3635062    4.3635062    4.3635062    231.43087     7990.322   -5218.4323   -2077.5971   -1714.2431     2869.261   -2879.4299    83.081972 
   72900    263.63057    -110.6208   0.23853848   -110.38226    1080.0234    4.3774702    4.3774702    4.3774702    1080.0234    10387.742   -16880.633    9732.9612    587.01262    -5841.128    2426.0451    83.882156 
   73000    438.80242   -110.77873   0.39703765    -110.3817     1641.115    4.3633743    4.3633743    4.3633743     1641.115   -4599.3084   -10667.246      20189.9    312.74625    2486.6487   -6465.4764    83.074439 
   73100     446.1583   -110.78812   0.40369341   -110.38443   -2591.1357    4.3741685    4.3741685    4.3741685   -2591.1357    63.031723   -9123.4027     1286.964    2455.7636    2073.9454    4837.0628    83.692498 
   73200    518.82048   -110.85185   0.46943968   -110.38242   -5643.7486    4.3695185    4.3695185    4.3695185   -5643.7486     323.1869   -9697.6233   -7556.8093   -4069.4648     79.04248    3790.5471    83.425873 
   73300    330.24218   -110.68102   0.29881007   -110.38221    1506.6386     4.367412     4.367412     4.367412    1506.6386    9488.6446   -7472.6315    2503.9026   -1620.9352   -4371.6586   -9945.1101    83.305272 
   73400     276.7613   -110.63203   0.25041944   -110.38161    5305.6707    4.3752328    4.3752328    4.3752328    5305.6707    4940.0806   -11133.063    22109.995   -3257.7028   -5633.1656    452.12873    83.753602 
   73500    326.81427    -110.6772   0.29570842   -110.38149    8005.8365    4.3641537    4.3641537    4.3641537    8005.8365    11332.438   -5307.1422    17992.213    377.33858   -2949.7759   -3116.6189    83.118962 
   73600    446.57141   -110.78508    0.4040672   -110.38102   -12181.363    4.3767723    4.3767723    4.3767723   -12181.363   -8538.1489   -17737.154   -10268.787    1787.9604    209.29718   -2887.2755    83.842044 
   73700    637.65439   -110.95599   0.57696309   -110.37902   -4682.6364    4.3659977    4.3659977    4.3659977   -4682.6364   -4040.6883   -10240.875    233.65452      2389.08    7863.7221    6101.1693    83.224366 
   73800    339.46237   -110.69071   0.30715269   -110.38355   -790.43733    4.3714214    4.3714214    4.3714214   -790.43733    5512.2117    -20184.62    12301.097    1887.1742   -2680.1077   -4469.7261    83.534914 
   73900    403.18128   -110.74778   0.36480689   -110.38297   -2638.5581      4.37363      4.37363      4.37363   -2638.5581   -7437.6246   -18540.999    18062.949   -2024.0676   -2018.4588   -6721.8592     83.66159 
   74000    290.39407   -110.64461   0.26275465   -110.38186    13384.985    4.3636775    4.3636775    4.3636775    13384.985    22215.548    9542.2685    8397.1386   -2205.6919   -351.41624   -195.27961    83.091757 
   74100    372.62266   -110.71969   0.33715681   -110.38254   -12654.725    4.3756997    4.3756997    4.3756997   -12654.725   -6955.1428   -9905.7834    -21103.25   -4439.5492    1040.1392    -3954.104    83.780417 
   74200     408.4455   -110.75028   0.36957007   -110.38071    1509.7779    4.3684412    4.3684412    4.3684412    1509.7779   -4197.2769    1785.5721    6941.0386    387.66817    4012.0729    2856.1869    83.364178 
   74300    463.46475    -110.8002   0.41935264   -110.38085    4265.4033    4.3674117    4.3674117    4.3674117    4265.4033   -2978.7758   -10777.099    26552.085    582.29543   -1407.7792    4887.4435    83.305254 
   74400    376.93372   -110.72394   0.34105755   -110.38288   -8038.5292    4.3769404    4.3769404    4.3769404   -8038.5292   -3411.8249   -27917.824    7214.0611    2193.2421   -2166.0121   -8516.6715    83.851707 
   74500    512.69566   -110.84365   0.46389781   -110.37975    2640.0037    4.3623433    4.3623433    4.3623433    2640.0037    9701.5833   -7343.7262    5562.1542   -430.35352   -1343.0263    -2769.366    83.015563 
   74600    329.25777   -110.68012   0.29791935    -110.3822   -3632.5535    4.3753381    4.3753381    4.3753381   -3632.5535    3669.4437   -9245.5976   -5321.5067   -1774.4715    4113.5648    1239.5799    83.759651 
   74700    338.97675   -110.68917   0.30671329   -110.38245   -770.77604    4.3674505    4.3674505    4.3674505   -770.77604   -2933.0037   -8290.6092    8911.2848    1247.6933    878.36872   -4522.9223    83.307478 
   74800    372.01111   -110.71862   0.33660347   -110.38202    6461.1592    4.3693716    4.3693716    4.3693716    6461.1592   -9058.5326    1199.4565    27242.554   -361.20511    2700.5537    7071.6462    83.417459 
   74900    473.10073   -110.81166   0.42807149   -110.38359   -4496.9842     4.370706     4.370706     4.370706   -4496.9842    5006.1467   -12478.798   -6018.3015    4446.1128   -4486.1933   -1029.4533    83.493907 
   75000    451.79453   -110.79326   0.40879319   -110.38447   -3651.2593    4.3675879    4.3675879    4.3675879   -3651.2593    4676.6559    -15288.06   -342.37378    1890.8836     3292.219   -10089.598    83.315341 
   75100     367.1401   -110.71521   0.33219608   -110.38301    1361.7488      4.37339      4.37339      4.37339    1361.7488    11365.763   -14904.742    7624.2258   -83.328242    8887.2197   -1100.1662    83.647816 
   75200    340.78167   -110.69046   0.30834642   -110.38211    1430.6543    4.3677102    4.3677102    4.3677102    1430.6543     3353.915   -13942.501    14880.549   -1540.2348    1091.7992   -2078.6757    83.322335 
   75300    380.41363   -110.72524   0.34420625   -110.38103   -1632.2125    4.3716421    4.3716421    4.3716421   -1632.2125   -7394.8771   -12433.391    14931.631   -1396.4142    1120.3408   -707.56792    83.547566 
   75400     558.8037   -110.88526   0.50561733   -110.37964   -6978.5938    4.3720825    4.3720825    4.3720825   -6978.5938   -4583.8432   -6391.3744   -9960.5637   -2304.8488   -3489.8573    2975.1082    83.572817 
   75500    407.39099   -110.75009   0.36861593   -110.38148    1482.4668     4.366343     4.366343     4.366343    1482.4668    7646.7923   -11574.914    8375.5215    865.03979   -1740.8982   -7101.0723    83.244113 
   75600    330.96881   -110.68222   0.29946753   -110.38275    478.05327    4.3740057    4.3740057    4.3740057    478.05327   -637.66974   -16224.515    18296.345    1002.4969    1053.8456   -7022.7477     83.68315 
   75700     326.6736   -110.67695   0.29558114   -110.38136    10020.324      4.36661      4.36661      4.36661    10020.324    20372.674   -2487.9561    12176.254    2293.5331    8483.2053   -160.55229    83.259386 
   75800    393.66095   -110.73788    0.3561927   -110.38169   -3228.2594     4.369339     4.369339     4.369339   -3228.2594   -3106.5212   -10690.713    4112.4561    689.63026   -2173.8066   -7861.1787    83.415587 
   75900    495.76334   -110.82967   0.44857709   -110.38109   -10070.025    4.3728114    4.3728114    4.3728114   -10070.025   -5861.5439   -12066.714   -12281.819    336.03151   -102.27613    1799.5982    83.614625 
   76000    418.09517   -110.76145   0.37830129   -110.38315    5332.2317    4.3661717    4.3661717    4.3661717    5332.2317    4133.0651   -6464.3088    18327.939   -1348.9404    6332.8107    1620.8014    83.234319 
   76100    365.18948   -110.71531   0.33043111   -110.38488   -2258.9291    4.3719341    4.3719341    4.3719341   -2258.9291    4127.1377   -25855.716    14951.791    950.28359    2434.7955   -10641.619    83.564305 
   76200    374.53347   -110.72157   0.33888576   -110.38269    3669.0288    4.3697839    4.3697839    4.3697839    3669.0288    15415.669   -8711.8169    4303.2341    2601.5198     7425.186   -2737.5672    83.441071 
   76300    430.41366   -110.77115   0.38944732    -110.3817   -1220.8017    4.3689006    4.3689006    4.3689006   -1220.8017     3770.071   -1612.0365   -5820.4396    1511.7242    75.777674   -3839.0255    83.390485 
   76400    348.88364   -110.69715   0.31567725   -110.38147   -6792.5355    4.3716637    4.3716637    4.3716637   -6792.5355   -2253.1637   -6509.0371   -11615.406    224.96559   -4585.8933   -3037.0571    83.548803 
   76500    433.09196   -110.77219   0.39187071   -110.38032   -4304.5216    4.3720138    4.3720138    4.3720138   -4304.5216    -12416.71   -5085.1721    4588.3173   -5144.0546    855.53708    5926.5503    83.568877 
   76600    339.06308   -110.68777    0.3067914   -110.38098    7835.5913    4.3657368    4.3657368    4.3657368    7835.5913     17265.27   -9009.8731    15251.377   -2288.6561    8654.9146    -808.1901    83.209452 
   76700    431.00374    -110.7719   0.38998124   -110.38192   -7704.3454    4.3747686    4.3747686    4.3747686   -7704.3454    8834.7015   -24341.753   -7605.9848    -2963.309    322.67015   -4530.3382    83.726947 
   76800    468.06609   -110.80349   0.42351603   -110.37997    1158.5635    4.3670839    4.3670839    4.3670839    1158.5635    14675.388   -9267.4228   -1932.2744    3547.7584    4046.7071   -782.12759    83.286499 
   76900    409.20294     -110.752   0.37025542   -110.38174   -5660.0653    4.3687863    4.3687863    4.3687863   -5660.0653    2350.4055   -8580.4999   -10750.102    1937.2441   -1439.3229   -5913.2767    83.383938 
   77000    395.64711   -110.74016   0.35798982   -110.38217    -9482.595    4.3745083    4.3745083    4.3745083    -9482.595   -8428.9721   -13264.016   -6754.7968    1281.6822    1901.9189   -2274.4547    83.712002 
   77100    300.28114   -110.65416   0.27170069   -110.38245    16690.544    4.3626391    4.3626391    4.3626391    16690.544    34511.158    1625.9235    13934.552   -3347.7205    11406.569    3923.3648     83.03245 
   77200    342.55168   -110.69406   0.30994796   -110.38411   -1860.1047    4.3754079    4.3754079    4.3754079   -1860.1047    12653.053   -17554.469   -678.89811    -2284.042    4602.6068   -6203.0498    83.763657 
   77300    460.78287   -110.79733   0.41692602    -110.3804    1573.0636    4.3683951    4.3683951    4.3683951    1573.0636    16574.125   -9807.9494   -2046.9844   -1950.7334   -2370.0047    347.41429    83.361539 
   77400    549.23149   -110.87736    0.4969562   -110.38041   -7684.5038    4.3693957    4.3693957    4.3693957   -7684.5038    -5314.812   -9860.2825    -7878.417    196.10237    -3120.567    -1482.312    83.418835 
   77500    377.79152    -110.7237   0.34183371   -110.38187   -7470.4227    4.3736723    4.3736723    4.3736723   -7470.4227    4592.3673   -14214.681   -12788.955    2830.3166   -799.53547   -9949.8135    83.664017 
   77600    358.46043   -110.70505   0.32434253    -110.3807    9555.8132    4.3669672    4.3669672    4.3669672    9555.8132    38586.429   -12585.635     2666.646   -2133.5321    5025.4136    2336.7804    83.279825 
   77700    327.62285   -110.67946   0.29644004   -110.38302    5824.0548    4.3701537    4.3701537    4.3701537    5824.0548    9644.6046   -7822.2633    15649.823   -2537.8335    10024.992   -1767.9476    83.462256 
   77800    375.24298   -110.72209   0.33952773   -110.38256   -2665.4645    4.3731502    4.3731502    4.3731502   -2665.4645    6282.4729   -15132.311    853.44439   -2657.1686    658.54931    -2405.663    83.634061 
   77900    536.84931   -110.86621   0.48575254   -110.38045    6081.6995    4.3629619    4.3629619    4.3629619    6081.6995    4024.3112    4185.9048    10034.882    4053.1696    583.84027    2886.5422    83.050887 
   78000    375.53125   -110.72378   0.33978856   -110.38399   -9277.6502    4.3764866    4.3764866    4.3764866   -9277.6502    6583.4964   -11732.311   -22684.136    2039.2997   -884.81101   -6565.9707    83.825629 
   78100    305.14052   -110.65902   0.27609756   -110.38292    7419.7731    4.3646027    4.3646027    4.3646027    7419.7731    34712.847   -9683.0211   -2770.5065    2486.2973     4627.631   -5799.4555    83.144621 
   78200    480.63726    -110.8178   0.43489069   -110.38291   -913.33529    4.3713271    4.3713271    4.3713271   -913.33529   -2024.3335    -13512.92    12797.248   -3258.0409    1702.9036   -649.05835    83.529505 
   78300    293.23425    -110.6491   0.26532451   -110.38377   -1758.9673     4.372525     4.372525     4.372525   -1758.9673    1355.6303    -15019.22    8386.6879   -1829.7181    1702.1724   -4621.6091    83.598194 
   78400    574.89063   -110.90053   0.52017312   -110.38036   -917.96958    4.3648409    4.3648409    4.3648409   -917.96958    5511.9569   -12429.436    4163.5707   -2042.8737   -7227.3483    1823.9257    83.158235 
   78500    414.43534   -110.75527    0.3749898   -110.38028   -2703.0373    4.3756701    4.3756701    4.3756701   -2703.0373     15227.71   -7977.1182   -15359.703    1724.2645    2324.8078    339.11283    83.778721 
   78600    312.19415    -110.6644   0.28247983   -110.38192    1119.5972     4.366012     4.366012     4.366012    1119.5972    16538.307   -9438.9711   -3740.5445    3053.2024    7359.2008   -8734.9301    83.225185 
   78700    333.81268   -110.68317   0.30204073   -110.38113    5927.2163    4.3721951    4.3721951    4.3721951    5927.2163    7870.5252   -12230.223    22141.346    3405.5281    6185.4042   -17.800641    83.579273 
   78800     372.0748   -110.71865    0.3366611   -110.38199     2577.659    4.3682235    4.3682235    4.3682235     2577.659   -5147.5705   -9824.3212    22704.869   -1309.2857    3051.1199   -6015.7411    83.351719 
   78900    432.07488   -110.77404   0.39095043   -110.38309   -9407.6604    4.3720407    4.3720407    4.3720407   -9407.6604   -5797.2994   -16697.445    -5728.237    482.89252   -1926.9304   -6319.8008    83.570423 
   79000    539.60947   -110.86912   0.48824999   -110.38087    3473.5572     4.366809     4.366809     4.366809    3473.5572    14292.504   -6472.1634    2600.3307   -1394.6963    1192.5574    6703.2019    83.270771 
   79100    381.72974    -110.7287   0.34539709    -110.3833   -5394.6528    4.3733877    4.3733877    4.3733877   -5394.6528   -5531.7692   -17051.928    6399.7387   -1293.3011    3043.7712   -4601.7358    83.647685 
   79200    241.98832   -110.60304   0.21895612   -110.38408     8156.944    4.3658396    4.3658396    4.3658396     8156.944    15521.708   -10544.025    19493.148    2584.0268     5617.547   -7296.1181    83.215326 
   79300    487.88005   -110.82358   0.44144413   -110.38213   -4935.6851    4.3709478    4.3709478    4.3709478   -4935.6851   -10678.528   -11224.146     7095.618    241.49051   -5603.6461     714.4688    83.507767 
   79400    418.16746   -110.76122    0.3783667   -110.38285   -10910.941    4.3725747    4.3725747    4.3725747   -10910.941   -6516.3915   -13896.344   -12320.089   -1282.2384   -117.75133   -5033.3776    83.601044 
   79500    437.14817   -110.77821   0.39554085   -110.38267    1252.2391    4.3661256    4.3661256    4.3661256    1252.2391   -2291.5354   -2323.4116    8371.6642    -2427.074     667.8796    400.27436    83.231682 
   79600    365.98703   -110.71227   0.33115276   -110.38112    2431.4057    4.3757877    4.3757877    4.3757877    2431.4057    2717.8751   -16104.169    20680.511   -177.13697    4508.3479    3544.8619    83.785471 
   79700    341.58907   -110.68959   0.30907697   -110.38051    2924.4033    4.3663399    4.3663399    4.3663399    2924.4033    1307.2248   -9597.5148      17063.5   -3324.7152    11355.646   -7438.4641    83.243938 
   79800    379.85671   -110.72448   0.34370234   -110.38078   -2662.8897    4.3713355    4.3713355    4.3713355   -2662.8897    15338.931   -16898.178   -6429.4224    2675.2817     498.0419   -2100.6445    83.529988 
   79900    509.53489   -110.84123   0.46103787    -110.3802    -11513.71     4.372348     4.372348     4.372348    -11513.71   -7402.3438    -19032.18   -8106.6057    1375.6328    835.50716   -153.23629    83.588045 
   80000    346.93665   -110.69625   0.31391557   -110.38233   -284.68289    4.3666596    4.3666596    4.3666596   -284.68289   -1549.7471   -7997.4947    8693.1931    1646.4337    -1911.171   -4830.0035    83.262225 
   80100    344.87224   -110.69499   0.31204765   -110.38294    5245.3598    4.3717575    4.3717575    4.3717575    5245.3598    3076.3444   -8393.2793    21053.014   -138.65519    6153.2761    8091.5322    83.554183 
   80200    466.01459   -110.80449    0.4216598   -110.38283    3427.5508      4.36796      4.36796      4.36796    3427.5508    9728.5089   -6095.6899    6649.8333   -4514.0863     506.9521    3527.3044    83.336634 
   80300    313.71578   -110.66783   0.28385663   -110.38397    3406.1714    4.3712935    4.3712935    4.3712935    3406.1714    21385.324   -6624.8755   -4541.9346   -1554.7591    2489.2131   -6763.8491    83.527581 
   80400    492.87202   -110.82708   0.44596096   -110.38112   -8115.6166    4.3695075    4.3695075    4.3695075   -8115.6166    3230.5483   -17465.643   -10111.755   -2486.3847   -6111.9703    3862.2224    83.425243 
   80500    384.58454   -110.72948   0.34798017    -110.3815   -4248.6364    4.3700146    4.3700146    4.3700146   -4248.6364   -2108.5523   -18519.276    7881.9194    1948.2406   -1550.5423   -3634.9387    83.454289 
   80600    370.83664   -110.71749   0.33554078   -110.38195    792.98578    4.3704365    4.3704365    4.3704365    792.98578    3819.9367   -15862.636    14421.656   -1859.3212    7939.6362   -3510.1771    83.478461 
   80700     403.2664   -110.74714   0.36488391   -110.38225    5889.0901    4.3685804    4.3685804    4.3685804    5889.0901    23685.218   -6472.5803    454.63233   -1226.4412     3975.973    6730.8281    83.372152 
   80800    374.86595   -110.72172   0.33918659   -110.38253    3811.8239    4.3697115    4.3697115    4.3697115    3811.8239    19992.331   -5964.4333   -2592.4258   -5626.2816     3212.486   -2957.7273    83.436928 
   80900    447.45732    -110.7864   0.40486879   -110.38153   -10257.551    4.3719658    4.3719658    4.3719658   -10257.551    1882.0829   -8583.7191   -24071.017    1753.3845   -1195.5895   -3369.8121    83.566126 
   81000    400.00822   -110.74287   0.36193584   -110.38094   -1496.0859    4.3659838    4.3659838    4.3659838   -1496.0859    7785.0114   -7426.3922   -4846.8769    1805.1693    263.77246    2475.0572    83.223574 
   81100    419.60109   -110.76116   0.37966389    -110.3815   -7992.6351     4.374343     4.374343     4.374343   -7992.6351    6885.5078   -25032.317   -5831.0965    1884.0751   -371.99632    -5738.948    83.702512 
   81200    281.68093   -110.63698   0.25487083   -110.38211    8934.9425     4.366436     4.366436     4.366436    8934.9425    37478.315   -9248.8165   -1424.6709    1158.1106    9691.1283    1786.0898    83.249435 
   81300     469.9177    -110.8067   0.42519141   -110.38151   -3476.6815    4.3711886    4.3711886    4.3711886   -3476.6815    4008.9223   -11275.234   -3163.7325   -6316.9857   -2238.5383     5096.289    83.521568 
   81400    462.63227    -110.7995    0.4185994    -110.3809   -8210.9509    4.3711616    4.3711616    4.3711616   -8210.9509   -7899.9626   -5131.6015   -11601.289   -3708.7756   -63.498334   -2339.1763    83.520019 
   81500      349.375   -110.69886   0.31612185   -110.38274    1054.1757    4.3660329    4.3660329    4.3660329    1054.1757    17571.783    1724.5517   -16133.807    1601.4561    993.39249    4306.8168    83.226383 
   81600    436.70301     -110.777   0.39513806   -110.38186   -7307.5505    4.3743308    4.3743308    4.3743308   -7307.5505    9559.8147   -18021.532   -13460.935    2575.5843    3116.7976    -2318.964    83.701812 
   81700    261.56656   -110.62004   0.23667092   -110.38337    11934.712    4.3652008    4.3652008    4.3652008    11934.712    31469.872   -8820.3844    13154.649    1934.1304     8659.386   -6853.0963    83.178806 
   81800    436.63397   -110.77751   0.39507559   -110.38244   -5075.6279    4.3737046    4.3737046    4.3737046   -5075.6279   -8599.1451   -12357.276    5729.5379    778.97832    5479.4393    2960.5524    83.665872 
   81900    479.73497   -110.81449   0.43407428   -110.38042   -2171.9558    4.3687731    4.3687731    4.3687731   -2171.9558   -4239.5664   -13289.442    11013.141   -2511.4247   -6701.9367   -2367.6378    83.383183 
   82000    387.62821   -110.73226   0.35073415   -110.38153   -2062.4585    4.3692464    4.3692464    4.3692464   -2062.4585    13186.362   -5218.6589   -14155.079    347.03547   -2430.4113    90.347035    83.410285 
   82100    430.88571   -110.77131   0.38987444   -110.38144   -3080.8475    4.3708638    4.3708638    4.3708638   -3080.8475    18473.282   -15894.353   -11821.471     2306.134    2058.8388    5427.0976    83.502951 
   82200     319.9625    -110.6715   0.28950879     -110.382    7197.2883    4.3686193    4.3686193    4.3686193    7197.2883    16898.099   -11039.978    15733.744     1907.956    3003.2752   -6106.9191    83.374376 
   82300    419.68028   -110.76228   0.37973554   -110.38255    601.27282    4.3683659    4.3683659    4.3683659    601.27282   -6583.0425   -7576.9788     15963.84   -1475.2086    4205.7904   -1703.8704     83.35987 
   82400    384.90657    -110.7305   0.34827155   -110.38223   -349.09743    4.3724179    4.3724179    4.3724179   -349.09743   -5905.2414    -5143.248    10001.197   -682.51952   -915.59752    1892.9148    83.592055 
   82500    522.95139   -110.85371   0.47317741   -110.38054   -1785.0194    4.3654573    4.3654573    4.3654573   -1785.0194    5899.2572   -5963.5429   -5290.7725   -5384.9412   -1599.7161    -2887.868    83.193469 
   82600    278.61684   -110.63495   0.25209837   -110.38285   -436.21377    4.3748804    4.3748804    4.3748804   -436.21377    15151.282    -10293.16   -6166.7631    505.85599    5488.7023    4811.4766    83.733366 
   82700    418.31094   -110.75878   0.37849653   -110.38028    3962.4897    4.3668913    4.3668913    4.3668913    3962.4897    6182.8408   -16609.857    22314.486   -909.92663    7372.5681    2403.6164     83.27548 
   82800    357.71186   -110.70526   0.32366521   -110.38159    2764.3453    4.3709471    4.3709471    4.3709471    2764.3453   -1743.4301   -12044.925    22081.391     2464.481   -2323.2242   -7776.6781    83.507724 
   82900    487.77393   -110.82205   0.44134811   -110.38071   -7883.3153    4.3712401    4.3712401    4.3712401   -7883.3153   -12420.172   -11122.066   -107.70822    2046.6977    697.23167    1914.3277    83.524518 
   83000    489.57287   -110.82349   0.44297582   -110.38051   -3221.6733    4.3675133    4.3675133    4.3675133   -3221.6733   -4974.9118    545.42711   -5235.5354   -1819.0208   -3486.5483    2103.7598     83.31107 
   83100    343.90781    -110.6941   0.31117502   -110.38292   -1893.6747    4.3727582    4.3727582    4.3727582   -1893.6747    3959.7259   -12713.312    3072.5618   -1040.0646    1664.2452    -2174.173    83.611572 
   83200    264.71797   -110.62352   0.23952238     -110.384    9209.4629     4.366461     4.366461     4.366461    9209.4629    6284.7497   -3286.2793    24629.918   -2810.6658    7860.0593    9281.0162    83.250867 
   83300    379.09795   -110.72594    0.3430158   -110.38293    1714.3509    4.3719352    4.3719352    4.3719352    1714.3509    10351.022    -17017.77    11809.801    1092.4213    1192.5245   -1915.3877    83.564369 
   83400    539.57215   -110.86961   0.48821622   -110.38139    -7522.335    4.3695314    4.3695314    4.3695314    -7522.335   -2856.6264   -13181.323   -6529.0552   -1808.9743   -1296.0101    -4622.452    83.426609 
   83500    476.20768   -110.81309   0.43088272   -110.38221   -5407.7778    4.3690293    4.3690293    4.3690293   -5407.7778   -5226.2664   -11023.614     26.54716    3444.0709   -396.78953    4857.3009    83.397855 
   83600    378.48994   -110.72413   0.34246565   -110.38166    2380.0634    4.3713398    4.3713398    4.3713398    2380.0634     -828.863     -13739.5    21708.553   -2926.2156    3425.7155   -137.06183    83.530234 
   83700    300.13131   -110.65416   0.27156512    -110.3826    4330.2333    4.3699281    4.3699281    4.3699281    4330.2333    10909.709   -13895.022    15976.013   -1434.2142    5654.4727    2907.5576    83.449335 
   83800    336.04796   -110.68629   0.30406326   -110.38222    6028.7765    4.3664605    4.3664605    4.3664605    6028.7765    11780.049    1367.1638    4939.1168   -2321.3039    5606.2665    8009.4763    83.250836 
   83900    477.53491   -110.81347   0.43208363   -110.38139   -7413.3428    4.3755767    4.3755767    4.3755767   -7413.3428    3907.8059   -12675.864    -13471.97   -4474.9388    -5287.908   -4300.2518    83.773351 
   84000    452.66597   -110.79093   0.40958169   -110.38135   -1204.7893    4.3656835    4.3656835    4.3656835   -1204.7893   -8528.8211   -1816.9152    6731.3684     2333.219   -429.99536   -854.83829    83.206403 
   84100    367.68924   -110.71522   0.33269295   -110.38253    92.642259    4.3706352    4.3706352    4.3706352    92.642259    -5098.978   -12966.042    18342.947   -466.25795    4039.7792    3017.5481    83.489849 
   84200    373.63491   -110.72009   0.33807272   -110.38202    1602.8348    4.3713187    4.3713187    4.3713187    1602.8348    12149.149   -16496.431    9155.7866    2693.0868    1108.8096   -3114.9743    83.529025 
   84300    426.54636   -110.76919   0.38594811   -110.38324   -4637.2836    4.3655302    4.3655302    4.3655302   -4637.2836    9705.2418   -12994.018   -10623.075    -3510.901    1760.5693    4970.9593    83.197637 
   84400    348.52579   -110.69963   0.31535346   -110.38427   -3977.4414    4.3747353    4.3747353    4.3747353   -3977.4414    6763.8189   -7247.2288   -11448.914   -934.47414    -3950.827    3835.3869    83.725033 
   84500    513.34548   -110.84589   0.46448578    -110.3814   -1096.9755    4.3665525    4.3665525    4.3665525   -1096.9755   -8105.7865   -7231.0894    12045.949   -2620.3225   -2335.7655   -7991.5412    83.256097 
   84600    269.18293   -110.62709   0.24356238   -110.38353    4501.3091    4.3708488    4.3708488    4.3708488    4501.3091   -890.03942   -3778.5583    18172.525    1098.6952    6623.8153    504.97093    83.502092 
   84700    447.43167   -110.78591   0.40484558   -110.38107   -902.07821    4.3717743    4.3717743    4.3717743   -902.07821    8602.9053   -10219.754   -1089.3861    3243.0984     7999.373   -94.329831    83.555144 
   84800    373.99243   -110.71875   0.33839621   -110.38035    3926.8484    4.3675617    4.3675617    4.3675617    3926.8484    21573.613   -10443.404    650.33652     2836.818   -2889.6618      -747.96    83.313841 
   84900     359.3922   -110.70694   0.32518562   -110.38175    -7525.345    4.3722881    4.3722881    4.3722881    -7525.345     5479.243   -14273.751   -13781.527    1101.6599    436.46286    9457.3915    83.584608 
   85000    450.34915   -110.78849   0.40748537     -110.381    2187.1941    4.3685821    4.3685821    4.3685821    2187.1941   -1312.0763    -5621.327    13494.986    -1344.187   -2737.5967    648.72853    83.372246 
   85100    418.19459   -110.76046   0.37839125   -110.38207    4746.7435     4.367789     4.367789     4.367789    4746.7435    8092.1695   -11321.441    17469.502    457.47787    1398.1722   -1848.1425    83.326846 
   85200    418.83226   -110.76303   0.37896823   -110.38407   -4026.3432    4.3728139    4.3728139    4.3728139   -4026.3432    4885.7908   -7699.0919   -9265.7284   -210.93537    4600.1809    2794.2831    83.614765 
   85300    415.42538   -110.75705   0.37588562   -110.38117    7650.0476    4.3663115    4.3663115    4.3663115    7650.0476    25262.243   -9145.7668    6833.6665    -49.56268   -1944.9707    -2624.031    83.242312 
   85400    393.70872    -110.7381   0.35623592   -110.38186   -6425.6912    4.3705469    4.3705469    4.3705469   -6425.6912   -1037.8556   -13133.617   -5105.6009    339.13175   -5225.6284    2772.0623    83.484792 
   85500    289.98023   -110.64573   0.26238021   -110.38335   -2198.2497    4.3720584    4.3720584    4.3720584   -2198.2497   -2058.0935   -9741.9769    5205.3214   -1965.7938    3426.2827     8091.489    83.571438 
   85600    465.93754    -110.8025   0.42159008   -110.38091    6183.9063     4.366308     4.366308     4.366308    6183.9063    7164.8137   -2777.0841    14163.989   -4631.0333    7262.4954   -1578.7524    83.242116 
   85700    406.32434   -110.74981    0.3676508   -110.38216   -3358.4109    4.3744094    4.3744094    4.3744094   -3358.4109    14827.198   -15281.705   -9620.7254    1343.2496    2164.5417     1549.025    83.706324 
   85800    416.84029   -110.75752   0.37716585   -110.38035    2981.5682    4.3692328    4.3692328    4.3692328    2981.5682    20477.115   -6318.1094   -5214.3006    1025.7237    1674.4335    791.89985    83.409505 
   85900    499.28713   -110.83041   0.45176549   -110.37865    -4854.547     4.368888     4.368888     4.368888    -4854.547    2309.1132   -17077.774    205.02009    5065.5656   -6694.5457   -3656.4499    83.389764 
   86000    256.22654   -110.61402   0.23183916   -110.38219   -7912.2293    4.3731257    4.3731257    4.3731257   -7912.2293   -2886.4223   -15983.185   -4867.0801    384.69067    381.72475    7945.5697    83.632657 
   86100    433.19778   -110.77344   0.39196645   -110.38148   -91.563477    4.3679754    4.3679754    4.3679754   -91.563477    52.882774   -3381.4259    3053.8527   -777.82112    4806.5819    2786.2003    83.337517 
   86200    334.67895   -110.68438   0.30282455   -110.38156    8456.8797    4.3696901    4.3696901    4.3696901    8456.8797      27112.9   -177.42919   -1564.8319   -7404.1522    2659.1018    504.97524    83.435702 
   86300    442.80813   -110.78362    0.4006621   -110.38296   -5863.5967    4.3723421    4.3723421    4.3723421   -5863.5967    10002.003   -10481.341   -17111.452   -2415.6116   -3064.6203     7181.329    83.587706 
   86400    476.91417   -110.81279   0.43152196   -110.38127    3116.1505    4.3653298    4.3653298    4.3653298    3116.1505    5853.8329   -971.62732    4466.2461    -1448.859    1037.8513   -4514.4813    83.186179 
   86500    379.40879   -110.72586   0.34329704   -110.38257   -7512.7375    4.3724579    4.3724579    4.3724579   -7512.7375   -278.27503   -21552.437   -707.50016   -144.61409    29.592856   -36.689768    83.594349 
   86600    324.70999   -110.67625   0.29380442   -110.38245    -7346.952    4.3715588    4.3715588    4.3715588    -7346.952    5424.6389   -21310.728   -6154.7672    2070.2019    8626.4378    8335.4836    83.542792 
   86700     309.3381   -110.66192   0.27989561   -110.38202    14409.995    4.3640693    4.3640693    4.3640693    14409.995    35732.251    4385.4573    3112.2762   -4571.5028    4967.8818    -2783.052    83.114141 
   86800    489.85849   -110.82509   0.44323425   -110.38186    -10000.96    4.3773714    4.3773714    4.3773714    -10000.96    4252.3591   -15510.153   -18745.086    279.10169   -504.14663     3246.644    83.876477 
   86900    447.10074    -110.7844   0.40454615   -110.37986    2674.1207     4.364903     4.364903     4.364903    2674.1207    3767.2813    4752.3847    -497.3038   -1889.8403   -3316.1835    5034.6013    83.161784 
   87000    492.26792   -110.82523   0.44541436   -110.37981   -5651.7771    4.3704483    4.3704483    4.3704483   -5651.7771    45.557871   -11615.281   -5385.6082    5048.8586    -1053.564   -6273.2253    83.479139 
   87100      314.484   -110.66574   0.28455173   -110.38119    -7000.525    4.3746479    4.3746479    4.3746479    -7000.525    9980.4581   -25219.483   -5762.5504    463.90497    3295.1081    2670.2524    83.720019 
   87200    284.58562   -110.63737   0.25749905   -110.37988    8410.3108    4.3650819    4.3650819    4.3650819    8410.3108    38203.552   -8385.1067   -4587.5129   -1376.1522    6115.0024    3529.1876    83.172011 
   87300    427.52872   -110.76757   0.38683697   -110.38073   -659.62627    4.3712397    4.3712397    4.3712397   -659.62627    5186.2374   -5425.2279   -1739.8883   -6374.8045    3576.4638   -1618.3828    83.524497 
   87400    474.38772    -110.8108   0.42923598   -110.38157   -7379.2551    4.3722758    4.3722758    4.3722758   -7379.2551   -2517.0618   -4304.7418   -15315.962   -1882.9764    -897.9362    5928.0978    83.583903 
   87500    446.56014   -110.78595     0.404057   -110.38189    6970.4609    4.3643498    4.3643498    4.3643498    6970.4609    11099.002    11040.916   -1228.5353    5147.6828    1874.2866   -1751.0419    83.130169 
   87600    363.81625   -110.71213   0.32918859   -110.38294   -7071.8186    4.3759779    4.3759779    4.3759779   -7071.8186    14804.575   -20537.437   -15482.594    4022.1361    549.41619   -1522.6791    83.796402 
   87700    244.33474   -110.60185   0.22107921   -110.38077    5786.1478    4.3658163    4.3658163    4.3658163    5786.1478     37656.99    -12523.44   -7775.1062    1480.2978    5105.7375    5178.6237    83.213994 
   87800    495.86703   -110.82967   0.44867091     -110.381   -5149.0623     4.370341     4.370341     4.370341   -5149.0623   -6923.5172   -10112.522    1588.8521   -1180.3225    51.869845   -2527.2062    83.472992 
   87900    425.00911   -110.76758   0.38455717   -110.38303   -4070.7977    4.3714787    4.3714787    4.3714787   -4070.7977    3601.1543   -7748.8522   -8064.6952    -1099.179   -2019.6617    5888.7197    83.538199 
   88000    448.78568   -110.78879   0.40607072   -110.38272    5694.2123    4.3662614    4.3662614    4.3662614    5694.2123    25635.203   -2748.7819   -5803.7844    3114.9023   -4635.7706    5600.0523    83.239451 
   88100    354.37794   -110.70337    0.3206486   -110.38272    755.83986    4.3745825    4.3745825    4.3745825    755.83986    23170.094   -5746.8072   -15155.767      2787.91    6552.2334   -5664.8599    83.716262 
   88200    314.61064   -110.66561   0.28466632   -110.38095    2665.0106    4.3657057    4.3657057    4.3657057    2665.0106    25651.765   -8306.0368   -9350.6968    2929.2744    2560.5828    2299.6366    83.207673 
   88300    501.30056   -110.83378   0.45358728   -110.38019   -9871.7058    4.3734052    4.3734052    4.3734052   -9871.7058   -10347.629    -14207.74   -5059.7482   -2936.9771    5339.0192   -748.82236    83.648693 
   88400    339.71605    -110.6891   0.30738223   -110.38172     2725.778    4.3691091    4.3691091    4.3691091     2725.778    9135.0434   -4578.4636    3620.7543   -1052.4751   -3428.0227   -4725.8604    83.402425 
   88500    444.20566   -110.78328   0.40192662   -110.38135    2319.7067     4.368098     4.368098     4.368098    2319.7067     26387.27   -11886.784   -7541.3658    988.08554   -2816.6338    5675.0988    83.344535 
   88600    437.81671   -110.77747   0.39614576   -110.38132    2844.1093    4.3719629    4.3719629    4.3719629    2844.1093    12621.784    1261.8674   -5351.3236    4078.3687   -2649.4065     2252.245    83.565959 
   88700    330.51288   -110.68136     0.299055   -110.38231   -915.46639     4.367594     4.367594     4.367594   -915.46639    8507.7148    5150.1792   -16404.293    2197.5472    4029.1306   -1292.1413    83.315686 
   88800    448.97969   -110.78674   0.40624626   -110.38049    -7373.613    4.3697447    4.3697447    4.3697447    -7373.613   -2068.4409   -6367.9197   -13684.478   -4662.0292   -1732.5647    2738.8125    83.438829 
   88900    343.50553   -110.69309   0.31081102   -110.38228    1400.0691    4.3711234    4.3711234    4.3711234    1400.0691     17053.31   -5498.1266   -7354.9757   -2653.2537   -526.21731   -3213.8489    83.517832 
   89000    325.96276   -110.67813   0.29493796    -110.3832     5807.577    4.3674264    4.3674264    4.3674264     5807.577    27413.114   -7685.5609   -2304.8224   -2377.9255   -2933.8011    1140.0332    83.306098 
   89100    527.85084    -110.8584   0.47761053   -110.38079   -2939.2791    4.3728591    4.3728591    4.3728591   -2939.2791    11763.476   -13245.252    -7336.062    5834.4002   -1425.5485    4792.8517    83.617361 
   89200    420.35428   -110.76154   0.38034538   -110.38119   -1311.5558     4.368942     4.368942     4.368942   -1311.5558   -2475.8827    3051.4826   -4510.2674    868.43272    5429.4403   -2013.3242    83.392854 
   89300    423.74667   -110.76481   0.38341489    -110.3814   -6943.4231    4.3687559    4.3687559    4.3687559   -6943.4231    8988.6858   -9039.8155    -20779.14    1345.5817    3611.8244    4241.0918    83.382201 
   89400    325.62466   -110.67594   0.29463204   -110.38131    661.34109    4.3731842    4.3731842    4.3731842    661.34109    26895.945   -8879.6387   -16032.283   -5063.9838   -2642.2919   -785.98751    83.636011 
   89500    358.52722   -110.70727   0.32440296   -110.38287    6139.2215    4.3647342    4.3647342    4.3647342    6139.2215    22815.169   -7612.2852    3214.7804   -400.73986   -4987.0914   -6308.4193    83.152132 
   89600    411.40895   -110.75449   0.37225146   -110.38223   -1218.7807    4.3742957    4.3742957    4.3742957   -1218.7807    3827.5325   -11617.291    4133.4161    833.15991   -2041.1991    2570.5257    83.699798 
   89700    531.61555   -110.86102   0.48101692      -110.38    1121.6771    4.3672976    4.3672976    4.3672976    1121.6771    331.44714   -8719.4701    11753.054    1209.0648     1407.227     300.2214    83.298726 
   89800    353.86076   -110.70295   0.32018066   -110.38277   -4456.6796    4.3708219    4.3708219    4.3708219   -4456.6796    8537.5669   -9167.9692   -12739.636   -1086.9934    6610.6402   -1545.2068    83.500547 
   89900    311.82934   -110.66442   0.28214974   -110.38227    3560.4254    4.3687863    4.3687863    4.3687863    3560.4254    31468.152   -8073.9837   -12712.892   -3904.9215   -501.80342    5308.8672    83.383941 
   90000    484.82315   -110.82024   0.43867817   -110.38156   -3562.9786    4.3707638    4.3707638    4.3707638   -3562.9786    2799.3986   -7662.9734   -5825.3612   -1450.8491   -1358.4672   -4419.5118    83.497221 
   90100    314.13784   -110.66748   0.28423852   -110.38324    5497.7532    4.3671081    4.3671081    4.3671081    5497.7532    5638.1106    -626.5452    11481.694    167.18184   -258.07729   -4676.1459    83.287881 
   90200    483.53209   -110.81912   0.43750999   -110.38161   -2948.7227    4.3722558    4.3722558    4.3722558   -2948.7227   -2845.1837   -8869.4674    2868.4829    2930.3456    6047.5254    1627.3001    83.582755 
   90300    411.31585   -110.75378   0.37216722   -110.38161       1196.9    4.3690913    4.3690913    4.3690913       1196.9    15002.175   -11291.081   -120.39403     5107.461    2058.1226   -2396.6247    83.401404 
   90400    254.21377   -110.61264   0.23001796   -110.38262    1938.9596    4.3688038    4.3688038    4.3688038    1938.9596    28005.542   -5821.5031    -16367.16   -626.44958    7.5607333    4436.7758    83.384943 
   90500    563.73189   -110.88977   0.51007646   -110.37969   -11593.232     4.373078     4.373078     4.373078   -11593.232    -2878.945   -18760.066   -13140.684   -1405.3716   -7176.5222    1605.9786    83.629916 
   90600     365.0562   -110.71203   0.33031052   -110.38172    3152.3644     4.367928     4.367928     4.367928    3152.3644    6486.8515    -4341.565    7311.8066   -785.44973    438.60817   -4489.8614    83.334805 
   90700    412.71755   -110.75618   0.37343551   -110.38274    -3299.351       4.3704       4.3704       4.3704    -3299.351    3242.0377   -10990.231   -2149.8599    1476.6315    3980.7606    1007.7075     83.47637 
   90800    359.80983   -110.70758   0.32556349   -110.38201    6134.5686    4.3704192    4.3704192    4.3704192    6134.5686    25582.442   -9888.7809    2710.0445    2270.9558     7630.175   -2958.4635    83.477473 
   90900    318.70733   -110.67134   0.28837309   -110.38297    1857.7786    4.3682143    4.3682143    4.3682143    1857.7786    24492.721   -7901.3896   -11017.996    906.86479    839.89126   -3921.7452    83.351189 
   91000    455.45611   -110.79378   0.41210626   -110.38168   -9693.6094    4.3699157    4.3699157    4.3699157   -9693.6094    1790.5337   -11618.107   -19253.255   -393.23044    714.81507    7121.3871    83.448626 
   91100    482.37624   -110.81852   0.43646416   -110.38205   -6254.4911    4.3713166    4.3713166    4.3713166   -6254.4911    13834.058   -17294.672   -15302.858   -2405.3462    -2436.024   -1962.8109    83.528906 
   91200    339.43043   -110.69058   0.30712378   -110.38346    5000.4109    4.3657736    4.3657736    4.3657736    5000.4109    30247.042   -12703.509   -2542.2996    5260.0485    3894.1418   -1538.5524    83.211555 
   91300    464.87629   -110.80318   0.42062984   -110.38255   -4116.3812    4.3730032    4.3730032    4.3730032   -4116.3812    9476.2451   -12616.581   -9208.8072     1224.888    1398.1169    5809.6039    83.625628 
   91400    397.58858   -110.74136    0.3597465   -110.38161    5226.2077    4.3670031    4.3670031    4.3670031    5226.2077    12774.732   -7482.1546    10386.046    3167.1825   -853.22591   -8345.7685    83.281874 
   91500    351.51619   -110.70068   0.31805923   -110.38262   -6549.9677     4.370143     4.370143     4.370143   -6549.9677    1101.6832   -5128.1662    -15623.42    -3033.947    -2031.133    1899.8835    83.461648 
   91600    333.96506   -110.68427    0.3021786   -110.38209   -1523.7007    4.3708219    4.3708219    4.3708219   -1523.7007    20910.157   -7492.4191    -17988.84   -3660.0006   -1532.5866    1958.8307    83.500551 
   91700    421.72307   -110.76334    0.3815839   -110.38176    1201.8389    4.3682734    4.3682734    4.3682734    1201.8389    25224.779   -15018.123   -6601.1389   -1325.0429     4967.075   -2453.7802    83.354572 
   91800     454.4894   -110.79309   0.41123156   -110.38186   -5230.5168    4.3706342    4.3706342    4.3706342   -5230.5168    2568.5072   -14510.483   -3749.5749    3821.3502    5833.0812    5505.3472    83.489789 
   91900    471.85585   -110.80801   0.42694509   -110.38107   -641.93747    4.3695831    4.3695831    4.3695831   -641.93747    2269.2668    -13519.57     9324.491    985.23651    1543.0277   -4208.0762    83.429573 
   92000    409.80147   -110.75215   0.37079698   -110.38135   -4642.6723    4.3701442    4.3701442    4.3701442   -4642.6723    8200.8208   -19183.961   -2944.8762   -1134.3436   -6664.8911   -4855.4393    83.461716 
   92100    187.39319   -110.55275   0.16955729   -110.38319    4577.4635    4.3685705    4.3685705    4.3685705    4577.4635    26795.669   -1727.5002   -11335.778   -3316.0261   -1058.8821    2786.7429    83.371581 
   92200    449.14404   -110.78858   0.40639496   -110.38218   -3622.0549      4.37045      4.37045      4.37045   -3622.0549    14442.615   -6658.5298    -18650.25   -4679.5068   -1542.7164   -2674.4205    83.479239 
   92300    415.01966   -110.75809   0.37551851   -110.38257    2514.2435    4.3672941    4.3672941    4.3672941    2514.2435     8483.188   -1348.0654    407.60799   -1033.0176    4073.8735    800.33596    83.298528 
   92400    504.57804   -110.83897   0.45655282   -110.38242   -3947.5585    4.3706514    4.3706514    4.3706514   -3947.5585    5884.8049   -11749.901   -5977.5797    5390.9043    -600.1757     8294.312    83.490776 
   92500    360.89135   -110.70931   0.32654208   -110.38276    5180.3522    4.3680578    4.3680578    4.3680578    5180.3522    23342.163   -12191.084     4389.977   -3340.3159   -1355.2818   -5924.2921    83.342234 
   92600    338.67215    -110.6889   0.30643768   -110.38247   -1377.4703    4.3687248    4.3687248    4.3687248   -1377.4703    19069.663     -15914.8   -7287.2737   -1432.5558   -2797.2151   -1111.4429    83.380417 
   92700    390.80933   -110.73587    0.3536125   -110.38226   -2245.2442    4.3703418    4.3703418    4.3703418   -2245.2442    1097.5989    7175.3107   -15008.642   -2442.0614    5048.3284    853.46531    83.473034 
   92800    450.55733   -110.78971   0.40767374   -110.38203   -1927.3262    4.3690115    4.3690115    4.3690115   -1927.3262    6689.0363   -1167.6551    -11303.36    2028.6904    1273.7146     -6927.23    83.396834 
   92900    405.55084   -110.74907   0.36695093   -110.38212    4493.5596    4.3698901    4.3698901    4.3698901    4493.5596    18542.062   -1736.9625   -3324.4205    5517.4311     1610.574    3938.2355    83.447154 
   93000    450.82958   -110.78888   0.40792008   -110.38096    405.55176    4.3711745    4.3711745    4.3711745    405.55176    19571.102    -10177.14    -8177.307    2388.4787   -4795.6591    335.45676     83.52076 
   93100    311.59715   -110.66354   0.28193965    -110.3816    4989.6072    4.3668463    4.3668463    4.3668463    4989.6072    20895.498   -16234.035    10307.358   -2295.7899   -4701.2393   -3346.6894    83.272904 
   93200    482.58291   -110.81706   0.43665116   -110.38041   -10554.921    4.3733128    4.3733128    4.3733128   -10554.921   -9029.4929   -13346.038   -9289.2331   -4364.1889   -1392.1985    2393.6204    83.643387 
   93300    335.63454   -110.68484   0.30368918   -110.38115    5105.4518    4.3659384    4.3659384    4.3659384    5105.4518    15943.557    7338.2182   -7965.4198    1094.7243    6633.3869   -5489.5899    83.220975 
   93400    388.57171   -110.73394   0.35158785   -110.38235   -2838.1978    4.3722658    4.3722658    4.3722658   -2838.1978    10575.339   -9863.2001   -9226.7326   -2290.3562   -289.83445   -2331.4566    83.583331 
   93500    455.17632    -110.7927    0.4118531   -110.38085     4564.356    4.3670739    4.3670739    4.3670739     4564.356    16698.252    5009.1203   -8014.3043    6826.2692    2264.9559    6768.9014    83.285928 
   93600    369.74157   -110.71755   0.33454994     -110.383    300.97196     4.368778     4.368778     4.368778    300.97196    8940.9272   -8536.1307    498.11934   -1922.8187   -154.81393   -4669.1708    83.383462 
   93700    439.22711   -110.77995   0.39742192   -110.38253   -7190.0068    4.3703678    4.3703678    4.3703678   -7190.0068    4497.6326   -19505.372   -6562.2814   -374.58056    379.60676   -1167.3351    83.474526 
   93800    351.78149   -110.70126   0.31829928   -110.38296    6368.7781    4.3662798    4.3662798    4.3662798    6368.7781    21779.036    4023.9068   -6696.6087      -316.94    4060.2575    2435.3366    83.240501 
   93900    337.62882   -110.68915   0.30549365   -110.38366   -3776.3258    4.3712139    4.3712139    4.3712139   -3776.3258    19247.067   -11059.363   -19516.682    4619.9605    1593.7141   -11326.039    83.523017 
   94000    423.56964   -110.76518   0.38325471   -110.38193    3373.3658    4.3679197    4.3679197    4.3679197    3373.3658      4841.37    9079.4299   -3800.7024    1097.1075    -3915.167    827.58491    83.334328 
   94100    548.67785   -110.87709   0.49645524   -110.38064   -4647.4679    4.3706493    4.3706493    4.3706493   -4647.4679     2891.038   -2542.7127   -14290.729   -1920.0143   -2958.8841    2013.2204    83.490659 
   94200     344.6865   -110.69365   0.31187959   -110.38177    559.57678    4.3681383    4.3681383    4.3681383    559.57678    9206.9978   -4507.9468   -3020.3206   -4052.9016    2878.6588   -4871.5389    83.346842 
   94300    376.04468    -110.7206   0.34025313   -110.38034    118.07955    4.3727761    4.3727761    4.3727761    118.07955     27432.82   -13959.529   -13119.052   -5322.1945     2467.966    3574.8338    83.612596 
   94400    352.99047   -110.69988   0.31939319   -110.38049    3638.6653    4.3651779    4.3651779    4.3651779    3638.6653     20462.15    -1445.847   -8100.3074    4273.0002    8492.2374   -3901.5059    83.177497 
   94500    360.52646   -110.70876   0.32621192   -110.38255    -6281.753    4.3723401    4.3723401    4.3723401    -6281.753   -1169.9345   -3901.6844    -13773.64    2109.9259    485.68897   -6275.4001    83.587594 
   94600    526.99543   -110.85716   0.47683654   -110.38032    1865.5689     4.367488     4.367488     4.367488    1865.5689    3378.7134    3502.3233   -1284.3301    31.713032   -2067.8592    752.51509    83.309621 
   94700    390.57576   -110.73619   0.35340116   -110.38278    -2717.358    4.3687253    4.3687253    4.3687253    -2717.358    15521.991   -6373.7087   -17300.357   -4274.3154   -1276.0643   -6040.3108    83.380448 
   94800    267.04137   -110.62541   0.24162464   -110.38378    592.33826    4.3703732    4.3703732    4.3703732    592.33826    23777.991   -12911.263   -9089.7134   -1076.5152    1581.6553    -1092.193    83.474835 
   94900    502.46763   -110.83597   0.45464327   -110.38132   -2262.7786    4.3662363    4.3662363    4.3662363   -2262.7786    14486.069    -11015.22   -10259.185   -430.73897    368.12308    3695.1314    83.238014 
   95000    363.33517   -110.71221    0.3287533   -110.38346   -8774.0056    4.3706489    4.3706489    4.3706489   -8774.0056   -3484.8079   -8708.0815   -14129.128    1611.2145    3784.0426   -10360.733    83.490635 
   95100    448.71676   -110.78932   0.40600836   -110.38331    1290.2667    4.3683964    4.3683964    4.3683964    1290.2667    15908.043   -5929.7954   -6107.4477   -2162.5359   -3788.9155     593.8007    83.361613 
   95200    372.45789    -110.7193   0.33700772   -110.38229    6144.4535    4.3685431    4.3685431    4.3685431    6144.4535    26750.241    22.460767   -8339.3416   -6033.5172   -1265.6352   -1619.4048    83.370011 
   95300    274.53092   -110.63143   0.24840135   -110.38303   -1114.6061    4.3692466    4.3692466    4.3692466   -1114.6061    14852.763   -1778.0665   -16418.514   -4024.2987     1014.052   -9466.1013    83.410295 
   95400    492.35499   -110.82542   0.44549314   -110.37993   -5973.9072    4.3704984    4.3704984    4.3704984   -5973.9072   -3688.7694    -7737.213   -6495.7393   -672.30174    3417.1695    4949.3397     83.48201 
   95500    443.06986   -110.78129   0.40089892   -110.38039    354.06064    4.3656636    4.3656636    4.3656636    354.06064    8347.5233    2885.6102   -10170.952    4099.7728   -773.93274   -4220.4111    83.205265 
   95600    414.77247   -110.75772   0.37529484   -110.38242   -9573.7899    4.3756358    4.3756358    4.3756358   -9573.7899    5597.0303   -14836.904   -19481.496    1059.4749     1196.863    -5586.771    83.776747 
   95700    396.84274   -110.73977   0.35907165    -110.3807    15559.879    4.3602116    4.3602116    4.3602116    15559.879    30538.901    11439.149    4701.5854   -5866.2408   -4985.6017    746.73506    82.893923 
   95800    340.04577   -110.69029   0.30768056   -110.38261   -6398.8224    4.3748969    4.3748969    4.3748969   -6398.8224    2751.9489   -2413.2014   -19535.215   -2277.3279   -578.11745   -5528.5532    83.734314 
   95900    373.83176   -110.71885   0.33825083    -110.3806   -3496.7422    4.3679513    4.3679513    4.3679513   -3496.7422   -6163.7914    5109.6388   -9436.0741   -736.61811    1201.2109   -2670.6015    83.336135 
   96000    462.69331    -110.7984   0.41865463   -110.37975    4623.3223    4.3641503    4.3641503    4.3641503    4623.3223    13786.965    538.88041   -455.87889    2090.1885    732.64732     2086.557    83.118768 
   96100    406.60749   -110.74999     0.367907   -110.38208   -9734.3729    4.3765858    4.3765858    4.3765858   -9734.3729    6328.9477   -9049.9224   -26482.144    745.83623    1168.3144   -5208.8541    83.831326 
   96200    402.32897   -110.74479   0.36403571   -110.38075    10094.295    4.3618171    4.3618171    4.3618171    10094.295    25623.484    5911.9149   -1252.5133   -2216.9041   -27.271134   -1456.9206    82.985526 
   96300    430.36105   -110.77058   0.38939972   -110.38118   -2026.8105    4.3713729    4.3713729    4.3713729   -2026.8105    -3176.528    7522.9335   -10426.837   -3945.5296    795.85582   -3420.1322    83.532134 
   96400    341.77685   -110.69152   0.30924687   -110.38228   -8597.9491    4.3701957    4.3701957    4.3701957   -8597.9491   -5712.3747   -2685.0073   -17396.465    2890.1818   -259.27301   -11223.586    83.464667 
   96500    381.31636    -110.7266   0.34502306   -110.38158    4670.7908    4.3652727    4.3652727    4.3652727    4670.7908    13542.124    7.5965293    462.65167    3397.8618    3484.8297    2593.8118    83.182915 
   96600    386.25877   -110.73191   0.34949505   -110.38241    1003.5166    4.3712758    4.3712758    4.3712758    1003.5166    21144.493   -5361.5838   -12772.359   -1165.1381   -634.83263   -4199.1311    83.526564 
   96700     408.1124   -110.75134   0.36926868   -110.38207   -94.313421    4.3692068    4.3692068    4.3692068   -94.313421    20088.509   -9863.5056   -10507.944   -2755.1519   -1340.4556    -3444.552    83.408018 
   96800    557.02049   -110.88449   0.50400384   -110.38049   -2384.3368    4.3683965    4.3683965    4.3683965   -2384.3368   -6556.1568    8363.4438   -8960.2973   -5668.9439   -4355.1093    2792.9498    83.361622 
   96900    353.77447    -110.7028   0.32010257    -110.3827   -5158.4473     4.370389     4.370389     4.370389   -5158.4473   -107.47854   -5270.5748   -10097.289    2962.4754    1251.0309   -9595.2869    83.475743 
   97000    307.70427   -110.66081   0.27841729   -110.38239    4628.4915    4.3671209    4.3671209    4.3671209    4628.4915    29246.417   -2846.1778   -12514.765    4120.6286     3021.478   -2703.4835    83.288618 
   97100    340.18385   -110.68988    0.3078055   -110.38208    4839.3955    4.3695454    4.3695454    4.3695454    4839.3955     20546.34    -3228.944   -2799.2093    3237.6833    3422.2036    84.724619     83.42741 
   97200     392.5976   -110.73783   0.35523056    -110.3826   -1203.5667    4.3680244    4.3680244    4.3680244   -1203.5667    18592.423   -13409.583   -8793.5403   -3153.2507   -425.83656   -7991.9104    83.340323 
   97300    606.36603   -110.92941   0.54865273   -110.38076   -5394.6428    4.3698492    4.3698492    4.3698492   -5394.6428   -4935.5998   -3935.5293   -7312.7993   -1133.5109    1006.8928    7.5738535    83.444811 
   97400    416.29563   -110.75928   0.37667303    -110.3826   -825.98953    4.3688359    4.3688359    4.3688359   -825.98953    9062.1184    317.93311    -11858.02   -1457.6285   -3356.5941   -1273.3319    83.386778 
   97500    215.77875    -110.5791   0.19524115   -110.38386    4058.3895    4.3667592    4.3667592    4.3667592    4058.3895    35398.622   -10529.008   -12694.445     2891.276    2336.1926   -9178.8931    83.267924 
   97600    416.80835   -110.75893   0.37713695   -110.38179   -4949.5463     4.371364     4.371364     4.371364   -4949.5463    5451.6581   -2784.8169    -17515.48   -691.07201    260.86588    246.79635    83.531623 
   97700    347.47134   -110.69673   0.31439937   -110.38233   -1996.4197    4.3676898    4.3676898    4.3676898   -1996.4197    11.812913   -8527.1655    2526.0934   -2806.1548   -708.40702   -5566.7033    83.321171 
   97800    552.30165   -110.88155   0.49973414   -110.38182   -6758.5928    4.3684617    4.3684617    4.3684617   -6758.5928    4297.2325   -10337.679   -14235.332   -4534.5254   -3667.9354   -5810.8848    83.365355 
   97900    434.89932   -110.77577   0.39350604   -110.38227    3837.9972    4.3711174    4.3711174    4.3711174    3837.9972    20557.128    -5024.934   -4018.2021    3016.0184   -732.29258    3336.4697    83.517486 
   98000    309.77454   -110.66397   0.28029052   -110.38368    3245.8721     4.366879     4.366879     4.366879    3245.8721    33844.907   -5225.3394   -18881.952    3555.4671    2669.1796   -8848.9309    83.274776 
   98100    358.44695   -110.70599   0.32433033   -110.38166   -3135.5294    4.3716438    4.3716438    4.3716438   -3135.5294    4188.3206   -16.028911    -13578.88    6007.9037     4335.685   -3284.6669    83.547663 
   98200    425.55103   -110.76539   0.38504751   -110.38034     -5241.53    4.3693425    4.3693425    4.3693425     -5241.53   -5091.8138   -1095.5507   -9537.2255   -2517.6592    911.07026   -2806.4224    83.415788 
   98300     288.6958   -110.64348   0.26121802   -110.38226    2789.2677    4.3680916    4.3680916    4.3680916    2789.2677    10164.769    85.707597   -1882.6729    -3319.989    -2498.205   -11399.516    83.344167 
   98400    566.03576    -110.8922   0.51216105   -110.38004    2397.4811     4.368842     4.368842     4.368842    2397.4811    24325.717   -8993.9659   -8139.3081   -2827.4858   -3367.4612    3262.8975    83.387127 
   98500    401.03947   -110.74571   0.36286894   -110.38284    3995.9415    4.3696468    4.3696468    4.3696468    3995.9415     18968.82   -1492.4028   -5488.5927    2208.5906   -2339.9099    -3354.738    83.433217 
   98600    401.45979   -110.74578   0.36324926   -110.38253   -3769.3393    4.3658439    4.3658439    4.3658439   -3769.3393    10139.547   -2910.1376   -18537.428    204.57985   -131.81672   -8509.0625    83.215572 
   98700    412.88229    -110.7545   0.37358457   -110.38092   -4326.6478    4.3719231    4.3719231    4.3719231   -4326.6478   -4433.1868    1356.7832   -9903.5399   -2828.6879    600.09311    975.20755    83.563676 
   98800    291.40459   -110.64648     0.263669   -110.38281     765.8935    4.3675898    4.3675898    4.3675898     765.8935    13789.249   -3878.7763    -7612.792   -224.85552   -4054.6536   -9737.0206    83.315447 
   98900    287.97301   -110.64402   0.26056403   -110.38345    7809.6129    4.3672529    4.3672529    4.3672529    7809.6129    27864.219   -3157.9768    -1277.403   -4170.5694   -2098.0915   -6405.3228    83.296168 
   99000    588.49976   -110.91296   0.53248695   -110.38048   -4574.2191     4.373376     4.373376     4.373376   -4574.2191     4782.921   -10415.864   -8089.7145    7309.3796    954.31734    2935.2836    83.647014 
   99100    452.63595   -110.79204   0.40955452   -110.38248     -2744.83    4.3649445    4.3649445    4.3649445     -2744.83    3455.8265   -3509.8363     -8180.48    1283.5282    835.67699   -7203.0272    83.164155 
   99200    409.80979   -110.75346   0.37080451   -110.38265   -7644.4091    4.3720701    4.3720701    4.3720701   -7644.4091   -3636.2423   -2346.5218   -16950.463    496.84126    2064.5346   -878.89367    83.572106 
   99300    395.39072   -110.73858   0.35775784   -110.38082   -1896.0267    4.3701934    4.3701934    4.3701934   -1896.0267    13929.828   -5189.2308   -14428.678    -7309.284   -2303.9294   -1213.1981    83.464533 
   99400    134.62233    -110.5059   0.12180912   -110.38409    14672.106    4.3655119    4.3655119    4.3655119    14672.106    36562.854    1617.3324    5836.1328   -3861.2855   -5489.7605   -11155.939     83.19659 
   99500    471.18121    -110.8072   0.42633466   -110.38087     -3052.58    4.3739768    4.3739768    4.3739768     -3052.58    6785.5439   -8792.0284   -7151.2555   -5174.2765   -3325.6447    1078.1332    83.681496 
   99600    485.60671   -110.81984   0.43938716   -110.38046    1634.8913    4.3666729    4.3666729    4.3666729    1634.8913    5552.2006   -6629.6466    5982.1197    4400.2638    2092.4727   -4584.1882    83.262988 
   99700    491.41488   -110.82525   0.44464251   -110.38061   -6745.9358     4.369618     4.369618     4.369618   -6745.9358    8742.1388    -12181.74   -16798.206     2188.037   -1216.7769   -7182.1127    83.431572 
   99800    383.71381   -110.72782   0.34719232   -110.38063    1447.3609     4.370198     4.370198     4.370198    1447.3609    23879.144   -9415.8543   -10121.207   -1608.8984    1693.5087    5356.7556    83.464796 
   99900    362.37586   -110.70926   0.32788529   -110.38137    -329.4971    4.3680876    4.3680876    4.3680876    -329.4971    24169.311   -14001.834   -11155.969   -221.10904   -4529.4161   -10142.087    83.343939 
  100000    286.55223   -110.64164   0.25927848   -110.38236    7220.2322    4.3676621    4.3676621    4.3676621    7220.2322    9135.3529    611.20014    11914.144    -2236.986    -2620.712    -6199.733    83.319587 
Loop time of 21.6612 on 1 procs for 100000 steps with 8 atoms

Pair  time (%) = 6.64994 (30.6998)
Kspce time (%) = 5.29389 (24.4395)
Neigh time (%) = 0 (0)
Comm  time (%) = 1.05519 (4.87132)
Outpt time (%) = 0.0259733 (0.119907)
Other time (%) = 8.63621 (39.8695)

Nlocal:    8 ave 8 max 8 min
Histogram: 1 0 0 0 0 0 0 0 0 0
Nghost:    2189 ave 2189 max 2189 min
Histogram: 1 0 0 0 0 0 0 0 0 0
Neighs:    2056 ave 2056 max 2056 min
Histogram: 1 0 0 0 0 0 0 0 0 0

Total # of neighbors = 2056
Ave neighs/atom = 257
Neighbor list builds = 0
Dangerous builds = 0
unfix 20
unfix 21
print "seeds:5279480"
seeds:5279480
