LAMMPS (10 Feb 2015)
# ---- initialize simulations
clear
units metal
dimension 3
boundary p p p
atom_style charge
atom_modify map array
# ---- create atoms
read_data /Users/eugeneragasa/pyflamestk_git/pypospack/tests/tests_integration/workflow/WorkflowLammpsThermalExpansion/param_1256/MgO_NaCl_unit.npt.T200/lammps.structure
  triclinic box = (0 0 0) to (4.2565 4.2565 4.2565) with tilt (0 0 0)
  1 by 1 by 1 MPI processor grid
  reading atoms ...
  8 atoms
# ---- define interatomic potential
include potential.mod
mass 1 24.305
mass 2 15.999

group Mg type 1
4 atoms in group Mg
group O type 2
4 atoms in group O

set group Mg charge 1.66039996869
  4 settings made for charge
set group O charge -1.66039996869
  4 settings made for charge

variable R_cut equal 10.0

pair_style buck/coul/long ${R_cut}
pair_style buck/coul/long 10
pair_coeff 1 1 0.0 0.5 0.0 ${R_cut}
pair_coeff 1 1 0.0 0.5 0.0 10
pair_coeff 1 2 1528.2261267 0.282600919639 0.0 ${R_cut}
pair_coeff 1 2 1528.2261267 0.282600919639 0.0 10
pair_coeff 2 2 6677.06285722 0.138925130231 8.13419383626 ${R_cut}
pair_coeff 2 2 6677.06285722 0.138925130231 8.13419383626 10

kspace_style pppm 1.0e-5

neighbor 1.0 bin
neigh_modify every 1 delay 0 check yes
# ---- define settings
compute eng all pe/atom
compute eatoms all reduce sum c_eng
# ---- run minimization
reset_timestep 0
fix 1 all box/relax iso 0.0 vmax 0.001
thermo 10
thermo_style custom step pe lx ly lz xy xz yz press pxx pyy pzz pxy pxz pyz c_eatoms
min_style cg
minimize 1e-25 1e-25 5000 10000
PPPM initialization ...
  G vector (1/distance) = 0.352851
  grid = 8 8 8
  stencil order = 5
  estimated absolute RMS force accuracy = 3.9608e-05
  estimated relative force accuracy = 2.75062e-06
  using double precision FFTs
  3d grid and FFT values/proc = 3375 512
Neighbor list info ...
  1 neighbor list requests
  update every 1 steps, delay 0 steps, check yes
  master list distance cutoff = 11
Memory usage per processor = 4.06549 Mbytes
Step PotEng Lx Ly Lz Xy Xz Yz Press Pxx Pyy Pzz Pxy Pxz Pyz eatoms 
       0   -110.92329       4.2565       4.2565       4.2565            0            0            0    120138.29    120138.29    120138.29    120138.29 1.5343687e-10 -1.0407196e-10 -1.3145771e-10   -110.92329 
      10   -111.05478     4.299065     4.299065     4.299065            0            0            0    61836.089    61836.089    61836.089    61836.089 1.0666232e-10 -5.0344756e-11 -1.3613158e-10   -111.05478 
      20   -111.10767      4.34163      4.34163      4.34163            0            0            0    10591.608    10591.608    10591.608    10591.608 -1.2465538e-10 -9.1160209e-12 2.8254225e-10   -111.10767 
      25   -111.10952     4.351169     4.351169     4.351169            0            0            0   -6.6622077   -6.6622077   -6.6622077   -6.6622077 -1.5540302e-10 -3.5403029e-11 3.0098099e-10   -111.10952 
Loop time of 0.0160689 on 1 procs for 25 steps with 8 atoms

Minimization stats:
  Stopping criterion = linesearch alpha is zero
  Energy initial, next-to-last, final = 
        -110.923293971     -111.109518965     -111.109518965
  Force two-norm initial, final = 17.348 0.0010058
  Force max component initial, final = 17.348 0.0010053
  Final line search alpha, max atom move = 0.00777135 7.8125e-06
  Iterations, force evaluations = 25 41

Pair  time (%) = 0.00424433 (26.4132)
Kspce time (%) = 0.00297689 (18.5258)
Neigh time (%) = 0 (0)
Comm  time (%) = 0.00053525 (3.33096)
Outpt time (%) = 4.673e-05 (0.29081)
Other time (%) = 0.00826573 (51.4392)

Nlocal:    8 ave 8 max 8 min
Histogram: 1 0 0 0 0 0 0 0 0 0
Nghost:    2189 ave 2189 max 2189 min
Histogram: 1 0 0 0 0 0 0 0 0 0
Neighs:    2344 ave 2344 max 2344 min
Histogram: 1 0 0 0 0 0 0 0 0 0

Total # of neighbors = 2344
Ave neighs/atom = 293
Neighbor list builds = 0
Dangerous builds = 0
unfix 1
# ---- define output variables ----
variable natoms equal "count(all)"
variable tot_energy equal "c_eatoms"
variable length_x equal "lx"
variable length_y equal "ly"
variable length_z equal "lz"
variable tilt_xy equal "xy"
variable tilt_xz equal "xz"
variable tilt_yz equal "yz"
variable tot_press equal "press"
variable press_xx equal "pxx"
variable press_yy equal "pyy"
variable press_zz equal "pzz"
variable press_xy equal "pxy"
variable press_xz equal "pxz"
variable press_yz equal "pyz"

# ---- output ----
print "pypospack:output_section:begin"
pypospack:output_section:begin
print "tot_energy = ${tot_energy}"
tot_energy = -111.109518965105
print "num_atoms = ${natoms}"
num_atoms = 8
print "xx = ${length_x}"
xx = 4.35116899821938
print "yy = ${length_y}"
yy = 4.35116899821938
print "zz = ${length_z}"
zz = 4.35116899821938
print "xy = ${tilt_xy}"
xy = 0
print "xz = ${tilt_xz}"
xz = 0
print "yz = ${tilt_yz}"
yz = 0
print "tot_press = ${tot_press}"
tot_press = -6.66220766530753
print "pxx = ${press_xx}"
pxx = -6.66220766529406
print "pyy = ${press_yy}"
pyy = -6.66220766581444
print "pzz = ${press_zz}"
pzz = -6.6622076648141
print "pxy = ${press_xy}"
pxy = -1.55403020158447e-10
print "pxz = ${press_xz}"
pxz = -3.54030294322521e-11
print "pyz = ${press_yz}"
pyz = 3.00980987063428e-10
print "pypospack:output_section:done"
pypospack:output_section:done
print "pypospack:lammps_sim:done"
pypospack:lammps_sim:done
#------------------------------------------------------------------------------
# RUN THERMOSTAT
# running using an NPT Nose-Hoover style thermostat
#------------------------------------------------------------------------------
variable tempdamp equal 0.1
variable pressdamp equal 1.0
# set initial velocities
velocity all create 200 5349051 mom yes dist gaussian loop all
# fix for Nose-Hoover style thermostat
fix 20 all npt temp 200 200 0.1 aniso 0.0 0.0 1.0 drag 1.0 couple xyz
variable boxx equal lx
variable boxy equal ly
variable boxz equal lz
variable boxp equal press
variable boxt equal temp
# calculate averages every 10000 steps
reset_timestep 0
fix 21 all ave/time 10 10 100 v_boxx v_boxy v_boxz v_boxp v_boxt file lattice.out
thermo_style custom step temp pe ke etotal press lx ly lz press pxx pyy pzz pxy pxz pyz vol
thermo_modify flush yes
thermo 100
run 100000
PPPM initialization ...
  G vector (1/distance) = 0.351894
  grid = 8 8 8
  stencil order = 5
  estimated absolute RMS force accuracy = 4.14019e-05
  estimated relative force accuracy = 2.8752e-06
  using double precision FFTs
  3d grid and FFT values/proc = 3375 512
Memory usage per processor = 3.06549 Mbytes
Step Temp PotEng KinEng TotEng Press Lx Ly Lz Press Pxx Pyy Pzz Pxy Pxz Pyz Volume 
       0          200   -111.10953    0.1809642   -110.92857    2337.5106     4.351169     4.351169     4.351169    2337.5106    2320.8844    1740.6653     2950.982   -220.87095     -696.008    566.88966    82.379254 
     100    55.064035   -110.95161  0.049823096   -110.90178    2387.5026    4.3595393    4.3595393    4.3595393    2387.5026   -4014.9488    2193.2825    8984.1742   -737.42128     792.0836   -1013.2794    82.855583 
     200    193.29019   -111.02994   0.17489303   -110.85505   -6447.0343    4.3604624    4.3604624    4.3604624   -6447.0343   -7148.7058    -6964.675    -5227.722    1278.9943   -289.16445    573.71509    82.908229 
     300    61.689101   -110.86661  0.055817595   -110.81079    9064.0925    4.3552624    4.3552624    4.3552624    9064.0925   -931.23528    10525.588    17597.924   -1375.5879    668.78888    -1561.181    82.611969 
     400    201.84818   -110.96145   0.18263647   -110.77881   -6354.8809    4.3640158    4.3640158    4.3640158   -6354.8809   -7991.0023   -6917.4958   -4156.1446    831.53353    679.01928    900.26064    83.111081 
     500    176.71736   -110.91693   0.15989758   -110.75703    1953.2856    4.3607931    4.3607931    4.3607931    1953.2856   -8476.8952    2301.3122     12035.44    610.01092    336.45173    -2081.401    82.927097 
     600    292.34926   -111.01181   0.26452375   -110.74729    1345.5355    4.3602092    4.3602092    4.3602092    1345.5355    854.49273    552.70938    2629.4045   -2462.4619   -1244.2191    1059.7707    82.893786 
     700    207.10115   -110.93278   0.18738947   -110.74539   -2290.4267    4.3632317    4.3632317    4.3632317   -2290.4267   -9130.6326   -4807.6258    7066.9783    359.16373    991.40369   -1490.6876    83.066292 
     800    169.40161   -110.89885   0.15327814   -110.74557   -604.83122     4.361066     4.361066     4.361066   -604.83122   -5796.9641    2664.6605      1317.81   -1932.4841    2450.5244    264.88346    82.942661 
     900    175.86356   -110.90509   0.15912505   -110.74596   -1255.6083    4.3618748    4.3618748    4.3618748   -1255.6083   -6252.1238    -4987.467    7472.7659    1172.3568   -1257.9975   -993.33903    82.988821 
    1000    139.72234   -110.87354   0.12642371   -110.74712   -1458.4981    4.3611596    4.3611596    4.3611596   -1458.4981   -10701.466    5011.1076    1314.8639   -1988.7963    3341.8172   -415.53972    82.948003 
    1100    253.38223   -110.97639   0.22926556   -110.74712   -3271.0046    4.3630342    4.3630342    4.3630342   -3271.0046   -4915.2901   -9819.7078     4921.984    2594.3214   -347.45602   -151.67242    83.055015 
    1200    238.71045     -110.963   0.21599023   -110.74701    2106.1867    4.3605782    4.3605782    4.3605782    2106.1867   -4861.7008    7797.0072    3383.2537   -1575.8268   -1864.9023   -1856.8201    82.914834 
    1300    224.85702   -110.95066   0.20345535    -110.7472   -2393.7184    4.3610188    4.3610188    4.3610188   -2393.7184   -3577.3412   -9828.7218    6224.9078    -786.2233   -1037.9524    2199.3242    82.939968 
    1400    161.30616   -110.89299   0.14595321   -110.74704   -1089.3248    4.3644686    4.3644686    4.3644686   -1089.3248   -9788.3524    4378.2477    2142.1304    784.33954     2516.815   -2307.3672    83.136959 
    1500    189.66627   -110.91812   0.17161403   -110.74651   -335.78059    4.3585461    4.3585461    4.3585461   -335.78059   -1955.9783   -3527.6921    4476.3287   -1147.1767   -1039.5836    1646.6968    82.798968 
    1600    119.97793   -110.85601   0.10855856   -110.74745   -194.60435    4.3625894    4.3625894    4.3625894   -194.60435   -10906.139    3802.5527    6519.7731    2449.9798    1017.3063   -2852.0065    83.029612 
    1700    283.70969    -111.0033   0.25670649    -110.7466   -3786.5981    4.3638005    4.3638005    4.3638005   -3786.5981   -603.19112   -5740.2008   -5016.4025   -707.45625     2377.732    2278.2063    83.098786 
    1800    198.17478   -110.92641   0.17931271    -110.7471    7526.0714    4.3575131    4.3575131    4.3575131    7526.0714    965.87092    5866.0699    15746.274    3356.0632   -1399.6095    -4573.885    82.740113 
    1900    261.59526   -110.98351   0.23669689   -110.74681   -5133.4619    4.3648304    4.3648304    4.3648304   -5133.4619   -3646.3435    -3530.408   -8223.6342   -2690.7213   -2598.4525    2624.7978    83.157632 
    2000    146.75836   -110.87968   0.13279005   -110.74689    3642.4871    4.3612599    4.3612599    4.3612599    3642.4871   -690.86317     189.3856    11428.939    1662.1712    441.70747   -2234.6482    82.953729 
    2100    197.63119   -110.92535   0.17882085   -110.74653   -350.08235    4.3588249    4.3588249    4.3588249   -350.08235   -5387.7902    7988.4566   -3650.9135   -381.29078    490.10706    484.17789    82.814857 
    2200    126.96813   -110.86249   0.11488343   -110.74761   -1929.7048    4.3651889    4.3651889    4.3651889   -1929.7048   -1534.6059   -6939.5554    2685.0468    119.60778   -1141.6542   -1687.9425    83.178127 
    2300     255.5079   -110.97799   0.23118892    -110.7468    782.40379    4.3602462    4.3602462    4.3602462    782.40379   -3336.5845    8801.9632   -3118.1674    748.63787    2842.0813   -66.421783    82.895898 
    2400    235.41568   -110.96016   0.21300905   -110.74715    3125.1512    4.3595702    4.3595702    4.3595702    3125.1512    6770.0454   -2785.2178    5390.6258    2384.8944   -18.642415   -1860.0882     82.85735 
    2500    198.53806   -110.92691   0.17964141   -110.74727   -2974.1239    4.3655044    4.3655044    4.3655044   -2974.1239   -8236.7238    4566.7568   -5252.4047   -685.14478   -936.01913   -2421.5876    83.196162 
    2600    234.06149    -110.9584   0.21178376   -110.74662    80.508644    4.3593267    4.3593267    4.3593267    80.508644   -2289.8865   -832.86141    3364.2738   -1149.5623   -3134.9265    2194.3564    82.843466 
    2700    94.187462   -110.83269  0.085222795   -110.74747    3115.6695    4.3602725    4.3602725    4.3602725    3115.6695   -3926.5119    12653.665    619.85499    1673.7982    1566.4502   -3851.0257    82.897396 
    2800    232.15439   -110.95704   0.21005817   -110.74698   -9131.9522    4.3659165    4.3659165    4.3659165   -9131.9522   -12602.542   -8992.9491   -5800.3656   -2429.0872    -2064.578    1370.9623    83.219724 
    2900    147.19742   -110.88078   0.13318732    -110.7476    9111.9567    4.3577417    4.3577417    4.3577417    9111.9567    4387.0178     18322.04    4626.8125    2662.5831   -496.53009   -2886.9615    82.753132 
    3000    320.91689   -111.03748   0.29037234   -110.74711   -6625.2279    4.3629211    4.3629211    4.3629211   -6625.2279   -7448.4924   -7175.4939   -5251.6974    2217.9061     2232.428    823.46783    83.048553 
    3100    122.37126   -110.85862   0.11072409    -110.7479     3084.522    4.3637637    4.3637637    4.3637637     3084.522   -6972.2889    12297.449     3928.406    1831.4417   -1407.1292   -3011.1086    83.096679 
    3200    311.12269   -111.02755   0.28151035   -110.74604   -3040.5359    4.3578621    4.3578621    4.3578621   -3040.5359   -5122.8627   -2366.7124   -1632.0327   -2185.7453   -193.40761    1923.6874    82.759993 
    3300     35.44586   -110.78034  0.032072159   -110.74827    2175.1483    4.3640976    4.3640976    4.3640976    2175.1483   -11247.758    12478.901    5294.3018    3021.0236   -2582.8274   -2075.4387    83.115758 
    3400    270.17811   -110.99156   0.24446283    -110.7471   -7808.7774     4.362784     4.362784     4.362784   -7808.7774   -8418.1008   -6832.6483    -8175.583   -2245.1434    874.99351    791.83259    83.040724 
    3500    140.18168   -110.87444   0.12683933    -110.7476    8438.3458    4.3583029    4.3583029    4.3583029    8438.3458    566.42653    17069.549    7679.0621    756.16352   -3524.9003   -1412.1448    82.785108 
    3600    290.97806   -111.01022   0.26328306   -110.74694   -7758.7488      4.36473      4.36473      4.36473   -7758.7488   -7854.0929   -9611.8709   -5810.2826    2895.7715    941.18921   -314.76098    83.151893 
    3700    189.91491    -110.9193   0.17183901   -110.74747    2628.2688    4.3612729    4.3612729    4.3612729    2628.2688   -5943.4168    11601.092    2227.1313   -178.55049    1641.7809   -593.10932    82.954471 
    3800    211.03377    -110.9377   0.19094779   -110.74675    752.57541    4.3594453    4.3594453    4.3594453    752.57541   -1431.6505   -1332.0676    5021.4443    387.95869   -2247.3494    700.59988    82.850228 
    3900    139.58717   -110.87349    0.1263014   -110.74719   -4267.0972    4.3644498    4.3644498    4.3644498   -4267.0972   -14054.735    7717.3065   -6463.8626   -583.43922    1742.0618   -415.50526    83.135883 
    4000    168.61453    -110.8997   0.15256597   -110.74714    1899.7969    4.3608338    4.3608338    4.3608338    1899.7969    4519.1439   -1880.1337    3060.3806   -158.50336   -2811.3531   -290.74102    82.929417 
    4100    238.89367   -110.96319   0.21615602   -110.74704    622.24968    4.3599554    4.3599554    4.3599554    622.24968   -3335.3575     11388.32   -6186.2132   -2482.7442    380.95396   -646.78176     82.87931 
    4200    215.40006   -110.94208    0.1948985   -110.74718   -1370.7181    4.3646169    4.3646169    4.3646169   -1370.7181   -1180.7278   -4644.0933    1712.6668    2138.2989   -2495.7255   -2182.7418    83.145429 
    4300    244.69783   -110.96778   0.22140773   -110.74637    3140.1438    4.3592319    4.3592319    4.3592319    3140.1438     667.0443    12394.576   -3641.1892   -705.33468    2070.7576    527.57878    82.838058 
    4400    192.60997   -110.92097   0.17427755   -110.74669   -369.02687    4.3615144    4.3615144    4.3615144   -369.02687   -6769.4385    703.23027    4959.1276     1553.835   -830.87116    8.7299693    82.968248 
    4500    127.08107   -110.86226   0.11498562   -110.74728   -1247.3617    4.3644387    4.3644387    4.3644387   -1247.3617    298.04359    4783.0031   -8823.1318   -796.39944   -911.87413    985.91671    83.135249 
    4600    213.25226   -110.93952   0.19295513   -110.74656    1643.4897    4.3581732    4.3581732    4.3581732    1643.4897   -3455.4163    6273.5159    2112.3696    248.50058    1323.0773   -1297.3529    82.777719 
    4700    181.63133   -110.91139   0.16434385   -110.74705    1116.9305    4.3632137    4.3632137    4.3632137    1116.9305    3315.1013    4523.9684   -4488.2782   -1473.2056   -3700.2103       1980.2    83.065263 
    4800    275.77143   -110.99633   0.24952379   -110.74681   -3543.8706    4.3630818    4.3630818    4.3630818   -3543.8706   -7739.5153    501.92116   -3394.0176    2125.7027    728.27575   -3353.7663    83.057733 
    4900    197.74253   -110.92594    0.1789216   -110.74702    4727.0976    4.3580848    4.3580848    4.3580848    4727.0976    1786.7658    7680.7845    4713.7425   -851.75641    -1958.216    1563.9107    82.772683 
    5000    213.91362   -110.94046   0.19355354   -110.74691   -5754.7659    4.3654671    4.3654671    4.3654671   -5754.7659   -8980.2233   -590.81661   -7693.2579    902.62392    1844.6765   -1192.7174    83.194032 
    5100    121.78361   -110.85763   0.11019237   -110.74744    971.98717    4.3601697    4.3601697    4.3601697    971.98717   -3980.0736    3912.0104    2984.0248   -622.57073   -1593.8368    3319.0087    82.891533 
    5200    196.50524   -110.92453   0.17780207   -110.74673   -331.96121    4.3604023    4.3604023    4.3604023   -331.96121   -1285.7153    7470.7571   -7180.9255   -1400.2281    876.97035   -1889.3514    82.904801 
    5300    225.57667    -110.9513   0.20410651   -110.74719   -4604.3038     4.365257     4.365257     4.365257   -4604.3038   -8807.4872    -4804.398   -201.02631   -570.82113   -37.011478    3379.1994    83.182019 
    5400    208.84032   -110.93644   0.18896311   -110.74748    2734.7434    4.3583393    4.3583393    4.3583393    2734.7434    672.63712    11913.995   -4382.4023   -81.165989   -2857.7281   -1679.5689    82.787187 
    5500    273.72616   -110.99461   0.24767318   -110.74694   -3073.2181    4.3631584    4.3631584    4.3631584   -3073.2181   -7350.3269   -2728.1462    858.81894    845.63951    151.67713   -423.10391    83.062105 
    5600    119.35989   -110.85566   0.10799933   -110.74766    1346.9451     4.362507     4.362507     4.362507    1346.9451   -1640.7674    10405.601    -4723.998   -1597.8204   -785.08111    1734.8175     83.02491 
    5700    223.95103   -110.94974    0.2026356    -110.7471   -3094.3377     4.359636     4.359636     4.359636   -3094.3377   -6839.8463    825.95015    -3269.117    1415.8149    1656.0362   -51.044701    82.861098 
    5800    106.82416   -110.84428  0.096656743   -110.74762    3247.6256    4.3635344    4.3635344    4.3635344    3247.6256    627.24172    11510.854   -2395.2193   -2002.4025   -1097.7574    2783.1329    83.083581 
    5900    302.43994   -111.02033   0.27365401   -110.74668   -5165.4189    4.3610945    4.3610945    4.3610945   -5165.4189   -4569.3371   -2904.6981   -8022.2216    33.144613     2945.882    -763.0378    82.944288 
    6000    139.13479   -110.87356   0.12589209   -110.74766    8236.7929    4.3604552    4.3604552    4.3604552    8236.7929    6408.0537    15780.787    2521.5378   -1722.0051   -120.10713    3169.0085    82.907816 
    6100    316.48601   -111.03285   0.28636319   -110.74649   -5746.5013    4.3633838    4.3633838    4.3633838   -5746.5013   -2744.0477   -6002.9808   -8492.4753    2938.3357    -2566.767   -3770.2641    83.074978 
    6200    113.91829   -110.85083   0.10307566   -110.74776    5304.8693    4.3604331    4.3604331    4.3604331    5304.8693    296.98932    13977.033    1640.5857   -2319.8716    -148.3865    3958.0495    82.906558 
    6300    204.99637   -110.93223   0.18548503   -110.74675   -2542.8175    4.3615072    4.3615072    4.3615072   -2542.8175    816.37936   -3680.0158    -4764.816    1974.0916    288.47739    -276.5849    82.967839 
    6400    152.03726   -110.88444   0.13756651   -110.74687    199.05826    4.3627171    4.3627171    4.3627171    199.05826   -5407.1248    10523.505   -4519.2059   -2408.8151   -1034.0149    1654.5814    83.036907 
    6500    224.47671   -110.94992   0.20311125    -110.7468    925.63688    4.3610191    4.3610191    4.3610191    925.63688    9743.5633   -4892.2715   -2074.3812    137.36592    525.13731     948.8968     82.93999 
    6600    222.02109   -110.94805   0.20088935   -110.74716    805.50544    4.3607285    4.3607285    4.3607285    805.50544   -4477.8667    12034.772   -5140.3885   -1858.7683    3946.7853    1016.1516     82.92341 
    6700    238.68543   -110.96272   0.21596759   -110.74675   -2389.0789    4.3641471    4.3641471    4.3641471   -2389.0789    3161.7494   -9735.0126   -593.97337    1621.9031   -1734.6018   -2025.4388    83.118584 
    6800    190.45521   -110.91905   0.17232788   -110.74672    1261.3078    4.3594015    4.3594015    4.3594015    1261.3078   -7662.3494    14897.956   -3451.6828   -708.61574   -819.76381   -1011.7565    82.847731 
    6900    151.06466   -110.88381   0.13668648   -110.74712   -2919.4647    4.3622145    4.3622145    4.3622145   -2919.4647   -2880.9355   -6976.1162    1098.6577   -2118.0421   -110.28418    2137.4252    83.008213 
    7000    183.59744   -110.91314   0.16612282   -110.74702   -2515.0805    4.3645735    4.3645735    4.3645735   -2515.0805    -5144.698    8360.0927   -10760.636    2156.4675   -568.76115   -2046.4944    83.142952 
    7100    197.11844   -110.92505   0.17835691   -110.74669     3427.632     4.356852     4.356852     4.356852     3427.632    4267.3197     1923.238    4092.3384   -4424.2933   -1974.7888    2059.1355    82.702459 
    7200    219.76612   -110.94542   0.19884901   -110.74657   -4353.1121    4.3657605    4.3657605    4.3657605   -4353.1121   -7032.6177    3451.2552   -9477.9738    2768.6136    2524.0895   -482.27323    83.210804 
    7300    267.00994   -110.98806   0.24159621   -110.74646    -1028.331    4.3620522    4.3620522    4.3620522    -1028.331   -3018.4945   -158.99875    92.500278   -1818.7181    1337.5398    87.574519    82.998944 
    7400    159.31187   -110.89135   0.14414873    -110.7472    4681.6624    4.3569299    4.3569299    4.3569299    4681.6624   -107.68994    9854.6769    4298.0002    3301.9887   -946.56706   -4148.2039    82.706896 
    7500    202.87641   -110.93006   0.18356684    -110.7465   -8279.2129    4.3684713    4.3684713    4.3684713   -8279.2129   -9084.3543    -3198.931   -12554.353   -2569.8083     13.55099    2207.4071    83.365906 
    7600    132.85738   -110.86679   0.12021215   -110.74657    7360.2809    4.3573068    4.3573068    4.3573068    7360.2809    10077.594    8823.9206    3179.3281    4075.7505   -243.75861   -2510.3443    82.728359 
    7700    240.31889   -110.96393   0.21744559   -110.74649   -2376.6103    4.3608172    4.3608172    4.3608172   -2376.6103   -4352.8974    6561.2541   -9338.1876    -2731.233   -397.54077    506.69274     82.92847 
    7800    191.81946   -110.92072   0.17356228   -110.74716   -2191.6608    4.3675032    4.3675032    4.3675032   -2191.6608    2679.6111   -3311.3228   -5943.2707   -34.070962   -1336.0789    65.460401    83.310491 
    7900    276.46034   -110.99661   0.25014712   -110.74647    5442.7897    4.3553144    4.3553144    4.3553144    5442.7897     576.7586     13367.57    2384.0409     1786.195    2900.7695   -701.96739    82.614926 
    8000    177.14114   -110.90809   0.16028102   -110.74781   -1063.2487    4.3641791    4.3641791    4.3641791   -1063.2487    3030.3825   -749.66029   -5470.4683     734.1614    187.78507   -936.93039    83.120415 
    8100    151.72293   -110.88497    0.1372821   -110.74769   -1817.7905    4.3648333    4.3648333    4.3648333   -1817.7905   -4163.6449    5732.8369   -7022.5636   -323.40267   -51.326464   -1449.4103    83.157797 
    8200     223.1892    -110.9483   0.20194628   -110.74635    3839.0029    4.3554124    4.3554124    4.3554124    3839.0029    8355.7459    6286.6485   -3125.3857    1625.3706   -456.66263     955.8143    82.620506 
    8300    130.17733   -110.86517   0.11778719   -110.74738   -2172.6798    4.3667289    4.3667289    4.3667289   -2172.6798   -4100.0168    7270.5582   -9688.5809    94.702208    1246.4771   -2265.5659     83.26619 
    8400    300.59007   -111.01907   0.27198022   -110.74709   -4351.7526    4.3625525    4.3625525    4.3625525   -4351.7526   -2873.0443   -3002.6946   -7179.5188   -2607.6864   -2355.5858    1978.9952    83.027506 
    8500    163.55746   -110.89491   0.14799023   -110.74692    11076.105    4.3559942    4.3559942    4.3559942    11076.105    8258.8753    20496.152    4473.2881    3288.9794    59.837176   -3344.0328    82.653619 
    8600    258.27097   -110.98022     0.233689   -110.74653   -11677.229    4.3684796    4.3684796    4.3684796   -11677.229   -12511.064   -9694.8488   -12825.775   -226.37339     3316.487    393.73923    83.366378 
    8700    106.08105   -110.84393  0.095984361   -110.74794    4818.2851    4.3595645    4.3595645    4.3595645    4818.2851    689.56518    16231.675   -2466.3849    1462.7095   -2333.7926   -1250.4798    82.857022 
    8800    239.13123   -110.96287   0.21637096    -110.7465   -2469.5124    4.3586152    4.3586152    4.3586152   -2469.5124   -2053.1313   -409.84173   -4945.5641   -411.24263    2491.5189   -65.505638    82.802906 
    8900    124.06112    -110.8592   0.11225311   -110.74694   -5161.4454    4.3685492    4.3685492    4.3685492   -5161.4454   -8719.6943    6727.5518   -13492.194    2926.0985   -330.56712    -56.75717    83.370366 
    9000    286.51622   -111.00565    0.2592459    -110.7464    993.20694    4.3579243    4.3579243    4.3579243    993.20694    1447.0166    -2071.601    3604.2052   -4297.6527    55.791072    1413.1569     82.76354 
    9100    190.38548   -110.91954   0.17226478   -110.74728     3652.009    4.3602866    4.3602866    4.3602866     3652.009    432.79212    15265.057   -4741.8223    2980.9581   -2101.2483   -1025.7245    82.898199 
    9200     236.6149    -110.9604   0.21409413   -110.74631   -10030.008    4.3682176    4.3682176    4.3682176   -10030.008   -12881.827    -12588.06   -4620.1377   -448.14951    855.87929   -1811.7743     83.35138 
    9300    126.80597   -110.86097   0.11473671   -110.74623    7582.0059    4.3559717    4.3559717    4.3559717    7582.0059    7569.8564    19142.381   -3966.2202    367.57882    932.14425     1146.936    82.652341 
    9400    214.00968   -110.94017   0.19364046   -110.74653   -5551.5801     4.363538     4.363538     4.363538   -5551.5801   -5276.6844   -7238.0423   -4140.0137    1266.0736   -1738.8744   -470.54738    83.083787 
    9500    134.77135   -110.86921   0.12194395   -110.74726   -891.23285    4.3662846    4.3662846    4.3662846   -891.23285   -1253.3088    7179.0928   -8599.4825   -801.41771    3522.0246    513.74439    83.240779 
    9600    294.28938   -111.01205   0.26627922   -110.74577    5647.7335    4.3546564    4.3546564    4.3546564    5647.7335    9985.1161    1588.8025    5369.2817   -1215.2274    -1997.029    1707.7242    82.577493 
    9700    183.22657   -110.91309   0.16578726    -110.7473     362.1187    4.3662634    4.3662634    4.3662634     362.1187   -5632.0589    9118.8971   -2400.4821   -1513.8988    1790.5104    1412.6109    83.239561 
    9800    252.37468   -110.97545   0.22835391   -110.74709    -4146.379    4.3637725    4.3637725    4.3637725    -4146.379    3270.7989   -6113.6726   -9596.2635    1239.9537   -1844.5617   -3251.2113    83.097182 
    9900    122.37416   -110.85738   0.11072671   -110.74665     10175.09    4.3549411    4.3549411    4.3549411     10175.09    2602.7481    20789.778    7132.7433   -388.53045    1112.6963    1013.1779    82.593687 
   10000    209.35351   -110.93546   0.18942746   -110.74604   -8760.1654    4.3692392    4.3692392    4.3692392   -8760.1654    1387.8391   -9961.8658    -17706.47    1523.0469    136.53536    -689.4315    83.409874 
   10100    159.78683   -110.89185   0.14457848   -110.74727     5092.856     4.359382     4.359382     4.359382     5092.856   -917.85537    13349.136    2847.2873   -394.48101    16.216174    401.66567    82.846619 
   10200    256.65277   -110.97845   0.23222482   -110.74623      3884.78    4.3580638    4.3580638    4.3580638      3884.78    10185.573    3154.1676   -1685.4009   -485.65771    2565.7558     477.8503    82.771486 
   10300    220.97703    -110.9464   0.19994466   -110.74646    -7024.557    4.3695293    4.3695293    4.3695293    -7024.557   -9882.4316    925.46573   -12116.705   -1422.8156   -1033.5741    2886.0188    83.426492 
   10400    199.59024   -110.92763   0.18059344   -110.74704    3295.8409    4.3567227    4.3567227    4.3567227    3295.8409    3438.0146    5938.2001    511.30801    104.04743    3019.4194   -2090.5784    82.695099 
   10500    183.15849   -110.91251   0.16572565   -110.74679   -1310.5966    4.3618976    4.3618976    4.3618976   -1310.5966    404.61618    6921.6918   -11258.098   -918.64732   -1267.0368   -130.59342    82.990122 
   10600    170.00654   -110.90021   0.15382549   -110.74638   -7720.4094    4.3680246    4.3680246    4.3680246   -7720.4094   -9551.5823    -3496.676    -10112.97    1982.0652    3606.1404    914.44395    83.340335 
   10700    185.82691   -110.91466   0.16814009   -110.74652    6013.3985    4.3554644    4.3554644    4.3554644    6013.3985    8441.2174    12175.282   -2576.3038    -1084.919   -614.21901   -1307.8998    82.623465 
   10800    243.85292   -110.96748   0.22064325   -110.74683   -4423.1954    4.3647157    4.3647157    4.3647157   -4423.1954   -5289.0407   -1583.5621   -6396.9836    763.35284    1030.9809    2616.1899    83.151078 
   10900    199.31048   -110.92728   0.18034031   -110.74694   -4540.3891    4.3657025    4.3657025    4.3657025   -4540.3891   -3182.9193      2025.05   -12463.298   -2386.2753    2998.7996      336.168     83.20749 
   11000    228.30108   -110.95266   0.20657161   -110.74608    3028.1619    4.3560732    4.3560732    4.3560732    3028.1619   -1009.2113    10173.629    -79.93229   -697.99762   -1996.7374    1259.5795    82.658118 
   11100    155.11701   -110.88781   0.14035313   -110.74745   -4066.5863    4.3666078    4.3666078    4.3666078   -4066.5863      394.745    809.41764   -13403.921   -1727.6827    3219.2302   -2045.9599    83.259263 
   11200    199.07583   -110.92757     0.180128   -110.74744   -2464.7495    4.3627737    4.3627737    4.3627737   -2464.7495   -5279.9736    4789.1938   -6903.4687    1950.5642    18.098173    1473.4351    83.040138 
   11300    182.03832   -110.91183    0.1647121   -110.74712    6358.5617    4.3570314    4.3570314    4.3570314    6358.5617    14436.322    4798.3952   -159.03179   -890.76256     1131.391   -3254.5417    82.712673 
   11400    242.70616   -110.96614   0.21960563   -110.74654   -6810.9476    4.3676773    4.3676773    4.3676773   -6810.9476   -9397.9468    2215.8054   -13250.701    791.52078    1332.7382    1818.0522    83.320453 
   11500    221.96495    -110.9484   0.20083855   -110.74757    2215.8836    4.3606058    4.3606058    4.3606058    2215.8836    5371.6818    1930.4702   -654.50108   -1084.3996     1272.161   -309.53799    82.916406 
   11600    167.63405   -110.89932   0.15167881   -110.74764    5437.5006    4.3584909    4.3584909    4.3584909    5437.5006    6479.2645    14749.152   -4915.9144    580.28355    -34.82399    -429.3146    82.795826 
   11700    212.15076    -110.9386   0.19195847   -110.74664    -6977.994    4.3678388    4.3678388    4.3678388    -6977.994   -5157.8421   -6740.3636   -9035.7764   -2163.1815     141.4191   -598.10964    83.329696 
   11800    119.52676   -110.85537   0.10815033   -110.74722     7826.727    4.3582724    4.3582724    4.3582724     7826.727    10055.641    15481.651   -2057.1106    622.38334    1806.2798   -1401.7595    82.783369 
   11900    288.80039   -111.00825   0.26131266   -110.74694   -4610.3737    4.3613964    4.3613964    4.3613964   -4610.3737   -3886.5807   -3938.9712   -6005.5691    322.40784    -1178.536    -1044.224    82.961518 
   12000    149.07029   -110.88256   0.13488193   -110.74768    848.02744    4.3670477    4.3670477    4.3670477    848.02744    1740.0128    7452.7201   -6648.6506   -1855.5533    2642.1338   -1420.0417    83.284426 
   12100    301.82657   -111.01937   0.27309902   -110.74627    280.69091    4.3570518    4.3570518    4.3570518    280.69091    1220.6342    1507.8773   -1886.4388    101.39651   -248.52436    2241.2331     82.71384 
   12200    103.07124   -110.84085  0.093261021   -110.74759    3514.8747     4.363085     4.363085     4.363085    3514.8747    1846.8438    12245.281   -3547.5007   -2191.1549   -217.81781   -3586.3607    83.057917 
   12300    246.22328   -110.96922     0.222788   -110.74643    -7543.346    4.3660115    4.3660115    4.3660115    -7543.346   -7989.7509   -5904.5929   -8735.6941    142.38741    1117.9857    2152.6337     83.22516 
   12400    113.06833    -110.8491    0.1023066   -110.74679    8448.7392    4.3564402    4.3564402    4.3564402    8448.7392    5298.6577    20131.924    -84.36403   -3429.8498   -482.75367   -2642.8753    82.679012 
   12500    274.36834   -110.99441   0.24825424   -110.74615   -6931.6467    4.3660399    4.3660399    4.3660399   -6931.6467   -5516.6584   -9722.9813   -5555.3005    2979.3491     154.2186    188.75008    83.226782 
   12600    181.21473   -110.91091    0.1639669   -110.74694    2630.9319    4.3625296    4.3625296    4.3625296    2630.9319    1609.6214    13652.127   -7368.9524   -3654.8193    1200.2031   -951.61392    83.026202 
   12700    247.64189   -110.97053   0.22407159   -110.74646    1449.2629    4.3583854    4.3583854    4.3583854    1449.2629    1912.4532   -2014.1574     4449.493   -7.1729518    1895.1642    1376.0201    82.789812 
   12800    152.51964   -110.88501   0.13800298   -110.74701   -1591.3178    4.3662962    4.3662962    4.3662962   -1591.3178   -3618.1375    10365.942   -11521.758   -2016.9382   -226.93527   -634.33098     83.24144 
   12900    200.13737   -110.92757    0.1810885   -110.74648   -755.91069    4.3602092    4.3602092    4.3602092   -755.91069     877.6913   -3101.0754   -44.347977    1462.5067    1953.2332   -1051.0734    82.893785 
   13000    166.16975   -110.89716   0.15035389    -110.7468    1920.9149    4.3613072    4.3613072    4.3613072    1920.9149   -619.82985    12913.079   -6530.5046   -2659.7066   -361.19441    1789.8732    82.956429 
   13100    228.49942   -110.95346   0.20675107   -110.74671   -3736.1668    4.3648493    4.3648493    4.3648493   -3736.1668    7064.0674   -9587.5103   -8685.0575    1862.9416   -422.79839   -3491.3042    83.158713 
   13200    210.41025   -110.93751   0.19038361   -110.74713    3720.4623    4.3598025    4.3598025    4.3598025    3720.4623   -2289.8865     13078.07    373.20358   -349.15118   -331.51297    2338.4041    82.870595 
   13300    230.10058   -110.95509   0.20819984   -110.74689   -144.51471    4.3624038    4.3624038    4.3624038   -144.51471    12119.974   -5454.1874   -7099.3308   -1600.9605    675.68475   -335.09711    83.019015 
   13400    165.98649   -110.89716   0.15018807   -110.74697   -1276.7693    4.3628642    4.3628642    4.3628642   -1276.7693   -9147.7533     7659.732   -2342.2867     922.3038    1357.3669     2358.517    83.045303 
   13500    196.87667   -110.92487   0.17813815   -110.74673   -1352.5204    4.3628702    4.3628702    4.3628702   -1352.5204    8208.4357   -2306.1367   -9959.8601   -2088.0889    643.07807   -1719.8465    83.045647 
   13600    161.63036   -110.89314   0.14624654   -110.74689    2357.5444    4.3600966    4.3600966    4.3600966    2357.5444    1158.8463    7972.0819   -2058.2949    760.57011    519.80408    2202.9723    82.887365 
   13700    234.45234   -110.95894    0.2121374   -110.74681   -4097.3777    4.3638397    4.3638397    4.3638397   -4097.3777     1355.462   -5170.7608   -8476.8343    -2447.794    706.74676   -1019.1281    83.101024 
   13800    223.27237   -110.94917   0.20202153   -110.74715    1280.0661     4.362684     4.362684     4.362684    1280.0661    536.48296    4593.5233   -1289.8081    4498.8925   -1439.1748    -535.0389    83.035018 
   13900    216.86174    -110.9434   0.19622106   -110.74718    349.87963    4.3591449    4.3591449    4.3591449    349.87963   -338.55381    2870.9428   -1482.7501    -5150.212   -2262.1218    2152.9386    82.833103 
   14000    178.90056   -110.90876   0.16187299   -110.74688   -4716.6932    4.3669804    4.3669804    4.3669804   -4716.6932   -5423.4945   -655.91102   -8070.6742    4120.0107    2192.3568    339.15349    83.280579 
   14100    172.13164   -110.90216   0.15574832   -110.74641    2535.6959    4.3589819    4.3589819    4.3589819    2535.6959   -300.11554    9120.7044   -1213.5011   -2551.5714   -1587.3165    833.91492    82.823809 
   14200      199.511   -110.92736   0.18052175   -110.74684   -2526.6329    4.3613221    4.3613221    4.3613221   -2526.6329    376.82284   -888.73219   -7067.9894    1456.4388    1066.2213   -723.01948    82.957277 
   14300    193.37921   -110.92204   0.17497357   -110.74706   -3736.4282    4.3675373    4.3675373    4.3675373   -3736.4282   -9928.0227     1456.774   -2738.0359   -95.786366    1133.4301    1466.3258    83.312443 
   14400    254.21952   -110.97638   0.23002317   -110.74635    4272.6101    4.3559249    4.3559249    4.3559249    4272.6101    8948.6168    3769.8497    99.363738    1932.6731    505.68479   -3720.5395    82.649677 
   14500    181.09032   -110.91094   0.16385433   -110.74709   -1385.0526    4.3650777    4.3650777    4.3650777   -1385.0526   -9745.5446    5869.1872   -278.80026    -912.6895   -2638.8364    2118.4355    83.171769 
   14600    203.53718   -110.93086   0.18416472   -110.74669    -4073.777    4.3650074    4.3650074    4.3650074    -4073.777    2122.9118   -4684.3743   -9659.8685    196.06928    1666.5643   -187.21216    83.167749 
   14700    178.22341   -110.90767   0.16126029   -110.74641    5789.5878    4.3559371    4.3559371    4.3559371    5789.5878    302.00669    17006.291    60.466011    2882.9082     192.5256    1332.0071    82.650367 
   14800    176.60743   -110.90723   0.15979812   -110.74743   -4605.7972    4.3674364    4.3674364    4.3674364   -4605.7972    1330.6492   -7782.1944   -7365.8464   -2219.8071   -1746.9195   -757.09614    83.306671 
   14900    218.92158    -110.9455   0.19808485   -110.74742    724.82244    4.3612553    4.3612553    4.3612553    724.82244   -2871.4053    10386.495   -5340.6223    1277.3846    3463.5654   -56.275487    82.953463 
   15000    233.91024   -110.95867    0.2116469   -110.74702    5056.0269    4.3585251    4.3585251    4.3585251    5056.0269    12003.001   -499.07458    3664.1539    1143.4734   -2154.0069   -2029.4405    82.797773 
   15100    186.69747   -110.91611   0.16892779   -110.74719    -4898.409    4.3682085    4.3682085    4.3682085    -4898.409   -6444.7788    3883.4785   -12133.927   -839.61672    992.28108   -885.14728    83.350857 
   15200    221.58878    -110.9474   0.20049819    -110.7469    2665.7073    4.3581566    4.3581566    4.3581566    2665.7073    7604.4401    3814.0632   -3421.3813   -2102.3138    -2246.156     1091.804    82.776774 
   15300    120.50698   -110.85599   0.10903725   -110.74695    5195.1802    4.3610996    4.3610996    4.3610996    5195.1802    4238.0427    17739.152    -6391.654     1724.608    229.46088   -1195.4516    82.944581 
   15400    262.02563    -110.9835   0.23708629   -110.74641   -11947.203    4.3679742    4.3679742    4.3679742   -11947.203   -10640.499   -11659.131   -13541.981   -1169.9716   -2048.0665    1799.9151    83.337448 
   15500    121.42853   -110.85808   0.10987109   -110.74821     11972.68     4.357062     4.357062     4.357062     11972.68    14537.783    20195.425    1184.8314    1256.5698   -475.62265   -2462.1578     82.71442 
   15600    329.18455   -111.04553    0.2978531   -110.74768   -7349.3547    4.3630804    4.3630804    4.3630804   -7349.3547   -7258.6328   -7564.8293    -7224.602    1086.2182     1755.029    -60.69895    83.057649 
   15700    76.309884   -110.81765  0.069046786    -110.7486    1126.9558    4.3663592    4.3663592    4.3663592    1126.9558    3240.0717    11136.835    -10996.04    1114.3392   -3050.3557   -1850.3768    83.245041 
   15800    318.13613   -111.03346   0.28785625   -110.74561    -2615.717    4.3574571    4.3574571    4.3574571    -2615.717   -2477.4697   -193.62281   -5176.0586   -2612.5017    2091.8917    170.02052     82.73692 
   15900    82.493379   -110.82265  0.074641743   -110.74801    463.84099    4.3642489    4.3642489    4.3642489    463.84099    560.59501    12329.121   -11498.193    1888.3205   -4081.3335    -1689.491    83.124402 
   16000    267.08073   -110.98911   0.24166026   -110.74745   -9524.4769    4.3663982    4.3663982    4.3663982   -9524.4769   -8964.1091   -10703.844   -8905.4777   -962.54551    708.83273    1535.1923    83.247273 
   16100    157.02663   -110.88901   0.14208099   -110.74693    10579.169    4.3551314    4.3551314    4.3551314    10579.169    10728.207    19734.495     1274.806     1336.621   -1599.5675    1024.7598    82.604513 
   16200    245.49122    -110.9686   0.22212561   -110.74647   -9003.0035    4.3680072    4.3680072    4.3680072   -9003.0035   -8533.0757   -10575.466   -7900.4691    156.67263   -1401.7436   -2473.1606    83.339338 
   16300    171.86123     -110.903   0.15550365   -110.74749    408.47721    4.3628746    4.3628746    4.3628746    408.47721    595.19037    10555.792   -9925.5509    2203.6807    1601.2268    1464.2235      83.0459 
   16400    214.73446   -110.94086   0.19429625   -110.74656    3720.1342    4.3564585    4.3564585    4.3564585    3720.1342    4695.1819    4622.7418    1842.4788   -1817.5213   -2826.3796   -222.11581    82.680052 
   16500    161.10137   -110.89261    0.1457679   -110.74684   -5847.4115    4.3699084    4.3699084    4.3699084   -5847.4115   -8366.5607    5981.3158    -15156.99   -237.31091     2037.029   -437.09744    83.448208 
   16600     225.8201    -110.9515   0.20432677   -110.74717    4114.0317    4.3582315    4.3582315    4.3582315    4114.0317    6739.8792    225.63482    5376.5811   -1101.3367   -2030.0299     175.6728    82.781041 
   16700     192.5652   -110.92207   0.17423704   -110.74783    5410.5598    4.3598761    4.3598761    4.3598761    5410.5598   -314.38721    15596.793    949.27379    1973.8384    502.89387    1694.2792    82.874789 
   16800    237.17599   -110.96194   0.21460182   -110.74734   -8689.9299    4.3693708    4.3693708    4.3693708   -8689.9299   -2636.7381   -12753.809   -10679.243   -290.29258   -1638.1732   -2793.1295    83.417409 
   16900    146.90603   -110.87996   0.13292366   -110.74703    8848.5941    4.3560383    4.3560383    4.3560383    8848.5941    848.97516    17641.194    8055.6133     2239.502    1751.6289    1390.7158    82.656133 
   17000    245.54678    -110.9684   0.22217589   -110.74622   -2851.8652    4.3638448    4.3638448    4.3638448   -2851.8652    4875.3336   -2049.5431   -11381.386    369.50502    -613.3579    1004.1259    83.101313 
   17100    144.94312   -110.87842   0.13114758   -110.74727   -676.55762    4.3662056    4.3662056    4.3662056   -676.55762   -9859.8901    5746.1497    2084.0675   -7.3727746   -534.47255    50.785256     83.23626 
   17200    238.31884   -110.96211    0.2156359   -110.74647    4495.8906    4.3562597    4.3562597    4.3562597    4495.8906    9346.0034    3979.6273    162.04098    177.61631    1164.6429   -503.67778    82.668732 
   17300    204.26129    -110.9322   0.18481991   -110.74738   -3712.1029    4.3663795    4.3663795    4.3663795   -3712.1029   -9213.7276    1269.3949   -3191.9762   -1078.4794   -2765.3003     1632.863    83.246205 
   17400    192.16963   -110.92169   0.17387912   -110.74781   -3792.5305    4.3639601    4.3639601    4.3639601   -3792.5305   -711.88019   -6688.1446   -3977.5667    3217.4581    1010.4528   -1618.7078    83.107902 
   17500    209.52263   -110.93623   0.18958048   -110.74665    2783.4024    4.3575666    4.3575666    4.3575666    2783.4024    98.334306    9761.2071   -1509.3343   -2370.3241   -61.913061   -267.13034    82.743162 
   17600     176.7263   -110.90661   0.15990567   -110.74671   -4318.8471    4.3674499    4.3674499    4.3674499   -4318.8471   -3347.1037   -4126.7439   -5482.6937    4350.3117    1667.4877    849.28007    83.307439 
   17700    205.91568   -110.93331   0.18631683   -110.74699   -1223.4131     4.361442     4.361442     4.361442   -1223.4131   -4289.5233     5302.755   -4683.4708   -4253.9408   -1305.3848    284.20354    82.964119 
   17800    197.29738   -110.92526   0.17851881   -110.74674    3506.7324    4.3591725    4.3591725    4.3591725    3506.7324    3038.0348     6024.528    1457.6343    2006.7391    3211.3189    1574.3006    82.834675 
   17900    236.27646   -110.96018    0.2137879   -110.74639   -7850.3019    4.3681598    4.3681598    4.3681598   -7850.3019   -4143.9109   -7758.3591   -11648.636   -3288.1741   -1596.1657    561.57307    83.348074 
   18000    174.94333   -110.90544    0.1582924   -110.74715    3365.3921    4.3590934    4.3590934    4.3590934    3365.3921    236.38713    9183.7768     676.0123    2491.1075   -70.942788   -68.648993    82.830164 
   18100    196.79928   -110.92502   0.17806812   -110.74695    2175.2845    4.3613907    4.3613907    4.3613907    2175.2845    10894.785    620.79469   -4989.7258   -1968.3992     511.5633     -1775.66     82.96119 
   18200    207.63578   -110.93442   0.18787322   -110.74654   -4638.8554     4.367045     4.367045     4.367045   -4638.8554   -10500.902    4659.5987   -8075.2633    1328.7131   -440.96069    298.33042    83.284275 
   18300    171.75248   -110.90269   0.15540526   -110.74729    5738.4411     4.357505     4.357505     4.357505    5738.4411    14666.799     3746.836   -1198.3117   -1135.5039     1477.233   -1331.9451     82.73965 
   18400    248.21968   -110.97171   0.22459438   -110.74711   -2626.4235     4.364514     4.364514     4.364514   -2626.4235   -6900.1089    7376.8782   -8356.0399   -714.80359    368.53547    2948.5693    83.139553 
   18500    190.36601   -110.91977   0.17224717   -110.74752   -927.61118    4.3648358    4.3648358    4.3648358   -927.61118    7111.4047   -4361.3331   -5532.9051   -1071.9357    2663.3126   -645.60395    83.157939 
   18600    176.22926   -110.90661   0.15945594   -110.74715    5184.1353    4.3575192    4.3575192    4.3575192    5184.1353    4184.6242    12656.898   -1289.1161     64.79224   -1986.0654    439.77704    82.740457 
   18700    221.32006    -110.9471   0.20025504   -110.74684    -5275.921    4.3665646    4.3665646    4.3665646    -5275.921    1062.9431   -9644.3218   -7246.3842    652.77024    1691.4858   -727.88338     83.25679 
   18800    152.18632   -110.88524   0.13770138   -110.74754    1116.0029    4.3623411    4.3623411    4.3623411    1116.0029   -2500.7482    11549.798   -5701.0417   -255.38406   -1209.2551   -38.771904     83.01544 
   18900    251.12917   -110.97414   0.22722695   -110.74691   -829.59912    4.3596453    4.3596453    4.3596453   -829.59912    2103.2272    -1186.093   -3405.9315    1296.8915     660.9098   -1960.8714    82.861628 
   19000    160.36835   -110.89225   0.14510465   -110.74715    103.84913    4.3661479    4.3661479    4.3661479    103.84913   -2259.4854    9444.5055   -6873.4728   -3520.9975    93.450489    97.509693    83.232956 
   19100     279.2544   -110.99958   0.25267525   -110.74691   -3207.4593    4.3613482    4.3613482    4.3613482   -3207.4593    1079.0524   -5079.5635   -5621.8668   -498.99637   -741.31112    1890.7632    82.958767 
   19200     103.3378   -110.84142  0.093502213   -110.74792    6462.2465    4.3603534    4.3603534    4.3603534    6462.2465    2650.4293    14940.895    1795.4156    -2095.983    1873.5121   -1917.0458    82.902011 
   19300    279.83965   -110.99972    0.2532048   -110.74651   -8614.8637    4.3663546    4.3663546    4.3663546   -8614.8637   -6820.6719   -8996.3401   -10027.579    1369.4582   -2082.0509    1519.8797    83.244779 
   19400    99.988839    -110.8383  0.090472003   -110.74782    7348.5465     4.359853     4.359853     4.359853    7348.5465    3093.0151    19569.302   -616.67738   -2044.5687    2251.2775   -1346.1438    82.873475 
   19500    274.60903   -110.99549   0.24847202   -110.74702   -5232.3101    4.3626935    4.3626935    4.3626935   -5232.3101   -5805.7274   -5161.9639   -4729.2389    3487.9033   -1675.6827   -456.51887     83.03556 
   19600    154.96975   -110.88765   0.14021988   -110.74743    2508.3297    4.3647567    4.3647567    4.3647567    2508.3297    3648.3407    12835.692   -8959.0431   -2021.5513    1051.1326    -2288.253    83.153421 
   19700    273.09478   -110.99365    0.2471019   -110.74655   -1470.2797    4.3597022    4.3597022    4.3597022   -1470.2797   -3523.4894   -5494.5411    4607.1914   -1008.0517   -606.93659    2246.1036    82.864874 
   19800     123.5278    -110.8593   0.11177055   -110.74753    1557.4263    4.3641891    4.3641891    4.3641891    1557.4263    3220.3334    11009.039   -9557.0932    154.44744    360.80663    -1763.431    83.120987 
   19900    262.72062    -110.9844   0.23771514   -110.74669   -4548.2732    4.3633258    4.3633258    4.3633258   -4548.2732    -5341.564     -7096.98   -1206.2755    180.99126    1121.1961    343.30843    83.071669 
   20000    114.53162   -110.85145   0.10363062   -110.74781    4486.6661    4.3599138    4.3599138    4.3599138    4486.6661     4692.741    15347.831   -6580.5743   -408.93793   -1042.3147   -426.48925    82.876941 
   20100      252.166   -110.97526    0.2281651   -110.74709   -6855.1251    4.3654211    4.3654211    4.3654211   -6855.1251   -3281.6648   -9416.6816    -7867.029    2339.7828    1732.4358    -2.697479    83.191397 
   20200    181.18382   -110.91151   0.16393893   -110.74758    3792.7285    4.3614459    4.3614459    4.3614459    3792.7285    11.292168    14504.411   -3137.5173    588.33984   -1883.3515    216.61723    82.964342 
   20300    247.06035   -110.97081   0.22354539   -110.74726   -2517.8502    4.3618543    4.3618543    4.3618543   -2517.8502     3224.334   -5918.3757   -4859.5089   -1484.5744    2912.7542   -424.77201    82.987651 
   20400     155.8365   -110.88842   0.14100414   -110.74741    805.40977    4.3637929    4.3637929    4.3637929    805.40977   -4747.7831    11903.393   -4739.3801   -155.38778   -1615.5141    2593.7685    83.098348 
   20500    236.24287   -110.96026   0.21375751   -110.74651   -2208.9294    4.3623006    4.3623006    4.3623006   -2208.9294    6567.8374    -5633.041   -7561.5845    738.33795    168.35612   -2339.5325    83.013126 
   20600    127.60836   -110.86272   0.11546273   -110.74725    1852.5529    4.3619873    4.3619873    4.3619873    1852.5529   -5028.0056      15640.7   -5055.0356   -1411.9107    781.53255    2817.6101    82.995241 
   20700    249.93597   -110.97278   0.22614732   -110.74664   -3570.1718    4.3630971    4.3630971    4.3630971   -3570.1718    2894.9351   -4115.1232   -9490.3274    314.91662   -1267.9867    -1504.202    83.058603 
   20800    177.06903   -110.90745   0.16021578   -110.74723    2894.6979    4.3628619    4.3628619    4.3628619    2894.6979   -5914.8338    15404.154    -805.2267    1280.7993    1034.8305    2962.5571    83.045176 
   20900    253.55583   -110.97653   0.22942264   -110.74711   -2709.4397    4.3616917    4.3616917    4.3616917   -2709.4397    3048.3066   -4399.1798   -6777.4459   -1076.0801   -375.86193   -241.37869    82.978367 
   21000    149.61409   -110.88302   0.13537397   -110.74764    2794.0067    4.3631051    4.3631051    4.3631051    2794.0067   -1026.0126    10730.416   -1322.3835     713.9627    2137.7566     1826.333     83.05906 
   21100    247.85533   -110.97109   0.22426471   -110.74683   -4311.1132    4.3630641    4.3630641    4.3630641   -4311.1132    -861.2369   -4504.3316   -7567.7712    630.83804   -2738.8596   -245.32234    83.056722 
   21200     113.8917   -110.85086    0.1030516   -110.74781    3570.3958    4.3608105    4.3608105    4.3608105    3570.3958     2166.942    13844.615   -5300.3694    1702.0339    867.06993   -417.17004    82.928084 
   21300    252.83546   -110.97559   0.22877084   -110.74681   -4701.0574     4.364861     4.364861     4.364861   -4701.0574   -8147.0463    -5995.839    39.713131   -1279.2874   -624.56472    68.145237    83.159382 
   21400    180.34856   -110.91058   0.16318317    -110.7474    3770.5949    4.3614468    4.3614468    4.3614468    3770.5949    4172.2796     12901.47   -5761.9647    1855.2632   -987.83703   -735.76971    82.964391 
   21500    244.12325   -110.96794   0.22088785   -110.74705    86.587232    4.3609874    4.3609874    4.3609874    86.587232    -1858.701    -4330.045    6448.5077   -448.56192   -97.167809    2315.8775    82.938181 
   21600    171.61029   -110.90254    0.1552766   -110.74726   -326.78167    4.3653864    4.3653864    4.3653864   -326.78167    1304.8444    7298.7606     -9583.95    461.60703    12.319649    -933.7271    83.189417 
   21700    230.14126   -110.95533   0.20823665   -110.74709   -724.22349     4.361259     4.361259     4.361259   -724.22349   -1453.4122   -749.93106    30.672759    400.01945    1944.8196    1476.3691    82.953679 
   21800    122.06387   -110.85843   0.11044596   -110.74799    4579.1608    4.3607573    4.3607573    4.3607573    4579.1608     1534.206    12529.752   -326.47617    2082.6626   -1194.0441   -2148.3209    82.925052 
   21900    263.38941   -110.98532   0.23832028     -110.747   -5909.8408     4.365653     4.365653     4.365653   -5909.8408   -7052.1819   -4390.0978   -6287.2428   -1347.3456    2861.4378    994.99039    83.204657 
   22000     178.9694   -110.90991   0.16193528   -110.74798    6626.9675    4.3603995    4.3603995    4.3603995    6626.9675    2643.2536    14444.524    2793.1253    966.00478   -1926.6343   -3229.9625     82.90464 
   22100    244.12233   -110.96857   0.22088702   -110.74768   -1787.9336     4.362008     4.362008     4.362008   -1787.9336    64.642098    102.19879   -5530.6418   -1005.4894    166.40719    2771.3231    82.996425 
   22200    176.41074   -110.90714   0.15962014   -110.74752   -1312.3897    4.3655329    4.3655329    4.3655329   -1312.3897   -5543.4382    7196.8968   -5590.6278    952.29551   -1349.5955   -2122.3367    83.197793 
   22300     197.3636   -110.92507   0.17857873    -110.7465    1322.1098     4.359148     4.359148     4.359148    1322.1098    5192.4515    3723.2065   -4949.3287    427.65562    1694.1494     728.9359    82.833277 
   22400    158.48405   -110.89071    0.1433997   -110.74731    -4004.196    4.3645655    4.3645655    4.3645655    -4004.196   -11229.693    3965.5159   -4748.4103    2781.7968    490.71711   -1422.5119    83.142492 
   22500    229.49917   -110.95508   0.20765568   -110.74742    -2319.699    4.3646004    4.3646004    4.3646004    -2319.699   -288.30435    451.90389   -7122.6964    1233.0712   -238.11248   -1762.7363    83.144488 
   22600     218.0125   -110.94453   0.19726229   -110.74727    3500.7892    4.3578852    4.3578852    4.3578852    3500.7892   -987.41682    11568.682   -78.897304    583.23706    3986.6049   -1817.7019    82.761308 
   22700    207.60108   -110.93497   0.18784182   -110.74712   -7003.1119    4.3673442    4.3673442    4.3673442   -7003.1119   -6476.6289   -5268.7946   -9263.9124    826.54145   -2111.0306   -171.28183     83.30139 
   22800     206.8135   -110.93404    0.1871292   -110.74691   -737.92826    4.3621504    4.3621504    4.3621504   -737.92826   -1452.7635    6031.4037    -6792.425   -1693.7379    1621.4332    1336.9598    83.004549 
   22900    164.01092   -110.89561   0.14840053   -110.74721     1246.321    4.3588065    4.3588065    4.3588065     1246.321   -401.95831    2994.8316    1146.0897    3066.5806    -928.7823   -2827.8172    82.813808 
   23000    181.07873   -110.91093   0.16384384   -110.74709   -6972.7812    4.3690152    4.3690152    4.3690152   -6972.7812   -9701.3941   -224.62887   -10992.321   -1081.0959    1053.5569    2661.7028    83.397046 
   23100    211.18827   -110.93773   0.19108758   -110.74664    4987.2959    4.3584853    4.3584853    4.3584853    4987.2959    3175.3608    7305.7883    4480.7385    2986.0901   -1448.8184   -2411.2161    82.795506 
   23200    231.74382   -110.95662   0.20968668   -110.74693    -806.6999    4.3620608    4.3620608    4.3620608    -806.6999   -2083.7026    3794.3008   -4130.6979   -1627.2807    618.93467   -500.87648    82.999434 
   23300    203.82546   -110.93122   0.18442556   -110.74679   -4392.0894    4.3678021    4.3678021    4.3678021   -4392.0894    -7426.421   -1517.6762   -4232.1711    1663.3467    2132.3356    64.955929    83.327596 
   23400    207.23686   -110.93353   0.18751227   -110.74602    6186.0776     4.356266     4.356266     4.356266    6186.0776    9945.2085    5549.7387    3063.2856   -3743.6738   -1704.6971    1886.3127    82.669095 
   23500    182.26196   -110.91172   0.16491446   -110.74681   -2392.9071    4.3659057    4.3659057    4.3659057   -2392.9071    -9565.883    5925.1111   -3537.9492    2386.1007    1537.2675   -2244.1075    83.219108 
   23600    167.95151   -110.89966   0.15196605    -110.7477    280.07582    4.3643498    4.3643498    4.3643498    280.07582     6094.636   -4821.1203   -433.28827   -2002.7962   -1310.7222    2433.9995    83.130165 
   23700    225.48704   -110.95128   0.20402541   -110.74726    5787.1832    4.3568973    4.3568973    4.3568973    5787.1832   -1158.3478    16142.584    2377.3128    633.22878    825.53409    -711.0402     82.70504 
   23800    215.23744   -110.94253   0.19475136   -110.74777   -4990.9238    4.3680091    4.3680091    4.3680091   -4990.9238   -3070.0836   -8442.9021   -3459.7858    1627.9675   -1384.8808   -838.99446    83.339445 
   23900    194.83438   -110.92386   0.17629024   -110.74757    1961.9358    4.3612621    4.3612621    4.3612621    1961.9358    101.73503    8832.0238   -3047.9515    -1398.004    2478.9453   -1168.8753     82.95385 
   24000    242.66425   -110.96592   0.21956772   -110.74636    1998.8115    4.3595848    4.3595848    4.3595848    1998.8115    958.86726    307.48322    4730.0841     -679.963   -678.00125    2568.6377    82.858179 
   24100    121.73359   -110.85721   0.11014711   -110.74707   -2183.5049     4.367957     4.367957     4.367957   -2183.5049   -827.36259    3003.2062   -8726.3583   -1066.1767   -826.37281    -1003.617    83.336466 
   24200    241.87832    -110.9657   0.21885659   -110.74685   -1479.2496    4.3595916    4.3595916    4.3595916   -1479.2496   -3968.8063   -1177.6229    708.68041    2224.7568    371.49792     1621.504    82.858569 
   24300    134.25268   -110.86873   0.12147464   -110.74726     5548.974    4.3613541    4.3613541    4.3613541     5548.974    4563.3469    15087.537   -3003.9615   -3974.1787   -339.89961    1354.5542    82.959103 
   24400    304.46073   -111.02195   0.27548247   -110.74647   -11503.798    4.3679143    4.3679143    4.3679143   -11503.798   -14331.409   -11164.039   -9015.9453    4404.8533   -335.56074   -752.89142    83.334018 
   24500    111.85115   -110.84887   0.10120527   -110.74766    10264.802    4.3578028    4.3578028    4.3578028    10264.802    8573.4116    19764.153    2456.8414   -3018.4208    -783.5886    2001.0352    82.756614 
   24600    307.15508   -111.02422   0.27792037    -110.7463   -6895.6924    4.3643911    4.3643911    4.3643911   -6895.6924   -5407.0811   -8155.6662     -7124.33   -472.50852    3053.6418   -903.11358    83.132527 
   24700    74.718537   -110.81545  0.067606903   -110.74784    1507.6188    4.3655004    4.3655004    4.3655004    1507.6188   -2246.0218    11399.665   -4630.7868   -862.25176   -1910.9933    3124.4733    83.195931 
   24800     260.2435   -110.98223   0.23547379   -110.74676   -1261.9493    4.3578237    4.3578237    4.3578237   -1261.9493    610.81447   -1603.7509   -2792.9115    2058.2903    1556.8077   -1638.3485    82.757804 
   24900    160.39777   -110.89273   0.14513127    -110.7476   -1763.2784    4.3664444    4.3664444    4.3664444   -1763.2784   -10689.081    11673.373   -6274.1266   -2485.3054    -138.3506    2617.2199    83.249917 
   25000    239.57818   -110.96383   0.21677537   -110.74705   -4580.5185    4.3642183    4.3642183    4.3642183   -4580.5185   -630.28508   -7829.9073   -5281.3631    4064.9069   -657.00272   -959.39222    83.122655 
   25100    191.16741   -110.91935   0.17297229   -110.74638    6675.0348    4.3574058    4.3574058    4.3574058    6675.0348    400.40533    17132.954    2491.7451    1301.7448   -2306.0358     2199.928    82.734001 
   25200    220.20687   -110.94569   0.19924781   -110.74644    -6848.739    4.3682608    4.3682608    4.3682608    -6848.739    -407.1785   -12614.691   -7524.3476   -1148.1868    347.41832   -434.49233    83.353852 
   25300    156.81236   -110.88963   0.14188712   -110.74774    157.34567    4.3616794    4.3616794    4.3616794    157.34567   -7519.3369    11776.115   -3784.7413    2298.9523    568.01457    603.62521    82.977667 
   25400    203.52861   -110.93117   0.18415696   -110.74701    1786.1417     4.359443     4.359443     4.359443    1786.1417    4613.7068   -1457.6907    2202.4091   -841.72048   -1256.8001    788.31144    82.850097 
   25500    188.03126   -110.91696   0.17013464   -110.74682   -4225.5224    4.3680784    4.3680784    4.3680784   -4225.5224   -11851.284    8782.8032   -9608.0865    2442.5324    2564.6538   -416.11701    83.343411 
   25600    237.10149   -110.96158   0.21453441   -110.74705    3136.0229    4.3596009    4.3596009    4.3596009    3136.0229    5297.6746   -2286.8235    6397.2177   -411.07192   -1660.5634   -818.20054      82.8591 
   25700    176.59899   -110.90711   0.15979048   -110.74732    4830.1459    4.3615315    4.3615315    4.3615315    4830.1459    787.52174    17186.625   -3483.7087    4692.5808    551.17098   -52.542911    82.969228 
   25800    256.20794   -110.97767   0.23182232   -110.74585   -7703.3432    4.3680389    4.3680389    4.3680389   -7703.3432   -9273.7028   -9413.0961   -4423.2307   -2822.6971   -2301.1389    1375.7628    83.341148 
   25900     111.8002    -110.8477   0.10115917   -110.74654    9097.1589    4.3576203    4.3576203    4.3576203    9097.1589    5346.5853    21706.043    238.84851    3754.5787    889.95087   -963.52178    82.746221 
   26000    254.07422   -110.97642   0.22989169   -110.74653   -6399.1334     4.364247     4.364247     4.364247   -6399.1334    -9050.153   -4347.4544   -5799.7928   -370.84907   -1155.7373    2106.7411    83.124291 
   26100    136.85151   -110.87134   0.12382612   -110.74752     1708.686    4.3670381    4.3670381    4.3670381     1708.686   -2285.8673    10917.576   -3505.6503    1195.6327   -1485.6446   -1325.5765    83.283876 
   26200    287.70632   -111.00587   0.26032273   -110.74554    3334.6211    4.3561664    4.3561664    4.3561664    3334.6211    3978.1231    5577.6694     448.0707    1420.4104    1541.9191   -294.34818     82.66342 
   26300     132.2802   -110.86674   0.11968991   -110.74705    199.74932    4.3669905    4.3669905    4.3669905    199.74932   -3579.3027    9323.4975   -5144.9469   -387.18459   -1410.2261   -3858.6608    83.281153 
   26400    295.01843   -111.01432   0.26693888   -110.74738   -8083.1854    4.3654392    4.3654392    4.3654392   -8083.1854   -6868.6046   -5477.0396   -11903.912    545.18009    1224.0145    2568.9537    83.192435 
   26500    86.274755   -110.82606  0.078063211   -110.74799    8562.8332     4.355652     4.355652     4.355652    8562.8332    5593.1113    17918.877    2176.5118    51.055494   -1428.9762   -4320.4516    82.634141 
   26600    260.29461   -110.98152   0.23552003     -110.746   -11840.737    4.3711795    4.3711795    4.3711795   -11840.737   -11574.681   -9080.4753   -14867.055    1180.5437    1928.6957    1501.7843    83.521046 
   26700    158.84651   -110.89049   0.14372766   -110.74676    7581.8577     4.359231     4.359231     4.359231    7581.8577    5412.4545    17021.289    311.82932   -511.81189   -2686.3666   -1770.2661    82.838011 
   26800    227.76322   -110.95297   0.20608495   -110.74689   -293.24696    4.3602249    4.3602249    4.3602249   -293.24696    1136.1669    202.90732   -2218.8151    3028.9254   -321.55437   -1840.9903    82.894682 
   26900    219.45653   -110.94535   0.19856888   -110.74678   -7813.9145     4.371247     4.371247     4.371247   -7813.9145   -12340.591     4695.009   -15796.162   -1181.0067     795.3592   -630.94869    83.524912 
   27000     182.7555   -110.91229   0.16536101   -110.74693    6918.8112    4.3548117    4.3548117    4.3548117    6918.8112    9752.5719    6273.2304    4730.6313    399.49949   -1952.5123   -1163.4613    82.586324 
   27100    186.53659   -110.91675   0.16878223   -110.74797   -4947.7233    4.3659433    4.3659433    4.3659433   -4947.7233   -9714.1298    8457.0903   -13586.131   -1166.8425    683.99822    1583.3729    83.221255 
   27200     181.1028   -110.91119   0.16386562   -110.74732   -1293.4096    4.3673701    4.3673701    4.3673701   -1293.4096    1725.3909   -3935.6623   -1669.9574    451.98032   -1623.8574   -1676.1232    83.302875 
   27300    219.99652   -110.94522   0.19905748   -110.74616    7533.6436    4.3548618    4.3548618    4.3548618    7533.6436    1706.3649    19542.731    1351.8347   -970.93359     845.9068    3731.0205    82.589178 
   27400    212.56715   -110.93909   0.19233523   -110.74675   -6264.1848    4.3694075    4.3694075    4.3694075   -6264.1848   -7651.8614   -5645.9341   -5494.7589    2716.0293   -2109.1945   -2708.7662    83.419514 
   27500    201.55712   -110.92933   0.18237312   -110.74696      1846.06    4.3627586    4.3627586    4.3627586      1846.06   -1301.5806    11881.845   -5042.0842    -1738.937    1741.4708    1155.1978    83.039277 
   27600    235.83101   -110.95965   0.21338485   -110.74627    1673.8375    4.3579974    4.3579974    4.3579974    1673.8375   -469.61035    5436.7951     54.32773   -7.7750467   -289.47036   -1206.1158      82.7677 
   27700    102.68738   -110.84029  0.092913696   -110.74737   -2407.3743    4.3697051    4.3697051    4.3697051   -2407.3743   -3767.9167    2011.8833   -5466.0896   -85.540483   -1318.8898    501.82887    83.436557 
   27800    286.82588   -111.00593   0.25952608   -110.74641   -579.84628    4.3599149    4.3599149    4.3599149   -579.84628   -2003.3132    1274.4122   -1010.6379   -1216.6634    172.32149   -143.60257    82.877005 
   27900    125.85462   -110.86191    0.1138759   -110.74804    6335.1437     4.360695     4.360695     4.360695    6335.1437    922.60736    11477.228    6605.5957    568.45063   -2440.9535    2606.6279    82.921495 
   28000    289.75139   -111.00923   0.26217314   -110.74705   -11411.138     4.369536     4.369536     4.369536   -11411.138   -11654.466   -7695.7478   -14883.201    1131.5141    589.65181   -1322.3481    83.426876 
   28100    159.32482   -110.89176   0.14416045    -110.7476    9488.2698     4.357361     4.357361     4.357361    9488.2698    3702.5523    18994.501    5767.7565     1577.714   -2339.9623    1198.1538    82.731447 
   28200    224.90868   -110.95131    0.2035021    -110.7478   -4212.1042    4.3641198    4.3641198    4.3641198   -4212.1042   -2891.5933   -1837.6766   -7907.0427   -524.14491    836.54856   -724.80062    83.117026 
   28300    135.56539   -110.87061   0.12266241   -110.74794   -1785.0053    4.3676312    4.3676312    4.3676312   -1785.0053   -5096.7343     4669.659   -4927.9407    916.16609   -636.39821    390.92732    83.317814 
   28400    228.85512   -110.95352   0.20707292   -110.74645    6263.1142     4.356323     4.356323     4.356323    6263.1142    4811.1389    9322.3196    4655.8842   -812.31015   -779.58586    530.44062    82.672336 
   28500    203.74149   -110.93181   0.18434958   -110.74746   -4758.4725    4.3671057    4.3671057    4.3671057   -4758.4725   -9827.1225    4678.3077   -9126.6026   -511.34119    1483.2939    860.66706    83.287745 
   28600     211.0841   -110.93857   0.19099333   -110.74758   -2768.9911    4.3651024    4.3651024    4.3651024   -2768.9911   -2101.9879    361.01323   -6565.9986    91.601859   -1266.2701    120.70494    83.173179 
   28700    240.64117   -110.96404   0.21773719    -110.7463    4324.8042    4.3574211    4.3574211    4.3574211    4324.8042    2498.6187     14710.03   -4234.2365    1834.8476    120.80846    268.69167     82.73487 
   28800    159.10605   -110.89136    0.1439625    -110.7474   -5871.6878    4.3688537    4.3688537    4.3688537   -5871.6878    -4544.424   -5110.9472   -7959.6922   -802.47497   -2254.8894    1773.3555    83.387799 
   28900    181.62704    -110.9117   0.16433997   -110.74736    313.98951    4.3618272    4.3618272    4.3618272    313.98951   -938.51207     8350.066   -6469.5854    871.80236   -323.58002   -3412.7764    82.986102 
   29000    218.84465   -110.94433   0.19801524   -110.74632    2116.1336    4.3599528    4.3599528    4.3599528    2116.1336   -666.50133     4870.634    2144.2682   -491.79283   -1283.1104    3353.4711    82.879164 
   29100    170.56992   -110.90144   0.15433525   -110.74711   -6843.6339     4.369001     4.369001     4.369001   -6843.6339   -6085.6154   -276.92999   -14168.356    910.07101   -533.27883   -2632.2773    83.396231 
   29200    256.44616   -110.97915   0.23203788   -110.74711    1015.0772    4.3597406    4.3597406    4.3597406    1015.0772    1480.9309    5003.8307     -3439.53   -672.32626    1718.4253   -549.39769    82.867062 
   29300    184.57855   -110.91529   0.16701056   -110.74828    3104.1406    4.3620006    4.3620006    4.3620006    3104.1406    4851.9299    9149.4298   -4688.9378    1514.8191    -1720.246   -767.73735    82.995998 
   29400    211.27484   -110.93851   0.19116592   -110.74734   -7939.4217     4.368691     4.368691     4.368691   -7939.4217   -7571.1267   -4771.4132   -11475.725    306.70456    1179.2077    130.10436    83.378484 
   29500    153.66609   -110.88627   0.13904031   -110.74723    9497.2611    4.3576481    4.3576481    4.3576481    9497.2611    7809.2001    15445.427    5237.1562     255.5042   -1387.4159   -2040.0974    82.747803 
   29600    235.77152   -110.96088   0.21333103   -110.74755   -3406.8834    4.3643551    4.3643551    4.3643551   -3406.8834   -3334.6457    1338.5897   -8224.5941    -201.9019   -290.79474    1557.3175     83.13047 
   29700    166.98346   -110.89964   0.15109014   -110.74855   -1996.4613    4.3676107    4.3676107    4.3676107   -1996.4613   -2043.3439    4661.3495   -8607.3895    828.55407    -687.2673    487.59612    83.316644 
   29800    242.58481   -110.96633   0.21949584   -110.74683    7641.6502    4.3562445    4.3562445    4.3562445    7641.6502    10130.137    12740.813    54.001053   -405.91027   -2125.3109   -1811.6493     82.66787 
   29900    204.27768   -110.93259   0.18483474   -110.74776   -3785.6121    4.3677324    4.3677324    4.3677324   -3785.6121   -4906.3549    3548.8853   -9999.3666    126.64903    701.70259    975.25581    83.323608 
   30000    167.78436   -110.90047   0.15181481   -110.74866    297.50901    4.3643298    4.3643298    4.3643298    297.50901     2317.734    803.69007    -2228.897    75.603472   -2581.5532   -953.47136    83.129025 
   30100     216.7507   -110.94296   0.19612059   -110.74684    4158.9783    4.3571996    4.3571996    4.3571996    4158.9783    764.15571    10873.005    839.77465    983.71386    1713.2107   -206.95803    82.722254 
   30200    186.53888   -110.91522    0.1687843   -110.74643   -6786.8576    4.3711347    4.3711347    4.3711347   -6786.8576   -4724.6241   -4577.0685    -11058.88    -466.4177    -1843.614    675.98531    83.518477 
   30300    213.58819   -110.93986   0.19325909    -110.7466      3334.14    4.3590133    4.3590133    4.3590133      3334.14    3882.7294     9527.288   -3407.5973    1109.3477    370.93674    1232.1959    82.825599 
   30400    231.07145   -110.95569    0.2090783   -110.74661    817.34588     4.361574     4.361574     4.361574    817.34588    1736.4326    6140.9138   -5425.3088    2481.9437   -299.98637   -842.16732     82.97165 
   30500    181.70849   -110.91137   0.16441366   -110.74696   -6358.1873    4.3709289    4.3709289    4.3709289   -6358.1873   -6573.2503    -1699.797   -10801.515   -673.97465    -1606.497    1121.5504    83.506684 
   30600    200.82262   -110.92821   0.18170853    -110.7465    5248.8431    4.3551192    4.3551192    4.3551192    5248.8431     4093.435    9080.7319    2572.3624    1386.4501    1060.3812   -2715.4235    82.603823 
   30700    174.77583   -110.90539   0.15814084   -110.74724   -2050.5074    4.3672385    4.3672385    4.3672385   -2050.5074   -3810.4937    3725.1013   -6066.1297   -482.77901   -3595.7385    884.87808    83.295344 
   30800    228.19397   -110.95403    0.2064747   -110.74755   -5572.4949    4.3661922    4.3661922    4.3661922   -5572.4949   -2155.7909   -3002.2505   -11559.443     1100.547    1921.2852   -42.944127    83.235491 
   30900    175.72418   -110.90659   0.15899893   -110.74759    7355.4877    4.3564845    4.3564845    4.3564845    7355.4877    7960.5468    14071.084    34.832412   -1581.5836   -3475.6448    826.57728    82.681533 
   31000    247.91262   -110.97109   0.22431655   -110.74678   -7539.3181    4.3701973    4.3701973    4.3701973   -7539.3181   -6945.4183     -2309.09   -13363.446    3102.8461    346.23266    626.35509    83.464755 
   31100    170.76531   -110.90187   0.15451204   -110.74735    2604.8789    4.3607982    4.3607982    4.3607982    2604.8789    4439.8557    7289.0795   -3914.2985   -68.445672   -902.86653    2268.9168    82.927383 
   31200    193.46762   -110.92214   0.17505356   -110.74709     2163.097    4.3609473    4.3609473    4.3609473     2163.097   -1215.3077    8821.1296    -1116.531    188.59109   -635.05984   -42.307704    82.935891 
   31300    209.02927   -110.93635   0.18913408   -110.74721   -5787.9052    4.3689234    4.3689234    4.3689234   -5787.9052    523.51806    -4264.375   -13622.859   -761.47984    1069.9703   -92.052696     83.39179 
   31400    180.13492   -110.91086   0.16298986   -110.74787    3814.8666    4.3587235    4.3587235    4.3587235    3814.8666    3728.6169     8203.954   -487.97101    214.16113    -1950.574    2928.9834    82.809079 
   31500    225.18861   -110.95148   0.20375539   -110.74772    -2926.809    4.3648668    4.3648668    4.3648668    -2926.809    3809.0739   -2093.5107    -10495.99   -2637.3388    2064.2368   -2619.8527    83.159716 
   31600    202.51053   -110.93049   0.18323579   -110.74726   -2157.7782    4.3659896    4.3659896    4.3659896   -2157.7782   -3640.0983    3404.2684   -6237.5046    1698.0381   -2445.9322    2307.4972    83.223907 
   31700    200.93084   -110.92887   0.18180645   -110.74706    3443.4661    4.3590781    4.3590781    4.3590781    3443.4661    4654.1089    5633.9099    42.379726     -170.603    1075.2482   -360.88301    82.829292 
   31800     181.7616   -110.91179   0.16446172   -110.74733   -1959.5142    4.3664251    4.3664251    4.3664251   -1959.5142    -153.6518    2254.3424   -7979.2333    1135.6576   -2695.9051    965.52673    83.248811 
   31900    222.95715   -110.94876   0.20173632   -110.74702   -1811.1585    4.3639502    4.3639502    4.3639502   -1811.1585    -1090.336   -1502.8694   -2840.2703   -977.34756    68.741324   -1384.6327    83.107333 
   32000    162.36199   -110.89403   0.14690854   -110.74712    4503.0696    4.3603768    4.3603768    4.3603768    4503.0696    8115.4449    9809.8319   -4416.0678    346.77046    232.26494    958.41377    82.903348 
   32100    250.76763   -110.97375   0.22689982   -110.74685   -5056.3765    4.3666569    4.3666569    4.3666569   -5056.3765   -8570.6792   -2601.5699   -3996.8804   -2028.7957   -102.40688   -722.36512    83.262069 
   32200     163.8987   -110.89589   0.14829899   -110.74759    4794.4446    4.3619639    4.3619639    4.3619639    4794.4446     4705.721    12106.533   -2428.9208   -1264.5091    1118.6477    346.28869    82.993903 
   32300    244.85069   -110.96923   0.22154605   -110.74768   -1570.1817    4.3623259    4.3623259    4.3623259   -1570.1817   -4410.5732    -623.8478    323.87604     784.7256   -602.74446     -625.945    83.014569 
   32400    158.55668   -110.89164   0.14346542   -110.74817    423.58368    4.3656099    4.3656099    4.3656099    423.58368   -552.03081    8083.2637   -6260.4818   -2613.4832    1208.5126   -119.49942    83.202193 
   32500    245.65409   -110.97005   0.22227299   -110.74778   -1268.6406    4.3617446    4.3617446    4.3617446   -1268.6406   -2032.0152   -880.28552   -893.62126    1553.8377   -2208.5658   -141.11056    82.981391 
   32600    137.21593    -110.8724   0.12415586   -110.74824    1464.3388    4.3634744    4.3634744    4.3634744    1464.3388   -1717.8359    8769.5296   -2658.6774   -3645.6866    697.52981    164.36819    83.080154 
   32700    252.83888   -110.97604   0.22877393   -110.74727   -4779.6183    4.3648601    4.3648601    4.3648601   -4779.6183   -3744.4575   -5324.0117   -5270.3855    1925.6941   -1782.8586    553.57171    83.159328 
   32800    160.79651   -110.89288   0.14549206   -110.74739    3822.0079    4.3616573    4.3616573    4.3616573    3822.0079    -1324.955    10696.865    2094.1142   -3818.8253    447.80008   -245.88219    82.976406 
   32900    233.90184   -110.95852    0.2116393   -110.74688   -5246.8128     4.364854     4.364854     4.364854   -5246.8128     342.8538    -6151.715   -9931.5774      2549.95    360.09143   -897.88757    83.158979 
   33000    179.37262   -110.90953   0.16230011   -110.74723    888.26767    4.3638389    4.3638389    4.3638389    888.26767   -4941.4906    8846.0947   -1239.8012   -1920.2918   -49.099175   -2270.9485    83.100977 
   33100    212.05532   -110.93882   0.19187211   -110.74694   -632.54246    4.3618348    4.3618348    4.3618348   -632.54246    7116.6562   -4113.7254   -4900.5582    2208.8808    1273.8726    1842.2798    82.986537 
   33200    173.39515   -110.90433   0.15689158   -110.74744   -1775.0099    4.3646664    4.3646664    4.3646664   -1775.0099   -6849.0543    6493.6318   -4969.6072   -1623.3967   -116.20298   -3772.3156    83.148261 
   33300    228.26822   -110.95367   0.20654188   -110.74713   -603.16541     4.364232     4.364232     4.364232   -603.16541    7719.6597   -7139.1638   -2389.9921     284.7837   -553.73706    2142.6723    83.123437 
   33400    172.09388   -110.90337   0.15571416   -110.74766    3552.0527    4.3611624    4.3611624    4.3611624    3552.0527   -916.44272    15914.493   -4341.8923   -792.53459   -437.34454   -2010.2417    82.948166 
   33500    232.22959   -110.95743   0.21012621    -110.7473   -3289.7209    4.3656509    4.3656509    4.3656509   -3289.7209    5358.7038   -9460.5758   -5767.2907    166.50581   -274.93779    921.59681    83.204535 
   33600    172.45555   -110.90315   0.15604141   -110.74711    3382.9383    4.3623063    4.3623063    4.3623063    3382.9383   -1600.8575     14019.33   -2269.6579    1644.9984   -371.67032   -1774.6216    83.013449 
   33700    238.65202   -110.96276   0.21593737   -110.74682   -4054.5839    4.3628502    4.3628502    4.3628502   -4054.5839    1885.1413   -11072.687   -2976.2057    -102.6446    958.48569    1034.0084    83.044505 
   33800    124.14013   -110.85983   0.11232459    -110.7475    2761.4412    4.3660505    4.3660505    4.3660505    2761.4412    2131.7313    9953.9431   -3801.3507    2443.6685   -383.62591   -1615.9419    83.227389 
   33900    279.14888   -110.99887   0.25257977   -110.74629   -1015.8431    4.3601265    4.3601265    4.3601265   -1015.8431    -1174.421   -4828.3465    2955.2383   -2355.9648     853.4408    272.98205    82.889069 
   34000    128.78455   -110.86401   0.11652697   -110.74748    1610.2602    4.3654994    4.3654994    4.3654994    1610.2602    6162.7336    7785.4762   -9117.4293     3221.702   -556.75319    2490.3502    83.195875 
   34100    275.59316   -110.99607   0.24936248   -110.74671   -4621.9841    4.3641765    4.3641765    4.3641765   -4621.9841   -9525.2201   -7506.1166    3165.3844   -2787.0868    1075.4764   -1027.5038    83.120267 
   34200    143.80778   -110.87765    0.1301203   -110.74753    5066.5885    4.3600445    4.3600445    4.3600445    5066.5885    5144.8434    11673.886   -1618.9644    4042.7391   -1017.1245    2608.0306    82.884395 
   34300    223.62133   -110.94951   0.20233728   -110.74717   -6185.5947    4.3677854    4.3677854    4.3677854   -6185.5947   -7036.2299    -11326.85   -193.70488   -1183.3273    1219.0898     -2339.94    83.326641 
   34400    162.39007   -110.89388   0.14693395   -110.74695    4301.7814     4.360702     4.360702     4.360702    4301.7814    1271.9229    9683.5993    1949.8221    3136.5492   -202.18791    2058.3645    82.921895 
   34500    244.74433   -110.96782   0.22144981   -110.74637   -2331.1589    4.3636983    4.3636983    4.3636983   -2331.1589    486.23573   -5061.0908   -2418.6217   -318.40839    352.42844   -1471.1477    83.092943 
   34600    175.73505   -110.90634   0.15900877   -110.74733   -1384.7859    4.3660392    4.3660392    4.3660392   -1384.7859   -6462.3438    5048.6659   -2740.6797    1366.4613    709.19956    2654.6895    83.226744 
   34700    214.12091   -110.94058    0.1937411   -110.74684    2542.4193    4.3591143    4.3591143    4.3591143    2542.4193    2087.9663    3492.7599    2046.5317    40.287236   -1272.0325      -1621.9    82.831355 
   34800    202.59302   -110.93032   0.18331042   -110.74701   -3438.8873    4.3673909    4.3673909    4.3673909   -3438.8873   -7809.2162    85.551775   -2592.9975   -729.23524    1013.2593    2180.1292    83.304064 
   34900    188.91559   -110.91811    0.1709348   -110.74717   -87.138112    4.3632731    4.3632731    4.3632731   -87.138112    2773.8426   -174.85345   -2860.4035    2588.2439   -1070.5562   -1878.7488    83.068656 
   35000    206.99792   -110.93478   0.18729607   -110.74749     3693.845    4.3600435    4.3600435    4.3600435     3693.845    2105.4528    6793.3029    2182.7792   -944.06792    2025.2249    1415.7479    82.884337 
   35100    206.42464   -110.93481   0.18677735   -110.74803   -4111.5649     4.367598     4.367598     4.367598   -4111.5649    -2624.738   -178.63998   -9531.3167    993.06579   -614.37479    101.37233    83.315918 
   35200    179.83871   -110.91121   0.16272184   -110.74849    2794.1641    4.3607157    4.3607157    4.3607157    2794.1641    1202.2951    5902.6311    1277.5661   -1276.3326    1807.5991   -303.90226    82.922681 
   35300    226.62957    -110.9526    0.2050592   -110.74754   -101.51106    4.3637972    4.3637972    4.3637972   -101.51106   -935.22651    5258.6568   -4627.9635    1696.4128   -1274.8648    1975.3307    83.098595 
   35400     192.8349   -110.92202   0.17448107   -110.74754   -1944.8185    4.3654778    4.3654778    4.3654778   -1944.8185     1003.434   -2920.9532   -3916.9362   -3000.2116    1178.1405    1736.4494    83.194643 
   35500     179.6998   -110.91016   0.16259616   -110.74757    3958.7147    4.3603712    4.3603712    4.3603712    3958.7147    6150.0019    9243.5943    -3517.452    2542.2423    -617.6928    649.48775    82.903028 
   35600    234.73481   -110.95947   0.21239299   -110.74708   -3724.1386    4.3654581    4.3654581    4.3654581   -3724.1386   -1084.6887    -5224.097   -4863.6301   -1483.3267   -974.66422   -715.62637    83.193516 
   35700     154.4501   -110.88723    0.1397497   -110.74748    400.18032    4.3638111    4.3638111    4.3638111    400.18032    1484.1545    4790.4586   -5074.0721    1933.8878    1862.5354    3441.2673    83.099386 
   35800    270.18253   -110.99087   0.24446683    -110.7464   -2607.0997    4.3620563    4.3620563    4.3620563   -2607.0997   -1941.3748   -2560.9961    -3318.928   -967.57467   -839.61253   -3258.1348    82.999179 
   35900    126.95993   -110.86238   0.11487602    -110.7475    2564.1659    4.3647271    4.3647271    4.3647271    2564.1659    1227.7179    9124.9582   -2660.1785    1671.9572    2577.9177    3079.7864     83.15173 
   36000    269.25119   -110.99046   0.24362413   -110.74684   -5180.6034    4.3640534    4.3640534    4.3640534   -5180.6034   -1170.5111   -5506.9884   -8864.3108   -2619.5226   -808.51896    372.42328    83.113234 
   36100    133.34748   -110.86808    0.1206556   -110.74743    5205.8015    4.3613566    4.3613566    4.3613566    5205.8015    2862.9225    11401.962    1352.5203    701.29606    2507.5803    453.12683    82.959248 
   36200     268.7545      -110.99   0.24317472   -110.74683   -7147.6535    4.3659181    4.3659181    4.3659181   -7147.6535   -4572.8798   -8638.4123   -8231.6682    690.30943   -1032.6743   -499.42183    83.219814 
   36300    142.54509   -110.87681   0.12897779   -110.74783    3798.6255    4.3620802    4.3620802    4.3620802    3798.6255   -1502.0569     14445.78   -1547.8461    -837.3967    423.57577     1310.715    83.000541 
   36400     232.2317   -110.95719   0.21012812   -110.74707   -2025.5227    4.3638429    4.3638429    4.3638429   -2025.5227    -1848.903   -2841.6416   -1386.0236    82.690787    1001.8039   -1364.0232    83.101207 
   36500    177.83936   -110.90778   0.16091279   -110.74687    995.67883    4.3644802    4.3644802    4.3644802    995.67883   -2225.6639    12581.626   -7368.9259    139.35104   -1215.1587   -106.20098    83.137617 
   36600    221.36862   -110.94686   0.20029898   -110.74656    613.40495    4.3611377    4.3611377    4.3611377    613.40495    5368.2034   -4404.4717     876.4831   -101.65636    3018.3963    1079.5197    82.946753 
   36700    187.77218   -110.91677   0.16990022   -110.74687   -1647.7468    4.3660808    4.3660808    4.3660808   -1647.7468   -8671.0904    11604.102   -7876.2517   -624.92759   -986.48188   -791.32914     83.22912 
   36800    212.41947   -110.93962    0.1922016   -110.74742   -454.36684    4.3624776    4.3624776    4.3624776   -454.36684    6349.3107   -4249.8433   -3462.5679    1063.9025    2596.4163    762.17923    83.023232 
   36900     155.8403   -110.88868   0.14100758   -110.74767     2906.395    4.3622952    4.3622952    4.3622952     2906.395   -3727.8787    13653.324   -1206.2602   -1762.2499    588.12373   -84.938747    83.012818 
   37000    257.05814   -110.97969   0.23259161    -110.7471   -5192.6756    4.3662191    4.3662191    4.3662191   -5192.6756    2791.4842    -8697.269   -9672.2418   -800.81973    50.293272    485.21781    83.237029 
   37100    127.47225   -110.86309   0.11533957   -110.74775    6277.3927    4.3602938    4.3602938    4.3602938    6277.3927     2224.441    17219.215   -611.47826    456.75425    1828.4223   -253.42171    82.898614 
   37200    282.57102   -111.00253    0.2556762   -110.74685   -7181.7185    4.3654057    4.3654057    4.3654057   -7181.7185   -3795.8911   -8547.8357   -9201.4286    390.46803   -956.14525    414.51989    83.190521 
   37300    113.79598   -110.85058   0.10296499   -110.74761    4094.7382    4.3641462    4.3641462    4.3641462    4094.7382    2863.1287    13676.671   -4255.5845   -1371.1353    1423.7507   -1707.2544    83.118534 
   37400    287.41547   -111.00652   0.26005956   -110.74646   -3659.3755    4.3610399    4.3610399    4.3610399   -3659.3755   -1177.7711   -6607.0744   -3193.2811    2103.2575   -759.82689     1216.252    82.941172 
   37500    106.96427   -110.84466  0.096783522   -110.74788    2527.3941    4.3663611    4.3663611    4.3663611    2527.3941    3873.5852     11629.47    -7920.873   -916.75042     1483.992   -2185.8503    83.245151 
   37600    276.29408   -110.99657   0.24999669   -110.74657   -2486.3552    4.3618717    4.3618717    4.3618717   -2486.3552    -1906.607   -1228.1015   -4324.3571    152.98198   -128.74219    947.67407    82.988643 
   37700    135.02992   -110.86978    0.1221779   -110.74761    4591.8006    4.3624236    4.3624236    4.3624236    4591.8006    2664.8706    16931.243   -5820.7116   -1934.8325    776.14043   -526.01869    83.020145 
   37800    275.61995   -110.99624   0.24938672   -110.74685    -8052.295     4.366881     4.366881     4.366881    -8052.295   -8417.4903   -10134.013   -5605.3815   -163.43565    1861.1221    44.647802    83.274891 
   37900    133.50257   -110.86927   0.12079593   -110.74847    6790.0645    4.3601485    4.3601485    4.3601485    6790.0645    6052.6852    17517.011   -3199.5025   -2346.5943   -2121.1169   -1077.0749    82.890325 
   38000    233.03437   -110.95914    0.2108544   -110.74829   -3814.8614    4.3644849    4.3644849    4.3644849   -3814.8614   -4120.6319   -6619.4464   -704.50585    2203.7741    1970.5648    689.24896    83.137888 
   38100     150.6022   -110.88439   0.13626803   -110.74812    675.11001    4.3645954    4.3645954    4.3645954    675.11001   -515.33794    11365.818   -8825.1499   -2528.6768   -1365.4613   -819.05826    83.144203 
   38200    249.99089   -110.97291   0.22619701   -110.74671   -1155.8089    4.3614152    4.3614152    4.3614152   -1155.8089   -3059.1652   -2750.8487    2342.5872    627.19878    476.44256   -811.01093    82.962589 
   38300    170.67876   -110.90173   0.15443373    -110.7473   -1358.4968    4.3654028    4.3654028    4.3654028   -1358.4968   -5573.7034    8207.8128   -6709.5998   -2212.5756   -453.69416    2599.2145    83.190351 
   38400    233.42537   -110.95813   0.21120818   -110.74692   -1305.1472    4.3636546    4.3636546    4.3636546   -1305.1472     1995.388   -4722.3064   -1188.5233    110.22591    660.20445    189.20895     83.09045 
   38500    165.13082   -110.89666   0.14941384   -110.74725    4732.9094     4.361021     4.361021     4.361021    4732.9094   -1893.4615    13376.429    2715.7603   -1445.4497    319.66197    2060.2337    82.940098 
   38600    221.77371   -110.94771   0.20066551   -110.74705   -4806.1235    4.3664303    4.3664303    4.3664303   -4806.1235     3419.787   -10032.505   -7805.6522    321.96262    -27.90286   -981.48363    83.249112 
   38700     163.8342   -110.89572   0.14824063   -110.74748    4319.0066     4.361646     4.361646     4.361646    4319.0066   -4364.9421    13334.232    3987.7294   -663.02232    1526.8106    1245.8754    82.975758 
   38800    222.89442   -110.94876   0.20167955   -110.74708   -876.99214    4.3631995    4.3631995    4.3631995   -876.99214    6699.2023   -3156.6731   -6173.5056   -234.75363   -1667.6947   -1877.7225    83.064454 
   38900    180.77618   -110.91078   0.16357009   -110.74721    420.56496    4.3658843    4.3658843    4.3658843    420.56496   -6917.2905    7418.2239    760.76144     388.9103    1349.1396    1450.2432    83.217883 
   39000    234.84767   -110.95922   0.21249511   -110.74672    3768.9007    4.3598314    4.3598314    4.3598314    3768.9007    12575.203    794.94826   -2063.4488   -3109.9579   -1555.5102   -603.65801     82.87224 
   39100    186.46537   -110.91612   0.16871778    -110.7474   -917.06926    4.3657022    4.3657022    4.3657022   -917.06926   -3934.2452    4113.6627   -2930.6253    1565.3785    1036.5979    2211.3131    83.207471 
   39200    200.18101   -110.92841   0.18112798   -110.74728   -1429.1382    4.3642607    4.3642607    4.3642607   -1429.1382     4323.296    -2113.354   -6497.3566   -1876.9889   -681.58874   -659.00823    83.125078 
   39300    180.79794   -110.91018   0.16358978   -110.74659    2620.6966    4.3605859    4.3605859    4.3605859    2620.6966    4817.3242    5695.3226    -2650.557    3190.3638   -859.46878     1570.476    82.915273 
   39400    212.57534   -110.93861   0.19234263   -110.74627   -4971.1145    4.3673982    4.3673982    4.3673982   -4971.1145   -8370.8557   -392.55689   -6149.9309   -2638.5405    612.19571    458.91525    83.304481 
   39500    209.62995   -110.93639   0.18967758   -110.74671    1984.5054    4.3614446    4.3614446    4.3614446    1984.5054    10718.488    511.67925   -5276.6511    3758.3833   -575.18315   -1142.1051    82.964265 
   39600    212.54807   -110.93946   0.19231796   -110.74714   -240.94127    4.3623187    4.3623187    4.3623187   -240.94127    -5756.798    6293.8032   -1259.8289   -4417.7514   -801.06252    1674.7757    83.014161 
   39700    200.89602   -110.92932   0.18177494   -110.74754   -6553.2975    4.3677085    4.3677085    4.3677085   -6553.2975    2646.4916   -8681.4349   -13624.949     3603.797    93.209381    951.44584    83.322238 
   39800    156.94529   -110.88974    0.1420074   -110.74773    2823.0528    4.3597995    4.3597995    4.3597995    2823.0528   -122.84854    8856.6404   -264.63339   -2464.9319   -279.16872    2152.3826    82.870424 
   39900    232.47176   -110.95756   0.21034534   -110.74722   -5888.6891    4.3649478    4.3649478    4.3649478   -5888.6891   -1985.1934   -6256.2418    -9424.632    1986.4891    -2463.749   -913.87433    83.164345 
   40000    154.42154   -110.88708   0.13972385   -110.74736   -293.85914    4.3659804    4.3659804    4.3659804   -293.85914   -2030.3439    5513.8656   -4365.0991    200.81207    925.29295    3831.3217    83.223381 
   40100    267.39268   -110.98821   0.24194252   -110.74627    603.62955    4.3593139    4.3593139    4.3593139    603.62955    5014.5505   -105.59553   -3098.0663    605.36979    -1117.783   -3675.9106    82.842734 
   40200    151.63905   -110.88429    0.1372062   -110.74708   -1191.6969    4.3671425    4.3671425    4.3671425   -1191.6969   -4290.6524    8226.2305   -7510.6689     985.8694   -1392.2951    2761.7557    83.289851 
   40300    243.27396   -110.96657    0.2201194   -110.74645   -3935.2189    4.3636958    4.3636958    4.3636958   -3935.2189     961.1647   -7231.5786   -5535.2428   -827.37346    -389.5396   -441.54485    83.092799 
   40400    138.55549    -110.8721   0.12536792   -110.74673    6055.8703    4.3600718    4.3600718    4.3600718    6055.8703    3979.6348    17055.921   -2867.9448    2264.3493    234.01339    190.68495    82.885952 
   40500    238.75698   -110.96264   0.21603233   -110.74661    -6469.246     4.368247     4.368247     4.368247    -6469.246   -5948.6789   -9831.0316   -3628.0274   -1865.1518   -1023.4793   -657.80336    83.353062 
   40600    167.43703   -110.89899   0.15150055   -110.74749    6555.8535     4.360533     4.360533     4.360533    6555.8535     5990.776    18891.302   -5214.5178    3470.7151    731.12478    105.79262    82.912257 
   40700     254.4507   -110.97797   0.23023234   -110.74774   -353.49782    4.3627505    4.3627505    4.3627505   -353.49782    1533.3739   -4706.2586    2112.3913   -516.92239    154.03882   -615.81266    83.038813 
   40800    169.76109   -110.90178    0.1536034   -110.74818   -1425.0559    4.3670984    4.3670984    4.3670984   -1425.0559   -4488.2857    11967.415   -11754.297    720.14213   -1872.9852   -1723.2659    83.287329 
   40900    233.39145   -110.95863   0.21117749   -110.74745     2123.365    4.3598001    4.3598001    4.3598001     2123.365    6735.8301   -1607.3779    1241.6428    -1724.264   -760.25891    1644.8702    82.870457 
   41000    129.86385   -110.86523   0.11750354   -110.74773    3233.9693    4.3643567    4.3643567    4.3643567    3233.9693   -2325.1309    14677.591   -2650.5522    1827.8204   -1266.7142   -3306.5201    83.130559 
   41100    254.91401   -110.97742   0.23065156   -110.74677   -6180.0298      4.36634      4.36634      4.36634   -6180.0298    -478.5309   -9260.5251   -8801.0333   -1399.6484    1.6439334    2038.4409    83.243946 
   41200    130.57443   -110.86565   0.11814648    -110.7475     9724.322    4.3588938    4.3588938    4.3588938     9724.322    5521.6808    19674.096    3977.1893     3130.111   -887.94418   -2397.5636    82.818788 
   41300    303.60929   -111.02161   0.27471207   -110.74689    -9032.549    4.3670848    4.3670848    4.3670848    -9032.549   -6706.7561   -9440.7938   -10950.097   -622.73394    421.09743    1024.0695    83.286553 
   41400    106.54511    -110.8449  0.096404252    -110.7485    4776.8517    4.3632681    4.3632681    4.3632681    4776.8517    1225.5944     17045.77   -3940.8096    2144.4855    -1346.339   -1545.1869    83.068374 
   41500    295.64816   -111.01423   0.26750867   -110.74672    -2624.994    4.3610844    4.3610844    4.3610844    -2624.994   -1795.7044    -5415.876   -663.40165   -1756.8435    510.41166    823.23837    82.943716 
   41600    79.203037   -110.81999  0.071664572   -110.74833    1947.9425    4.3664804    4.3664804    4.3664804    1947.9425    76.346981    14724.714    -8957.234    1331.4826   -2082.0433   -1748.4807    83.251976 
   41700    287.23001   -111.00756   0.25989175   -110.74766   -4629.6213    4.3627098    4.3627098    4.3627098   -4629.6213   -5191.4003   -7687.9618   -1009.5017   -968.07167    -562.9907     1242.699    83.036488 
   41800    127.44632   -110.86364   0.11531611   -110.74832     6397.809    4.3616086    4.3616086    4.3616086     6397.809    4007.3239    20590.741   -5404.6381   -668.93891   -1191.9738   -1215.3765    82.973625 
   41900    284.35956   -111.00435   0.25729451   -110.74706   -10254.556    4.3675137    4.3675137    4.3675137   -10254.556   -10746.569   -10503.303    -9513.796    1047.0751   -3025.2439   -1066.4829    83.311093 
   42000    134.62492   -110.86941   0.12181146    -110.7476    6772.2431    4.3609178    4.3609178    4.3609178    6772.2431    3494.1697    19245.346    -2422.786   -471.73513    1619.5959    653.60122     82.93421 
   42100    252.55932   -110.97546   0.22852098   -110.74694   -4260.8207    4.3632944    4.3632944    4.3632944   -4260.8207   -18.988404   -7377.6845   -5385.7891    23.686348   -1735.2401   -393.49423    83.069873 
   42200    122.85655   -110.85875   0.11116319   -110.74759   -1207.0386    4.3674773    4.3674773    4.3674773   -1207.0386   -7077.2489    11403.869   -7947.7354   -2247.0977    808.46988    1938.4319    83.309007 
   42300    247.33288      -110.97   0.22379199   -110.74621    1042.7987    4.3595291    4.3595291    4.3595291    1042.7987    7641.6278   -1832.2224   -2681.0092    852.15715   -1110.7829     275.2127    82.855003 
   42400    173.45509   -110.90429   0.15694581   -110.74734   -1146.9958    4.3649757    4.3649757    4.3649757   -1146.9958   -9202.0747    13945.386   -8184.2987   -2030.9413    180.40262    2424.8058    83.165939 
   42500    243.81565   -110.96817   0.22060952   -110.74756    -5004.703    4.3669251    4.3669251    4.3669251    -5004.703    3090.2414   -8437.6698   -9666.6807    179.55178   -1562.0951   -2629.3625    83.277413 
   42600    156.51812   -110.88902   0.14162088    -110.7474    8458.6488    4.3575901    4.3575901    4.3575901    8458.6488    872.02602    22691.489     1812.431    881.63564    14.744173    3880.7102      82.7445 
   42700    240.79529   -110.96464   0.21787664   -110.74677   -7225.5036    4.3685518    4.3685518    4.3685518   -7225.5036    1084.6284   -10520.675   -12240.464   -352.76904    174.92856   -813.90285    83.370512 
   42800    119.21887   -110.85558   0.10787174   -110.74771    5041.0784    4.3631015    4.3631015    4.3631015    5041.0784    -3135.628    18675.349   -416.48602   -1149.5631   -2348.5296     1983.996    83.058858 
   42900    275.38624   -110.99583   0.24917526   -110.74665   -1044.3064    4.3594227    4.3594227    4.3594227   -1044.3064    3287.5743   -3168.4136     -3252.08    1176.1772    1653.2817     622.8439    82.848938 
   43000    137.00022   -110.87143   0.12396068   -110.74747   -1381.8878    4.3703643    4.3703643    4.3703643   -1381.8878   -5040.2522    11104.728    -10210.14   -1367.0903   -2604.7486    588.62804    83.474323 
   43100    276.26209   -110.99628   0.24996774   -110.74631    1196.1494    4.3586319    4.3586319    4.3586319    1196.1494    222.89435   -61.802107    3427.3559   -612.44021    1585.9852    -446.8097    82.803859 
   43200    123.17917   -110.85906    0.1114551   -110.74761    5792.5282    4.3631942    4.3631942    4.3631942    5792.5282    4932.1115    19592.746   -7147.2727   -1141.0442   -1144.2759   -741.37926     83.06415 
   43300    272.13053   -110.99357   0.24622942   -110.74734    -10130.53    4.3697181    4.3697181    4.3697181    -10130.53   -14150.029   -13316.595   -2924.9665    728.91241    59.738045    555.98976    83.437304 
   43400     105.7979   -110.84383  0.095728167    -110.7481     10176.71    4.3560714    4.3560714    4.3560714     10176.71    8299.2547    23872.256   -1641.3808   -2241.9118   -935.78958   -1313.2564    82.658013 
   43500    284.99328   -111.00499   0.25786791   -110.74713   -8566.2118    4.3683295    4.3683295    4.3683295   -8566.2118   -11391.025   -10241.877   -4065.7342    578.93462   -1057.0595    1070.1531    83.357788 
   43600    110.72851   -110.84868   0.10018948   -110.74849    3797.8168    4.3638138    4.3638138    4.3638138    3797.8168    409.72526    17179.156   -6195.4314   -1558.3726    120.88041   -3.0463429    83.099542 
   43700    289.46603   -111.00898   0.26191495   -110.74707   -1456.6862    4.3599117    4.3599117    4.3599117   -1456.6862   -1689.5589   -2053.4612   -627.03854   -268.33244   -2513.3269    531.12593    82.876822 
   43800    128.98894    -110.8646    0.1167119   -110.74789    226.71218    4.3685458    4.3685458    4.3685458    226.71218   -5816.9007    13018.334   -6521.2965   -1203.5842    1199.7187   -2212.4262    83.370169 
   43900    266.99621   -110.98863   0.24158378   -110.74705   -4071.6458    4.3609791    4.3609791    4.3609791   -4071.6458   -2288.1006   -2891.6504   -7035.1865    25.259307   -4302.3439    375.15764    82.937706 
   44000    111.78389   -110.84885   0.10114441    -110.7477    4799.2614    4.3631684    4.3631684    4.3631684    4799.2614   -4248.1914    20051.556   -1405.5804    -725.8109    1639.2107   -1057.8305    83.062678 
   44100    270.79013   -110.99169    0.2450166   -110.74667   -8135.9861    4.3672145    4.3672145    4.3672145   -8135.9861   -1517.7188    -9180.996   -13709.243    -210.1926   -1275.5549    1146.7302    83.293971 
   44200    128.79008    -110.8643   0.11653197   -110.74777    6787.1272    4.3595861    4.3595861    4.3595861    6787.1272   -3354.7567    23326.226    389.91261   -63.150808   -1098.0983   -1600.7933    82.858251 
   44300    276.36055   -110.99703   0.25005683   -110.74697   -5969.3194    4.3663633    4.3663633    4.3663633   -5969.3194    1123.9173   -8095.1274   -10936.748    1173.8699    1951.1143    911.24996    83.245276 
   44400    142.85889   -110.87699   0.12926173   -110.74773    1741.9035    4.3641225    4.3641225    4.3641225    1741.9035   -7999.3987    18381.639   -5156.5303   -1809.2617   -2967.8161   -1066.1753    83.117179 
   44500    233.27425   -110.95824   0.21107144   -110.74717   -656.64265    4.3610923    4.3610923    4.3610923   -656.64265    4763.8322   -2221.3815   -4512.3786   -658.66905    1924.5982   -561.59101    82.944162 
   44600    161.76347   -110.89386   0.14636699    -110.7475   -1369.5615    4.3663897    4.3663897    4.3663897   -1369.5615   -6092.0697    10129.687   -8146.3018    -5.825149   -2184.9238   -114.52041    83.246789 
   44700     222.0522   -110.94771   0.20091749   -110.74679   -3063.1079    4.3632682    4.3632682    4.3632682   -3063.1079    694.47361   -6208.9895   -3674.8078   -275.64413    677.20899   -78.675477    83.068378 
   44800     159.6872   -110.89152   0.14448834   -110.74703    3092.6991    4.3625529    4.3625529    4.3625529    3092.6991   -1076.8302    16155.052   -5800.1247   -318.24091   -960.49139    -666.3281    83.027529 
   44900    265.65736   -110.98673   0.24037237   -110.74636   -5436.2156    4.3658351    4.3658351    4.3658351   -5436.2156   -6360.0436   -8270.2712    -1678.332    462.75964   -11.716455   -1384.3133     83.21507 
   45000    138.14545   -110.87271   0.12499691   -110.74771    4380.3876    4.3622953    4.3622953    4.3622953    4380.3876     1712.774    18598.637   -7170.2486    1239.9922   -11.757605    1941.3683    83.012823 
   45100    258.91139   -110.98167   0.23426847   -110.74741   -3500.7188    4.3635089    4.3635089    4.3635089   -3500.7188   -6514.1044   -6436.5325    2448.4804    -1518.338   -513.31707   -698.59976    83.082127 
   45200    114.73371   -110.85187   0.10381347   -110.74806    3650.9834    4.3648105    4.3648105    4.3648105    3650.9834     2143.835    15055.329   -6246.2134    2489.1581    2939.3742    277.72693    83.156496 
   45300    286.91851   -111.00704    0.2596099   -110.74743   -3485.6291    4.3626489    4.3626489    4.3626489   -3485.6291   -5964.0846   -6047.0409    1554.2382   -1799.9826   -2298.4216    467.85238    83.033013 
   45400    97.791281    -110.8373  0.088483606   -110.74882    7106.4476    4.3630716    4.3630716    4.3630716    7106.4476    1338.0623    18462.076    1519.2043    1449.3023    1655.9114    1155.9056     83.05715 
   45500    323.40627   -111.04006   0.29262479   -110.74743   -7072.2693    4.3654148    4.3654148    4.3654148   -7072.2693   -6365.5266   -8445.2768   -6406.0044   -362.68493   -1201.0225   -1952.3499    83.191037 
   45600    88.259795   -110.82843  0.079859317   -110.74857    9043.8727    4.3614964    4.3614964    4.3614964    9043.8727    405.50816    20813.299    5912.8104     3680.964    103.09628    1148.0545    82.967225 
   45700    288.83725   -111.00836   0.26134601   -110.74701   -6266.7839    4.3642474    4.3642474    4.3642474   -6266.7839   -4234.3473   -7095.3364   -7470.6681   -2208.8201   -380.55118    -583.3921    83.124315 
   45800    123.31786   -110.85927   0.11158059   -110.74769    3548.9739    4.3652701    4.3652701    4.3652701    3548.9739   -2460.5197    11005.707    2101.7343    2036.4292     -125.139    555.50305    83.182767 
   45900    252.19511   -110.97475   0.22819144   -110.74655   -1354.5832    4.3614399    4.3614399    4.3614399   -1354.5832    588.35006   -2685.4304   -1966.6692   -1538.0102   -254.14175   -122.81998    82.963997 
   46000    150.63474    -110.8838   0.13629748   -110.74751    1746.5604    4.3644161    4.3644161    4.3644161    1746.5604   -4902.8519    12981.665   -2839.1321    619.80975   -898.50407    2558.9928    83.133953 
   46100    241.03986   -110.96527   0.21809793   -110.74717   -2648.5038    4.3652901    4.3652901    4.3652901   -2648.5038    1044.3192   -6289.6493   -2700.1811   -323.43501       1805.1   -1806.6414    83.183912 
   46200    178.64394   -110.90924   0.16164079    -110.7476    3142.1212    4.3604047    4.3604047    4.3604047    3142.1212   -4512.7684    17111.247   -3172.1151    1223.9197   -1642.1764    886.83558     82.90494 
   46300    214.04952   -110.94077    0.1936765    -110.7471   -3674.2971    4.3674407    4.3674407    4.3674407   -3674.2971     3437.553   -9247.4764    -5212.968   -42.896874    2258.9466   -170.85371    83.306914 
   46400    185.75671   -110.91534   0.16807657   -110.74727    2585.3209    4.3617613    4.3617613    4.3617613    2585.3209   -5764.3115    16274.787   -2754.5126   -428.34038    -1014.954     1268.788    82.982344 
   46500    196.62899   -110.92553   0.17791405   -110.74761   -453.95309    4.3624977    4.3624977    4.3624977   -453.95309    6730.9139   -4585.5794   -3507.1939    896.43852   -349.93247   -122.21222    83.024378 
   46600    188.12922   -110.91787   0.17022327   -110.74765    -2372.719      4.36739      4.36739      4.36739    -2372.719   -8363.8907    8717.8863   -7472.1525   -1845.4317    92.745921    838.82598    83.304015 
   46700    227.91002   -110.95311   0.20621777   -110.74689    719.53493    4.3601936    4.3601936    4.3601936    719.53493    3363.0888    -1069.973   -134.51102    1745.3208   -508.51487    470.31248    82.892897 
   46800    174.41305   -110.90493   0.15781259   -110.74711   -716.77612    4.3655719    4.3655719    4.3655719   -716.77612   -2257.8277    9202.9701   -9095.4707   -2778.7112    29.253444    -1261.853     83.20002 
   46900    237.49732   -110.96143   0.21489257   -110.74654    -3392.012    4.3651029    4.3651029    4.3651029    -3392.012   -5728.0178    -4047.546   -400.47233    2972.4107    156.58131    1182.9628    83.173206 
   47000    151.10341   -110.88386   0.13672154   -110.74714     4034.879    4.3601636    4.3601636    4.3601636     4034.879    6518.9663    8908.6076    -3322.937   -2412.0106    304.92145   -2601.8389    82.891185 
   47100    239.95483   -110.96426   0.21711617   -110.74714   -7482.9133    4.3676441    4.3676441    4.3676441   -7482.9133   -11262.351   -8288.6522   -2897.7373    2001.8038   -189.93351    2706.0568    83.318552 
   47200    150.72507   -110.88419   0.13637922   -110.74781    3788.3305    4.3614278    4.3614278    4.3614278    3788.3305    3981.2642    7098.4471    285.28023   -4592.2953    1359.0338   -3151.6027    82.963311 
   47300    256.65492   -110.97972   0.23222677   -110.74749   -3655.2234    4.3640191    4.3640191    4.3640191   -3655.2234   -8473.2718    521.56989   -3013.9683    1450.7873   -900.15109    2731.0508    83.111269 
   47400    152.42233   -110.88571   0.13791493   -110.74779    459.28369    4.3658019    4.3658019    4.3658019    459.28369   -949.64268     1957.173    370.32079   -3882.6575   -62.648912   -2908.7256    83.213171 
   47500    258.11923   -110.98008   0.23355171   -110.74653     201.7584    4.3604503    4.3604503    4.3604503     201.7584   -3858.9842     3825.998    638.26139    1205.0554   -330.97013    892.01922    82.907541 
   47600    163.02896   -110.89525   0.14751203   -110.74773   -331.26195    4.3661323    4.3661323    4.3661323   -331.26195   -2565.6591    120.40057    1451.4727   -1393.9874   -989.43935    -3215.057    83.232067 
   47700    204.17745   -110.93208   0.18474404   -110.74733   -1274.7829    4.3637186    4.3637186    4.3637186   -1274.7829   -5807.3151    5021.7953   -3038.8289   -1854.1123   -564.15147    1865.5611    83.094102 
   47800    210.06088   -110.93728    0.1900675   -110.74722     2739.699    4.3620558    4.3620558    4.3620558     2739.699   -1295.8564    5472.9818    4041.9715   -47.677135     570.3057   -1880.8082    82.999151 
   47900    177.35911   -110.90815   0.16047825   -110.74767   -775.53642     4.365887     4.365887     4.365887   -775.53642   -2500.7245    6015.0202    -5840.905   -2145.2874    -792.0389    -478.5046    83.218037 
   48000    253.92216   -110.97743   0.22975411   -110.74767   -337.07655    4.3619701    4.3619701    4.3619701   -337.07655   -4832.6644    3626.1515    195.28317    126.30675    1024.9942   -79.167745    82.994258 
   48100     146.5269   -110.88061   0.13258061   -110.74803    4954.6794    4.3637859    4.3637859    4.3637859    4954.6794    3763.2226    10986.392    114.42329   -2009.3283    529.39321   -2277.7188     83.09795 
   48200    243.83489   -110.96823   0.22062693    -110.7476   -6284.7423    4.3650541    4.3650541    4.3650541   -6284.7423   -9599.8342   -1644.3383   -7610.0545    1972.3113    386.81375    215.53842    83.170421 
   48300    134.12008    -110.8695   0.12135467   -110.74815    5656.9241    4.3623519    4.3623519    4.3623519    5656.9241    5215.9554    10650.679    1104.1383    -3007.908    345.27182   -3191.0007    83.016055 
   48400    276.40236   -110.99728   0.25009467   -110.74719   -5585.8563    4.3643214    4.3643214    4.3643214   -5585.8563   -6018.9744   -4837.8087   -5900.7859    2108.9316   -603.72465    1201.6382    83.128544 
   48500     126.3373    -110.8623   0.11431264   -110.74799    1918.4395    4.3644793    4.3644793    4.3644793    1918.4395    547.81411    10047.803   -4840.2987   -2262.5845    295.26234   -4161.7114    83.137569 
   48600    274.11689   -110.99427   0.24802672   -110.74624   -1192.7901    4.3623465    4.3623465    4.3623465   -1192.7901    -2281.238   -1466.9721    169.83974   -368.10775   -934.63611    3644.1267    83.015744 
   48700    147.00651   -110.88004   0.13301458   -110.74702   -205.83206    4.3649896    4.3649896    4.3649896   -205.83206   -3872.9007    8686.6119   -5431.2073   -1587.1762     1225.181   -4290.1643    83.166733 
   48800    233.19352   -110.95823    0.2109984   -110.74723   -4667.7217      4.36461      4.36461      4.36461   -4667.7217   -1003.9148   -8202.1938   -4797.0566    1777.8451   -765.88038    1137.1096    83.145035 
   48900    168.58919   -110.89993   0.15254305   -110.74739    3895.5057    4.3611476    4.3611476    4.3611476    3895.5057    -3929.192    11794.851    3820.8585   -1181.1258    2024.3085   -2102.7194     82.94732 
   49000    214.88562   -110.94146   0.19443302   -110.74703   -4821.2272    4.3664793    4.3664793    4.3664793   -4821.2272   -199.78902   -6502.9032   -7760.9893     1454.151   -23.093689   -133.64457    83.251914 
   49100    168.43547   -110.89992   0.15240396   -110.74751     3375.368    4.3628305    4.3628305    4.3628305     3375.368   -8340.1268    14151.815    4314.4161   -106.37214      534.443   -795.09386    83.043381 
   49200    256.36369   -110.97899   0.23196326   -110.74703   -730.64662    4.3621405    4.3621405    4.3621405   -730.64662    2508.8928   -4870.1516     169.3189   -848.45235    1160.7538    884.98217    83.003986 
   49300    162.62001   -110.89486     0.147142   -110.74772   -1027.7558    4.3669939    4.3669939    4.3669939   -1027.7558   -10574.623     11792.73    -4301.374      211.943   -1262.4101    338.31917     83.28135 
   49400    217.22825   -110.94354   0.19655268   -110.74699    1603.3111    4.3609617    4.3609617    4.3609617    1603.3111      2150.79   -2720.8771    5380.0204   -10.069022    659.61474   -876.96434    82.936711 
   49500    170.87845   -110.90139   0.15461441   -110.74677    2324.3683     4.364009     4.364009     4.364009    2324.3683   -5532.2744    15053.678   -2548.2981    851.68433   -1418.1556    2099.5757    83.110697 
   49600    221.44467   -110.94719   0.20036779   -110.74682   -3028.6714    4.3662807    4.3662807    4.3662807   -3028.6714   -4330.9666   -7782.0162    3026.9686   -1143.3419    1564.4663   -1374.4334    83.240551 
   49700    170.75935   -110.90146   0.15450665   -110.74695    5457.1321    4.3596766    4.3596766    4.3596766    5457.1321   -1591.4931    18695.644   -732.75488    2146.3163   -1413.9101    341.75083    82.863414 
   49800    263.67896   -110.98499   0.23858226   -110.74641   -5723.5589    4.3675252    4.3675252    4.3675252   -5723.5589   -9663.0047   -6878.2641    -629.4078   -204.35908    2342.4316     -1013.95    83.311748 
   49900    121.83295   -110.85797   0.11023702   -110.74773    4563.3101     4.362674     4.362674     4.362674    4563.3101    910.33599    16893.447   -4113.8524    1161.8172   -550.96271    1741.6771    83.034444 
   50000    277.91816    -110.9987    0.2514662   -110.74723   -3545.1423    4.3615001    4.3615001    4.3615001   -3545.1423   -7275.8139   -2960.0682   -399.54482   -328.25731     114.4916   -1125.7134    82.967434 
   50100    114.62287   -110.85205   0.10371318   -110.74833    1756.6322    4.3672942    4.3672942    4.3672942    1756.6322    1276.1364    9305.2652   -5311.5049    715.04727    2090.6611    2178.1363    83.298534 
   50200    275.26094   -110.99636   0.24906189   -110.74729   -5241.4558    4.3619452    4.3619452    4.3619452   -5241.4558   -8818.1852   -2070.3046   -4835.8776   -758.19105   -1935.5363   -1105.8039    82.992835 
   50300    101.51163   -110.83992  0.091849854   -110.74807    5095.7187    4.3634086    4.3634086    4.3634086    5095.7187    1987.3064    16162.596   -2862.7462      805.105    2630.2962    2333.2098    83.076395 
   50400    330.29909   -111.04551   0.29886156   -110.74664   -8791.2945    4.3661132    4.3661132    4.3661132   -8791.2945    -8399.219   -8577.4637   -9397.2007   -376.98855   -2137.2959   -1956.1808    83.230975 
   50500    85.008883   -110.82511  0.076917824   -110.74819    7081.1057    4.3608301    4.3608301    4.3608301    7081.1057    472.38655    21711.845   -940.91427    699.70543    2618.0398    982.23459    82.929205 
   50600    286.22663   -111.00575   0.25898387   -110.74677   -7595.3675    4.3660902    4.3660902    4.3660902   -7595.3675   -3855.1314   -8745.3756   -10185.596    -820.9275   -719.44433   -411.12335     83.22966 
   50700    120.28544   -110.85645    0.1088368   -110.74761    3903.9621    4.3636894    4.3636894    4.3636894    3903.9621   -5424.6313    17684.242   -547.72414    1625.1592    1652.2116    704.41209    83.092437 
   50800    231.04682   -110.95637   0.20905602   -110.74731   -2802.3935    4.3619422    4.3619422    4.3619422   -2802.3935    2848.4521   -3093.4844   -8162.1482   -92.833865    2050.2997   -112.10584    82.992665 
   50900    183.83207   -110.91428   0.16633512   -110.74794   -771.02033     4.366282     4.366282     4.366282   -771.02033   -11158.434    12555.896   -3710.5228    555.09659   -1050.7484    1396.2167    83.240628 
   51000    230.01353   -110.95562   0.20812107    -110.7475   -63.410457     4.362009     4.362009     4.362009   -63.410457    4475.6545   -716.45278    -3949.433    -1068.442    4247.7038   -610.87188    82.996478 
   51100    181.55609   -110.91197   0.16427577    -110.7477    -441.1441    4.3638915    4.3638915    4.3638915    -441.1441   -9082.3841    13906.348   -6147.3958    1879.1486    -2224.466   -1330.2395    83.103984 
   51200    202.70542   -110.93045   0.18341213   -110.74704   -2344.3252    4.3653112    4.3653112    4.3653112   -2344.3252    378.00779   -7524.4832    113.49965     181.4388    2915.0157    542.28876    83.185119 
   51300    188.43435   -110.91751   0.17049936   -110.74701    156.20338    4.3621943    4.3621943    4.3621943    156.20338   -5282.1945    11488.257   -5737.4528    -428.6501   -813.46339   -852.24773    83.007059 
   51400    196.96651   -110.92534   0.17821944   -110.74712   -1509.3621    4.3649501    4.3649501    4.3649501   -1509.3621   -2940.4346   -2885.6237     1297.972    591.23287    131.99883   -737.36891    83.164474 
   51500    170.00371   -110.90109   0.15382293   -110.74726    3706.5015     4.362726     4.362726     4.362726    3706.5015   -2793.4798    16358.915   -2445.9313   -1985.3757    178.09106    207.58478    83.037416 
   51600    291.37218   -111.01075   0.26363967   -110.74711   -4211.5051    4.3642397    4.3642397    4.3642397   -4211.5051   -4795.8431   -5638.3641   -2200.3081    271.33634    226.24714    1317.4941    83.123874 
   51700    105.37089     -110.844  0.095341796   -110.74866    5587.1788    4.3640315    4.3640315    4.3640315    5587.1788   -827.65222    16257.858    1331.3311   -1571.3683    1521.0845   -949.84029    83.111983 
   51800    303.34144   -111.02157   0.27446971    -110.7471   -4151.0434    4.3630814    4.3630814    4.3630814   -4151.0434    -4080.095   -4016.4108   -4356.6244    1732.4271   -864.06115    570.21147     83.05771 
   51900    73.096573   -110.81448  0.066139315   -110.74834    8431.6423    4.3632803    4.3632803    4.3632803    8431.6423    2085.0599    19286.538     3923.329   -2600.8449    2675.8057    -1474.337     83.06907 
   52000    293.33258   -111.01248   0.26541348   -110.74706   -6811.8137    4.3642191    4.3642191    4.3642191   -6811.8137    -7910.936   -6512.3614   -6012.1437    2467.7747   -1488.9959    219.56128    83.122696 
   52100    128.16622   -110.86414   0.11596749   -110.74817    6369.5255    4.3636852    4.3636852    4.3636852    6369.5255     2646.638     16606.57   -144.63106   -1503.4918    1915.5161   -2172.2335    83.092197 
   52200    292.35671   -111.01174    0.2645305   -110.74721   -3789.3448    4.3633961    4.3633961    4.3633961   -3789.3448   -7161.9148   -2535.7259   -1670.3935    270.02259   -910.71789    1395.2981    83.075681 
   52300    119.08122     -110.856   0.10774719   -110.74825    3745.0084    4.3637023    4.3637023    4.3637023    3745.0084    1385.5783    16321.738    -6472.291   -2794.2891   -119.00607   -2527.5774    83.093174 
   52400    261.76054   -110.98409   0.23684644   -110.74724   -3885.9889    4.3649752    4.3649752    4.3649752   -3885.9889   -6114.2393   -4007.9252   -1535.8022     1432.622    869.93385    1036.0956    83.165908 
   52500    133.25303    -110.8684   0.12057014   -110.74783    2875.3189    4.3611606    4.3611606    4.3611606    2875.3189   -1637.1002    15149.022   -4885.9655   -1793.2018    -916.5757   -3418.9314     82.94806 
   52600    239.97511    -110.9642   0.21713452   -110.74707   -6643.5021    4.3668035    4.3668035    4.3668035   -6643.5021   -3193.6782    -8932.091   -7804.7369    953.34848     1675.116    1178.4279     83.27046 
   52700    174.13272   -110.90505   0.15755894   -110.74749    3239.1024    4.3625779    4.3625779    4.3625779    3239.1024   -5704.5631    18516.512   -3094.6422    36.392151    253.23298   -2398.7805    83.028958 
   52800    225.34829    -110.9516   0.20389987    -110.7477   -1735.3196    4.3624763    4.3624763    4.3624763   -1735.3196    3222.2162   -2921.7312   -5506.4438   -1167.9452    2013.1258   -1104.8358    83.023154 
   52900    183.08582   -110.91339    0.1656599   -110.74773   -2266.5295    4.3673303    4.3673303    4.3673303   -2266.5295    -9962.624    11425.154   -8262.1185   -204.63849   -966.18767   -91.033148    83.300599 
   53000    212.91931   -110.93944   0.19265386   -110.74678    1293.1017    4.3596398    4.3596398    4.3596398    1293.1017    4108.7185   -2301.9062    2072.4928    83.266904    1480.8999   -395.83267    82.861314 
   53100    159.78378   -110.89202   0.14457572   -110.74744    -2536.532    4.3665035    4.3665035    4.3665035    -2536.532   -11685.527    13565.133   -9489.2021     834.3766   -517.70383    492.91931    83.253297 
   53200    236.38616   -110.96148   0.21388716    -110.7476   -2617.0963    4.3644721    4.3644721    4.3644721   -2617.0963   -2016.0555   -6078.7882    243.55463   -576.40196   -181.31338   -802.95408    83.137157 
   53300    165.79543   -110.89825   0.15001519   -110.74823    5996.3294    4.3598422    4.3598422    4.3598422    5996.3294   -3379.7333    21379.461   -10.739496    1878.8888     363.7815    2152.7001    82.872857 
   53400    259.85031   -110.98281   0.23511803   -110.74769   -7814.5934    4.3685038    4.3685038    4.3685038   -7814.5934   -6623.7528   -9819.8806    -7000.147   -1060.1378   -829.03716   -2745.3066    83.367764 
   53500    119.97781   -110.85644   0.10855845   -110.74788    6960.0635     4.361047     4.361047     4.361047    6960.0635   -2488.3372    19851.335    3517.1926    2810.0262    417.47369    2950.6318    82.941579 
   53600    300.74253   -111.01871   0.27211817   -110.74659   -5402.5431    4.3633014    4.3633014    4.3633014   -5402.5431   -6692.4408   -4239.9447   -5275.2438   -1325.3049    414.11017   -1817.9442    83.070272 
   53700    71.510331   -110.81312   0.06470405   -110.74841    3599.0541    4.3666347    4.3666347    4.3666347    3599.0541   -4194.5869    13858.553    1133.1963    2734.1154    809.39404    1871.8963    83.260803 
   53800    323.22304   -111.03948     0.292459   -110.74702   -4512.8711    4.3609168    4.3609168    4.3609168   -4512.8711   -5765.7357   -4589.4071   -3183.4705   -710.30976   -671.26274   -1249.2767    82.934148 
   53900    97.234339   -110.83692  0.087979673   -110.74894    6218.4459    4.3645417    4.3645417    4.3645417    6218.4459    607.03637    17179.452     868.8489    2948.5016    1227.3243    3904.1474    83.141135 
   54000    282.51165   -111.00329   0.25562247   -110.74767    -5632.259    4.3649768    4.3649768    4.3649768    -5632.259   -9212.3539   -3409.6707   -4274.7523   -241.24553   -762.39478   -2677.6221       83.166 
   54100    131.63409   -110.86709   0.11910529   -110.74798    7258.4339    4.3608816    4.3608816    4.3608816    7258.4339    3106.0195    19624.593   -955.31091    2210.1642    496.81241    3581.6789    82.932145 
   54200    271.84792    -110.9931   0.24597371   -110.74712   -6515.0947    4.3672073    4.3672073    4.3672073   -6515.0947   -9073.3673   -7601.8631   -2870.0537   -1242.8879   -555.57412    -1236.621    83.293558 
   54300    116.84683   -110.85416   0.10572547   -110.74844    5798.6166    4.3611955    4.3611955    4.3611955    5798.6166    1536.9262     20653.15   -4794.2261    350.39255    277.53372    1618.4945     82.95005 
   54400    251.66342   -110.97568   0.22771035   -110.74797   -2470.9362    4.3635155    4.3635155    4.3635155   -2470.9362   -506.93805   -6820.5842   -85.286224    968.98131   -417.67955   -446.94286    83.082502 
   54500    160.21115    -110.8932   0.14496242   -110.74824    555.71565    4.3659296    4.3659296    4.3659296    555.71565   -5198.2569    16576.644   -9711.2396   -628.98116   -252.12375    806.50473    83.220475 
   54600    234.10848   -110.95918   0.21182627   -110.74735   -1104.3542    4.3616859    4.3616859    4.3616859   -1104.3542    3475.9976   -4681.0119   -2108.0482    60.031034    442.41635   -1186.2391    82.978038 
   54700    176.38664   -110.90693   0.15959834   -110.74733    329.85705    4.3646102    4.3646102    4.3646102    329.85705   -7599.1661    15969.237   -7380.4996    155.76506    519.12137   -1882.2075    83.145046 
   54800     236.6002   -110.96131   0.21408083   -110.74723   -4620.2051    4.3644451    4.3644451    4.3644451   -4620.2051   -592.01052   -7389.2097   -5879.3951    723.62523    2121.5497    937.80871    83.135615 
   54900    142.62628   -110.87718   0.12905126   -110.74813    1454.3801    4.3628656    4.3628656    4.3628656    1454.3801   -3732.3761     14516.29   -6420.7736   -580.29557   -1385.2384   -4083.9776    83.045387 
   55000    249.43419   -110.97313    0.2256933   -110.74744   -4905.1873    4.3649174    4.3649174    4.3649174   -4905.1873   -2980.4736   -5342.3217   -6392.7666    2079.8834    2958.6782    1942.3033    83.162607 
   55100     138.5139   -110.87322   0.12533029   -110.74789    2974.4792    4.3628338    4.3628338    4.3628338    2974.4792   -3144.8846    17697.571   -5629.2487   -3071.1066   -1188.4656   -3943.7213    83.043566 
   55200    270.88814   -110.99198   0.24510528   -110.74687    -6312.128    4.3651033    4.3651033    4.3651033    -6312.128   -5461.6698    -5356.308   -8118.4061    372.86649    141.10279    1778.2514    83.173229 
   55300     129.3086   -110.86463   0.11700114   -110.74762    4188.0008    4.3630054    4.3630054    4.3630054    4188.0008   -5912.9776    19692.659   -1215.6795   -1443.6204    741.14304   -3229.8068    83.053368 
   55400    287.29657     -111.007   0.25995197   -110.74705   -5171.1873     4.363715     4.363715     4.363715   -5171.1873   -2771.4824   -5968.7327   -6773.3469    1548.5834   -651.50989   -395.41039      83.0939 
   55500    106.89548   -110.84535  0.096721277   -110.74863     3973.852    4.3641022    4.3641022    4.3641022     3973.852   -6454.3773    19190.754   -814.82036   -2533.0951    1215.4631   -807.26524    83.116018 
   55600    245.76789   -110.97015   0.22237596   -110.74777   -3485.3329    4.3632578    4.3632578    4.3632578   -3485.3329   -3227.5385   -5272.2819   -1956.1783    2263.5402    134.47916    384.30274    83.067782 
   55700    154.41378   -110.88766   0.13971683   -110.74794    2388.1717    4.3651105    4.3651105    4.3651105    2388.1717   -3906.0747    14561.084   -3490.4937   -2040.2794    2003.3273   -960.71716    83.173646 
   55800    264.70329    -110.9864    0.2395091   -110.74689   -986.24237    4.3613586    4.3613586    4.3613586   -986.24237   -4611.5151   -1706.6099    3359.3978    1365.9995   -424.19243    670.71118    82.959357 
   55900    136.94556   -110.87186   0.12391122   -110.74795    3754.1628    4.3651354    4.3651354    4.3651354    3754.1628   -1759.3444    17546.148   -4524.3151   -759.83186    2105.7949    872.40245    83.175066 
   56000    276.57221   -110.99793   0.25024834   -110.74768   -4319.5927    4.3646321    4.3646321    4.3646321   -4319.5927   -6892.4936   -6752.1248    685.84028    663.75004   -1016.4939   -1570.9038      83.1463 
   56100     104.8734   -110.84355  0.094891652   -110.74866     7084.373    4.3603005    4.3603005    4.3603005     7084.373    4331.4683    17371.214    -449.5638    940.83007   -191.63499    732.94655    82.898994 
   56200    266.40125   -110.98834   0.24104545   -110.74729   -6811.9417    4.3678414    4.3678414    4.3678414   -6811.9417   -7468.2567   -10296.589   -2670.9797    792.81512    460.32532    336.90499    83.329844 
   56300    139.18026   -110.87355   0.12593322   -110.74762    6640.0423    4.3609695    4.3609695    4.3609695    6640.0423   -78.830887    20669.223   -670.26511    1520.3696   -1123.7646   -199.14463    82.937155 
   56400    265.99353   -110.98779   0.24067654   -110.74711   -2870.0389    4.3637023    4.3637023    4.3637023   -2870.0389    -2217.909   -3880.8057   -2511.4019   -529.20456    1740.8255   -992.19571    83.093172 
   56500    158.66391   -110.89138   0.14356244   -110.74782    1829.3426    4.3660012    4.3660012    4.3660012    1829.3426   -4712.0801    14116.006   -3915.8977   -33.538985   -705.15212     2821.341     83.22457 
   56600     258.6225   -110.98162   0.23400708   -110.74761   -440.31328    4.3605494    4.3605494    4.3605494   -440.31328     2622.236   -71.838793    -3871.337   -1002.7055    1968.7058   -1069.8434    82.913193 
   56700    114.10964   -110.85188    0.1032488   -110.74863    2376.4009    4.3661476    4.3661476    4.3661476    2376.4009   -3807.4408    12461.101    -1524.458    2560.5865    973.10363    1294.5175    83.232941 
   56800    268.51514   -110.99007   0.24295814   -110.74711   -2902.4906    4.3635426    4.3635426    4.3635426   -2902.4906   -2569.5417     2106.278   -8244.2081   -79.569314    946.18457   -436.91168    83.084053 
   56900     126.6953     -110.862   0.11463657   -110.74736    6616.9278    4.3609328    4.3609328    4.3609328    6616.9278   -309.90733    17131.794    3028.8968    1244.0867    1160.9673    949.01917    82.935065 
   57000    282.27108    -111.0021    0.2554048    -110.7467   -10288.659    4.3683345    4.3683345    4.3683345   -10288.659   -8623.7998   -9732.9112   -12509.265    950.55807    -694.5592   -1011.6214    83.358075 
   57100    146.58518   -110.88093   0.13263335    -110.7483    5777.8584    4.3611216    4.3611216    4.3611216    5777.8584   -2611.8104    20619.358   -673.97176    860.55894    1724.0547    464.16146    82.945834 
   57200    226.48826   -110.95312   0.20493134   -110.74819   -2330.0619    4.3630157    4.3630157    4.3630157   -2330.0619   -2675.5211   -1434.7896    -2879.875   -663.84626   -1621.7592   -598.77901    83.053954 
   57300    176.23734    -110.9074   0.15946325   -110.74793   -4772.2531    4.3671678    4.3671678    4.3671678   -4772.2531   -10326.852    6236.0654   -10225.973    1554.0887    1756.4785    138.99266    83.291302 
   57400    203.19951   -110.93063   0.18385919   -110.74677    1500.5416    4.3608647    4.3608647    4.3608647    1500.5416   -1272.6614    1382.4271    4391.8589   -779.00557     349.7355   -328.30511    82.931178 
   57500    203.87376    -110.9315   0.18446926   -110.74703    -3963.148    4.3653303    4.3653303    4.3653303    -3963.148   -8960.6418    9021.5277    -11950.33    739.33811   -365.80067   -385.73965    83.186209 
   57600    180.52732   -110.91075   0.16334491   -110.74741   -625.99023    4.3648612    4.3648612    4.3648612   -625.99023   -5221.9357    809.02065    2534.9444    971.79255    3110.9212    423.55594    83.159391 
   57700    240.92401   -110.96486   0.21799311   -110.74686    1240.9618    4.3612971    4.3612971    4.3612971    1240.9618   -4269.8183    14506.956   -6514.2527    1301.6437   -1175.6564   -2182.1773    82.955849 
   57800    181.50844   -110.91205   0.16423265   -110.74782   -2727.2275    4.3664331    4.3664331    4.3664331   -2727.2275   -7163.8902   -1839.8871    822.09485   -1254.5908    2832.5356   -198.55503    83.249271 
   57900    173.76859   -110.90486   0.15722947   -110.74763    1567.3321     4.362292     4.362292     4.362292    1567.3321   -6316.8155    12857.892   -1839.0799     526.6814    292.16189    1265.7217    83.012634 
   58000    254.63009   -110.97716   0.23039465   -110.74676   -2435.9332    4.3636635    4.3636635    4.3636635   -2435.9332   -4492.6329   -1908.3642   -906.80254   -521.47914    164.37224    31.235901    83.090955 
   58100    123.71932   -110.85968   0.11194384   -110.74774    1452.0708    4.3658622    4.3658622    4.3658622    1452.0708   -9037.0064    13072.752    320.46683   -223.98169    612.78962     338.9497    83.216619 
   58200    285.88783   -111.00639   0.25867732   -110.74771   -1570.4234    4.3609847    4.3609847    4.3609847   -1570.4234   -2719.6863    2404.3039   -4395.8878    432.16399   -749.13655    1141.3668    82.938027 
   58300    143.97726   -110.87913   0.13027365   -110.74886    3729.8985    4.3651792    4.3651792    4.3651792    3729.8985   -6595.6252    10966.425    6818.8954    -991.5945     1522.881   -237.48201    83.177572 
   58400    248.18486   -110.97294   0.22456288   -110.74838   -5784.1298    4.3639252    4.3639252    4.3639252   -5784.1298   -7879.2304   -227.77995    -9245.379    1344.6114    -870.6813   -1682.2014    83.105905 
   58500    132.53353   -110.86803   0.11991913   -110.74811    4611.4194    4.3634481    4.3634481    4.3634481    4611.4194   -1699.5806    7846.1802    7687.6585    722.61724    2196.2912   -340.26987    83.078655 
   58600    274.49005   -110.99483   0.24836437   -110.74647   -3515.5163    4.3637896    4.3637896    4.3637896   -3515.5163     -9840.59    3426.0256   -4131.9844    426.53655   -186.31218   -276.97745    83.098161 
   58700     128.5759   -110.86401   0.11633818   -110.74768    2234.4662    4.3634986    4.3634986    4.3634986    2234.4662    124.65524    6756.4043   -177.66098    608.04614    1150.0307   -1922.8327    83.081539 
   58800    242.77831   -110.96664   0.21967091   -110.74697   -2007.2663    4.3651929    4.3651929    4.3651929   -2007.2663    -11085.54    3063.4425    2000.2991   -179.57296    1593.6406    1855.6431    83.178355 
   58900    207.88306   -110.93523   0.18809696   -110.74713    2383.8259    4.3616134    4.3616134    4.3616134    2383.8259    1087.6152    9335.7404   -3271.8778    -1237.437   -909.55704   -1039.4551    82.973903 
   59000    179.98146   -110.91049   0.16285101   -110.74764   -1378.0144    4.3656089    4.3656089    4.3656089   -1378.0144   -8574.9814    1448.0714    2992.8668    1383.4706     2028.329    1748.2244    83.202139 
   59100    217.96872   -110.94408   0.19722268   -110.74686    83.356478    4.3638654    4.3638654    4.3638654    83.356478   -4832.0955    9773.5548   -4691.3899    270.46693   -1763.0891   -2474.0025     83.10249 
   59200    183.41601   -110.91322   0.16595866   -110.74726    2880.4478    4.3614286    4.3614286    4.3614286    2880.4478   -3469.6238    6694.9896    5415.9776    338.34055    1053.2102     2737.548    82.963356 
   59300    215.09734    -110.9427   0.19462459   -110.74808   -4882.1121    4.3670933    4.3670933    4.3670933   -4882.1121   -8433.9513   -156.79982    -6055.585    609.31999   -430.51123   -1902.4476    83.287034 
   59400    191.33784   -110.92197    0.1731265   -110.74885    4557.6522    4.3608045    4.3608045    4.3608045    4557.6522   -3840.5264    11123.665    6389.8179    1108.4281    778.71314    1693.0155    82.927745 
   59500    223.68354   -110.95103   0.20239357   -110.74864   -1239.2213    4.3648675    4.3648675    4.3648675   -1239.2213   -5220.9557    4806.2689   -3302.9771   -375.41279    1344.6002   -980.55328    83.159755 
   59600    181.97661   -110.91288   0.16465626   -110.74822   -2093.8252    4.3658366    4.3658366    4.3658366   -2093.8252   -9018.2588    2896.1422   -159.35902      862.844    93.713774    2363.6776    83.215157 
   59700    205.34954   -110.93254   0.18580458   -110.74674    4135.7139    4.3592243    4.3592243    4.3592243    4135.7139   -647.06292     8853.749    4200.4556    377.59289    1725.2942    -418.9017    82.837627 
   59800    206.93686   -110.93492   0.18724082   -110.74768   -5356.7279    4.3681993    4.3681993    4.3681993   -5356.7279   -10329.273   -1667.5663   -4073.3446    64.130158   -1020.7234    945.59522    83.350332 
   59900    182.12214   -110.91367   0.16478794   -110.74888   -136.08714    4.3629038    4.3629038    4.3629038   -136.08714   -7334.4351    5247.3132    1678.8605    2196.0817    2822.1395   -412.73363    83.047567 
   60000    215.30066   -110.94349   0.19480856   -110.74868    3911.0477    4.3610384    4.3610384    4.3610384    3911.0477   -1264.8259    11978.467    1019.5016   -5.7914359    -1083.159    697.99937     82.94109 
   60100    215.61383   -110.94375   0.19509192   -110.74866    -5547.274    4.3680159    4.3680159    4.3680159    -5547.274   -12680.795   -2828.3874   -1132.6395    1351.3759     1019.863    752.53208    83.339837 
   60200    172.60538   -110.90441   0.15617697   -110.74824    2927.0597    4.3610267    4.3610267    4.3610267    2927.0597   -1079.3474    10763.212   -902.68537   -1109.8146    298.71841    586.53048    82.940423 
   60300    224.72599   -110.95025    0.2033368   -110.74692    233.43644    4.3639252    4.3639252    4.3639252    233.43644    -9077.992    4433.6257    5344.6756    332.26612   -180.85192    1789.6858    83.105908 
   60400    178.91565   -110.90915   0.16188664   -110.74726   -3067.3136    4.3661717    4.3661717    4.3661717   -3067.3136   -5718.0161    4242.6617   -7726.5863   -887.34254    1154.5585   -420.68078    83.234318 
   60500    192.08706   -110.92111   0.17380441    -110.7473    2003.9843      4.36105      4.36105      4.36105    2003.9843   -5508.9473    5042.6278    6478.2725    1150.8327    -550.2504    2964.1317    82.941753 
   60600    236.84478   -110.96122   0.21430213   -110.74692   -3213.8283    4.3658703    4.3658703    4.3658703   -3213.8283   -3897.2125    359.46573   -6103.7382   -1133.9473    89.128259   -2690.6721     83.21708 
   60700     166.1476   -110.89785   0.15033384   -110.74751   -698.02153    4.3641332    4.3641332    4.3641332   -698.02153   -8711.0367    5257.7534    1359.2186    230.73647   -581.76666    3357.8427    83.117788 
   60800    225.25453    -110.9505   0.20381503   -110.74669    -421.1993    4.3617522    4.3617522    4.3617522    -421.1993   -158.42444    249.59821   -1354.7717    811.93226    1027.0865    -3262.099    82.981822 
   60900    198.68982   -110.92644   0.17977873   -110.74666   -3145.9053    4.3671129    4.3671129    4.3671129   -3145.9053   -10361.975    3417.9862   -2493.7274   -953.12716   -397.49512    4019.7682    83.288159 
   61000     182.7596   -110.91298   0.16536473   -110.74761    -699.0328    4.3621965    4.3621965    4.3621965    -699.0328   -1187.0766   -653.76934   -256.25247     1295.233    838.60993   -3970.2752    83.007183 
   61100    206.34884   -110.93448   0.18670877   -110.74777   -51.676523    4.3631334    4.3631334    4.3631334   -51.676523   -3789.8353      4612.31   -977.50424   -537.17044   -366.03241    2729.9845    83.060681 
   61200    210.02869   -110.93754   0.19003837    -110.7475   -1464.3095    4.3660884    4.3660884    4.3660884   -1464.3095   -6611.0226    2752.4563   -534.36222   -109.58143   -367.14455   -4619.9682    83.229557 
   61300    189.37649   -110.91891   0.17135183   -110.74756    1418.7543    4.3620215    4.3620215    4.3620215    1418.7543    912.70793     7511.471   -4167.9161   -170.47044   -611.33257    1534.5125    82.997194 
   61400    231.87622   -110.95661   0.20980648    -110.7468   -1176.5811    4.3648052    4.3648052    4.3648052   -1176.5811   -8286.9316     1617.468    3139.7203    1826.4038   -102.07754   -2314.8062    83.156195 
   61500    174.51694   -110.90486    0.1579066   -110.74695    2319.4193    4.3637654    4.3637654    4.3637654    2319.4193    1886.0895    10674.121   -5601.9528   -1079.3817   -513.32483    -252.6948    83.096778 
   61600    212.54322   -110.93976   0.19231357   -110.74745   -1533.9035    4.3633115    4.3633115    4.3633115   -1533.9035   -6787.3056   -1625.3218     3810.917    1402.1887   -527.90455    -51.29968    83.070852 
   61700    162.51301   -110.89472   0.14704518   -110.74768    3271.3591    4.3643629    4.3643629    4.3643629    3271.3591    -380.0195    14162.267   -3968.1698   -291.08635   -496.03562   -1464.0434    83.130916 
   61800    261.26625   -110.98379   0.23639919   -110.74739   -1556.5637    4.3633554    4.3633554    4.3633554   -1556.5637   -4934.3095    794.96819   -530.34967    617.49029    270.01208    1771.9282     83.07336 
   61900    152.82908   -110.88654   0.13828296   -110.74826     1870.046     4.364047     4.364047     4.364047     1870.046    -3483.029    11071.269   -1978.1016   -676.84169    1149.7767   -3162.3038    83.112863 
   62000    251.32375   -110.97502   0.22740301   -110.74762   -2227.2251    4.3635983    4.3635983    4.3635983   -2227.2251   -7222.5821    1331.4557   -790.54896    1798.2009   -278.96817    1169.5447    83.087234 
   62100    173.79806   -110.90546   0.15725614    -110.7482    1224.1822     4.364459     4.364459     4.364459    1224.1822   -3588.8142    6923.7719    337.58892    -837.9357     628.4506   -2743.7767     83.13641 
   62200     198.5685   -110.92763   0.17966895   -110.74796   -1333.4575    4.3631066    4.3631066    4.3631066   -1333.4575   -7422.8636    3131.7307    290.76055    2230.6045   -500.94908    1901.0536     83.05915 
   62300    177.29933   -110.90752   0.16042416    -110.7471    1748.7195    4.3635206    4.3635206    4.3635206    1748.7195   -2984.2174    6950.7355    1279.6403    1356.9938   -890.50809   -2697.5162    83.082791 
   62400    244.76834   -110.96819   0.22147154   -110.74671   -5058.2037    4.3664803    4.3664803    4.3664803   -5058.2037   -8713.2172   -1337.2728    -5124.121    1615.5704    32.235165    2743.8419     83.25197 
   62500    150.79771   -110.88408   0.13644494   -110.74763    3918.3458    4.3605786    4.3605786    4.3605786    3918.3458   -4574.7479    11993.275    4336.5104    2631.2089   -888.37164   -1602.1229    82.914857 
   62600    259.07876    -110.9821   0.23441991   -110.74768   -3373.6996    4.3655431    4.3655431    4.3655431   -3373.6996   -6193.8597    1133.0142   -5060.2533   -1258.2347    -231.8446    515.97253    83.198375 
   62700    176.90349   -110.90873   0.16006599   -110.74867    -673.1117    4.3646011    4.3646011    4.3646011    -673.1117   -9615.9229    7212.7257    383.86209    2570.3941    -485.8991    -340.5804     83.14453 
   62800    175.29768   -110.90703   0.15861303   -110.74842    940.72581    4.3614527    4.3614527    4.3614527    940.72581   -245.80656    4392.4764   -1324.4924   -343.52913   -22.362986    2071.6963    82.964731 
   62900    221.81974   -110.94781   0.20070716    -110.7471   -2888.4743    4.3668693    4.3668693    4.3668693   -2888.4743   -9312.2346    6069.1214   -5422.3098    1623.5005   -62.521326   -889.89215    83.274224 
   63000    186.03792    -110.9154   0.16833102   -110.74707    1777.5221    4.3621467    4.3621467    4.3621467    1777.5221   -1497.7989    6610.9587     219.4064   -545.00247    190.45324    1826.9472    83.004338 
   63100    223.39089   -110.94896   0.20212878   -110.74683   -1609.8533    4.3636965    4.3636965    4.3636965   -1609.8533   -6623.9211     8075.691   -6281.3297    1647.8057    562.78715    2314.3515    83.092843 
   63200    196.00949   -110.92427    0.1773535   -110.74691   -412.29692     4.366137     4.366137     4.366137   -412.29692   -3111.1921     4400.915   -2526.6136   -1711.2227   -1178.8538   -901.61362    83.232337 
   63300    208.48644   -110.93563   0.18864291   -110.74699    73.164448    4.3611737    4.3611737    4.3611737    73.164448   -3133.5623    7120.9641   -3767.9084    1089.3822    312.54503    2835.0287    82.948807 
   63400    163.60101   -110.89553   0.14802963    -110.7475   -1531.1766    4.3656227    4.3656227    4.3656227   -1531.1766    1152.3952   -927.59476   -4818.3301    -193.8712   -1651.2749   -2225.0338    83.202926 
   63500    231.30714   -110.95589   0.20929156    -110.7466   -1651.7766     4.365107     4.365107     4.365107   -1651.7766   -7572.1497    7166.4533   -4549.6336   -265.25672   -162.66404    2209.3911    83.173444 
   63600    183.51607   -110.91362   0.16604919   -110.74757    3390.8769    4.3603157    4.3603157    4.3603157    3390.8769     3772.913    8064.0131   -1664.2954   -240.66208   -48.937409   -2658.4688    82.899864 
   63700    215.46747    -110.9431   0.19495949   -110.74814   -3992.6577    4.3669571    4.3669571    4.3669571   -3992.6577   -9290.1316    2473.2002   -5161.0416    1840.4001   -988.59306    2044.8937    83.279244 
   63800     226.0691   -110.95266   0.20455207   -110.74811    671.47126    4.3633573    4.3633573    4.3633573    671.47126   -1426.1557    7182.8251   -3742.2556   -318.85525    929.07045   -1844.9015    83.073465 
   63900    161.45047   -110.89437   0.14608378   -110.74829    2486.4414    4.3622875    4.3622875    4.3622875    2486.4414    464.55665    7102.0418   -107.27408    337.55568   -320.33393    961.06039     83.01238 
   64000    217.12273   -110.94359    0.1964572   -110.74714   -2581.9246     4.366187     4.366187     4.366187   -2581.9246   -7329.8439    4971.8369   -5387.7667   -678.79438    1584.8613   -830.15736    83.235191 
   64100    179.62121   -110.90915   0.16252504   -110.74662    4574.8442    4.3615527    4.3615527    4.3615527    4574.8442    3105.2937    9288.5505    1330.6886    -1296.517   -303.92016    251.73359    82.970438 
   64200    231.65963   -110.95696    0.2096105   -110.74735   -4290.0503     4.365221     4.365221     4.365221   -4290.0503   -11365.793    3141.9434   -4646.3018    783.50604    1008.5676    43.681755    83.179958 
   64300    186.02876   -110.91634   0.16832273   -110.74802    1684.1536    4.3643328    4.3643328    4.3643328    1684.1536    466.60669    5133.6179   -547.76383   -973.25138   -1187.1207   -2110.4194    83.129194 
   64400     238.1133   -110.96311   0.21544992   -110.74766    1045.8108    4.3617562    4.3617562    4.3617562    1045.8108   -6928.2772    10454.375   -388.66512     1302.627    249.92974    1456.4439    82.982052 
   64500    157.42075   -110.89075    0.1424376   -110.74831   -1703.6857    4.3663464    4.3663464    4.3663464   -1703.6857   -2790.6559    332.28849   -2652.6896   -1481.6803    195.02164   -692.22863    83.244311 
   64600    206.97197   -110.93477   0.18727258   -110.74749    237.24307    4.3625416    4.3625416    4.3625416    237.24307   -7384.0411    5410.6693     2685.101    2712.8019   -1456.8708    580.14497    83.026887 
   64700    216.56547   -110.94295   0.19595299     -110.747   -445.27392    4.3634856    4.3634856    4.3634856   -445.27392   -2157.7848    3302.8071   -2480.8441   -984.60272    1821.9514   -1191.1644    83.080795 
   64800    166.08305   -110.89827   0.15027544     -110.748   -1451.3383    4.3660765    4.3660765    4.3660765   -1451.3383   -10458.386    4175.5862    1928.7852    2511.1406   -1125.1351    3010.0202    83.228876 
   64900    247.22908   -110.97101   0.22369806   -110.74731    395.22901    4.3614922    4.3614922    4.3614922    395.22901   -894.18134    4971.9314    -2892.063   -1332.7033    2358.8129   -3382.2111    82.966985 
   65000    180.63555   -110.91105   0.16344284   -110.74761    763.30332    4.3653741    4.3653741    4.3653741    763.30332    -4589.689     4842.212     2037.387    1702.1028   -718.19423    1964.2963    83.188715 
   65100     200.9214   -110.92915    0.1817979   -110.74735   -3101.9717    4.3636502    4.3636502    4.3636502   -3101.9717   -6735.7561     1042.495   -3612.6538    1817.7982    947.28911   -893.34303    83.090196 
   65200    181.91929   -110.91159    0.1646044   -110.74698    823.12739    4.3635046    4.3635046    4.3635046    823.12739    659.10643    3348.7862   -1538.5105   -332.40531   -237.74677     1745.413     83.08188 
   65300    227.61855   -110.95288   0.20595404   -110.74693   -2959.0009    4.3655656    4.3655656    4.3655656   -2959.0009    -11900.73    5205.7499   -2182.0225    1901.4466   -1164.8828   -385.09912    83.199659 
   65400    170.34004    -110.9024   0.15412725   -110.74827    1095.8524    4.3620239    4.3620239    4.3620239    1095.8524     2972.678    5248.0775   -4933.1985   -342.28487    551.47208    3756.3272    82.997331 
   65500    240.44789   -110.96525   0.21756231   -110.74769   -2228.8008    4.3650973    4.3650973    4.3650973   -2228.8008   -8727.6206    3322.6899   -1281.4717    658.01749   -2111.1125    180.55336    83.172887 
   65600    191.19438   -110.92075   0.17299669   -110.74775   -403.21151    4.3637333    4.3637333    4.3637333   -403.21151    1234.3359    4773.3178   -7217.2883   -490.92697    1398.0662    790.08875    83.094942 
   65700    172.79288   -110.90395   0.15634663    -110.7476   -1441.3474    4.3640283    4.3640283    4.3640283   -1441.3474    -4821.217    1563.0143   -1065.8396    1738.0659   -1305.3849     3108.189    83.111796 
   65800    235.17004   -110.95955   0.21278679   -110.74676   -2177.6264    4.3644124    4.3644124    4.3644124   -2177.6264   -1002.9768    2532.1012   -8062.0037   -1915.5326    1500.6043   -2795.1625    83.133743 
   65900    160.71283   -110.89287   0.14541635   -110.74746    1415.8642    4.3627713    4.3627713    4.3627713    1415.8642   -1776.0404    2805.5343    3218.0988    1634.3897    70.894495    5273.9643    83.040003 
   66000    226.12216   -110.95208   0.20460009   -110.74747   -4518.8604    4.3657185    4.3657185    4.3657185   -4518.8604   -2363.1599   -1388.6275   -9804.7939    -13.99391    811.63785   -4028.1289    83.208402 
   66100     186.2922    -110.9157   0.16856109   -110.74713    3761.1379    4.3626524    4.3626524    4.3626524    3761.1379    840.50993    6917.8191    3525.0845    476.04265   -191.36373    4776.3405    83.033211 
   66200    233.55879   -110.95805    0.2113289   -110.74672   -2420.8861    4.3637181    4.3637181    4.3637181   -2420.8861   -2091.8854   -2946.7083   -2224.0646    -631.6971    -900.8731   -3068.0195    83.094074 
   66300    161.06193   -110.89265   0.14573222   -110.74692    188.34406    4.3659688    4.3659688    4.3659688    188.34406    -2428.314    6291.0898   -3297.7436   -214.84865   -408.10559     2707.654    83.222715 
   66400    228.91697   -110.95325   0.20712888   -110.74612     2255.667    4.3612849    4.3612849    4.3612849     2255.667   -2300.7928   -892.48619    9960.2801   -272.21773   -1148.9987   -3105.9814    82.955156 
   66500    186.05607   -110.91557   0.16834745   -110.74723    56.906149    4.3647778    4.3647778    4.3647778    56.906149   -642.53808    8070.2944   -7257.0378   -186.50234    426.45683    2133.8445    83.154625 
   66600     200.7524   -110.92938   0.18164499   -110.74773    564.39008    4.3648693    4.3648693    4.3648693    564.39008   -6090.8022   -2703.4091    10487.382    729.93942   -1149.6703    -1241.016    83.159859 
   66700    217.88438   -110.94423   0.19714636   -110.74708    4282.1824    4.3611876    4.3611876    4.3611876    4282.1824    2283.4353    13992.431   -3429.3191   -1245.8151       864.51   -54.499089    82.949602 
   66800    205.74773    -110.9332   0.18616487   -110.74703   -2482.1952    4.3669975    4.3669975    4.3669975   -2482.1952   -9382.6248    -4305.999    6242.0382    1476.5282    -796.5859    625.65642    83.281554 
   66900    152.52684   -110.88488   0.13800949   -110.74687    4480.2619    4.3615747    4.3615747    4.3615747    4480.2619    165.23481    12458.245    817.30628    -2490.605    721.79335   -2710.2036     82.97169 
   67000    267.08301   -110.98798   0.24166232   -110.74632   -3452.0526    4.3640409    4.3640409    4.3640409   -3452.0526   -6661.2265   -5715.7643     2020.833      1562.35   -453.60504    1128.8974    83.112518 
   67100    117.49649   -110.85431   0.10631329     -110.748    1454.6766     4.366205     4.366205     4.366205    1454.6766   -3994.3878    9957.2659   -1598.8482   -2419.7888    385.85942   -1484.7105    83.236221 
   67200    273.63134   -110.99479   0.24758739   -110.74721   -2587.5217    4.3613901    4.3613901    4.3613901   -2587.5217    -4001.971   -2638.0961    -1122.498   -207.19346   -1139.4467     210.5564    82.961158 
   67300    141.35062    -110.8755   0.12789701    -110.7476    2931.9317     4.365373     4.365373     4.365373    2931.9317    -5027.779    11766.504    2057.0701   -642.12663   -1395.5469   -2343.8712    83.188649 
   67400    262.50293   -110.98456   0.23751817   -110.74704    -6789.248    4.3645993    4.3645993    4.3645993    -6789.248   -7476.6809   -9778.8618   -3112.2014    1311.2931      24.7077    2369.5503    83.144425 
   67500    123.96641   -110.85988   0.11216742   -110.74771    4362.7596    4.3620379    4.3620379    4.3620379    4362.7596   -3863.8072    14010.853     2941.233    658.65562    -1046.438   -3525.7077    82.998127 
   67600    273.13138    -110.9942   0.24713501   -110.74706   -6833.9258    4.3665789    4.3665789    4.3665789   -6833.9258   -5126.3541   -9223.6942    -6151.729   -303.75642    887.55992    1314.3847    83.257607 
   67700     119.7833   -110.85667   0.10838244   -110.74828    3447.1258    4.3619131    4.3619131    4.3619131    3447.1258   -6088.5193    13980.059    2449.8383    3008.0611   -1395.3415   -2236.7828    82.991007 
   67800    252.66453   -110.97571   0.22861618    -110.7471    -3874.115    4.3649674    4.3649674    4.3649674    -3874.115   -1539.9549   -8067.3614   -2015.0287   -2032.9792    801.42864   -581.10884    83.165461 
   67900     171.7574   -110.90237    0.1554097   -110.74696    1203.9024    4.3648082    4.3648082    4.3648082    1203.9024   -9358.6939      11750.5    1219.9009    3229.6451   -750.24985   -901.21709    83.156363 
   68000    232.58571    -110.9572   0.21044844   -110.74676   -1806.2701    4.3616779    4.3616779    4.3616779   -1806.2701    1579.8222   -5856.5405   -1142.0919   -896.62927    697.89889    2334.2012     82.97758 
   68100    157.28021   -110.88967   0.14231044   -110.74736     1022.687    4.3662055    4.3662055    4.3662055     1022.687   -8659.4772    10969.875    757.66347      1691.45   -84.733824    -1848.505    83.236251 
   68200    248.59746    -110.9719   0.22493621   -110.74696   -2596.3811    4.3630366    4.3630366    4.3630366   -2596.3811    419.45578   -8044.8757   -163.72346   -522.98487   -439.59571    885.41014     83.05515 
   68300    132.23988    -110.8678   0.11965343   -110.74815    3534.7481    4.3633212    4.3633212    4.3633212    3534.7481   -4582.1689    9539.0138    5647.3993    876.83743    171.74775    1249.4361    83.071402 
   68400    248.88595   -110.97198   0.22519724   -110.74678   -2031.7624    4.3651436    4.3651436    4.3651436   -2031.7624   -355.61667   -5480.1414   -259.52912    165.93789   -1286.1994   -1747.3288    83.175535 
   68500    191.38407   -110.92028   0.17316833   -110.74711    3399.8651    4.3622142    4.3622142    4.3622142    3399.8651   -2678.6686    10695.559    2182.7045    277.19525    402.00241     1036.053    83.008194 
   68600    206.75423   -110.93428   0.18707557    -110.7472   -1344.8438    4.3657236    4.3657236    4.3657236   -1344.8438   -977.68238   -5999.2021    2942.3532     158.7832   -776.41485   -553.72985    83.208693 
   68700     193.5704   -110.92249   0.17514657   -110.74735    2189.5365    4.3626038    4.3626038    4.3626038    2189.5365   -863.99171    7931.1239   -498.52259    93.264072    142.59738    653.55474    83.030438 
   68800    202.05913   -110.93019   0.18282735   -110.74737    250.77376    4.3640316    4.3640316    4.3640316    250.77376    -1076.684   -5209.2763    7038.2816    1312.3456   -512.46565    -307.0962    83.111988 
   68900    171.59361   -110.90284   0.15526151   -110.74758    223.24253    4.3645419    4.3645419    4.3645419    223.24253   -440.06696    5871.2902   -4761.4956   -904.86947    527.13422     986.1464    83.141145 
   69000    238.95608   -110.96282   0.21621248    -110.7466     104.8886     4.362752     4.362752     4.362752     104.8886   -4000.3011   -130.35395    4445.3208    1832.5788   -28.543639   -1376.8926    83.038898 
   69100     190.0549   -110.91851   0.17196567   -110.74654       687.57    4.3653908    4.3653908    4.3653908       687.57     2207.155    3204.6746   -3349.1196   -1883.0622    -248.8361   -316.63206    83.189666 
   69200    213.34939   -110.93957   0.19304301   -110.74653   -1482.2083    4.3628487    4.3628487    4.3628487   -1482.2083   -7834.5059   -146.93202    3534.8132    1353.6345   -355.40159   -1381.5721     83.04442 
   69300    173.79216   -110.90415    0.1572508    -110.7469    1347.3493    4.3643078    4.3643078    4.3643078    1347.3493    4173.4981     576.5235    -707.9737   -2608.2555   -984.84722    1005.2574    83.127769 
   69400    223.69602   -110.94961   0.20240486    -110.7472   -3522.6941    4.3646268    4.3646268    4.3646268   -3522.6941   -10110.934    1420.1168   -1877.2649    2552.8986   -254.87982   -295.88049    83.145997 
   69500    163.49304   -110.89569   0.14793194   -110.74776    1472.3407     4.362215     4.362215     4.362215    1472.3407    1893.0885    358.29654    2165.6372     -3197.46   -858.67054   -230.20184     83.00824 
   69600    238.47299   -110.96243   0.21577537   -110.74666   -3232.0387     4.366093     4.366093     4.366093   -3232.0387   -7982.3309      3002.41   -4716.1952     1702.573    110.13265    718.84555    83.229819 
   69700    192.73334   -110.92111   0.17438918   -110.74672   -859.72566    4.3633518    4.3633518    4.3633518   -859.72566   -4209.5582   -3234.8625    4865.2437   -1411.4615   -704.49341    1038.3546    83.073151 
   69800    183.08584   -110.91247   0.16565991   -110.74681    458.88622    4.3632489    4.3632489    4.3632489    458.88622   -1061.8591    7170.6634   -4732.1457   -991.70531   -282.89977   -1272.3236    83.067274 
   69900    234.26111   -110.95875   0.21196438   -110.74678   -3571.0238    4.3656134    4.3656134    4.3656134   -3571.0238   -7804.7322   -5843.9029    2935.5635    293.31154     228.7118   -7.2729371    83.202396 
   70000    147.05716   -110.88048   0.13306041   -110.74742    2155.0353    4.3622907    4.3622907    4.3622907    2155.0353    26.372869    7542.2177   -1103.4846   -2843.0356    143.44661    227.16646    83.012562 
   70100    256.13649   -110.97867   0.23175768   -110.74691   -5171.0565    4.3656242    4.3656242    4.3656242   -5171.0565   -9090.2413   -8572.9494    2150.0211     756.2187   -576.40285   -1152.2725    83.203012 
   70200    119.74488   -110.85568   0.10834768   -110.74733    5404.4853    4.3632843    4.3632843    4.3632843    5404.4853    3435.0289    11264.875    1513.5519   -2660.9563   -248.20042    1157.8352    83.069298 
   70300    305.40872   -111.02309   0.27634023   -110.74675   -5357.9409    4.3635113    4.3635113    4.3635113   -5357.9409   -8140.6451   -7647.4803   -285.69729    1321.9046   -742.31657    1316.3792    83.082263 
   70400    97.987148   -110.83683  0.088660831   -110.74817    5403.7578    4.3646367    4.3646367    4.3646367    5403.7578    5517.4507    10097.504    596.31846   -3227.9661   -635.93507   -1851.3719    83.146564 
   70500    305.22547   -111.02277   0.27617442   -110.74659   -5544.6911    4.3633509    4.3633509    4.3633509   -5544.6911   -6465.4232   -8150.3055   -2018.3446    1319.8953   -427.17933   -466.85743    83.073103 
   70600       87.291   -110.82698  0.078982732   -110.74799    6155.5406    4.3640111    4.3640111    4.3640111    6155.5406    2650.8045    10442.671    5373.1458   -1783.3548   -770.49165    688.32151    83.110816 
   70700    268.22616   -110.98926   0.24269666   -110.74656   -5179.3076     4.364144     4.364144     4.364144   -5179.3076    -457.5014   -9876.1613   -5204.2601     537.3007   -130.20891   -2131.9225    83.118407 
   70800    156.53697   -110.88874   0.14163794    -110.7471    4678.1331    4.3636627    4.3636627    4.3636627    4678.1331   -2483.9536    13032.055    3486.2983   -90.290517   -1157.3532     398.9788    83.090909 
   70900    247.21841   -110.97025   0.22368842   -110.74656   -2111.3936    4.3638479    4.3638479    4.3638479   -2111.3936    6631.5279   -7999.4541   -4966.2547   -55.132959    468.50225   -79.316913    83.101492 
   71000    174.08822   -110.90479   0.15751868   -110.74727    1281.0273    4.3638479    4.3638479    4.3638479    1281.0273   -6168.6283    10508.831   -497.12056      260.291   -465.51588    1543.5756    83.101492 
   71100    197.11397   -110.92536   0.17835286     -110.747    777.81426    4.3641391    4.3641391    4.3641391    777.81426    7201.1712   -5923.3019    1055.5735    -954.4434    22.546159   -404.11156    83.118131 
   71200    196.50249   -110.92527   0.17779958   -110.74747    -2188.153     4.363532     4.363532     4.363532    -2188.153   -5351.9732    2886.3085   -4098.7945    211.13566   -1198.3782    1926.6588    83.083447 
   71300      183.245   -110.91341   0.16580393   -110.74761    345.35694     4.364783     4.364783     4.364783    345.35694    4514.5606    -2683.052   -795.43773   -1359.2139   -1440.2871   -1520.7754    83.154923 
   71400    235.79998   -110.96072   0.21335678   -110.74737    31.375312    4.3626711    4.3626711    4.3626711    31.375312   -1476.1851    5538.2005   -3967.8895   -286.76187    13.631116    480.17539    83.034278 
   71500    185.98917   -110.91616   0.16828691   -110.74788   -1969.6693    4.3646119    4.3646119    4.3646119   -1969.6693   -2529.5099   -2068.4633   -1311.0348   -1680.9544   -1926.8209   -110.22095    83.145143 
   71600    202.35525   -110.93041   0.18309528   -110.74732   -649.84257     4.364709     4.364709     4.364709   -649.84257   -895.74258    2348.7681   -3402.5532    2762.2258    428.22144    308.26638    83.150695 
   71700    207.75052   -110.93461   0.18797704   -110.74663   -648.72817    4.3626061    4.3626061    4.3626061   -648.72817   -2996.1141   -330.30963    1380.2392   -2349.3983    -1145.226    1426.2508    83.030569 
   71800    169.71931   -110.90028    0.1535656   -110.74672   -1481.3728     4.365322     4.365322     4.365322   -1481.3728   -642.95524   -775.61015   -3025.5529    1930.8394    140.74678   -1573.4749    83.185734 
   71900    220.72617   -110.94564   0.19971768   -110.74593    143.66906    4.3636184    4.3636184    4.3636184    143.66906   -2020.9533    2797.6421   -345.68156   -785.33904   -16.193589    1353.9975    83.088381 
   72000     200.3486    -110.9275   0.18127962   -110.74622    680.49016    4.3630418    4.3630418    4.3630418    680.49016   -120.18322    1099.7277     1061.926    940.21468   -1301.4595   -917.77274    83.055445 
   72100    201.03556   -110.92873    0.1819012   -110.74682   -1212.7188    4.3658132    4.3658132    4.3658132   -1212.7188   -5094.6738    2586.9507   -1130.4334   -1313.9926    543.30577    546.26813    83.213819 
   72200    212.94865   -110.93928   0.19268042    -110.7466    2260.8491    4.3616799    4.3616799    4.3616799    2260.8491    3533.5342   -792.27207    4041.2852    1562.6753   -1793.5085   -2056.0154    82.977694 
   72300    193.22897   -110.92167   0.17483764   -110.74684   -418.75441    4.3652929    4.3652929    4.3652929   -418.75441   -5890.9458    6370.5891   -1735.9065    25.794849    160.39379    2451.3142    83.184071 
   72400    196.34563   -110.92475   0.17765765   -110.74709    744.43394    4.3639032    4.3639032    4.3639032    744.43394     4520.816   -4678.0453    2390.5311   -556.02735   -1591.3689   -2325.7185    83.104651 
   72500     190.2453   -110.91901   0.17213795   -110.74687    3418.7057    4.3617192    4.3617192    4.3617192    3418.7057   -1294.8586    11798.637   -247.66084     1693.011    874.02049    2125.4635    82.979937 
   72600    229.07101   -110.95432   0.20726827   -110.74706   -3726.1256    4.3671603    4.3671603    4.3671603   -3726.1256   -2776.2485   -10404.134    2002.0057   -137.84085   -833.56863   -405.97583     83.29087 
   72700    160.90922    -110.8931   0.14559404   -110.74751    4075.6959    4.3612732    4.3612732    4.3612732    4075.6959    2230.9697    13001.763   -3005.6453    72.610499   -931.81641   -114.75591    82.954489 
   72800    257.03122   -110.97946   0.23256725   -110.74689   -3405.7138    4.3646151    4.3646151    4.3646151   -3405.7138   -2421.8764   -7439.9275   -355.33765   -525.95109    755.78058   -1444.9565    83.145329 
   72900    132.93682   -110.86801   0.12028403   -110.74773    1336.1089    4.3654969    4.3654969    4.3654969    1336.1089    1022.7713    7599.4167   -4613.8613    62.239401   -768.29085    1199.0384    83.195733 
   73000    253.03745   -110.97599   0.22895361   -110.74704   -3499.9504    4.3611471    4.3611471    4.3611471   -3499.9504    -657.8379   -8452.8407   -1389.1725   -933.14934    1186.3804    -667.9068     82.94729 
   73100    132.34834   -110.86726   0.11975156   -110.74751    1388.2582    4.3667256    4.3667256    4.3667256    1388.2582   -524.50229    7332.8229    -2643.546    1184.9455   -2436.6482   -2103.7958    83.265999 
   73200    285.35441   -111.00509   0.25819467    -110.7469   -6441.7294     4.363372     4.363372     4.363372   -6441.7294   -4591.9905   -8460.8774   -6272.3203   -955.39396     931.0594    2180.7465    83.074306 
   73300    97.266586   -110.83609  0.088008852   -110.74809    5671.5936    4.3620347    4.3620347    4.3620347    5671.5936     3974.416    13954.382   -914.01658    1146.5233   -2361.3786   -4334.2331    82.997945 
   73400    314.43387   -111.03075   0.28450637   -110.74625   -9465.3136    4.3678135    4.3678135    4.3678135   -9465.3136   -8068.0776   -11151.404   -9176.4592   -1680.5237    508.06584    1623.1687    83.328252 
   73500    92.053621   -110.83074  0.083292051   -110.74745    5880.2755    4.3605547    4.3605547    4.3605547    5880.2755    2769.9895    13357.063    1513.7743    1679.2489   -753.84193     -4390.43    82.913492 
   73600    269.44583   -110.99031   0.24380025   -110.74651   -6709.9201    4.3653297    4.3653297    4.3653297   -6709.9201   -3220.0653    -8968.643   -7941.0521   -797.63704   -1008.9926    615.16813    83.186175 
   73700    153.39592   -110.88615   0.13879585   -110.74736    2238.0301     4.365362     4.365362     4.365362    2238.0301   -3734.0781    10775.713   -327.54427    867.41722    1049.6495   -3516.1461    83.188023 
   73800    217.20918   -110.94392   0.19653543   -110.74739   -239.05022    4.3608153    4.3608153    4.3608153   -239.05022     4541.165   -2288.9194   -2969.3963   -666.78133   -1632.8417    521.92559    82.928363 
   73900     209.0716    -110.9366   0.18917238   -110.74743   -2350.4224    4.3671202    4.3671202    4.3671202   -2350.4224   -6525.8651    4030.4971   -4555.8993    1362.2273      1707.89   -1182.7813    83.288574 
   74000    195.25615   -110.92325   0.17667186   -110.74658    2557.0393    4.3620509    4.3620509    4.3620509    2557.0393    4527.2582   -1049.3599    4193.2194   -475.53863   -1757.9379   -169.44394     82.99887 
   74100     211.5015   -110.93841   0.19137101   -110.74704   -2161.9579    4.3637709    4.3637709    4.3637709   -2161.9579   -3166.6625    3055.1187   -6374.3299   -430.85147     709.1255   -86.964968    83.097094 
   74200     153.9086   -110.88676   0.13925974    -110.7475    2281.6667    4.3660478    4.3660478    4.3660478    2281.6667    1270.3237   -3072.3221    8646.9985   -823.32262   -1994.2968   -2341.2896    83.227234 
   74300    253.20033   -110.97616   0.22910098   -110.74706    1405.3592    4.3604561    4.3604561    4.3604561    1405.3592    3206.1976    4688.5271    -3678.647    153.23479   -367.36959    1753.3098    82.907868 
   74400    156.61968   -110.88963   0.14171278   -110.74792    1081.3798    4.3663067    4.3663067    4.3663067    1081.3798   -1203.3431    -4080.741    8528.2235   -655.82714    -590.7724   -3290.5236    83.242041 
   74500      244.502   -110.96769   0.22123055   -110.74646     21.75595    4.3634534    4.3634534    4.3634534     21.75595    1743.3478    279.76432   -1957.8443    1265.0939    -368.3339    2620.5544    83.078953 
   74600    199.79319   -110.92701   0.18077707   -110.74623    3478.0757    4.3621734    4.3621734    4.3621734    3478.0757    427.95537    3966.5337    6039.7381    474.11939    565.70834   -3033.3819    83.005862 
   74700    168.75537   -110.89917    0.1526934   -110.74647   -1222.5383    4.3667633    4.3667633    4.3667633   -1222.5383    1695.4177   -7999.6966    2636.6639   -1295.1664   -503.43647    1814.4501     83.26816 
   74800    225.35564   -110.94977   0.20390652   -110.74586     1476.653    4.3613527    4.3613527    4.3613527     1476.653    -772.6751     6715.394   -1512.7598    2201.9926    1113.6099   -2717.5758    82.959021 
   74900    182.55591   -110.91143   0.16518042   -110.74625    1508.0918    4.3650199    4.3650199    4.3650199    1508.0918    4582.3407   -7613.2582    7555.1929   -1295.6577   -1203.0091     1785.202    83.168465 
   75000    207.99089   -110.93485   0.18819453   -110.74666   -3073.6929    4.3648049    4.3648049    4.3648049   -3073.6929   -6308.0899    5836.0204   -8749.0091     705.4642    862.86057   -2819.5901    83.156174 
   75100    213.01573   -110.93905   0.19274111   -110.74631    2400.6861    4.3616956    4.3616956    4.3616956    2400.6861    5311.0883   -4478.6878    6369.6576   -948.63032   -2225.2676    891.78723    82.978591 
   75200    182.55987   -110.91192   0.16518401   -110.74674   -1729.0662    4.3664561    4.3664561    4.3664561   -1729.0662   -3345.1882    5645.0911   -7487.1017    1502.2696     38.35005    593.13817    83.250585 
   75300    209.03353   -110.93618   0.18913793   -110.74704   -3937.1929    4.3630245    4.3630245    4.3630245   -3937.1929   -936.83642   -10382.146   -492.59632   -1096.0088   -2112.4428   -1837.7582    83.054461 
   75400    158.31219   -110.89064    0.1432442   -110.74739    3149.2656    4.3634112    4.3634112    4.3634112    3149.2656    3491.3342    9876.5867   -3920.1243    2482.4045    167.27951    3065.0138    83.076547 
   75500    257.44976    -110.9803   0.23294596   -110.74735   -6676.9399    4.3653816    4.3653816    4.3653816   -6676.9399   -8999.4467   -8339.8834   -2691.4895   -897.38563   -240.52066   -1937.5325    83.189141 
   75600    123.16206    -110.8595   0.11143962   -110.74806    3240.4117    4.3624994    4.3624994    4.3624994    3240.4117    6227.9421    8720.9476   -5227.6548   -410.47896   -199.66329     1708.244    83.024476 
   75700    299.15054   -111.01684   0.27067769   -110.74616   -5446.8926    4.3656816    4.3656816    4.3656816   -5446.8926   -5999.1969   -7220.1443   -3121.3365   -259.64069    725.96312    -1436.281    83.206293 
   75800    123.51776   -110.85905   0.11176147   -110.74729    2540.0776     4.362903     4.362903     4.362903    2540.0776    2808.4334    7560.3421   -2748.5428    114.72082    -1621.347     3194.491    83.047521 
   75900    232.83144   -110.95758   0.21067078   -110.74691   -3844.8906    4.3644656    4.3644656    4.3644656   -3844.8906    1310.1141   -6305.7413   -6539.0447    889.88345    1276.7993   -1025.7689    83.136784 
   76000    172.34035   -110.90281   0.15593717   -110.74687    2792.1421    4.3637582    4.3637582    4.3637582    2792.1421   -2198.6078    7715.5448    2859.4894   -1367.2083   -3320.4299    1573.2482    83.096368 
   76100    221.22694   -110.94703   0.20017079   -110.74686   -2136.7793    4.3638379    4.3638379    4.3638379   -2136.7793      5512.64   -4135.4187    -7787.559    1765.8172    1243.9032    519.27091    83.100919 
   76200    188.98527   -110.91803   0.17099785   -110.74703    1421.8316    4.3643101    4.3643101    4.3643101    1421.8316   -2631.8976    3934.7995    2962.5928     -1664.04   -3137.8551   -178.50391    83.127897 
   76300    224.81675   -110.94964   0.20341892   -110.74622    1028.6601    4.3635279    4.3635279    4.3635279    1028.6601    5430.3722     2724.645   -5069.0369    2058.5763    717.17425   -407.21382    83.083211 
   76400    191.01833   -110.91964    0.1728374   -110.74681   -192.66824    4.3642093    4.3642093    4.3642093   -192.66824   -1872.5493     1163.375    131.16951   -2762.4329     -275.925   -1348.2528    83.122139 
   76500     175.0724   -110.90524   0.15840919   -110.74683    1942.9881    4.3633991    4.3633991    4.3633991    1942.9881    5194.6166    1134.3853   -500.03763    2298.7248   -541.36849    706.82509    83.075852 
   76600    253.70944   -110.97633   0.22956163   -110.74677   -1585.5669    4.3642589    4.3642589    4.3642589   -1585.5669    -980.0776   -486.23086   -3290.3923   -2270.1655    1839.8593   -742.07454    83.124974 
   76700    135.42595   -110.87039   0.12253625   -110.74785    3288.8151    4.3637472    4.3637472    4.3637472    3288.8151    3541.3103    4279.3751    2045.7601    1201.5662    -2060.375    349.78576    83.095739 
   76800     252.5909   -110.97563   0.22854955   -110.74708   -3003.1955    4.3642061    4.3642061    4.3642061   -3003.1955    1659.6679   -3408.7838   -7260.4707    86.427573     2134.564    823.24463    83.121959 
   76900     180.9251   -110.91098   0.16370484   -110.74727    2777.8506    4.3637309    4.3637309    4.3637309    2777.8506   -3863.3951    8276.9573    3919.9897    515.41974   -3357.2773    744.04887    83.094808 
   77000    213.18005    -110.9407   0.19288979   -110.74781   -3066.8274    4.3632542    4.3632542    4.3632542   -3066.8274    6018.4596    -9028.535   -6190.4067   -2809.5839    1172.2577   -1571.4948    83.067579 
   77100     177.3131   -110.90829   0.16043662   -110.74786   -727.11192    4.3652011    4.3652011    4.3652011   -727.11192   -7909.5775    6247.0294   -518.78773    269.49465   -2517.0475    1313.6076    83.178823 
   77200    213.43263   -110.94026   0.19311833   -110.74715   -838.51971    4.3634401    4.3634401    4.3634401   -838.51971    7173.6492   -6395.4156   -3293.7928   -600.66457    1384.3985   -1004.3787    83.078196 
   77300    162.30309   -110.89436   0.14685524    -110.7475   -885.20194    4.3635048    4.3635048    4.3635048   -885.20194    -6096.813    7663.1488   -4221.9416   -2242.8284   -1587.4326    338.16523    83.081891 
   77400     243.8958   -110.96723   0.22068204   -110.74654   -3475.0302    4.3655883    4.3655883    4.3655883   -3475.0302    1018.0462   -8944.8367   -2498.3001    1079.7515    441.46109    503.64019    83.200956 
   77500    186.72857   -110.91567   0.16895594   -110.74671    1701.0689    4.3624455    4.3624455    4.3624455    1701.0689   -140.84494    9984.7752   -4740.7234   -2657.4226    1198.7881    1816.2213    83.021397 
   77600    207.09752   -110.93408   0.18738619   -110.74669    -3572.256    4.3648551    4.3648551    4.3648551    -3572.256   -1926.3155   -8624.2354   -166.21717    1218.7153   -1977.6957   -1277.1472    83.159046 
   77700    159.87702   -110.89136   0.14466009    -110.7467     2330.809    4.3644578    4.3644578    4.3644578     2330.809    5557.6927    8799.1753    -7364.441   -3109.4943    2097.5936    496.70728     83.13634 
   77800    249.21521   -110.97176   0.22549516   -110.74627   -2782.0779    4.3625752    4.3625752    4.3625752   -2782.0779   -5694.0362   -6259.6026    3607.4051    1444.6438   -3304.2288    8.6681497    83.028803 
   77900    129.86732   -110.86478   0.11750668   -110.74728    1749.0909     4.366001     4.366001     4.366001    1749.0909    8958.2803    3515.2001   -7226.2077   -3590.1803    1315.7331   -1331.1417    83.224559 
   78000     287.6817   -111.00606   0.26030045   -110.74576   -954.87544    4.3621481    4.3621481    4.3621481   -954.87544   -5412.6735   -190.94929    2738.9965    1279.6384   -2696.1017   -273.10735    83.004422 
   78100      122.572   -110.85807   0.11090572   -110.74716    5871.8855    4.3638836    4.3638836    4.3638836    5871.8855    9589.5331    9097.4476   -1071.3242   -1650.2809    1076.1204    -591.8092    83.103532 
   78200    264.67326    -110.9865   0.23948192   -110.74701   -5342.4181     4.365573     4.365573     4.365573   -5342.4181   -4703.7257   -5695.9369   -5627.5918    -427.3541   -998.45466     996.5421    83.200085 
   78300    152.89313   -110.88582   0.13834092   -110.74748    5735.7467    4.3615732    4.3615732    4.3615732    5735.7467    5081.4391    6646.0885    5479.7124    -787.8617     534.3602   -799.44583    82.971606 
   78400    229.05893   -110.95408   0.20725733   -110.74682   -2943.0524     4.366051     4.366051     4.366051   -2943.0524    1429.9753   -2621.5281   -7637.6045   -1238.1236    1482.6177    1144.2678    83.227419 
   78500    180.62014   -110.91008    0.1634289   -110.74666    2352.7593    4.3625943    4.3625943    4.3625943    2352.7593   -1266.2845     4348.439    3976.1235    847.08517   -355.31775   -1314.8721    83.029895 
   78600    193.53486    -110.9213   0.17511441   -110.74619    2412.2703    4.3637135    4.3637135    4.3637135    2412.2703    8878.8897     2927.045   -4569.1237   -1989.5622    1663.5873    1338.1949    83.093815 
   78700    270.25948   -110.99117   0.24453646   -110.74664    -6340.948    4.3659227    4.3659227    4.3659227    -6340.948   -9835.8843   -4751.9407    -4435.019    614.41377   -900.48438   -1864.1869    83.220078 
   78800    100.87537   -110.83952  0.091274151   -110.74825    5653.3651    4.3611986    4.3611986    4.3611986    5653.3651    13423.092     4492.681   -955.67787    -3214.443    623.13247    2520.4893    82.950231 
   78900     299.1959   -111.01805   0.27071874   -110.74733   -8116.9458    4.3662507    4.3662507    4.3662507   -8116.9458   -9006.2248   -6345.3628   -8999.2498    2197.1873   -1143.3089    -1373.867    83.238839 
   79000    83.598164    -110.8242  0.075641376   -110.74856    4864.7543    4.3630596    4.3630596    4.3630596    4864.7543    7599.5013    6914.7972    79.964501   -4424.1452    2279.1714   -15.624362    83.056465 
   79100    285.94065   -111.00549   0.25872511   -110.74676   -6049.2297    4.3635836    4.3635836    4.3635836   -6049.2297   -1034.9551   -7678.7348   -9433.9993    1938.4495   -1777.1392    793.31867    83.086393 
   79200    161.39809   -110.89279   0.14603638   -110.74675     1238.908    4.3654473    4.3654473    4.3654473     1238.908    1437.1469    6727.6262   -4448.0493   -3217.3276    2950.3923    -813.1815    83.192895 
   79300    229.56958   -110.95392   0.20771938    -110.7462    -2993.781     4.363174     4.363174     4.363174    -2993.781    4860.5887   -6833.1507   -7008.7811    1808.2307   -180.44577    235.18198    83.062998 
   79400    178.41774   -110.90801   0.16143612   -110.74657   -52.600434    4.3640697    4.3640697    4.3640697   -52.600434   -303.23192    8163.5638   -8018.1332    -1285.576    1716.2566   -2474.3982    83.114164 
   79500    188.06972    -110.9166   0.17016943   -110.74643    338.56117    4.3647652    4.3647652    4.3647652    338.56117    9826.0092   -5288.8423   -3521.4835    1109.9785    789.63507    897.84507    83.153907 
   79600    217.37134   -110.94334   0.19668216   -110.74666   -1017.2873    4.3625225    4.3625225    4.3625225   -1017.2873   -2659.3569    7439.8722   -7832.3772    -1181.542   -602.56737   -2807.5536    83.025792 
   79700    178.62812   -110.90838   0.16162647   -110.74676   -360.62414    4.3654998    4.3654998    4.3654998   -360.62414    12932.731   -8998.4381   -5016.1657   -163.79398    131.94545    1117.4912    83.195897 
   79800    220.35342    -110.9461    0.1993804   -110.74672     207.8989    4.3638211    4.3638211    4.3638211     207.8989   -2433.3324    10727.136   -7670.1067    796.62155    -1574.875   -498.97065     83.09996 
   79900    213.47914   -110.94077   0.19316042   -110.74761   -679.31687    4.3624437    4.3624437    4.3624437   -679.31687    9477.1332   -6819.7471   -4695.3367   -882.64784    1160.6334    339.23292    83.021297 
   80000    160.99629   -110.89391   0.14567282   -110.74824    586.47106    4.3655146    4.3655146    4.3655146    586.47106    2541.9694    6030.3857   -6812.9419    669.67698   -1898.9138    324.51541    83.196742 
   80100    250.22559    -110.9736   0.22640937   -110.74719    -2314.697    4.3633179    4.3633179    4.3633179    -2314.697    3062.5394   -6843.6009   -3163.0295   -2075.6734    2332.8442   -1062.1142    83.071217 
   80200    138.79956   -110.87322   0.12558876   -110.74763    1402.8646    4.3634812    4.3634812    4.3634812    1402.8646    8283.0092    1066.2672   -5140.6826     2158.672   -2352.4333    1793.6813    83.080541 
   80300     228.9199   -110.95422   0.20713154   -110.74709   -2387.8813    4.3653693    4.3653693    4.3653693   -2387.8813    909.35266   -4265.9414   -3807.0552   -3467.7796    2187.2966    -1437.825    83.188436 
   80400    223.24712    -110.9489   0.20199869    -110.7469    426.35239    4.3621066    4.3621066    4.3621066    426.35239    3275.7727     513.1763   -2509.8918    2987.3927   -1326.3462     836.4591    83.002049 
   80500     167.9473   -110.89947   0.15196225   -110.74751   -796.38416     4.365159     4.365159     4.365159   -796.38416    4308.3244   -3388.0237   -3309.4532   -4139.5566    167.14571   -267.18359    83.176418 
   80600    240.76204   -110.96458   0.21784655   -110.74673   -1694.8888     4.364244     4.364244     4.364244   -1694.8888    1308.0895   -5230.7325   -1162.0234    3373.3278    -1463.674    2447.0164    83.124125 
   80700    143.01648   -110.87653   0.12940432   -110.74713    3959.7167    4.3619916    4.3619916    4.3619916    3959.7167     8007.166    4224.4528   -352.46879   -3858.6161    37.774446   -1337.3922    82.995487 
   80800    237.20769   -110.96121    0.2146305   -110.74658   -5350.5801    4.3665518    4.3665518    4.3665518   -5350.5801   -435.11167   -12136.747   -3479.8813    970.17411   -363.22471    2327.7697    83.256057 
   80900    179.55918   -110.90883   0.16246892   -110.74636    4442.9719    4.3623283    4.3623283    4.3623283    4442.9719    4778.5262    10429.053   -1878.6631   -1771.2686    37.046372   -352.16033    83.014705 
   81000    235.83807   -110.95973   0.21339124   -110.74634    -1195.858    4.3637283    4.3637283    4.3637283    -1195.858    7660.4829   -10025.172   -1222.8853     -1183.89    1580.1677   -1035.4327    83.094658 
   81100    175.14967   -110.90534    0.1584791   -110.74686    735.11666    4.3655774    4.3655774    4.3655774    735.11666    523.20536    6765.2347   -5083.0901     593.6319   -1251.7698    1417.4756    83.200333 
   81200    193.31825   -110.92134   0.17491842   -110.74643    3819.2996    4.3612324    4.3612324    4.3612324    3819.2996    17495.824   -6507.4243    469.49914    132.13397    1220.3758   -572.93012     82.95216 
   81300    222.84713   -110.94832   0.20163677   -110.74669   -3682.4853    4.3662544    4.3662544    4.3662544   -3682.4853   -7457.4715    3032.1671   -6622.1515    626.66964   -276.97409    1543.6161    83.239051 
   81400     146.9077   -110.88033   0.13292517    -110.7474    4107.8807     4.363218     4.363218     4.363218    4107.8807    20823.312   -5353.7274   -3145.9425   -1895.1841    513.01133   -579.13645    83.065507 
   81500    264.32286   -110.98622   0.23916488   -110.74706   -218.50069    4.3620744    4.3620744    4.3620744   -218.50069    -1150.688    5838.9433   -5343.7574    1727.2982   -954.21798    2360.9896     83.00021 
   81600    159.88352   -110.89249   0.14466597   -110.74782    -88.85535    4.3668616    4.3668616    4.3668616    -88.85535    12696.902   -6728.1425   -6235.3256   -2126.1002    1486.7528   -80.059367    83.273779 
   81700    220.17964   -110.94612   0.19922316   -110.74689     86.00912    4.3617712    4.3617712    4.3617712     86.00912    4950.3044    743.70358   -5435.9806    2260.9989   -1611.2244    1911.4282    82.982909 
   81800    195.55688   -110.92328   0.17694398   -110.74633   -118.06256    4.3645437    4.3645437    4.3645437   -118.06256    6415.4201   -2953.1151   -3816.4927   -2865.0898    2553.9047    1066.1025    83.141246 
   81900    174.02412    -110.9039   0.15746068   -110.74644   -2109.8065    4.3655165    4.3655165    4.3655165   -2109.8065    8769.0129   -7194.5551   -7903.8772    2854.3801   -205.93291    464.89055    83.196851 
   82000    216.73098   -110.94224   0.19610274   -110.74614   -128.26266    4.3615607    4.3615607    4.3615607   -128.26266    4805.5998    687.32016    -5877.708   -3023.7162    1245.6859    2546.5798    82.970895 
   82100    205.38971   -110.93221   0.18584093   -110.74637   -2452.4155    4.3665182    4.3665182    4.3665182   -2452.4155     8548.222   -9666.7484   -6238.7201    2754.5249    164.43342   -1448.3772    83.254137 
   82200    202.01758   -110.92986   0.18278975   -110.74707   -2379.3586    4.3629772    4.3629772    4.3629772   -2379.3586    2199.6694   -590.45045   -8747.2947   -3196.4227   -225.14431     3891.231    83.051756 
   82300    197.56945   -110.92575   0.17876499   -110.74698   -955.12225    4.3632806    4.3632806    4.3632806   -955.12225    9957.8012   -10753.759   -2069.4084    1880.5462    179.92104    100.33957    83.069084 
   82400    178.12258   -110.90845   0.16116906   -110.74729   -2599.8376    4.3665768    4.3665768    4.3665768   -2599.8376    3039.1244    -1797.122   -9041.5151   -1791.9112    32.313033    1213.0465    83.257491 
   82500    227.13467   -110.95301   0.20551623   -110.74749   -2803.5447    4.3612739    4.3612739    4.3612739   -2803.5447    5523.7073   -9835.7013   -4098.6401      36.2673    21.302401    1954.6257    82.954529 
   82600    173.92674   -110.90552   0.15737257   -110.74814    495.16809    4.3655378    4.3655378    4.3655378    495.16809    8425.1438    250.74348    -7190.383    -85.29852   -1864.8868    -234.2957    83.198069 
   82700    213.10534   -110.94069   0.19282219   -110.74786   -1755.1244    4.3638252    4.3638252    4.3638252   -1755.1244    8139.0575   -9522.1176    -3882.313   -2800.7855    2891.8948    1313.7903    83.100192 
   82800    225.44719   -110.95182   0.20398935   -110.74783   -1823.5876    4.3629125    4.3629125    4.3629125   -1823.5876    2857.0793   -2423.3708   -5904.4713    666.59281   -1035.1061   -102.73873    83.048063 
   82900    134.42393   -110.86975    0.1216296   -110.74812    4024.2871    4.3653941    4.3653941    4.3653941    4024.2871    18365.386   -6323.6728    31.147684   -2453.9365    717.98226    1822.5947    83.189856 
   83000    292.24508   -111.01178   0.26442949   -110.74735   -4669.9795    4.3623616    4.3623616    4.3623616   -4669.9795   -1810.8272   -7605.2017   -4593.9096    2144.8577   -1537.8522   -1101.3978    83.016608 
   83100    88.887017   -110.82884  0.080426841   -110.74842    6605.5197     4.364936     4.364936     4.364936    6605.5197    24424.659   -3006.6717   -1601.4286   -4000.8578    905.01529    1585.0807    83.163667 
   83200    291.17147   -111.01006   0.26345807    -110.7466   -3190.5414    4.3630794    4.3630794    4.3630794   -3190.5414    -696.2693   -8919.1863    43.831493    2497.2682   -1882.6111    -94.04419    83.057594 
   83300    158.40237   -110.89053    0.1433258    -110.7472    3236.4299    4.3640749    4.3640749    4.3640749    3236.4299    14412.016   -1461.0331   -3241.6932    -3921.246    1897.5545      64.2601    83.114459 
   83400    201.03277   -110.92828   0.18189868   -110.74638     1200.735    4.3644404    4.3644404    4.3644404     1200.735    6441.8873    -5691.099    2851.4167    1338.1832   -783.35422     1719.656    83.135346 
   83500     219.3314   -110.94455   0.19845566   -110.74609    1624.6321     4.361955     4.361955     4.361955    1624.6321    11224.948   -5299.0542   -1051.9974   -1204.8271    1548.3259   -1121.5523    82.993399 
   83600    173.80925   -110.90424   0.15726626   -110.74697   -386.26151     4.366813     4.366813     4.366813   -386.26151    4064.6284   -3880.7815   -1342.6314   -1074.4451   -96.638887    2096.6763    83.270998 
   83700    216.02551   -110.94246   0.19546442   -110.74699     865.3941     4.361107     4.361107     4.361107     865.3941    11013.279   -9903.1412    1486.0446   -100.74816    946.58497    -709.4176    82.945001 
   83800    217.22877    -110.9437   0.19655316   -110.74715   -713.23601    4.3649517    4.3649517    4.3649517   -713.23601    1310.2074    -1235.314   -2214.6014   -1610.9275   -692.75262    1254.7757    83.164566 
   83900    170.05908   -110.90168   0.15387303    -110.7478    645.01885    4.3650514    4.3650514    4.3650514    645.01885    10551.253   -9985.3363    1369.1397    1748.6281   -161.88363    1358.8882    83.170267 
   84000     231.8235   -110.95694   0.20975878   -110.74718    117.19518    4.3609194    4.3609194    4.3609194    117.19518    4810.6668   -1890.1906   -2568.8906   -2642.6054   -627.35645    600.38739    82.934302 
   84100    181.71008   -110.91184    0.1644151   -110.74742   -1218.8629    4.3673104    4.3673104    4.3673104   -1218.8629    6859.9892   -8816.2055   -1700.3723    2334.2214    1167.3884    289.83014    83.299457 
   84200    194.60334   -110.92351   0.17608119   -110.74743   -560.22852    4.3620853    4.3620853    4.3620853   -560.22852    9833.9789   -7274.3748   -4240.2896   -2708.9699    27.297441    364.20742    83.000833 
   84300     217.5516   -110.94371   0.19684526   -110.74687   -386.77735    4.3632516    4.3632516    4.3632516   -386.77735    4418.7078   -4787.5394   -791.50043    1343.5703    116.73987    2463.8432    83.067428 
   84400    172.42579   -110.90301   0.15601448     -110.747   -633.14446    4.3671352    4.3671352    4.3671352   -633.14446     14167.34   -11542.773    -4524.001   -2649.4922    1474.7517   -1546.4068    83.289435 
   84500     232.5789   -110.95733   0.21044227   -110.74689   -1387.1922    4.3603516    4.3603516    4.3603516   -1387.1922    143.26388   -1252.5843   -3052.2564    986.55477   -513.12235    4699.8348    82.901908 
   84600    162.69807   -110.89423   0.14721264   -110.74702    537.15349    4.3660874    4.3660874    4.3660874    537.15349    18370.594   -13365.913   -3393.2202   -67.635346    -308.2066   -1045.1172    83.229496 
   84700    242.13419   -110.96573    0.2190881   -110.74664   -5317.9423    4.3647613    4.3647613    4.3647613   -5317.9423   -5039.8352    -4904.137   -6009.8547    777.23532    -831.0175    1321.3908    83.153682 
   84800    143.29634   -110.87711   0.12965754   -110.74745    2327.3566    4.3613955    4.3613955    4.3613955    2327.3566    19640.879   -12516.583   -142.22569    1540.8534    937.40909    2482.4068    82.961465 
   84900    246.97696   -110.97003   0.22346995   -110.74656   -5207.1278    4.3672609    4.3672609    4.3672609   -5207.1278    -2498.857   -6703.8909   -6418.6355   -507.59922   -2371.5919   -1083.4224    83.296628 
   85000    164.91012    -110.8959   0.14921414   -110.74669    1580.1339    4.3622108    4.3622108    4.3622108    1580.1339    12573.561   -8518.6148    685.45524    2419.7609    2229.0016     2542.716       83.008 
   85100     238.8147   -110.96212   0.21608456   -110.74604   -3642.9712    4.3639012    4.3639012    4.3639012   -3642.9712    2772.4463   -7899.7383   -5801.6217   -1420.6654   -1332.4353   -1171.1607    83.104533 
   85200     157.8327   -110.88942   0.14281035   -110.74661    667.81932     4.365957     4.365957     4.365957    667.81932    7436.8528   -7979.1425    2545.7476    2710.5909    1607.3026    1948.5929    83.222039 
   85300    260.42768   -110.98244   0.23564044    -110.7468   -3302.7097    4.3620109    4.3620109    4.3620109   -3302.7097     4909.815   -11592.774   -3225.1706   -1104.7983   -582.61859   -61.871634    82.996588 
   85400    121.82395   -110.85881   0.11022887   -110.74858    3463.5112    4.3645102    4.3645102    4.3645102    3463.5112    10908.811   -6405.2795    5887.0019    1493.0556    1373.0236    1758.1568    83.139333 
   85500    277.60865   -110.99821   0.25118614   -110.74702   -4033.1604    4.3646042    4.3646042    4.3646042   -4033.1604    2337.3499   -11439.139   -2997.6918    288.09058    -1774.898    1057.3831    83.144704 
   85600    164.11706   -110.89627   0.14849656   -110.74778    4106.8242    4.3626562    4.3626562    4.3626562    4106.8242      11848.9   -3616.4037    4087.9766    642.25517    1473.6354    970.21662     83.03343 
   85700    185.02779    -110.9147   0.16741703   -110.74729    657.80454    4.3645405    4.3645405    4.3645405    657.80454    7294.4707   -7046.8621    1725.8049    1735.4218   -1277.0811    744.74099    83.141065 
   85800    259.29324   -110.98086   0.23461397   -110.74625   -1707.5415     4.364175     4.364175     4.364175   -1707.5415    5466.0802   -9251.7518   -1336.9529   -913.90962    1686.7678   -1760.6674    83.120176 
   85900    100.44232    -110.8383  0.090882323   -110.74741    6669.9941    4.3629218    4.3629218    4.3629218    6669.9941    17077.936   -4362.7658     7294.812    2194.9242   -436.57304    2498.1594    83.048594 
   86000    305.22997   -111.02282   0.27617849   -110.74665   -7494.0927    4.3645999    4.3645999    4.3645999   -7494.0927   -3254.2421   -11179.466   -8048.5697   -1947.6644    2133.0924   -1552.7092    83.144461 
   86100     113.5685   -110.85065   0.10275917   -110.74789    7540.3083    4.3640446    4.3640446    4.3640446    7540.3083    21137.058   -3520.8295    5004.6964    2093.1507   -292.37403    1445.4015    83.112729 
   86200    275.64178    -110.9965   0.24940647    -110.7471   -3815.7285    4.3628967    4.3628967    4.3628967   -3815.7285     -1849.26    -2791.604   -6806.3214   -2050.8726    482.26041    1218.1545    83.047162 
   86300    140.04573   -110.87431   0.12671632    -110.7476    2760.9462    4.3646283    4.3646283    4.3646283    2760.9462    17284.833   -9669.4243     667.4304    1961.7683   -401.69042   -95.466524    83.146085 
   86400    240.04133   -110.96403   0.21719444   -110.74684    -1652.137    4.3645602    4.3645602    4.3645602    -1652.137    2691.8146   -1816.1745   -5832.0511   -3.1306574    -885.3337    343.08699     83.14219 
   86500     178.8471   -110.90949   0.16182461   -110.74766    -346.8067    4.3619899    4.3619899    4.3619899    -346.8067    12902.548   -12154.094   -1788.8739    1021.2378    1242.7012     1724.989     82.99539 
   86600    223.52424   -110.94981   0.20224943   -110.74756   -3385.7678    4.3661932    4.3661932    4.3661932   -3385.7678    2721.0911   -4871.3428   -8007.0517   -498.96986   -1021.2881   -33.540216    83.235549 
   86700    187.14908   -110.91729   0.16933642   -110.74795    2450.4542    4.3628756    4.3628756    4.3628756    2450.4542     15014.98   -7178.6905    -484.9265   -548.78654    1215.8186   -1251.4484    83.045959 
   86800    232.87566   -110.95902   0.21071079   -110.74831   -3659.5098    4.3630157    4.3630157    4.3630157   -3659.5098   -403.76012   -6768.1824    -3806.587    1482.0465    524.80229    2636.5307    83.053957 
   86900    144.86874   -110.87995   0.13108028   -110.74887    1034.7434    4.3660419    4.3660419    4.3660419    1034.7434     14667.37   -8568.8848   -2994.2551   -2013.0175    153.81204   -1617.8651    83.226897 
   87000    264.36846   -110.98696   0.23920614   -110.74775   -3635.4791    4.3622896    4.3622896    4.3622896   -3635.4791   -1537.4722   -10224.244     855.2785    2035.1997   -1346.5989    2238.5294    83.012495 
   87100    136.12151   -110.87157    0.1231656   -110.74841    1360.7217       4.3637       4.3637       4.3637    1360.7217    15305.608   -9127.6552   -2095.7877    -3099.856    566.20118    396.89631    83.093041 
   87200    245.68006   -110.96928   0.22229648   -110.74698   -3422.8146    4.3663212    4.3663212    4.3663212   -3422.8146    214.17654    -11370.92    888.29963    2501.1208   -737.13449    100.54067    83.242867 
   87300    188.67147   -110.91755   0.17071391   -110.74684    3493.9224    4.3610862    4.3610862    4.3610862    3493.9224     13364.91   -3248.1682    365.02545   -2188.7546    2080.1843   -177.66492    82.943814 
   87400    171.91947   -110.90256   0.15555635   -110.74701    202.41639    4.3651499    4.3651499    4.3651499    202.41639    7569.7786   -9873.3107    2910.7813    903.06477    -907.2866   -312.66935    83.175893 
   87500    253.35989   -110.97541   0.22924536   -110.74616   -3232.4139    4.3652843    4.3652843    4.3652843   -3232.4139    4292.1936    -9019.716   -4969.7193   -2169.9541    2624.4576    183.88252     83.18358 
   87600    133.04418   -110.86784   0.12038117   -110.74745    6103.4216    4.3613946    4.3613946    4.3613946    6103.4216    19952.535   -9099.8743    7457.6042   -1267.4201    -764.8812   -88.992889    82.961412 
   87700    244.97568   -110.96935   0.22165914   -110.74769   -4508.4352    4.3653737    4.3653737    4.3653737   -4508.4352    4459.0124   -13262.243   -4722.0751    135.26941    1981.7752    572.99862    83.188687 
   87800    212.96321   -110.94061   0.19269359   -110.74792   -14.294125    4.3642975    4.3642975    4.3642975   -14.294125    7977.3545   -7551.0596   -469.17721    -2142.776   -2130.6618   -1762.7656    83.127177 
   87900    171.41699   -110.90354   0.15510169   -110.74844    3409.9953    4.3620206    4.3620206    4.3620206    3409.9953     18781.99   -8268.0277   -283.97685    1164.3852    1224.1435    1363.3217     82.99714 
   88000    211.97596   -110.94102    0.1918003   -110.74922   -3935.1839    4.3654186    4.3654186    4.3654186   -3935.1839    4208.8588   -6422.8641   -9591.5464   -1376.8856   -1204.7275    -1499.722    83.191259 
   88100    209.22685   -110.93842   0.18931285   -110.74911   -696.63363    4.3638688    4.3638688    4.3638688   -696.63363     8551.173   -9269.1911   -1371.8828    2055.6649    3586.3277   -393.79899    83.102684 
   88200    165.79011   -110.89862   0.15001038   -110.74861    560.60877    4.3626548    4.3626548    4.3626548    560.60877      14782.1   -8303.3985   -4796.8747   -997.34623   -1772.9814    1346.3917    83.033348 
   88300    216.28647   -110.94356   0.19570054   -110.74786    -5378.204    4.3658124    4.3658124    4.3658124    -5378.204    1994.4168   -10616.893    -7512.136    1009.1046    2434.5822   -2634.8785    83.213773 
   88400    213.44832   -110.94076   0.19313253   -110.74763    787.20542    4.3634275    4.3634275    4.3634275    787.20542    14477.312   -8218.2631   -3897.4325   -1606.1416   -1578.9457    895.53756    83.077476 
   88500    187.05692   -110.91758   0.16925303   -110.74833   -470.39482    4.3627032    4.3627032    4.3627032   -470.39482    8052.9896   -4186.6051   -5277.5689    1420.7811    419.38304   -369.63876    83.036111 
   88600    214.70926   -110.94207   0.19427345    -110.7478   -4454.6147    4.3663734    4.3663734    4.3663734   -4454.6147    8527.8717   -12816.962   -9074.7538    1221.7866   -870.06213   -97.932987    83.245853 
   88700    185.48556   -110.91528   0.16783123   -110.74745     2552.669    4.3623434    4.3623434    4.3623434     2552.669    12900.303   -4530.7106   -711.58576   -268.71057   -656.58548   -207.69117    83.015568 
   88800    184.48335   -110.91432   0.16692442   -110.74739   -1600.6239    4.3634277    4.3634277    4.3634277   -1600.6239     11871.13    -11345.34   -5327.6612    2462.4649    537.11602   -150.34111    83.077487 
   88900     238.9755   -110.96302   0.21623005   -110.74679   -3729.7377    4.3670012    4.3670012    4.3670012   -3729.7377    7396.9271   -11214.267   -7371.8732   -1532.9102    -258.2201   -476.57806     83.28177 
   89000    153.75198   -110.88598   0.13911803   -110.74686    7454.6102    4.3602716    4.3602716    4.3602716    7454.6102    21406.039   -2484.3014    3442.0923    1693.3038    1497.8192   -1528.2963    82.897348 
   89100    284.63576   -111.00425   0.25754442    -110.7467   -7049.5962     4.365726     4.365726     4.365726   -7049.5962    59.247698   -11047.716    -10160.32   -1739.4839   -1115.2027    1473.8815    83.208834 
   89200    89.925302   -110.82983  0.081366303   -110.74847    7026.5217    4.3648761    4.3648761    4.3648761    7026.5217    23773.941    -8135.976    5441.6006    3398.6446    283.08484   -1342.8391    83.160243 
   89300    275.53809   -110.99703   0.24931265   -110.74772   -1091.5437    4.3605084    4.3605084    4.3605084   -1091.5437    4863.6672   -4059.0573   -4079.2409   -677.28641    -1620.275    1085.6923    82.910854 
   89400    168.01442   -110.90048   0.15202298   -110.74846   -957.38054    4.3669394    4.3669394    4.3669394   -957.38054    12733.856   -16525.184    919.18653    1042.0691    479.79856   -175.25422    83.278231 
   89500    196.80633   -110.92601   0.17807451   -110.74794    2302.8099    4.3628412    4.3628412    4.3628412    2302.8099    10797.882   -1159.3557   -2730.0962   -640.94738   -144.56877   -1250.3236    83.043993 
   89600     233.1903   -110.95885   0.21099548   -110.74785    347.09673    4.3625441    4.3625441    4.3625441    347.09673    11922.274   -10766.156   -114.82824    275.23464    1125.7465    1500.1261     83.02703 
   89700    198.36361   -110.92802   0.17948356   -110.74853   -1747.7976     4.365778     4.365778     4.365778   -1747.7976    2657.6318   -6779.3466   -1121.6781    414.43202   -202.80733   -1571.8396    83.211806 
   89800    151.96633   -110.88694   0.13750233   -110.74944    4175.6209     4.362392     4.362392     4.362392    4175.6209    23073.792   -8695.9727   -1850.9567   -2585.6619    2332.6578     1145.522    83.018345 
   89900    253.17668    -110.9785   0.22907958   -110.74942   -2628.8285    4.3636117    4.3636117    4.3636117   -2628.8285    2067.0735   -11645.714    1692.1552    1054.1264   -1018.9762   -983.28923    83.087996 
   90000    130.67216   -110.86793   0.11823491   -110.74969    2357.1761    4.3648543    4.3648543    4.3648543    2357.1761    22266.072   -10809.723   -4384.8199   -3164.4691    359.31141   -180.50543    83.159001 
   90100    279.79821   -111.00135    0.2531673   -110.74818   -2114.2334    4.3632233    4.3632233    4.3632233   -2114.2334    1165.9214   -8913.9669    1405.3454    1467.0813   -964.21875   -218.80697    83.065815 
   90200    147.40857   -110.88176   0.13337837   -110.74838    4052.4074    4.3633123    4.3633123    4.3633123    4052.4074    22560.848   -9545.7888   -857.83721   -2157.8842    1463.6299     159.5768    83.070899 
   90300    223.08711   -110.94929   0.20185391   -110.74744     -3476.32    4.3651966    4.3651966    4.3651966     -3476.32    4504.7293   -10094.556   -4839.1337     988.6573    -349.8501    637.09067    83.178565 
   90400     194.6704   -110.92374   0.17614187    -110.7476    1292.1015    4.3633525    4.3633525    4.3633525    1292.1015    14722.868   -10270.803   -575.76018   -1156.4019    2308.4134   -2093.3231    83.073189 
   90500    203.02443    -110.9313   0.18370077    -110.7476   -2707.5265    4.3631302    4.3631302    4.3631302   -2707.5265    5029.4785   -8165.3592    -4986.699    706.35407   -1815.8051    2458.2824    83.060495 
   90600    163.29187   -110.89543   0.14774992   -110.74768   -1167.2261    4.3665218    4.3665218    4.3665218   -1167.2261    15863.122   -14138.489   -5226.3112    295.83997      2274.53   -3088.2899    83.254345 
   90700    276.38433   -110.99672   0.25007835   -110.74664    -2330.811    4.3619755    4.3619755    4.3619755    -2330.811    1140.1012   -4179.0679   -3953.4662   -405.31046   -422.42884    739.21021    82.994566 
   90800     105.7313   -110.84367  0.095667901     -110.748    1807.7499    4.3640001    4.3640001    4.3640001    1807.7499    20814.329   -13651.311   -1739.7684    1609.3937   -355.16065    956.87706    83.110189 
   90900    307.67119   -111.02553   0.27838736   -110.74714   -9971.6371    4.3672234    4.3672234    4.3672234   -9971.6371   -6731.4847   -10532.331   -12651.096    -655.2038   -1395.4446   -1372.6481    83.294483 
   91000    106.69127   -110.84522  0.096536506   -110.74868    6832.7991    4.3597028    4.3597028    4.3597028    6832.7991    23944.574   -7781.3225     4335.146    3238.2993    2023.6102    2065.7433    82.864908 
   91100    232.32484   -110.95834    0.2102124   -110.74813   -7555.2673    4.3668705    4.3668705    4.3668705   -7555.2673    3535.9232   -12942.199   -13259.526   -139.48437   -510.08674   -1780.5579    83.274293 
   91200    182.23509   -110.91275   0.16489014   -110.74786    1053.5209    4.3646966    4.3646966    4.3646966    1053.5209     9703.054    -7129.372    586.88068    313.68796    1813.3421    882.27423    83.149989 
   91300    241.82871   -110.96585    0.2188117   -110.74704   -407.43438    4.3605339    4.3605339    4.3605339   -407.43438    9548.2228   -6879.8401   -3890.6858     158.4835    678.89953   -1133.5182     82.91231 
   91400    152.11039   -110.88535   0.13763268   -110.74772   -2192.5285    4.3684026    4.3684026    4.3684026   -2192.5285    11239.164   -11741.602   -6075.1475    348.89465   -144.71424   -163.30411    83.361972 
   91500    254.24802   -110.97656   0.23004895   -110.74651    -619.7169    4.3615416    4.3615416    4.3615416    -619.7169    4679.6919   -7034.1154    495.27282    502.29362    1542.5491    51.693242    82.969802 
   91600    155.68314   -110.88844   0.14086538   -110.74758    2679.3089    4.3632079    4.3632079    4.3632079    2679.3089    19774.114   -8896.7032   -2839.4844   -988.83176   -1302.1389   -460.42056    83.064936 
   91700    206.20462   -110.93385   0.18657827   -110.74727   -3482.1142    4.3671119    4.3671119    4.3671119   -3482.1142   -955.01554   -9972.0795    480.75239    1290.2504    1102.1673    144.49021    83.288102 
   91800    219.29312   -110.94544   0.19842102   -110.74702    3880.3425    4.3605495    4.3605495    4.3605495    3880.3425     19924.36   -5609.9517   -2673.3809   -2138.2598   -397.26098    165.22466    82.913198 
   91900    177.15157   -110.90776   0.16029047   -110.74747    1018.4973    4.3654623    4.3654623    4.3654623    1018.4973    4747.5206   -6362.4563    4670.4276    1171.1562    1583.7431    1894.1909    83.193756 
   92000    233.94472   -110.95818    0.2116781   -110.74651   -3103.7161    4.3647532    4.3647532    4.3647532   -3103.7161    9112.2407   -11177.252   -7246.1366   -676.87787    283.55072   -1944.6605    83.153218 
   92100    164.86755   -110.89553   0.14917562   -110.74635    5708.1718    4.3621356    4.3621356    4.3621356    5708.1718    14634.242   -3762.9956    6253.2687    669.93062    1571.5011     1089.028    83.003708 
   92200    221.66981    -110.9468   0.20057151   -110.74623   -3570.0911    4.3656343    4.3656343    4.3656343   -3570.0911    1862.5216   -9100.0677    -3472.727   -744.55277   -811.75308   -455.79235    83.203588 
   92300    153.42197   -110.88568   0.13881942   -110.74686    2403.4262     4.363163     4.363163     4.363163    2403.4262    18720.378   -8475.8307   -3034.2685   -388.28886    301.27551   -1049.0376    83.062367 
   92400    256.68897   -110.97937   0.23225758   -110.74711   -1188.8747    4.3639277    4.3639277    4.3639277   -1188.8747    -1390.978   -2738.0027    562.35649    259.08108   -1622.1245    1421.5381    83.106047 
   92500    180.66193   -110.91211   0.16346671   -110.74864    -1205.472    4.3639703    4.3639703    4.3639703    -1205.472    16510.902   -12694.783   -7432.5346     439.0148    1076.5103    73.994534    83.108482 
   92600    184.40813   -110.91552   0.16685635   -110.74866    22.747537    4.3645248    4.3645248    4.3645248    22.747537    6279.0101   -5411.0361   -799.73144   -51.479954   -2790.3079    936.89633     83.14017 
   92700    218.15928   -110.94485    0.1973951   -110.74745   -383.28258    4.3632863    4.3632863    4.3632863   -383.28258    12509.444   -9490.5642   -4168.7278   -282.91263     2106.115   -1027.3688    83.069412 
   92800    171.32179   -110.90224   0.15501556   -110.74722   -1824.8017    4.3641569    4.3641569    4.3641569   -1824.8017    8022.9322   -9259.6582   -4237.6792    512.79425   -2034.0411    1461.1449    83.119142 
   92900    216.44038   -110.94248    0.1958398   -110.74664   -708.73965    4.3654738    4.3654738    4.3654738   -708.73965    11117.287   -5985.9195   -7257.5866   -1191.2541     2122.903   -1019.9875    83.194412 
   93000    229.56427   -110.95414   0.20771457   -110.74642    1475.3942    4.3616453    4.3616453    4.3616453    1475.3942    11856.575    -7472.245    41.852909    231.49785   -2194.7678     696.4808    82.975723 
   93100    133.84073   -110.86861    0.1211019   -110.74751    1306.2698     4.365251     4.365251     4.365251    1306.2698    16335.556   -6883.1913   -5533.5551   -36.169086   -383.30105    1299.3112    83.181672 
   93200    290.94719   -111.00968   0.26325513   -110.74642   -4818.6045    4.3653411    4.3653411    4.3653411   -4818.6045   -2191.9367   -10993.225   -1270.6523   -257.24458   -1081.5148   -1978.0756    83.186826 
   93300      114.639    -110.8513   0.10372778   -110.74757    7297.4762    4.3603757    4.3603757    4.3603757    7297.4762    24751.682   -4785.4967    1926.2435   -275.77931   -110.65031     2071.356    82.903283 
   93400    246.62998    -110.9707   0.22315599   -110.74755   -6542.7757    4.3676553    4.3676553    4.3676553   -6542.7757   -1596.2521   -10701.817   -7330.2576    1594.3868     143.7376   -1811.1716    83.319196 
   93500    200.78212   -110.92975   0.18167188   -110.74807    3415.3359    4.3626297    4.3626297    4.3626297    3415.3359    13756.273   -8076.7596    4566.4949    -114.3548   -237.48335    1728.3264    83.031916 
   93600    183.58121   -110.91519   0.16610814   -110.74908    2891.3348    4.3610297    4.3610297    4.3610297    2891.3348    10780.626   -622.56228   -1484.0596   -143.76684    1928.9128   -570.88468    82.940591 
   93700    224.71563   -110.95202   0.20332742    -110.7487    -6302.247    4.3691719    4.3691719    4.3691719    -6302.247   -2310.1247   -17611.009    1014.3931     785.5953    119.43062   -1373.5834     83.40602 
   93800    198.87229   -110.92772   0.17994383   -110.74777    4933.4051    4.3596437    4.3596437    4.3596437    4933.4051    17972.394     -1387.54   -1784.6392     55.50866    1923.1801    811.43433    82.861539 
   93900    164.44002   -110.89653   0.14878878   -110.74774    958.59115    4.3646648    4.3646648    4.3646648    958.59115    9840.4921   -11978.591    5013.8724    1510.4336   -1753.8517   -2062.7831    83.148169 
   94000    251.06087   -110.97391   0.22716515   -110.74674   -5934.2209    4.3672955    4.3672955    4.3672955   -5934.2209    1370.5216   -11953.569   -7219.6156   -288.83821    975.91984    954.52984    83.298605 
   94100     161.0274   -110.89275   0.14570098   -110.74704    8905.8528    4.3588634    4.3588634    4.3588634    8905.8528    22320.549   -2156.3441    6553.3536   -429.01058   -742.72639   -1773.1952    82.817054 
   94200     228.6474   -110.95406   0.20688498   -110.74718   -4727.3402    4.3677481    4.3677481    4.3677481   -4727.3402     3636.234   -14596.462    -3221.793     368.9854     1748.431    896.21841    83.324505 
   94300    188.54411   -110.91753   0.17059867   -110.74694    578.32034    4.3633691    4.3633691    4.3633691    578.32034    16578.427   -9176.1961   -5667.2698    407.45135    319.75327   -2277.6717    83.074138 
   94400    192.69412   -110.92101   0.17435369   -110.74666    4515.1875    4.3617271    4.3617271    4.3617271    4515.1875    16395.695   -6390.5226    3540.3903    630.36972    1189.2473   -1380.3752    82.980388 
   94500    240.10578   -110.96436   0.21725275   -110.74711    -7452.234    4.3673455    4.3673455    4.3673455    -7452.234     3776.975   -14925.578   -11208.099      424.159    696.64947    625.02484    83.301467 
   94600    124.71981   -110.86106   0.11284911   -110.74821     6125.549    4.3615401    4.3615401    4.3615401     6125.549    20933.076   -1409.9137   -1146.5149     148.9138   -876.82649    -3685.998    82.969718 
   94700    279.01616   -110.99953   0.25245968   -110.74707   -3412.3117    4.3649547    4.3649547    4.3649547   -3412.3117    6003.4727   -11663.849   -4576.5592    -1938.259    269.83825    1707.7088    83.164736 
   94800    151.26769   -110.88453   0.13687018   -110.74766   -1831.2834    4.3644696    4.3644696    4.3644696   -1831.2834    11198.027   -7218.5932   -9473.2843    297.16797   -1094.4212   -3234.8724    83.137014 
   94900    205.55734   -110.93291   0.18599261   -110.74692    -254.8128    4.3635962    4.3635962    4.3635962    -254.8128    12257.078   -10851.384   -2170.1328   -34.198166   -635.79169   -574.60527     83.08711 
   95000    249.30587   -110.97247   0.22557719    -110.7469   -5153.8738    4.3649069    4.3649069    4.3649069   -5153.8738    3533.0478    -10206.77   -8787.8989   -206.58283    736.32084    217.81494    83.162007 
   95100    105.96514   -110.84486  0.095879484   -110.74898    1264.2082    4.3632628    4.3632628    4.3632628    1264.2082    16139.321   -8739.9848   -3606.7116   -503.63481    2027.8856   -2955.4408     83.06807 
   95200    261.59436   -110.98574   0.23669607   -110.74904   -2752.5204    4.3651248    4.3651248    4.3651248   -2752.5204    8059.8342   -8555.9955      -7761.4     1348.032   -850.76839    1584.7653     83.17446 
   95300     216.1872   -110.94542   0.19561073   -110.74981   -1956.0922    4.3623168    4.3623168    4.3623168   -1956.0922    3976.3834    -6259.551    -3585.109   -824.26418   -407.63758   -3957.3694    83.014051 
   95400    141.22237   -110.87719   0.12778097   -110.74941   -435.88369    4.3657382    4.3657382    4.3657382   -435.88369    20885.935   -12860.036   -9333.5508    141.65243   -785.24883   -606.31479    83.209528 
   95500    268.67509   -110.99006   0.24310287   -110.74696   -1981.7448    4.3635055    4.3635055    4.3635055   -1981.7448     2701.953   -7745.7402   -901.44712   -267.58354   -1003.5436   -656.21744    83.081929 
   95600    121.47042    -110.8578   0.10990899   -110.74789    2801.8138    4.3626565    4.3626565    4.3626565    2801.8138    20860.514   -9337.2466    -3117.826   -821.88028   -162.52068   -1875.2866    83.033443 
   95700    249.65833    -110.9742   0.22589611    -110.7483   -5190.1489    4.3665906    4.3665906    4.3665906   -5190.1489    1478.6169   -10983.621   -6065.4428    796.01459   -2126.0394    587.65596    83.258278 
   95800    191.47522   -110.92174    0.1732508   -110.74849    4513.8189    4.3616728    4.3616728    4.3616728    4513.8189    14426.537   -5318.9645    4433.8843    874.44337    2536.2002   -2421.5035    82.977288 
   95900    168.12776   -110.90066   0.15212553   -110.74853   -336.09528    4.3641014    4.3641014    4.3641014   -336.09528    14019.687   -9873.3972   -5154.5756   -27.716589    290.25681    362.06578    83.115975 
   96000    230.28234   -110.95587    0.2083643   -110.74751   -3308.5726     4.366531     4.366531     4.366531   -3308.5726   -1906.5913   -11831.408     3812.282   -157.03019    2007.0399   -2193.7227    83.254872 
   96100    205.00917   -110.93228   0.18549661   -110.74678    4005.1015    4.3605966    4.3605966    4.3605966    4005.1015    16677.176    -4613.843   -48.028555   -291.44491   -2368.4731   -192.18368    82.915885 
   96200    148.95389   -110.88296   0.13477661   -110.74818    -60.06133    4.3656161    4.3656161    4.3656161    -60.06133    12627.479    -13199.53    391.86735    596.27205    1589.3556    -454.4011    83.202547 
   96300    241.91936   -110.96683   0.21889372   -110.74793    -1485.812    4.3651525    4.3651525    4.3651525    -1485.812    790.24909   -6985.6523    1737.9673    743.17453   -1684.3995   -2687.4847    83.176042 
   96400    196.43621   -110.92622   0.17773961   -110.74848    5623.4369     4.359956     4.359956     4.359956    5623.4369    19873.372   -5208.4334    2205.3724   -271.71784    793.41316    1637.4658    82.879344 
   96500    188.57049   -110.91942   0.17062254    -110.7488    -2222.309    4.3676421    4.3676421    4.3676421    -2222.309    525.20794    -12299.13    5106.9953   -1067.5445   -1465.9858   -2847.2914    83.318439 
   96600    207.99878   -110.93555   0.18820167   -110.74735    2866.8565    4.3625065    4.3625065    4.3625065    2866.8565     19396.36   -6584.9664   -4210.8244   -91.591415    2080.1449    1573.0831    83.024882 
   96700    197.01473   -110.92536   0.17826307    -110.7471    3174.9922    4.3620863    4.3620863    4.3620863    3174.9922    9677.7073   -10499.865    10347.134   -257.84255    486.37935   -772.92096    83.000892 
   96800    207.78387   -110.93549   0.18800722   -110.74749   -4703.1357    4.3678482    4.3678482    4.3678482   -4703.1357    2737.8858   -10360.037   -6487.2564    141.47392    1108.6523   -962.85113    83.330236 
   96900    194.72724   -110.92375    0.1761933   -110.74756    4858.5719    4.3604212    4.3604212    4.3604212    4858.5719    14826.608   -6191.8496    5940.9572    207.10099   -492.22464    1687.0892    82.905881 
   97000    212.65639   -110.93972   0.19241597   -110.74731   -1025.3384    4.3655815    4.3655815    4.3655815   -1025.3384    5378.2267   -7856.1646   -598.07733   -1492.0703   -1854.9003   -3535.2682    83.200572 
   97100    178.86232    -110.9089   0.16183838   -110.74706   -2712.8415    4.3652617    4.3652617    4.3652617   -2712.8415    8889.3978   -8993.8101   -8034.1121    269.36921   -9.1886221    2889.7922    83.182288 
   97200    210.00431   -110.93645   0.19001631   -110.74644    2017.3897    4.3615582    4.3615582    4.3615582    2017.3897    10291.808   -8268.0456    4028.4069   -249.27266   -1292.3539   -2037.6652    82.970751 
   97300     224.1568   -110.94943   0.20282178   -110.74661   -5288.5105    4.3666511    4.3666511    4.3666511   -5288.5105    535.80471   -7802.3456   -8598.9905    142.60112    1014.0733    1055.9224    83.261736 
   97400    118.57603   -110.85507   0.10729009   -110.74778    2414.4459    4.3629144    4.3629144    4.3629144    2414.4459    20500.384   -12171.553    -1085.494    30.215011   -1550.7719   -465.07553    83.048173 
   97500    286.39717   -111.00643   0.25913818   -110.74729   -2713.5951    4.3641303    4.3641303    4.3641303   -2713.5951    475.13091   -2894.8201   -5721.0961   -14.432692    1381.4558    -682.1034    83.117627 
   97600     152.7271   -110.88697   0.13819069   -110.74878    139.99512    4.3641347    4.3641347    4.3641347    139.99512    14273.749   -10219.649   -3634.1153    42.879811   -279.79091    1441.2488    83.117878 
   97700    229.49094   -110.95583   0.20764823   -110.74818   -2715.6025     4.364341     4.364341     4.364341   -2715.6025    8188.6942   -8631.5228   -7703.9788    346.15791    152.42612   -2336.8795    83.129664 
   97800    176.37527   -110.90688   0.15958805    -110.7473     3216.069    4.3636407    4.3636407    4.3636407     3216.069    13080.203   -5877.4105    2445.4148    229.36338   -2187.5942    3122.7525    83.089655 
   97900    178.49515   -110.90866   0.16150616   -110.74716   -1568.1328    4.3640311    4.3640311    4.3640311   -1568.1328    14863.877    -13192.69    -6375.585   -684.21356    -487.5301   -2391.3506     83.11196 
   98000    238.22573   -110.96288   0.21555165   -110.74733   -1888.4712    4.3650548    4.3650548    4.3650548   -1888.4712   -787.46484   -4495.8068   -382.14208    305.81606    -1567.211    782.64891    83.170461 
   98100     196.7699   -110.92597   0.17804154   -110.74793    2180.9557    4.3621625    4.3621625    4.3621625    2180.9557    14393.321   -6777.7075   -1072.7468   -452.50227    2062.1983    1034.6445     83.00524 
   98200    180.74813   -110.91181    0.1635447   -110.74826   -1907.0104    4.3656355    4.3656355    4.3656355   -1907.0104    6263.1961   -8805.9893   -3178.2379    -385.6573   -1325.1493   -1444.0956    83.203657 
   98300    208.18545   -110.93552   0.18837057   -110.74715    135.79325    4.3640116    4.3640116    4.3640116    135.79325    4128.1301    -6652.519    2931.7686    687.51393    1974.3191    1775.7189    83.110844 
   98400    199.96851    -110.9276   0.18093571   -110.74666    745.91438    4.3625043    4.3625043    4.3625043    745.91438    11446.514   -9359.4033    150.63236   -1060.9389   -445.01575   -1582.2421    83.024756 
   98500    184.51168   -110.91426   0.16695005   -110.74731    -1627.466    4.3660905    4.3660905    4.3660905    -1627.466    1660.2351   -8030.2922     1487.659   -83.148725    2543.4843     824.0675    83.229673 
   98600    238.98099   -110.96358   0.21623502   -110.74735    573.52561    4.3623932    4.3623932    4.3623932    573.52561    12594.285   -8451.3923   -2422.3155     1014.929   -2620.5581   -855.24727    83.018411 
   98700    148.90425   -110.88334    0.1347317    -110.7486    4031.2273    4.3641229    4.3641229    4.3641229    4031.2273    14690.715   -5173.5059    2576.4727    92.782701    3034.0895    70.868366    83.117204 
   98800    272.04078   -110.99416   0.24614822   -110.74801   -5095.9081    4.3648587    4.3648587    4.3648587   -5095.9081   -1704.8439   -9431.8993    -4150.981   -1123.9578   -2376.4251    1226.5026    83.159252 
   98900    144.20563    -110.8785   0.13048028   -110.74802     6158.927    4.3627684    4.3627684    4.3627684     6158.927    22879.192   -6184.0094    1781.5983     95.92744    3311.4326   -261.28824    83.039835 
   99000    237.83642   -110.96235   0.21519939   -110.74715   -2576.6041    4.3644408    4.3644408    4.3644408   -2576.6041    1372.7103   -7681.7869   -1420.7357   -1056.7951    689.06205    840.90215    83.135365 
   99100    147.85954    -110.8818   0.13378642   -110.74801    1540.5405    4.3644221    4.3644221    4.3644221    1540.5405    20570.987   -9941.6642   -6007.7016   -111.50908    2620.7393   -713.52111    83.134298 
   99200    220.05985    -110.9473   0.19911478   -110.74818    1195.9327    4.3624786    4.3624786    4.3624786    1195.9327    1963.1165   -3035.0663    4659.7479     811.5409    88.151178    946.51897    83.023285 
   99300    246.63693   -110.97153   0.22316228   -110.74837   -5178.3055    4.3651904    4.3651904    4.3651904   -5178.3055      4059.74   -9443.0182   -10151.638   -730.80545   -859.45788   -1940.7912    83.178208 
   99400    123.66541   -110.86038   0.11189506   -110.74849    2561.1728     4.364544     4.364544     4.364544    2561.1728    12742.066   -8510.0337    3451.4866   -657.94934    1763.3779    911.09377    83.141264 
   99500    251.10969   -110.97397   0.22720932   -110.74676   -1931.1827    4.3625282    4.3625282    4.3625282   -1931.1827    5705.7594   -3102.0279   -8397.2795   -588.31246   -4292.3047    626.27099     83.02612 
   99600    176.28372   -110.90657   0.15950522   -110.74706   -2795.8409     4.365545     4.365545     4.365545   -2795.8409    3326.0363   -12305.084    591.52555   -310.58659     3471.777   -747.59873    83.198481 
   99700    177.08365   -110.90753   0.16022901    -110.7473    532.02182    4.3639538    4.3639538    4.3639538    532.02182    11604.488   -2655.6377   -7352.7845   -132.89692   -4669.7088    1579.2582    83.107538 
   99800    255.82466   -110.97851   0.23147552   -110.74704   -667.08618    4.3627055    4.3627055    4.3627055   -667.08618    5674.0475   -7998.7222    323.41611    463.12915    4236.8626   -601.88336    83.036246 
   99900    120.96847   -110.85746   0.10945481   -110.74801    2107.6841    4.3656247    4.3656247    4.3656247    2107.6841    16687.386   -7325.4081   -3038.9257   -378.48697   -4145.9398    936.62907    83.203038 
  100000    280.71243   -111.00038   0.25399451   -110.74639    -2978.288    4.3634217    4.3634217    4.3634217    -2978.288    820.59322    -5722.506   -4032.9512    -290.3208    2950.2088   -2059.1627    83.077145 
Loop time of 21.9169 on 1 procs for 100000 steps with 8 atoms

Pair  time (%) = 6.66034 (30.3891)
Kspce time (%) = 5.39951 (24.6363)
Neigh time (%) = 0 (0)
Comm  time (%) = 1.09372 (4.99033)
Outpt time (%) = 0.0385103 (0.175711)
Other time (%) = 8.72481 (39.8086)

Nlocal:    8 ave 8 max 8 min
Histogram: 1 0 0 0 0 0 0 0 0 0
Nghost:    2189 ave 2189 max 2189 min
Histogram: 1 0 0 0 0 0 0 0 0 0
Neighs:    2056 ave 2056 max 2056 min
Histogram: 1 0 0 0 0 0 0 0 0 0

Total # of neighbors = 2056
Ave neighs/atom = 257
Neighbor list builds = 0
Dangerous builds = 0
unfix 20
unfix 21
print "seeds:5349051"
seeds:5349051
