LAMMPS (10 Feb 2015)
# ---- initialize simulations
clear
units metal
dimension 3
boundary p p p
atom_style charge
atom_modify map array
# ---- create atoms
read_data /Users/eugeneragasa/pyflamestk_git/pypospack/tests/tests_integration/workflow/WorkflowLammpsThermalExpansion/param_785/MgO_NaCl_unit.npt.T300/lammps.structure
  triclinic box = (0 0 0) to (4.2565 4.2565 4.2565) with tilt (0 0 0)
  1 by 1 by 1 MPI processor grid
  reading atoms ...
  8 atoms
# ---- define interatomic potential
include potential.mod
mass 1 24.305
mass 2 15.999

group Mg type 1
4 atoms in group Mg
group O type 2
4 atoms in group O

set group Mg charge 1.62294375895
  4 settings made for charge
set group O charge -1.62294375895
  4 settings made for charge

variable R_cut equal 10.0

pair_style buck/coul/long ${R_cut}
pair_style buck/coul/long 10
pair_coeff 1 1 0.0 0.5 0.0 ${R_cut}
pair_coeff 1 1 0.0 0.5 0.0 10
pair_coeff 1 2 1315.47688947 0.28024601768 0.0 ${R_cut}
pair_coeff 1 2 1315.47688947 0.28024601768 0.0 10
pair_coeff 2 2 7992.27283476 0.124296175577 7.5002562575 ${R_cut}
pair_coeff 2 2 7992.27283476 0.124296175577 7.5002562575 10

kspace_style pppm 1.0e-5

neighbor 1.0 bin
neigh_modify every 1 delay 0 check yes
# ---- define settings
compute eng all pe/atom
compute eatoms all reduce sum c_eng
# ---- run minimization
reset_timestep 0
fix 1 all box/relax iso 0.0 vmax 0.001
thermo 10
thermo_style custom step pe lx ly lz xy xz yz press pxx pyy pzz pxy pxz pyz c_eatoms
min_style cg
minimize 1e-25 1e-25 5000 10000
PPPM initialization ...
  G vector (1/distance) = 0.352546
  grid = 8 8 8
  stencil order = 5
  estimated absolute RMS force accuracy = 3.83063e-05
  estimated relative force accuracy = 2.66022e-06
  using double precision FFTs
  3d grid and FFT values/proc = 3375 512
Neighbor list info ...
  1 neighbor list requests
  update every 1 steps, delay 0 steps, check yes
  master list distance cutoff = 11
Memory usage per processor = 4.06549 Mbytes
Step PotEng Lx Ly Lz Xy Xz Yz Press Pxx Pyy Pzz Pxy Pxz Pyz eatoms 
       0   -108.88461       4.2565       4.2565       4.2565            0            0            0   -30879.056   -30879.056   -30879.056   -30879.056 -2.5133272e-10 -7.2643252e-11 5.7873381e-11   -108.88461 
      10   -108.89911    4.2290577    4.2290577    4.2290577            0            0            0   0.26053131   0.26053131   0.26053131   0.26053131 3.8284322e-11 -1.3873734e-12 -2.9889769e-10   -108.89911 
      12   -108.89911    4.2290577    4.2290577    4.2290577            0            0            0   0.25210742   0.25210742   0.25210742   0.25210742 1.3658055e-10 -3.2077679e-12 -1.3269119e-10   -108.89911 
Loop time of 0.00812888 on 1 procs for 12 steps with 8 atoms

Minimization stats:
  Stopping criterion = linesearch alpha is zero
  Energy initial, next-to-last, final = 
        -108.884606122     -108.899110632     -108.899110632
  Force two-norm initial, final = 4.45895 5.1421e-05
  Force max component initial, final = 4.45895 3.59365e-05
  Final line search alpha, max atom move = 0.5 1.79683e-05
  Iterations, force evaluations = 12 23

Pair  time (%) = 0.00230432 (28.3473)
Kspce time (%) = 0.00137782 (16.9497)
Neigh time (%) = 0 (0)
Comm  time (%) = 0.000259876 (3.19695)
Outpt time (%) = 1.3113e-05 (0.161314)
Other time (%) = 0.00417376 (51.3448)

Nlocal:    8 ave 8 max 8 min
Histogram: 1 0 0 0 0 0 0 0 0 0
Nghost:    2189 ave 2189 max 2189 min
Histogram: 1 0 0 0 0 0 0 0 0 0
Neighs:    2344 ave 2344 max 2344 min
Histogram: 1 0 0 0 0 0 0 0 0 0

Total # of neighbors = 2344
Ave neighs/atom = 293
Neighbor list builds = 0
Dangerous builds = 0
unfix 1
# ---- define output variables ----
variable natoms equal "count(all)"
variable tot_energy equal "c_eatoms"
variable length_x equal "lx"
variable length_y equal "ly"
variable length_z equal "lz"
variable tilt_xy equal "xy"
variable tilt_xz equal "xz"
variable tilt_yz equal "yz"
variable tot_press equal "press"
variable press_xx equal "pxx"
variable press_yy equal "pyy"
variable press_zz equal "pzz"
variable press_xy equal "pxy"
variable press_xz equal "pxz"
variable press_yz equal "pyz"

# ---- output ----
print "pypospack:output_section:begin"
pypospack:output_section:begin
print "tot_energy = ${tot_energy}"
tot_energy = -108.899110631848
print "num_atoms = ${natoms}"
num_atoms = 8
print "xx = ${length_x}"
xx = 4.22905766787052
print "yy = ${length_y}"
yy = 4.22905766787052
print "zz = ${length_z}"
zz = 4.22905766787052
print "xy = ${tilt_xy}"
xy = 0
print "xz = ${tilt_xz}"
xz = 0
print "yz = ${tilt_yz}"
yz = 0
print "tot_press = ${tot_press}"
tot_press = 0.252107417895481
print "pxx = ${press_xx}"
pxx = 0.252107418292273
print "pyy = ${press_yy}"
pyy = 0.252107418323333
print "pzz = ${press_zz}"
pzz = 0.252107417070837
print "pxy = ${press_xy}"
pxy = 1.36580554666579e-10
print "pxz = ${press_xz}"
pxz = -3.20776791999541e-12
print "pyz = ${press_yz}"
pyz = -1.32691186845421e-10
print "pypospack:output_section:done"
pypospack:output_section:done
print "pypospack:lammps_sim:done"
pypospack:lammps_sim:done
#------------------------------------------------------------------------------
# RUN THERMOSTAT
# running using an NPT Nose-Hoover style thermostat
#------------------------------------------------------------------------------
variable tempdamp equal 0.1
variable pressdamp equal 1.0
# set initial velocities
velocity all create 300 250968 mom yes dist gaussian loop all
# fix for Nose-Hoover style thermostat
fix 20 all npt temp 300 300 0.1 aniso 0.0 0.0 1.0 drag 1.0 couple xyz
variable boxx equal lx
variable boxy equal ly
variable boxz equal lz
variable boxp equal press
variable boxt equal temp
# calculate averages every 10000 steps
reset_timestep 0
fix 21 all ave/time 10 10 100 v_boxx v_boxy v_boxz v_boxp v_boxt file lattice.out
thermo_style custom step temp pe ke etotal press lx ly lz press pxx pyy pzz pxy pxz pyz vol
thermo_modify flush yes
thermo 100
run 100000
PPPM initialization ...
  G vector (1/distance) = 0.352817
  grid = 8 8 8
  stencil order = 5
  estimated absolute RMS force accuracy = 3.78369e-05
  estimated relative force accuracy = 2.62763e-06
  using double precision FFTs
  3d grid and FFT values/proc = 3375 512
Memory usage per processor = 3.06549 Mbytes
Step Temp PotEng KinEng TotEng Press Lx Ly Lz Press Pxx Pyy Pzz Pxy Pxz Pyz Volume 
       0          300   -108.89911    0.2714463   -108.62766    3833.8466    4.2290577    4.2290577    4.2290577    3833.8466    1743.7755    3739.2792    6018.4851    19.971141   -1929.7741    2249.3999    75.636395 
     100    123.84575   -108.70093   0.11205823   -108.58887   -3836.2434    4.2428457    4.2428457    4.2428457   -3836.2434   -8724.9879   -4919.1218    2135.3795    1959.6905    928.45133   -150.27434    76.378603 
     200    237.21935    -108.7298   0.21464105   -108.51516    1218.3667    4.2357815    4.2357815    4.2357815    1218.3667   -6204.8579    3207.4909    6652.4671    3418.6188   -274.77541    -998.5171    75.997735 
     300    217.26472    -108.6492   0.19658568   -108.45261    5749.9776    4.2425778    4.2425778    4.2425778    5749.9776   -6488.1906    8581.4422    15156.681   -2351.0175    1069.8539   -3120.4615    76.364138 
     400    240.27995   -108.62034   0.21741034   -108.40293    -146.5718     4.239488     4.239488     4.239488    -146.5718   -3660.4216    6651.4734   -3430.7672    1464.8188    803.30661   -1157.9075    76.197415 
     500    217.10687   -108.56675   0.19644286   -108.37031   -11120.102    4.2474251    4.2474251    4.2474251   -11120.102   -14668.906   -10575.576   -8115.8239    5489.0863    997.79893     1412.718    76.626183 
     600    308.40731   -108.63363   0.27905342   -108.35458    8728.4314    4.2389709    4.2389709    4.2389709    8728.4314   -1884.6163     5538.372    22531.539   -780.75651    2123.3919    71.015098    76.169538 
     700    339.91345   -108.65952   0.30756083   -108.35196   -5581.9059    4.2454145    4.2454145    4.2454145   -5581.9059   -10829.442   -4678.2979   -1237.9778    2959.9368   -1638.6931     1386.853    76.517415 
     800    130.69904   -108.47276   0.11825924    -108.3545    996.42623    4.2447579    4.2447579    4.2447579    996.42623   -16382.792    5597.0108     13775.06    6195.1292    1476.2522   -1737.2834     76.48192 
     900    439.94252   -108.75019   0.39806924   -108.35212    970.39551    4.2404989    4.2404989    4.2404989    970.39551    -7109.872    6290.2167    3730.8418    599.71213   -2677.7458   -491.13918    76.251937 
    1000     327.1264   -108.65039   0.29599084    -108.3544    2238.1947    4.2450291    4.2450291    4.2450291    2238.1947   -12777.295     5293.401    14198.478   -215.01369    1290.6273   -1710.7534    76.496578 
    1100    321.33022   -108.64824   0.29074633   -108.35749   -5088.5799    4.2434794    4.2434794    4.2434794   -5088.5799   -14322.882   -11968.486    11025.628    6844.2116    1169.7264    3198.4492    76.412832 
    1200    395.35093   -108.71464   0.35772183   -108.35691     67.38296    4.2417713    4.2417713    4.2417713     67.38296   -9490.8233    2416.1879    7276.7843   -262.27803    327.10283   -1879.3725    76.320597 
    1300    295.18439   -108.62383   0.26708904   -108.35674   -255.25628    4.2443268    4.2443268    4.2443268   -255.25628   -10144.098    5302.6992    4075.6301    622.35001    163.50654    -2272.879    76.458617 
    1400    195.55128   -108.53359   0.17693891   -108.35666   -4645.7276    4.2455977    4.2455977    4.2455977   -4645.7276   -18923.884    5890.2129   -903.51174     6809.938    532.72705   -1510.8654    76.527322 
    1500    254.57854   -108.58439   0.23034801   -108.35404    8536.2266    4.2397358    4.2397358    4.2397358    8536.2266   -1902.2228    16490.609    11020.293   -268.50621    590.78418    246.08879    76.210776 
    1600    340.15434   -108.66164   0.30777879   -108.35386   -7561.7075    4.2473451    4.2473451    4.2473451   -7561.7075   -15800.904   -3964.2015   -2920.0166    583.06223   -1515.4202     4159.938    76.621853 
    1700    230.89733   -108.56503   0.20892076   -108.35611   -3681.1918    4.2410765    4.2410765    4.2410765   -3681.1918   -9530.5871    2934.5753   -4447.5636    5622.6418    1004.9955     -372.531    76.283096 
    1800     301.0626   -108.62853   0.27240777   -108.35612   -97.991719    4.2455485    4.2455485    4.2455485   -97.991719   -14869.651   -3579.4744     18155.15    2543.4507    282.70166    917.86809    76.524665 
    1900    349.16455   -108.67024   0.31593142    -108.3543    6874.3154    4.2414248    4.2414248    4.2414248    6874.3154   -6949.6786    19226.028    8346.5972   -931.07251     1538.445   -3656.3839    76.301896 
    2000    246.98072   -108.57946   0.22347335   -108.35599   -1815.0904       4.2457       4.2457       4.2457   -1815.0904   -20565.174    4319.8501    10800.053    6889.2764    1315.8652   -2440.2566    76.532854 
    2100    394.92233   -108.71255   0.35733402   -108.35521    -504.0014    4.2412423    4.2412423    4.2412423    -504.0014    -7356.653    3390.2375    2454.4113    2018.1971   -535.64601    199.07581    76.292045 
    2200    374.89972   -108.69539   0.33921715   -108.35617   -1804.0644    4.2449895    4.2449895    4.2449895   -1804.0644   -11669.106   -1053.3095    7310.2223   -1821.0106   -1440.0336    3957.2008    76.494436 
    2300    309.18685   -108.63695   0.27975876   -108.35719   -6082.2723    4.2443196    4.2443196    4.2443196   -6082.2723   -15998.049   -8890.0146     6641.247    6286.9109    1916.5528   -662.13582    76.458231 
    2400    228.00353   -108.56257   0.20630239   -108.35626     4495.976    4.2417758    4.2417758    4.2417758     4495.976    -7560.024    9799.0404    11248.911    1179.1732   -599.07006    -922.5331    76.320839 
    2500    284.19797   -108.61139    0.2571483   -108.35424   -2687.4319    4.2447001    4.2447001    4.2447001   -2687.4319   -8704.7349    9306.4121    -8663.973    135.68601     164.1706    556.96056    76.478797 
    2600    241.13074    -108.5733   0.21818016   -108.35512   -5254.0037    4.2437364    4.2437364    4.2437364   -5254.0037   -13395.871    6895.7845   -9261.9244     5420.623    2830.7647     280.1408    76.426716 
    2700    216.80738   -108.55259   0.19617187   -108.35642    3674.8715    4.2422598    4.2422598    4.2422598    3674.8715   -4625.3684   -2255.2772     17905.26    4911.4886   -491.92766    1451.7337    76.346964 
    2800    410.51616    -108.7265   0.37144365   -108.35505   -3603.1645    4.2446083    4.2446083    4.2446083   -3603.1645    -9264.853   -889.87259   -654.76777   -1938.6746    329.83146   -2476.7612    76.473832 
    2900    254.77008   -108.58643   0.23052132   -108.35591    1931.7204    4.2430092    4.2430092    4.2430092    1931.7204   -8688.5741    560.42268    13923.313    3059.0798   -142.54143    2370.2623    76.387435 
    3000    336.51034   -108.65979   0.30448163   -108.35531    526.85762    4.2437623    4.2437623    4.2437623    526.85762    -9272.937    7981.5967    2871.9132    2490.5078     228.9869   -1528.6314    76.428116 
    3100    317.95609   -108.64185   0.28769336   -108.35416    10136.418    4.2429617    4.2429617    4.2429617    10136.418   -5586.1529    12369.299    23626.109   -3143.9266    -74.21785    2073.0305     76.38487 
    3200    382.14724    -108.7007   0.34577485   -108.35492   -1221.9811    4.2438473    4.2438473    4.2438473   -1221.9811   -10234.961    2059.4724    4509.5451     3997.704    2142.8965    1297.7049    76.432708 
    3300    240.22662   -108.57316   0.21736209    -108.3558    3578.6903     4.243428     4.243428     4.243428    3578.6903   -8479.3574   -1182.9812     20398.41    4032.9449   -610.39443    2413.8066    76.410052 
    3400    393.91299   -108.70991   0.35642075   -108.35349   -4797.1312    4.2435881    4.2435881    4.2435881   -4797.1312   -6248.5879   -4960.4698    -3182.336    110.03371   -2390.4533   -847.30021    76.418702 
    3500    253.05807   -108.58342   0.22897226   -108.35445    231.37201    4.2441777    4.2441777    4.2441777    231.37201   -4146.6111    7047.1671     -2206.44    1785.9187    1721.4155   -3847.9584    76.450561 
    3600    203.38605   -108.53867   0.18402798   -108.35464    2722.7577     4.243991     4.243991     4.243991    2722.7577   -10490.181    5340.2967    13318.158    4288.2172     1999.927    472.34861     76.44047 
    3700    264.87653   -108.59445   0.23966585   -108.35478    2585.3271    4.2416489    4.2416489    4.2416489    2585.3271    -2773.756    13664.544   -3134.8067   -2917.0141    740.38871    970.62825    76.313987 
    3800    308.68909   -108.63597   0.27930838   -108.35666   -4417.7483    4.2453093    4.2453093    4.2453093   -4417.7483   -10040.065   -2756.2065   -456.97303    874.47543    1798.9983    4684.2281    76.511731 
    3900    264.08699    -108.5962   0.23895146   -108.35724   -642.57995    4.2424066    4.2424066    4.2424066   -642.57995   -15155.587   -6030.7074    19258.555    5649.3556    695.25548    -2464.681     76.35489 
    4000    384.65359   -108.70328   0.34804265   -108.35524   -1614.0976    4.2427834    4.2427834    4.2427834   -1614.0976   -5108.9268   -1726.1146    1992.7487   -371.43047   -1380.6562    4063.5636    76.375241 
    4100    388.19402   -108.70561   0.35124611   -108.35437   -2846.2394    4.2461202    4.2461202    4.2461202   -2846.2394   -14956.307   -89.919071    6507.5075    1818.8432   -330.53454     -471.454     76.55558 
    4200    225.20513   -108.55927   0.20377033    -108.3555    2065.5483    4.2409752    4.2409752    4.2409752    2065.5483   -14081.236    7371.0469    12906.834    5743.2391   -805.33918    164.67703    76.277633 
    4300    371.75849    -108.6908   0.33637489   -108.35443   -4268.5179    4.2437349    4.2437349    4.2437349   -4268.5179   -11421.044    1657.0429   -3041.5524    576.57852    3105.8078     615.3811    76.426634 
    4400    283.09244   -108.61028   0.25614799   -108.35413    2088.7315    4.2456513    4.2456513    4.2456513    2088.7315   -11010.712    3612.1908    13664.716   -1124.2721    478.49096   -2017.3377    76.530223 
    4500    281.04675   -108.60866   0.25429701   -108.35436    -3917.499    4.2402326    4.2402326    4.2402326    -3917.499   -11842.544   -3578.0922    3668.1394    6763.5101    2962.2892      2880.46    76.237571 
    4600    228.06363   -108.56077   0.20635676   -108.35441   -1644.0543    4.2453648    4.2453648    4.2453648   -1644.0543   -10690.371    8033.9651   -2275.7571    741.42979    371.36817   -2628.0441     76.51473 
    4700    349.04631   -108.66849   0.31582443   -108.35266   -6077.2693    4.2461122    4.2461122    4.2461122   -6077.2693    -13590.83    3100.9959   -7741.9734    449.39897   -997.54902    2577.2854    76.555148 
    4800    162.53181    -108.5018    0.1470622   -108.35474    8010.2622    4.2380682    4.2380682    4.2380682    8010.2622   -12748.654    15844.283    20935.159    5984.3013     5197.825    2573.1081    76.120882 
    4900    333.39068   -108.65656    0.3016589    -108.3549   -7272.7409    4.2485174    4.2485174    4.2485174   -7272.7409   -20341.893   -429.11037   -1047.2199   -67.407402   -2950.1792    3714.2614    76.685312 
    5000    392.27494   -108.70875   0.35493861   -108.35381   -580.66463    4.2428221    4.2428221    4.2428221   -580.66463   -9534.4831   -1096.5693    8889.0585    74.921144    2393.1712   -2309.1345     76.37733 
    5100    307.06881   -108.63283   0.27784231   -108.35498    1274.2394    4.2407981    4.2407981    4.2407981    1274.2394   -14089.984    6595.5972    11317.105    4362.5575    3013.6532    -3077.317    76.268074 
    5200    403.96487   -108.72045    0.3655159   -108.35494   -8962.5211    4.2478667    4.2478667    4.2478667   -8962.5211   -17583.809   -4672.0895    -4631.665    3251.2873    681.47099   -550.63398    76.650082 
    5300    244.46647   -108.57696    0.2211984   -108.35576      9732.91     4.241599     4.241599     4.241599      9732.91   -7853.9781    16535.141    20517.567   -311.21157    1499.9036    1656.0744    76.311297 
    5400    312.63852   -108.63923    0.2828819   -108.35634   -2979.6023    4.2417185    4.2417185    4.2417185   -2979.6023   -12331.157    2551.7395    840.61107    6953.8793   -934.79257    3080.3218    76.317745 
    5500    183.70635   -108.52305   0.16622136   -108.35683   -2849.7329    4.2466582    4.2466582    4.2466582   -2849.7329    -14159.16   -1543.6801    7153.6417    1337.8783    1043.5434   -563.41294    76.584684 
    5600    375.99758   -108.69444   0.34021051   -108.35423   -2725.9976    4.2416198    4.2416198    4.2416198   -2725.9976   -3342.7834    750.43122   -5585.6406   -3817.4889   -1445.6864    2040.6491    76.312416 
    5700    225.78683   -108.55925   0.20429667   -108.35495    1376.0388    4.2438026    4.2438026    4.2438026    1376.0388   -14532.644    2217.0336    16443.727    4821.9583    1523.8953   -3554.1063    76.430293 
    5800    236.09854   -108.56882   0.21362692   -108.35519   -2629.8936    4.2442362    4.2442362    4.2442362   -2629.8936   -11804.904    4367.3911    -452.1676    2091.6687    774.42614     3751.864    76.453724 
    5900    361.28693   -108.68154   0.32690001   -108.35464   -717.41774    4.2435187    4.2435187    4.2435187   -717.41774   -13438.013    4885.8031    6399.9566   -535.99252   -1053.3949   -311.66438    76.414953 
    6000    263.72987    -108.5941   0.23862833   -108.35547     8289.203    4.2415511    4.2415511    4.2415511     8289.203   -5896.8654    8046.2602    22718.214    3887.1527    2160.1783    80.664364    76.308709 
    6100     430.6487   -108.74469      0.38966   -108.35503   -10006.348    4.2454894    4.2454894    4.2454894   -10006.348   -13247.771   -12315.543   -4455.7305     5013.061    79.511552   -2397.4371    76.521467 
    6200    297.94992   -108.62464   0.26959135   -108.35505    6268.4306    4.2432735    4.2432735    4.2432735    6268.4306   -8346.7764    8399.4934    18752.575   -3112.5705   -1203.5022   -1022.6134    76.401707 
    6300    396.06029   -108.71243   0.35836368   -108.35407   -3441.7821    4.2431675    4.2431675    4.2431675   -3441.7821   -7931.8847    796.37819   -3189.8397    410.49247    1276.6823    3583.0621    76.395983 
    6400    151.60924   -108.49326   0.13717923   -108.35608    3419.9817    4.2446854    4.2446854    4.2446854    3419.9817   -10831.705    12208.389    8883.2611     2649.164     364.3516    3030.8567    76.478001 
    6500    316.19194   -108.64079   0.28609711   -108.35469   -274.94296    4.2428645    4.2428645    4.2428645   -274.94296   -9340.4629     5828.122     2687.512   -2482.6211     219.2377    3053.8266    76.379617 
    6600    281.06342   -108.60909   0.25431209   -108.35478    122.94723    4.2435929    4.2435929    4.2435929    122.94723   -4265.8891    491.85831    4142.8724    2541.8513    -1362.659   -3418.1977    76.418962 
    6700    252.83048   -108.58353   0.22876633   -108.35477   -5267.0829    4.2446183    4.2446183    4.2446183   -5267.0829   -13281.713    3124.2588   -5643.7945    4227.4106    1339.3579   -921.29575    76.474373 
    6800    357.34639    -108.6777   0.32333453   -108.35436   -4615.4188      4.24398      4.24398      4.24398   -4615.4188   -11278.884   -1871.2372   -696.13536   -309.38969    726.71888   -2950.7514    76.439876 
    6900    215.63433   -108.55045   0.19511048   -108.35534     9888.472    4.2428748    4.2428748    4.2428748     9888.472   -7794.5004     17107.83    20352.087   -1066.3891   -425.61371      3625.44    76.380176 
    7000    349.66244   -108.67189   0.31638192   -108.35551   -3736.7222    4.2441253    4.2441253    4.2441253   -3736.7222   -12912.292   -1034.7926    2736.9176    4990.5121    3367.7717    2221.0601    76.447729 
    7100    300.97464   -108.62762   0.27232818   -108.35529    4672.5284      4.24237      4.24237      4.24237    4672.5284   -10002.914    1694.3095    22326.189     -2031.66   -2708.2178    267.64441    76.352915 
    7200    439.39955   -108.75144   0.39757794   -108.35386   -4831.8597    4.2448377    4.2448377    4.2448377   -4831.8597   -7372.5357   -3732.3537   -3390.6896   -208.50477    1110.7216   -793.01945    76.486234 
    7300    268.21467    -108.5976   0.24268627   -108.35491    293.11474    4.2429968    4.2429968    4.2429968    293.11474   -17211.911    1180.5151     16910.74    5856.5018   -905.45912   -2887.5084    76.386767 
    7400     273.3376   -108.60202    0.2473216    -108.3547    1341.5158    4.2436057    4.2436057    4.2436057    1341.5158   -9639.9925    767.22203    12897.318   -768.05977   -2404.6406    4318.1892    76.419654 
    7500     304.9168   -108.62999   0.27589513    -108.3541   -383.86909    4.2439748    4.2439748    4.2439748   -383.86909   -12561.448    4352.9727    7056.8679   -866.68178    951.09465    -2122.723    76.439596 
    7600    161.60863    -108.5016   0.14622688   -108.35537    147.10699    4.2427459    4.2427459    4.2427459    147.10699   -10520.187    10564.676    396.83194    4817.2193   -750.98102    1105.3732    76.373213 
    7700    385.71666   -108.70389   0.34900454   -108.35488   -10199.685    4.2445421    4.2445421    4.2445421   -10199.685   -14197.156    -8858.179   -7543.7207    1516.1718    4428.6547   -1945.3411    76.470252 
    7800    235.52483   -108.56813   0.21310781   -108.35502    4864.3339    4.2440094    4.2440094    4.2440094    4864.3339   -10840.088    6835.5159    18597.574    -1752.563   -3944.6188   -158.16935    76.441466 
    7900    348.95074   -108.67049   0.31573796   -108.35476   -7679.9256    4.2436517    4.2436517    4.2436517   -7679.9256   -17224.604   -5607.8868   -207.28578    6784.3665    1498.3699    1597.3974    76.422142 
    8000    254.59742   -108.58641    0.2303651   -108.35605    2256.8182    4.2446445    4.2446445    4.2446445    2256.8182   -12893.983    10124.658    9539.7796    329.17665    1271.0141      3561.13    76.475788 
    8100     354.7815   -108.67602   0.32101375     -108.355    823.80387    4.2430968    4.2430968    4.2430968    823.80387   -12386.793    11490.972    3367.2323   -3488.7001   -1697.4679    3599.2321    76.392165 
    8200    326.49597   -108.65074   0.29542042   -108.35532   -2578.6377    4.2435663    4.2435663    4.2435663   -2578.6377   -14414.902    3639.0849    3039.9042    3568.1647    3832.1643   -3972.3301    76.417526 
    8300    331.05842   -108.65443   0.29954861   -108.35488   -3744.5041    4.2457397    4.2457397    4.2457397   -3744.5041   -15510.688   -4270.0008    8547.1765    719.99991    -1508.343   -1004.6869    76.534999 
    8400    354.62537   -108.67524   0.32087249   -108.35437   -2649.9386    4.2422563    4.2422563    4.2422563   -2649.9386   -11028.754   -3799.5912    6878.5292   -2236.9006    991.82606   -1012.3851    76.346777 
    8500    169.14621     -108.509   0.15304705   -108.35595    1569.5063    4.2445386    4.2445386    4.2445386    1569.5063   -15649.695    15283.101    5075.1133    3785.1577    1444.7842    2758.0613    76.470066 
    8600    288.54149   -108.61606    0.2610784   -108.35498   -1388.3844    4.2446119    4.2446119    4.2446119   -1388.3844   -10046.989    7132.2571   -1250.4212    4983.5484    482.97355   -1034.7255    76.474029 
    8700    229.28795   -108.56205   0.20746455   -108.35458    7553.6424    4.2416385    4.2416385    4.2416385    7553.6424    -10132.94    12430.302    20363.566   -4152.8013    1017.0243    1517.7841    76.313429 
    8800    350.65815    -108.6717   0.31728287   -108.35441   -7846.6054    4.2447513    4.2447513    4.2447513   -7846.6054   -13001.799   -2773.9236   -7764.0938    1941.4787   -82.956023    1599.2892     76.48156 
    8900    306.89929   -108.63226   0.27768893   -108.35457   -2562.5609    4.2455377    4.2455377    4.2455377   -2562.5609   -14015.975   -7345.9776     13674.27    1080.4738    1830.6438   -706.12434     76.52408 
    9000    342.39753   -108.66362   0.30980848   -108.35382    5913.3121    4.2404114    4.2404114    4.2404114    5913.3121   -7186.7505    8320.7133    16605.973   -3950.6748   -579.70612    1974.9468    76.247216 
    9100     346.2633   -108.66799   0.31330631   -108.35468     -2791.05    4.2458873    4.2458873    4.2458873     -2791.05   -17256.615    4357.2963    4526.1689    1851.2819   -3773.3889   -2590.1635    76.542984 
    9200    215.17621   -108.54982   0.19469595   -108.35512    5414.3919    4.2444335    4.2444335    4.2444335    5414.3919   -6357.2658    8360.9234    14239.518    2356.8757    1455.9381    818.55208    76.464383 
    9300    418.40092   -108.73208   0.37857795   -108.35351   -4125.8162    4.2415459    4.2415459    4.2415459   -4125.8162   -11957.068   -696.80018    276.41918   -714.91809   -66.092433    -3306.664    76.308428 
    9400    214.41192   -108.54957   0.19400441   -108.35557    622.58435    4.2454898    4.2454898    4.2454898    622.58435   -11535.411    3202.3274    10200.837   -77.082574   -651.33373   -148.37559    76.521486 
    9500    321.30905   -108.64592   0.29072719   -108.35519   -5424.2962    4.2460745    4.2460745    4.2460745   -5424.2962   -8639.2745   -9706.7522    2073.1381    4339.5946    1394.5258     2790.269    76.553108 
    9600    254.25528   -108.58482   0.23005552   -108.35477    8046.2517    4.2400975    4.2400975    4.2400975    8046.2517   -7147.6506    16472.494    14813.912   -3796.5956   -2471.5754     3983.426    76.230282 
    9700    252.88925   -108.58439   0.22881951   -108.35557   -2404.9003    4.2461032    4.2461032    4.2461032   -2404.9003   -6943.6615    14640.081    -14911.12   -2055.1345    989.42053   -86.074785     76.55466 
    9800    289.79159   -108.61777   0.26220952   -108.35556    -947.4114    4.2450193    4.2450193    4.2450193    -947.4114   -8676.8857    7416.9049   -1582.2534    3132.1914    -2507.342   -5695.2838    76.496047 
    9900    337.66656   -108.66028    0.3055278   -108.35475    6043.9042    4.2408989    4.2408989    4.2408989    6043.9042   -8839.2692    9193.5975    17777.384   -1349.6158   -67.249468    509.91488    76.273516 
   10000     375.8964   -108.69507   0.34011897   -108.35495   -3093.8895    4.2458574    4.2458574    4.2458574   -3093.8895   -7393.6389   -9603.2196    7715.1898    315.10924   -807.77732    509.79347    76.541369 
   10100    273.07556   -108.60279    0.2470845   -108.35571    46.870711    4.2457865    4.2457865    4.2457865    46.870711   -13103.282    1698.2969    11545.597    3413.0908    2024.1878    1378.8457    76.537533 
   10200     359.6411   -108.67991   0.32541083    -108.3545    4311.1559    4.2395782    4.2395782    4.2395782    4311.1559   -5540.0116    13184.155    5289.3247    1082.8288    2661.4041   -1260.1724    76.202275 
   10300     225.3022    -108.5593   0.20385816   -108.35544    4969.4037    4.2459669    4.2459669    4.2459669    4969.4037   -9815.3976    12133.326    12590.283   -2189.7231   -3869.8438    1006.2908    76.547286 
   10400    301.34961   -108.62717   0.27266746   -108.35451   -3590.7544    4.2452503    4.2452503    4.2452503   -3590.7544   -12639.923   -3063.1407    4930.8005    3586.9443    1440.8833   -1579.7533     76.50854 
   10500    292.77187    -108.6188   0.26490614   -108.35389    3178.9622    4.2400949    4.2400949    4.2400949    3178.9622   -8209.2447   -3983.9662    21730.098    386.21004   -2643.6119   -846.16263    76.230141 
   10600    305.13163   -108.63044   0.27608951   -108.35435   -4398.1912    4.2469818    4.2469818    4.2469818   -4398.1912   -5729.3239    275.08284   -7740.3325   -3055.2957   -706.17613    4696.9655     76.60219 
   10700    325.06288   -108.64907   0.29412372   -108.35494   -3698.1531    4.2436098    4.2436098    4.2436098   -3698.1531   -15391.644    3727.1987    569.98605    3166.5918   -1534.4239   -380.42063    76.419878 
   10800    220.86867   -108.55563   0.19984661   -108.35578    8810.8703    4.2424023    4.2424023    4.2424023    8810.8703   -5812.5651    16842.436     15402.74    3571.6654   -119.93855   -3328.8627    76.354661 
   10900     359.6255   -108.67988   0.32539671   -108.35448   -3340.4039     4.245277     4.245277     4.245277   -3340.4039   -13704.175    2545.5963    1137.3671    -2060.162    1780.2106   -6572.7948    76.509979 
   11000    249.66581   -108.58091   0.22590287   -108.35501   -1994.1986    4.2453577    4.2453577    4.2453577   -1994.1986   -17962.281    -4026.696    16006.382    3805.4798   -1014.4036    670.27653    76.514347 
   11100    380.95868   -108.69879   0.34469942   -108.35409   -2700.7314    4.2421664    4.2421664    4.2421664   -2700.7314   -6566.4749   -5442.0569    3906.3377    3957.1293    3310.2636    2252.5048    76.341926 
   11200    332.60446   -108.65511    0.3009475   -108.35416   -3746.8953    4.2464429    4.2464429    4.2464429   -3746.8953   -15672.368    24.335579    4407.3461   -4473.8893   -5002.7051    2604.0007    76.573039 
   11300    263.33418   -108.59307    0.2382703    -108.3548   -1901.4339    4.2428552    4.2428552    4.2428552   -1901.4339   -12394.887    1350.3055    5340.2799    2481.0454     -1486.34   -239.15845    76.379119 
   11400    253.63058   -108.58505   0.22949028   -108.35556    951.31394    4.2434888    4.2434888    4.2434888    951.31394   -12924.225    5535.3929    10242.773   -215.37187    1227.8472   -5092.3941    76.413339 
   11500     264.8495   -108.59499   0.23964139   -108.35535   -206.75716     4.245746     4.245746     4.245746   -206.75716   -13876.035    12336.966    918.79756    -1895.205   -3021.0915   -3821.3107    76.535339 
   11600     296.0023   -108.62276    0.2678291   -108.35493    380.23899     4.242321     4.242321     4.242321    380.23899   -11831.472   -899.25593    13871.445   -474.29304    1297.6558   -2533.8446     76.35027 
   11700    332.63025   -108.65558   0.30097084   -108.35461   -3111.9784    4.2458825    4.2458825    4.2458825   -3111.9784   -12896.845    540.41897    3020.4907    1929.8793    1236.5712    3838.1255    76.542721 
   11800     366.4772    -108.6861   0.33159627    -108.3545   -3515.2767    4.2432024    4.2432024    4.2432024   -3515.2767   -10927.686   -4504.0535      4885.91   -1465.5442    2752.1288    1182.6741    76.397869 
   11900    271.74536   -108.60097   0.24588091   -108.35509    1898.9742    4.2424701    4.2424701    4.2424701    1898.9742   -15586.309    7711.3417     13571.89   -933.46908   -66.344038    80.858879    76.358322 
   12000     287.3842   -108.61495   0.26003126   -108.35491    733.01003    4.2459486    4.2459486    4.2459486    733.01003    -16291.64    5946.8294     12543.84    4958.3739   -1145.8004   -5080.3124    76.546298 
   12100    267.42851   -108.59624   0.24197494   -108.35427    4773.1314    4.2424191    4.2424191    4.2424191    4773.1314   -10882.555    7289.4876    17912.461   -5880.3766    392.68181   -853.93405    76.355568 
   12200     341.3682   -108.66306   0.30887712   -108.35418   -4179.2108    4.2433535    4.2433535    4.2433535   -4179.2108   -12604.808    -3701.093    3768.2689   -1263.7844   -2257.1294    2621.4047    76.406032 
   12300    325.63189   -108.64923   0.29463858    -108.3546   -6216.5372     4.245666     4.245666     4.245666   -6216.5372   -12181.307   -14622.653    8154.3486    2747.5375    1634.7643   -314.31911    76.531016 
   12400    276.68164   -108.60526   0.25034736   -108.35491    711.81567    4.2423274    4.2423274    4.2423274    711.81567   -7051.8437    6373.8769    2813.4138   -3932.7815   -42.763827   -440.62772    76.350616 
   12500      283.857   -108.61173   0.25683978   -108.35489    1402.3793    4.2436107    4.2436107    4.2436107    1402.3793    -14513.22     5173.704    13546.653   -913.41206   -2983.4627   -3876.4714    76.419926 
   12600    230.08503   -108.56349   0.20818577    -108.3553    1958.9045    4.2461782    4.2461782    4.2461782    1958.9045   -5632.3805    9298.9625    2210.1315    3085.9191    3757.0191   -2131.2568    76.558719 
   12700    312.23869   -108.63681   0.28252013   -108.35429   -1236.5155    4.2418019    4.2418019    4.2418019   -1236.5155   -6691.1803    6300.2412   -3318.6074    1102.2483   -1901.3393   -3402.7753    76.322248 
   12800    360.37614   -108.68038   0.32607591   -108.35431   -4672.3274    4.2449751    4.2449751    4.2449751   -4672.3274   -11120.101    1411.7658   -4308.6471   -1362.3705   -1172.5251    4429.4859    76.493662 
   12900    300.78515   -108.62684   0.27215672   -108.35468    1489.3799     4.244308     4.244308     4.244308    1489.3799   -2330.0055   -2518.3426    9316.4879    2674.9686   -1362.4707    2792.8179    76.457605 
   13000    319.87717   -108.64407   0.28943159   -108.35464    1032.0109    4.2426542    4.2426542    4.2426542    1032.0109    -14720.25    5503.3566    12312.926   -2799.5717   -1019.8302   -2976.7337    76.368262 
   13100    280.19276   -108.60895   0.25352429   -108.35542    2717.2521    4.2449982    4.2449982    4.2449982    2717.2521   -4011.6349     6957.383    5206.0082   -3295.1318    691.69812   -5070.0394    76.494907 
   13200     275.0777   -108.60402   0.24889609   -108.35513    4647.9738    4.2432342    4.2432342    4.2432342    4647.9738   -5115.0088    9091.7218    9967.2084    2545.7469   -3431.0324   -2909.2369    76.399586 
   13300    319.44616   -108.64341    0.2890416   -108.35437    107.26953    4.2435941    4.2435941    4.2435941    107.26953   -10537.444    12664.854   -1805.6016     99.81989    3061.7485    1883.8763     76.41903 
   13400    320.89027   -108.64472   0.29034826   -108.35437    1968.9023    4.2434747    4.2434747    4.2434747    1968.9023   -2636.9712   -7744.6046    16288.283   -1572.1821   -3986.6242   -681.18619    76.412576 
   13500    310.39467   -108.63554   0.28085162   -108.35469    825.01811    4.2437374    4.2437374    4.2437374    825.01811   -7590.9561    3142.9005    6923.1099    2970.1423    244.39263    2852.2579    76.426772 
   13600    287.80319   -108.61535   0.26041038   -108.35494    626.65194    4.2430992    4.2430992    4.2430992    626.65194   -11065.379    8129.8483    4815.4868     2940.577    1440.0313   -993.45922    76.392295 
   13700    244.78384   -108.57663   0.22148556   -108.35514    5425.8224    4.2443202    4.2443202    4.2443202    5425.8224   -4044.2526    14880.078    5441.6414   -3492.1926   -4778.0327    450.39411    76.458261 
   13800    315.00998   -108.63907   0.28502765   -108.35404    1710.1024    4.2441016    4.2441016    4.2441016    1710.1024   -12015.085    12910.589    4234.8035    509.96047    1861.9874   -2425.4464    76.446447 
   13900    329.42805    -108.6521   0.29807343   -108.35402   -978.66311    4.2407683    4.2407683    4.2407683   -978.66311   -10439.186   -3885.6464    11388.843    721.69268   -2536.9942   -808.62402    76.266469 
   14000    313.03646   -108.63813   0.28324197   -108.35489   -7421.4849    4.2478694    4.2478694    4.2478694   -7421.4849   -11443.766   -9407.2938   -1413.3954   -1761.5608   -492.04201    2172.6754     76.65023 
   14100    325.79178   -108.64921   0.29478325   -108.35443    2665.8074    4.2405946    4.2405946    4.2405946    2665.8074   -11153.901    10793.619    8357.7043    2088.3055    -2547.227   -3257.2895    76.257098 
   14200    264.73203   -108.59476    0.2395351   -108.35523    2356.2897    4.2438051    4.2438051    4.2438051    2356.2897   -9756.1323    10638.807    6186.1944    3352.7579   -1766.1221    -1898.469    76.430428 
   14300    267.46379   -108.59726   0.24200686   -108.35525    -3645.901    4.2467622    4.2467622    4.2467622    -3645.901    -11073.17    4665.4683    -4530.001   -2617.3166    1624.0772   -3720.3203     76.59031 
   14400    335.27795   -108.65708   0.30336653   -108.35371   -3280.6717    4.2410717    4.2410717    4.2410717   -3280.6717     -13490.3   -547.78052     4196.065    2661.6558   -4601.2771    4551.5164    76.282836 
   14500    296.60995   -108.62215   0.26837891   -108.35378    -3341.868    4.2437618    4.2437618    4.2437618    -3341.868   -6560.4974     1261.716   -4726.8227    3532.6044    1834.1254   -1294.5209    76.428087 
   14600    330.92645   -108.65356    0.2994292   -108.35413    -8699.577    4.2475376    4.2475376    4.2475376    -8699.577   -18622.337    459.13354   -7935.5277   -4436.4851   -3328.7724   -1819.7127    76.632272 
   14700    228.06005   -108.56117   0.20635353   -108.35481    8191.2074    4.2396266    4.2396266    4.2396266    8191.2074   -6485.8818     18769.27    12290.234   -788.58172   -2942.7729   -870.66723    76.204886 
   14800    327.63034   -108.65101   0.29644681   -108.35456   -3835.7771    4.2453531    4.2453531    4.2453531   -3835.7771   -17482.745    12823.058   -6847.6439    2172.0265    1594.3216   -3450.2491    76.514094 
   14900    263.78056   -108.59387   0.23867419    -108.3552   -3644.4041     4.245424     4.245424     4.245424   -3644.4041   -14312.948    4098.2167   -718.48055   -457.45772   -3482.6487   -704.84189    76.517928 
   15000    354.81146   -108.67566   0.32104086   -108.35462   -50.791493    4.2410293    4.2410293    4.2410293   -50.791493   -9076.6281     4375.966    4548.2876   -3961.0761    174.52087    -3499.684    76.280548 
   15100    392.90365   -108.71005   0.35550748   -108.35455   -1893.1637    4.2435849    4.2435849    4.2435849   -1893.1637   -10108.963     852.5507    3576.9213    4074.3394    3122.9256    3681.1118    76.418533 
   15200    194.64237   -108.53245   0.17611651   -108.35633    741.15261    4.2459367    4.2459367    4.2459367    741.15261   -6592.5567    2348.2417    6467.7728   -1085.4646   -190.21939   -2882.2424    76.545657 
   15300    308.38544    -108.6343   0.27903363   -108.35527    1385.6673    4.2415009    4.2415009    4.2415009    1385.6673   -12495.657    9768.0215    6884.6374   -2824.5113   -3477.1864    1599.2219    76.306003 
   15400    246.70524   -108.57778   0.22322408   -108.35456    6615.8051    4.2431354    4.2431354    4.2431354    6615.8051   -2362.1213     19257.16    2952.3768    1422.8276    -1237.745   -1449.6576    76.394252 
   15500    327.87764   -108.65129   0.29667058   -108.35462    -6720.533    4.2454245    4.2454245    4.2454245    -6720.533   -9075.5574   -13438.742    2352.7001   -1979.5007    535.88099   -181.77333    76.517958 
   15600    299.74417   -108.62603   0.27121482   -108.35482    2033.3015    4.2421318    4.2421318    4.2421318    2033.3015   -8572.4421    3418.2491    11254.097   -1202.8323   -2830.5776    150.79184    76.340058 
   15700    337.89395   -108.66055   0.30573355   -108.35482     4013.425    4.2425219    4.2425219    4.2425219     4013.425    1555.6987    12388.846   -1904.2691    390.23704   -796.48845   -4753.3155    76.361116 
   15800    290.77275   -108.61839    0.2630973    -108.3553   -841.69945     4.245645     4.245645     4.245645   -841.69945    -15067.92    10368.735    2174.0867    2626.4648    2224.1068    2004.3113    76.529879 
   15900    245.96581   -108.57855   0.22255504   -108.35599    6092.9943    4.2416204    4.2416204    4.2416204    6092.9943   -3939.0294    19904.807    2313.2056   -3139.3612   -1029.1471   -5151.3741    76.312448 
   16000    378.02433   -108.69691   0.34204436   -108.35486   -201.74672    4.2435953    4.2435953    4.2435953   -201.74672   -394.03245   -6577.6777    6366.4699    1926.7505   -922.50932     2736.446    76.419094 
   16100    317.53133   -108.64248   0.28730902   -108.35517   -5733.3328       4.2452       4.2452       4.2452   -5733.3328   -10583.854   -9811.5131    3195.3692    1697.7985   -911.88687   -2689.8884     76.50582 
   16200    283.02861   -108.61188   0.25609024   -108.35579   -567.86743    4.2416649    4.2416649    4.2416649   -567.86743    1875.2708    116.86868   -3695.7418   -2751.6512   -2311.2408    2246.1073     76.31485 
   16300     270.5326   -108.59963   0.24478358   -108.35485    993.66109    4.2452193    4.2452193    4.2452193    993.66109   -9517.7352    15144.904    -2646.185    34.443969   -743.45326   -281.76334     76.50686 
   16400    246.03523   -108.57694   0.22261785   -108.35432   -311.44493    4.2434606    4.2434606    4.2434606   -311.44493   -9024.9294    1442.7819    6647.8127    1131.1058    559.07275    -7001.858    76.411819 
   16500    269.31562   -108.59924   0.24368243   -108.35556   -899.55913    4.2433063    4.2433063    4.2433063   -899.55913   -3960.8061   -3289.3973     4551.526   -557.89133   -2856.0208    254.68928    76.403479 
   16600    290.81508   -108.61801    0.2631356   -108.35487      1524.34    4.2452247    4.2452247    4.2452247      1524.34   -12954.194    3801.1954    13726.019   -1567.2587   -2125.9033   -2460.5869    76.507154 
   16700    410.59742   -108.72524   0.37151718   -108.35372   -2865.4326    4.2407036    4.2407036    4.2407036   -2865.4326   -6493.1648   -4496.0779    2392.9449    4678.4887    2894.6827     2988.136     76.26298 
   16800    271.57998   -108.60149   0.24573127   -108.35576    369.81245    4.2472517    4.2472517    4.2472517    369.81245   -14025.243    4372.6214    10762.059   -917.65518   -2700.7802   -1643.5644    76.616797 
   16900    352.11625   -108.67292   0.31860219   -108.35431    762.87054    4.2414897    4.2414897    4.2414897    762.87054   -12787.202    5259.1608    9816.6529    108.84501   -2723.5353    2935.5476    76.305394 
   17000    243.43088   -108.57476   0.22026138   -108.35449    5323.9426    4.2426151    4.2426151    4.2426151    5323.9426   -6168.2921    4112.0016    18028.118    2428.0956    37.627904   -3774.5195     76.36615 
   17100    336.73196   -108.66059   0.30468216    -108.3559   -5952.7195    4.2471852    4.2471852    4.2471852   -5952.7195    -16706.47   -7086.6678    5934.9787   -3078.9677   -2065.1809    -3529.364    76.613197 
   17200    237.93659   -108.57169   0.21529003    -108.3564    2352.9277    4.2390533    4.2390533    4.2390533    2352.9277   -7191.6262    9445.6205    4804.7887   -1251.0544   -6599.4161    1162.0664    76.173976 
   17300    313.91963   -108.63941   0.28404108   -108.35537   -4615.8428    4.2446961    4.2446961    4.2446961   -4615.8428   -10411.875   -15784.534     12348.88    1750.0702   -735.39808   -2094.2761    76.478581 
   17400    342.82292   -108.66478   0.31019338   -108.35458   -10626.709    4.2471687    4.2471687    4.2471687   -10626.709   -17556.885   -11055.377   -3267.8647   -459.28993    1444.3481     1143.535    76.612309 
   17500    147.46309   -108.48942    0.1334277   -108.35599    8896.8187    4.2366931    4.2366931    4.2366931    8896.8187   -4427.0577    15043.622    16073.892   -1867.6939     -5744.86   -2464.4486    76.046811 
   17600    377.16368   -108.69665   0.34126562   -108.35538   -6940.5232    4.2490027    4.2490027    4.2490027   -6940.5232   -22102.838    2067.2834   -786.01496    4673.4435    1324.8283    2406.8714    76.711598 
   17700    267.72079   -108.59761    0.2422394   -108.35537    4413.0734    4.2416996    4.2416996    4.2416996    4413.0734   -7546.9875    10402.325    10383.883    285.63287    -2938.953   -980.31652    76.316727 
   17800    384.08384   -108.70258   0.34752713   -108.35505   -4610.3457    4.2407587    4.2407587    4.2407587   -4610.3457   -14176.611   -2672.9168    3018.4903   -3828.7108   -2989.8685   -1838.4621    76.265951 
   17900    312.44637    -108.6375   0.28270804   -108.35479   -515.43788    4.2478727    4.2478727    4.2478727   -515.43788   -11589.902   -3861.7286    13905.317    584.41267   -2642.1485    2406.7437    76.650412 
   18000    384.04219   -108.70069   0.34748944    -108.3532    1234.7878    4.2405501    4.2405501    4.2405501    1234.7878   -1767.3168    -826.7966    6298.4768   -1182.0094    1421.4972   -2482.1974    76.254697 
   18100    207.11701   -108.54284   0.18740382   -108.35544    7501.9166    4.2431826    4.2431826    4.2431826    7501.9166    -13647.92    16863.959    19289.711   -1852.0016   -1678.6355   -2480.8193    76.396797 
   18200     263.6047   -108.59334   0.23851507   -108.35482   -989.99109    4.2463427    4.2463427    4.2463427   -989.99109   -3546.7165   -4253.6141    4830.3574    517.14998   -3176.5872   -2840.6088    76.567617 
   18300    312.30808   -108.63575   0.28258291   -108.35317    939.37421    4.2395815    4.2395815    4.2395815    939.37421   -5430.9649   -1425.2774     9674.365    817.72202    5369.2904    3099.5543    76.202454 
   18400    257.49253   -108.58732   0.23298465   -108.35434   -1096.8238    4.2461166    4.2461166    4.2461166   -1096.8238   -10151.866   -1008.0353    7869.4301   -2260.3622   -5194.8004    690.03802    76.555384 
   18500    301.72485   -108.62751   0.27300699    -108.3545   -1072.5779    4.2432768    4.2432768    4.2432768   -1072.5779   -1438.3553   -975.34737   -804.03098     1701.015    1873.3269    328.07539    76.401888 
   18600    309.11684   -108.63397   0.27969541   -108.35428    2429.1955    4.2420195    4.2420195    4.2420195    2429.1955   -13879.212    3908.5548    17258.243    773.73781    784.09849   -191.31019    76.333991 
   18700    330.92873   -108.65483   0.29943127   -108.35539   -4771.6494    4.2465904    4.2465904    4.2465904   -4771.6494   -8011.1679    872.14346   -7175.9238   -3992.8713   -2209.6512    787.72465    76.581016 
   18800    234.05488   -108.56732   0.21177778   -108.35554    6323.7073    4.2393171    4.2393171    4.2393171    6323.7073   -4112.4389    21009.133    2074.4281    1634.4121   -1140.4056   -783.76675    76.188198 
   18900    450.30084   -108.76094   0.40744167   -108.35349    -7806.532    4.2461255    4.2461255    4.2461255    -7806.532   -14189.514   -6485.6973   -2744.3843     3318.588   -2584.7535   -3854.6593    76.555866 
   19000    260.58084   -108.59015   0.23577902   -108.35437    4508.9194    4.2434115    4.2434115    4.2434115    4508.9194   -369.02739    10095.094    3800.6917   -3338.1711    2721.1966    1839.3534    76.409164 
   19100    324.46177   -108.64793   0.29357983   -108.35435   -4630.0844    4.2409618    4.2409618    4.2409618   -4630.0844   -11538.228   -5622.3744    3270.3491   -2702.1589   -3318.6301   -648.46178    76.276906 
   19200    274.87735   -108.60399    0.2487148   -108.35528   -2658.1979    4.2464239    4.2464239    4.2464239   -2658.1979   -9102.5213   -5229.7536    6357.6812    3570.1267    3460.9692     1876.022    76.572008 
   19300    229.05705   -108.56236   0.20725563   -108.35511    4940.4733    4.2417016    4.2417016    4.2417016    4940.4733   -4893.9538    15071.647    4643.7263   -1053.7679   -567.34031   -103.88205    76.316834 
   19400    281.97129   -108.61019   0.25513355   -108.35506   -1095.5488    4.2417841    4.2417841    4.2417841   -1095.5488   -13535.504    5928.2565    4320.6008   -741.26411   -3869.8046    2383.1255    76.321285 
   19500    221.93711   -108.55573   0.20081336   -108.35492    1937.0676    4.2461795    4.2461795    4.2461795    1937.0676   -7995.3881   -3772.0628    17578.654    3009.4202    2196.7886    2305.7041    76.558788 
   19600    426.30759   -108.73981   0.38573207   -108.35408   -4953.7818    4.2417069    4.2417069    4.2417069   -4953.7818   -12827.248   -8878.1562    6844.0585   -1558.0399   -3761.1805   -2993.7666    76.317118 
   19700    266.26981   -108.59738   0.24092652   -108.35646    1646.4809    4.2434028    4.2434028    4.2434028    1646.4809   -13289.932    7053.8095    11175.565   -2501.9933    -1738.228   -2296.7823    76.408692 
   19800    356.20791   -108.67836   0.32230441   -108.35606   -2795.7599    4.2439861    4.2439861    4.2439861   -2795.7599    -10530.61   -3.2945137    2146.6252    58.912717    207.91046   -2051.3046    76.440208 
   19900    352.42045   -108.67393   0.31887743   -108.35505   -166.32368    4.2444735    4.2444735    4.2444735   -166.32368   -12151.417    11339.504    312.94241   -2707.0753    3137.8338    2627.5372    76.466545 
   20000     289.7818   -108.61729   0.26220066   -108.35509   -754.53038    4.2425644    4.2425644    4.2425644   -754.53038   -10376.525   -1213.3322    9326.2661   -1430.8808   -4989.8581    839.47894    76.363415 
   20100    268.86333   -108.59804   0.24327319   -108.35477   -4913.4254    4.2440057    4.2440057    4.2440057   -4913.4254    -13857.19   -5945.5034    5062.4174    4229.6455   -1555.4509     4485.965    76.441266 
   20200    318.30564   -108.64218   0.28800964   -108.35417   -5262.8419    4.2461718    4.2461718    4.2461718   -5262.8419   -10134.719   -7281.2178     1627.411   -3057.5568    1433.0252       650.81     76.55837 
   20300    220.60891   -108.55488   0.19961157   -108.35526    4164.2552    4.2393044    4.2393044    4.2393044    4164.2552   -9825.5489    5553.6667    16764.648   -4268.8124   -4435.1885   -1742.9629    76.187513 
   20400    286.30543   -108.61413   0.25905517   -108.35507   -8018.0869    4.2454302    4.2454302    4.2454302   -8018.0869   -11992.084   -1095.8456   -10966.331    3030.2083    -787.7293   -431.70348    76.518263 
   20500    245.71527   -108.57696   0.22232834   -108.35463   -780.77164    4.2457145    4.2457145    4.2457145   -780.77164   -9181.3535   -9120.0751    15959.114   -3447.2274    295.04036   -281.33592    76.533641 
   20600    317.85493   -108.64126   0.28760182   -108.35365    5370.5827    4.2376377    4.2376377    4.2376377    5370.5827   -9762.4559    18859.618    7014.5862   -4394.4592   -1722.3757    1628.4349    76.097691 
   20700     316.3305   -108.64104   0.28622248   -108.35481   -174.28201    4.2470854    4.2470854    4.2470854   -174.28201    -5669.657   -8710.4164    13857.227    1633.0029   -2619.2976   -1678.8594    76.607798 
   20800    352.14246   -108.67397    0.3186259   -108.35534    938.73302    4.2438715    4.2438715    4.2438715    938.73302    -7719.925    2670.5764    7865.5476    801.20382    2713.3032    740.67966    76.434016 
   20900    413.55106   -108.72901   0.37418969   -108.35482    2093.3487    4.2383052    4.2383052    4.2383052    2093.3487   -2638.2683    1595.8456    7322.4688   -3262.1419   -909.19356   -238.00829    76.133654 
   21000    235.43861   -108.56872    0.2130298   -108.35569    1548.1153    4.2485524    4.2485524    4.2485524    1548.1153    -4284.018    -298.7333    9227.0973   -416.44028   -1684.4044    2328.4196    76.687207 
   21100    336.05415   -108.65765   0.30406886   -108.35358   -2297.8081    4.2421816    4.2421816    4.2421816   -2297.8081   -12022.979    5529.9774    -400.4229    784.77603   -976.01499    1285.8743    76.342743 
   21200    201.37074   -108.53695   0.18220448   -108.35475    8669.4618    4.2405369    4.2405369    4.2405369    8669.4618   -1084.4625    3641.9111    23450.937   -2506.3913   -103.69981    855.06047    76.253983 
   21300    303.97761      -108.63   0.27504533   -108.35496   -9948.7775    4.2479845    4.2479845    4.2479845   -9948.7775   -11305.581   -7392.6705    -11148.08    1613.2476   -2325.3981   -2198.8348    76.656464 
   21400    265.37454   -108.59484   0.24011646   -108.35472   -5506.1527    4.2406061    4.2406061    4.2406061   -5506.1527   -8280.3266   -8667.8851    429.75356    117.04574   -781.39746   -4212.2347    76.257717 
   21500    250.54945   -108.58176   0.22670241   -108.35505    1400.0081    4.2441986    4.2441986    4.2441986    1400.0081   -3611.3173    9563.0899   -1751.7484   -2732.3904    2033.7066    2813.5129     76.45169 
   21600    327.60327   -108.65085   0.29642232   -108.35443   -858.92003    4.2442309    4.2442309    4.2442309   -858.92003   -13084.939    6661.4661    3846.7126   -889.00375   -1329.8936    495.07626    76.453435 
   21700    283.48991   -108.61094   0.25650763   -108.35443    453.57423    4.2428924    4.2428924    4.2428924    453.57423   -6453.3898    6213.7811    1600.3313    699.32419   -538.27677    2886.7509    76.381124 
   21800    364.21134   -108.68351   0.32954608   -108.35397   -1585.3864    4.2441075    4.2441075    4.2441075   -1585.3864   -5662.6689   -3866.0197    4772.5292   -2529.9489    375.28078    754.83562    76.446768 
   21900    357.36557    -108.6776   0.32335188   -108.35424   -387.30797    4.2433239    4.2433239    4.2433239   -387.30797   -11785.685    5665.8284    4957.9325   -253.00565   -1980.8058   -153.07074    76.404432 
   22000    342.71486   -108.66463   0.31009561   -108.35453   -157.54294    4.2430482    4.2430482    4.2430482   -157.54294   -8213.0276    10081.054   -2340.6556    4173.9544    385.09868   -99.696803    76.389539 
   22100    266.62022   -108.59649   0.24124358   -108.35525    1605.5584    4.2447655    4.2447655    4.2447655    1605.5584   -12085.997    4257.0073    12645.665   -4028.1043    -166.1839   -1174.6931    76.482331 
   22200    284.20796   -108.61201   0.25715733   -108.35485    262.02219    4.2403504    4.2403504    4.2403504    262.02219   -11064.754    6017.1492    5833.6714   -2385.0561   -2663.2577    1449.5263    76.243925 
   22300    259.56879   -108.59011    0.2348633   -108.35525   -5592.6801    4.2470573    4.2470573    4.2470573   -5592.6801   -13642.636   -12834.999    9699.5943    1061.6165    1324.4878   -174.42045     76.60628 
   22400    220.82014   -108.55556   0.19980271   -108.35576    4451.9413    4.2406778    4.2406778    4.2406778    4451.9413   -8365.8671    14476.946    7244.7447    -2827.438     1820.132   -3225.9261    76.261583 
   22500    315.37845    -108.6406   0.28536105   -108.35523    -2526.103    4.2427881    4.2427881    4.2427881    -2526.103   -12105.872   -626.88915    5154.4523   -2377.7791    1007.2439    291.32593    76.375494 
   22600    297.49424   -108.62456   0.26917904   -108.35538   -3414.1775    4.2464842    4.2464842    4.2464842   -3414.1775   -10330.719     7064.559   -6976.3729    4505.7307    -1040.782    3107.0769    76.575268 
   22700    344.83433   -108.66712   0.31201335   -108.35511   -3916.8805    4.2423333    4.2423333    4.2423333   -3916.8805   -11168.493   -77.295834   -504.85289   -3167.7275    943.84924    1739.6406    76.350933 
   22800     303.5636   -108.62937   0.27467072    -108.3547    1688.7291    4.2429788    4.2429788    4.2429788    1688.7291   -9939.9678    3698.9797    11307.175   -6141.7276   -629.10763   -444.25127     76.38579 
   22900    379.09276   -108.69715    0.3430111   -108.35414   -4318.8069    4.2471761    4.2471761    4.2471761   -4318.8069   -17180.258    5482.2408   -1258.4038    3765.4386   -4857.1931   -5240.8052    76.612704 
   23000    274.23332   -108.60322   0.24813207   -108.35509    930.15712    4.2406276    4.2406276    4.2406276    930.15712   -9937.7971    5305.0693    7423.1992   -2913.5725    2759.3674   -2045.1769    76.258876 
   23100    259.31277   -108.58983   0.23463165    -108.3552   -3835.9965    4.2432903    4.2432903    4.2432903   -3835.9965   -14784.029    7465.8505   -4189.8112   -5724.0283   -90.067031    1520.4175    76.402614 
   23200    384.03764   -108.70141   0.34748533   -108.35393   -9383.1358    4.2468794    4.2468794    4.2468794   -9383.1358   -17230.639   -7783.8784     -3134.89    1580.4739    995.79588    917.25977    76.596651 
   23300    215.64628   -108.54979   0.19512128   -108.35467    3099.5767    4.2417096    4.2417096    4.2417096    3099.5767   -3370.3312     16362.53   -3693.4689   -1161.1689    1200.9761     2406.518    76.317266 
   23400    254.78804   -108.58574   0.23053757    -108.3552   -2712.2859     4.242063     4.242063     4.242063   -2712.2859   -15783.109    -7818.011    15464.262   -6696.3109   -1892.6457    179.54993    76.336339 
   23500    255.03648   -108.58636   0.23076237    -108.3556   -455.92407    4.2458551    4.2458551    4.2458551   -455.92407   -6449.9871    7926.0173   -2843.8024   -347.73114    660.10372   -1454.0405     76.54124 
   23600    302.57362   -108.62893   0.27377497   -108.35515    884.15531    4.2424105    4.2424105    4.2424105    884.15531   -7567.4859     7601.196    2618.7558    745.56881   -3544.2537   -2897.1403    76.355101 
   23700    287.68078   -108.61541   0.26029961   -108.35511    2090.3359    4.2414089    4.2414089    4.2414089    2090.3359   -10801.947    4292.1228    12780.832   -4667.3919    1333.1906    1588.4035    76.301035 
   23800    405.63112   -108.72192   0.36702356   -108.35489   -4398.6436    4.2474618    4.2474618    4.2474618   -4398.6436   -7683.4311    3218.6583   -8731.1581    1774.7143   -1459.5286    325.48813     76.62817 
   23900    343.00936   -108.66567   0.31036208   -108.35531    2172.8879    4.2416745    4.2416745    4.2416745    2172.8879   -12203.286    2617.9464    16104.004   -2948.1575    111.14516   -1784.3235    76.315373 
   24000    231.64176   -108.56623   0.20959433   -108.35663    2102.2375    4.2408816    4.2408816    4.2408816    2102.2375   -10671.153    13506.114    3471.7518   -6578.8237    1580.1979   -6336.8589    76.272581 
   24100    351.35179   -108.67337   0.31791049   -108.35546   -4169.7524    4.2479238    4.2479238    4.2479238   -4169.7524   -14076.517   -5632.8802    7200.1401    -889.8639   -1869.7996    1583.2974    76.653178 
   24200    323.52721   -108.64699   0.29273422   -108.35425    4463.1511    4.2415366    4.2415366    4.2415366    4463.1511   -6740.0275    17260.099    2869.3818    650.75729   -66.484237    1824.8789    76.307926 
   24300    260.02497    -108.5911   0.23527606   -108.35582   -5101.7215    4.2423085    4.2423085    4.2423085   -5101.7215   -9193.0409   -7201.6932    1089.5695   -3757.4236   -1696.6165    313.11899    76.349596 
   24400    275.68537   -108.60603   0.24944592   -108.35658   -5878.8006    4.2471166    4.2471166    4.2471166   -5878.8006   -10035.325    802.98746   -8404.0642   -321.46064    1569.8736   -502.49256    76.609486 
   24500    282.60968   -108.61152   0.25571118   -108.35581    7836.4358    4.2405495    4.2405495    4.2405495    7836.4358    -6038.405      25065.2    4482.5119    3696.3574    478.93514   -2799.4875    76.254661 
   24600    217.94579   -108.55391   0.19720194   -108.35671    1592.2401    4.2440384    4.2440384    4.2440384    1592.2401   -6605.1416     2406.699     8975.163   -5692.6276    -1048.601   -507.14886    76.443034 
   24700     323.8081   -108.64758   0.29298838   -108.35459   -4306.9643     4.245637     4.245637     4.245637   -4306.9643   -10293.752   -1728.1077   -899.03342   -2388.4507     83.89424   -2569.4028    76.529448 
   24800    403.87345   -108.71813   0.36543319    -108.3527   -1037.5725    4.2431903    4.2431903    4.2431903   -1037.5725   -11371.978    2713.8278    5545.4331   -385.00879    -2382.255    3558.2531    76.397214 
   24900    281.98785   -108.61043   0.25514853   -108.35528    2161.2044    4.2420813    4.2420813    4.2420813    2161.2044   -6656.8634    14572.723   -1432.2467   -3042.2757    394.36429   -352.20004    76.337331 
   25000    329.77478   -108.65476   0.29838715   -108.35637   -5032.7147    4.2468438    4.2468438    4.2468438   -5032.7147   -18645.314   -2085.0574    5632.2274   -1854.8224   -488.78165    313.84267    76.594725 
   25100     355.6699   -108.67676    0.3218176   -108.35495    6351.2687    4.2414082    4.2414082    4.2414082    6351.2687   -4639.1474    16602.539    7090.4146    3781.8311    635.81715   -1756.0986    76.300998 
   25200    271.90694   -108.60134   0.24602711   -108.35531   -1166.4941    4.2432315    4.2432315    4.2432315   -1166.4941   -8981.9519   -10426.272    15908.741   -2696.0209    2394.6463   -1369.5814    76.399439 
   25300    255.97775   -108.58714   0.23161405   -108.35553   -8076.0285    4.2459763    4.2459763    4.2459763   -8076.0285   -14700.534   -7124.5458   -2403.0058   -6992.3227    609.30221     732.6681    76.547799 
   25400     267.4981   -108.59747    0.2420379   -108.35543    8584.9614    4.2405223    4.2405223    4.2405223    8584.9614   -3954.6239     24962.74    4746.7683    2421.2682    72.549189   -655.73043    76.253198 
   25500    320.81343   -108.64664   0.29027874   -108.35636   -4742.2801    4.2448206    4.2448206    4.2448206   -4742.2801   -14947.894   -2091.8292    2812.8828   -4516.1523   -303.84397   -495.29872    76.485307 
   25600    199.21674   -108.53689   0.18025549   -108.35663    -6713.228     4.245457     4.245457     4.245457    -6713.228   -13960.565    2133.6758   -8312.7948   -3721.8059    970.24949   -2382.5266    76.519717 
   25700    380.62021    -108.6985   0.34439317    -108.3541   -1001.5196    4.2410232    4.2410232    4.2410232   -1001.5196   -9596.1525   -1380.4339    7972.0276     1720.787    240.62002    1611.3436     76.28022 
   25800    286.12854   -108.61385   0.25889512   -108.35495    1126.9797    4.2456034    4.2456034    4.2456034    1126.9797   -14333.394    19850.283   -2135.9499   -715.60353   -976.77471    827.20483    76.527628 
   25900    230.03335   -108.56415   0.20813901   -108.35601   -1295.4112    4.2431249    4.2431249    4.2431249   -1295.4112   -14443.507    4950.4667    5606.8068   -5997.5408    3981.3978    2157.0525    76.393684 
   26000    416.54208   -108.73182   0.37689603   -108.35492   -1276.6586    4.2423615    4.2423615    4.2423615   -1276.6586   -8491.1764    10699.314   -6038.1138   -1578.6936    2820.8509   -1192.6201     76.35246 
   26100    317.59036   -108.64288   0.28736243   -108.35552   -479.57011    4.2462643    4.2462643    4.2462643   -479.57011   -10351.566    4954.0201    3958.8358    640.54368   -580.31428    554.21467    76.563376 
   26200    300.70164   -108.62768   0.27208116    -108.3556   -5553.9948    4.2408007    4.2408007    4.2408007   -5553.9948   -8347.9831   -6095.6182    -2218.383   -6326.2998    441.63181    679.04678    76.268218 
   26300    242.17737   -108.57499   0.21912718   -108.35587    4623.6294    4.2461647    4.2461647    4.2461647    4623.6294   -11221.772    19834.516     5258.144    2491.7808   -1646.2529   -1145.3558    76.557988 
   26400    323.93988   -108.64738   0.29310761   -108.35427    581.37259    4.2423613    4.2423613    4.2423613    581.37259   -8184.5159    1629.3764    8299.2573   -500.84155   -392.70568    4894.8003    76.352449 
   26500    189.18618    -108.5267   0.17117963   -108.35552   -5059.8418    4.2430653    4.2430653    4.2430653   -5059.8418   -15061.916   -452.30922    334.69958   -6177.3046   -1196.7155   -1591.5988    76.390461 
   26600    340.93925   -108.66276     0.308489   -108.35427   -6033.4628    4.2472197    4.2472197    4.2472197   -6033.4628   -13453.709    -7464.619    2817.9398   -1141.4933     1546.078    98.784981    76.615067 
   26700     344.7992   -108.66561   0.31198156   -108.35363    2749.8197    4.2406304    4.2406304    4.2406304    2749.8197   -6547.9659    17005.653   -2208.2283   -702.28294    1227.5109   -426.31799    76.259028 
   26800    233.91615   -108.56676   0.21165225   -108.35511   -394.87365    4.2438718    4.2438718    4.2438718   -394.87365   -15079.329    761.26882    13133.439    -4063.242   -203.40592    664.35973    76.434033 
   26900    342.91064   -108.66542   0.31027275   -108.35515   -3566.3297    4.2470785    4.2470785    4.2470785   -3566.3297   -11305.008    6402.5729   -5796.5535    512.62251    527.81225     554.6933    76.607427 
   27000    315.09932      -108.64   0.28510848    -108.3549    10332.218    4.2380559    4.2380559    4.2380559    10332.218   -1994.4847    18819.092    14172.047    3245.0186   -3058.1195   -879.73603    76.120221 
   27100    360.60608   -108.68169   0.32628396   -108.35541   -7772.8089    4.2489045    4.2489045    4.2489045   -7772.8089   -14612.775    -11019.88     2314.228   -5057.6534   -1962.4794    2064.9981     76.70628 
   27200    231.19124   -108.56484   0.20918669   -108.35566    7123.5972    4.2426382    4.2426382    4.2426382    7123.5972   -3528.1812    26956.837   -2057.8637   -4262.6245     329.4443   -2563.8732    76.367399 
   27300    362.87342   -108.68233   0.32833549   -108.35399    1882.0614    4.2402238    4.2402238    4.2402238    1882.0614   -6195.4891    8551.7407    3289.9327   -913.47412   -430.66599   -1100.5068    76.237097 
   27400    261.17098   -108.59185   0.23631299   -108.35554   -7783.6414    4.2488146    4.2488146    4.2488146   -7783.6414   -15535.802    3473.4278    -11288.55    -4379.338    1940.0682    658.45615     76.70141 
   27500    224.93738   -108.55903   0.20352807    -108.3555    2994.8255    4.2404322    4.2404322    4.2404322    2994.8255   -5357.6991    8546.8176     5795.358    -1063.912    1667.1913    1762.5925    76.248339 
   27600     384.4903    -108.7018    0.3478949   -108.35391   -3363.4843    4.2444261    4.2444261    4.2444261   -3363.4843   -11606.063    7404.1451   -5888.5347    3664.9998   -129.49424   -1720.7985    76.463984 
   27700    181.36559   -108.51979    0.1641034   -108.35568    1067.9104     4.245251     4.245251     4.245251    1067.9104   -12281.868    5007.9728    10477.627    -3662.717   -503.54337   -2900.0082    76.508576 
   27800    326.88208   -108.65087   0.29576978    -108.3551   -5098.0481    4.2418105    4.2418105    4.2418105   -5098.0481   -9865.1194   -706.86026   -4722.1646   -3806.2627   -957.37582     691.1897    76.322709 
   27900    332.86723   -108.65521   0.30118527   -108.35403    4112.9216    4.2442367    4.2442367    4.2442367    4112.9216   -7088.1457     18491.53    935.38018   -417.04988   -867.60055    1848.7391    76.453748 
   28000    367.82379    -108.6874    0.3328147   -108.35458   -4816.7199    4.2452798    4.2452798    4.2452798   -4816.7199   -11820.128   -10047.654    7417.6223    -2682.916    23.554199    2733.1595    76.510131 
   28100    284.70781   -108.61316   0.25760961   -108.35555    4197.4838    4.2408537    4.2408537    4.2408537    4197.4838   -4951.6815    13866.257    3677.8758   -3316.4233    3440.9036   -3739.6703    76.271077 
   28200    326.68745   -108.65022   0.29559367   -108.35462    3183.0962    4.2454064    4.2454064    4.2454064    3183.0962   -10545.158    4174.2149    15920.231    1606.1409     1770.693   -2917.5607    76.516977 
   28300    323.02204   -108.64762   0.29227713   -108.35534   -58.093228     4.241504     4.241504     4.241504   -58.093228    -6962.827    6565.4092    223.13811    438.86275   -1559.8984    138.65124    76.306166 
   28400     205.2072   -108.54227   0.18567579    -108.3566    2100.8615    4.2447646    4.2447646    4.2447646    2100.8615   -15370.706    13014.373    8658.9171   -6186.6642   -189.41276    96.836515    76.482279 
   28500    393.89257   -108.71074   0.35640227   -108.35433   -3869.8846    4.2426067    4.2426067    4.2426067   -3869.8846   -8747.2178    1782.3655   -4644.8014     1783.623    834.97603    1338.2321    76.365695 
   28600    205.65046   -108.54207   0.18607686   -108.35599    1775.7499    4.2430303    4.2430303    4.2430303    1775.7499   -8394.4769    11550.807    2170.9198   -1589.3455   -2180.2228   -751.22517    76.388575 
   28700    282.37862   -108.61187   0.25550211   -108.35637   -6560.3957    4.2455653    4.2455653    4.2455653   -6560.3957   -17478.239    -1860.138   -342.81045   -3707.0537    164.79183    75.538245    76.525568 
   28800    264.26487   -108.59433   0.23911241   -108.35522    5737.4304    4.2406013    4.2406013    4.2406013    5737.4304   -2703.8261    21533.702   -1617.5845    910.55008    2172.1528   -4074.6297    76.257458 
   28900    350.57886   -108.67202   0.31721112   -108.35481   -3135.0447    4.2453165    4.2453165    4.2453165   -3135.0447   -12791.799     653.2748    2733.3902    -1214.753    1265.5498     236.6349    76.512115 
   29000    347.43724   -108.66987   0.31436852    -108.3555   -7562.5152    4.2455249    4.2455249    4.2455249   -7562.5152   -14914.979   -2051.7737   -5720.7927   -6352.8822    732.26332    4680.7014    76.523386 
   29100    277.53954   -108.60693   0.25112361   -108.35581    6552.9518    4.2375882    4.2375882    4.2375882    6552.9518   -3516.2257    16481.038    6694.0429   -5328.9268    233.85279   -2414.7311    76.095022 
   29200    417.28899   -108.73253   0.37757185   -108.35496   -12183.528    4.2498237    4.2498237    4.2498237   -12183.528   -19721.049   -167.70127   -16661.835    1384.9455   -1441.9724   -3843.5154    76.756069 
   29300    197.72912   -108.53381   0.17890946    -108.3549    3680.4323    4.2414943    4.2414943    4.2414943    3680.4323   -12421.331    11674.925    11787.702   -6753.2167   -1602.9963   -2437.4772    76.305642 
   29400    367.45428   -108.68573   0.33248036   -108.35325   -6868.5332    4.2416894    4.2416894    4.2416894   -6868.5332   -12685.623   -3740.3948   -4179.5817    979.59637    1541.0151    1308.8475    76.316176 
   29500     234.0713   -108.56611   0.21179263   -108.35432   -4393.1951    4.2482515    4.2482515    4.2482515   -4393.1951   -15569.024    2862.8917   -473.45289    223.40873   -825.62758    1209.3744    76.670919 
   29600    253.08787   -108.58324   0.22899922   -108.35425   -898.00684     4.241196     4.241196     4.241196   -898.00684   -12206.524      3210.27     6302.233   -7478.7297    170.61724    3503.9699    76.289544 
   29700    284.56762   -108.61181   0.25748276   -108.35433    3605.2743    4.2421376    4.2421376    4.2421376    3605.2743   -7366.2728    23161.556   -4979.4602   -2911.9914    2579.9505   -400.03864    76.340367 
   29800    297.23689   -108.62382   0.26894618   -108.35487   -2148.1258    4.2482326    4.2482326    4.2482326   -2148.1258   -12471.845   -2791.4108    8818.8787   -2136.8875   -1084.1413   -2705.5601    76.669892 
   29900    370.98108   -108.68979   0.33567148   -108.35412   -1259.2594    4.2397776    4.2397776    4.2397776   -1259.2594   -7045.4564    171.80956    3095.8687   -4350.4051   -1568.4076   -2967.6327    76.213032 
   30000    240.47551   -108.57353    0.2175873   -108.35595    8926.8129    4.2445971    4.2445971    4.2445971    8926.8129   -10144.489    20339.821    16585.107    -453.8449   -1511.9074    726.48848    76.473225 
   30100    426.56356   -108.74158   0.38596368   -108.35561   -3089.7099    4.2438926    4.2438926    4.2438926   -3089.7099    -10160.16    4019.9414   -3128.9113    3771.8362    -2687.211    4580.0924    76.435154 
   30200    215.71952   -108.55204   0.19518755   -108.35685    5942.0133    4.2422943    4.2422943    4.2422943    5942.0133   -10822.996    27493.497    1155.5384   -2762.7925   -1150.2116    -2739.702    76.348828 
   30300    403.04793   -108.71894   0.36468624   -108.35425    -7227.614    4.2440317    4.2440317    4.2440317    -7227.614   -14784.192   -8900.0577     2001.408   -1844.0826    2078.3424    13.695066    76.442669 
   30400      273.406    -108.6016   0.24738349   -108.35422   -4403.9294    4.2442792    4.2442792    4.2442792   -4403.9294   -10494.564    8413.8188   -11131.043    1851.2679    728.30636   -2566.1626    76.456047 
   30500    225.22874   -108.55898    0.2037917   -108.35519   -674.26494    4.2419151    4.2419151    4.2419151   -674.26494   -13885.728    11769.926    93.007337   -4183.6817   -3803.3831    1695.4801    76.328355 
   30600    278.04207   -108.60707   0.25157831   -108.35549   -2842.7225    4.2443246    4.2443246    4.2443246   -2842.7225   -12287.035    8457.1401   -4698.2722   -1420.5185    509.57579   -153.63242    76.458498 
   30700    204.13207   -108.54061   0.18470299   -108.35591   -395.97202    4.2435706    4.2435706    4.2435706   -395.97202   -7091.0598    6657.4853   -754.34155     2818.761   -1349.6689    418.53705    76.417756 
   30800    390.72262     -108.709   0.35353404   -108.35547   -10031.514    4.2431679    4.2431679    4.2431679   -10031.514   -14039.941   -8413.6114   -7640.9904   -3033.3322   -5066.3706   -1669.3009    76.396005 
   30900    233.15416    -108.5675   0.21096278   -108.35653    6112.0851    4.2436497    4.2436497    4.2436497    6112.0851   -8667.4156    18581.239    8422.4323   -4012.3512     984.8125   -1459.8314    76.422031 
   31000    414.92698   -108.73006   0.37543465   -108.35463   -3652.7908    4.2434404    4.2434404    4.2434404   -3652.7908   -11226.832    7017.3068   -6748.8472    1788.1656    643.08984    527.96873    76.410725 
   31100    313.96569   -108.63973   0.28408276   -108.35565    2641.3143    4.2428744    4.2428744    4.2428744    2641.3143   -12853.331     15575.24    5202.0344   -1586.5214    877.33299    1478.9462    76.380151 
   31200    306.47472   -108.63368   0.27730477   -108.35638    2289.1875    4.2442625    4.2442625    4.2442625    2289.1875   -10602.882    7935.6037    9534.8405    -2681.895    580.81289    4624.3214    76.455143 
   31300    406.27194    -108.7225   0.36760339    -108.3549   -2220.1224    4.2421467    4.2421467    4.2421467   -2220.1224   -10942.975    2651.9642    1630.6434     1807.968   -1790.2867   -3019.1994    76.340858 
   31400    185.31011   -108.52385   0.16767248   -108.35618    8191.5059    4.2443596    4.2443596    4.2443596    8191.5059   -10339.905    24111.263     10803.16   -319.60856   -2304.5761   -1506.3246    76.460393 
   31500    327.60688   -108.65065   0.29642559   -108.35422   -2530.4423    4.2428805    4.2428805    4.2428805   -2530.4423   -6548.7828    9242.2985   -10284.842   -6078.3294   -1351.3903   -3719.4333     76.38048 
   31600    204.03387   -108.53862   0.18461413     -108.354    3254.4544    4.2436089    4.2436089    4.2436089    3254.4544   -7432.9897    9599.4894    7596.8636    1080.3742    941.36645    1833.9925    76.419825 
   31700    352.95639   -108.67326   0.31936236    -108.3539   -5186.4677    4.2449234    4.2449234    4.2449234   -5186.4677   -7729.1816   -4665.1929   -3165.0287   -387.08908   -1836.0158    337.64585    76.490864 
   31800    210.74105   -108.54656   0.19068293   -108.35587    7678.5712    4.2407597    4.2407597    4.2407597    7678.5712   -2637.4715    18640.198     7032.987   -2038.4288    203.08038   -634.72436    76.266004 
   31900    345.86109    -108.6678   0.31294238   -108.35486   -2505.1624    4.2451669    4.2451669    4.2451669   -2505.1624   -15302.983   -792.69292    8580.1884     3495.226    3776.8567    220.65722    76.504027 
   32000    352.32585    -108.6737   0.31879183   -108.35491   -3116.2032    4.2446764    4.2446764    4.2446764   -3116.2032   -8393.2802    8133.8207     -9089.15    738.23635   -3071.1532   -1651.4221    76.477511 
   32100    279.44061   -108.60812   0.25284373   -108.35527    3453.9217    4.2395086    4.2395086    4.2395086    3453.9217   -7920.5589    14399.616    3882.7082   -3492.8188   -2425.4562      1640.14    76.198522 
   32200    469.91141   -108.77915   0.42518572   -108.35396   -12669.176    4.2478299    4.2478299    4.2478299   -12669.176   -16886.631   -9219.8226   -11901.074   -2848.8752   -90.532599   -1341.1384     76.64809 
   32300    214.42845   -108.55018   0.19401937   -108.35616    7667.6171    4.2415213    4.2415213    4.2415213    7667.6171   -6596.7132    29247.053    352.51122    3932.3627   -3328.2671   -1494.6078    76.307102 
   32400    299.35767   -108.62705   0.27086511   -108.35619   -3227.6104    4.2414678    4.2414678    4.2414678   -3227.6104   -8070.1721    5431.2552   -7043.9144   -3267.1444    489.95644   -4930.6886    76.304216 
   32500    178.41602   -108.51708   0.16143456   -108.35564    50.587486    4.2484038    4.2484038    4.2484038    50.587486    -12708.98    12912.562    -51.81932    796.42687    58.021693    788.25515    76.679162 
   32600    304.43602   -108.62882   0.27546011   -108.35336    3373.5486    4.2396277    4.2396277    4.2396277    3373.5486   -156.90079    7603.6296    2673.9169    3240.2607    766.12853   -1618.4145    76.204948 
   32700    283.56219   -108.61044   0.25657303   -108.35387   -733.88288    4.2448766    4.2448766    4.2448766   -733.88288   -7770.6046    11474.083   -5905.1267   -2901.1644   -849.83212    847.12791    76.488333 
   32800    283.82258   -108.61192   0.25680863   -108.35511   -1604.8138    4.2445188    4.2445188    4.2445188   -1604.8138   -10536.695    2396.9862    3325.2674   -2942.8054    468.95036    2529.2855    76.468998 
   32900    400.43966   -108.71709   0.36232622   -108.35476   -2325.7857    4.2423645    4.2423645    4.2423645   -2325.7857   -7133.6157    7620.3001   -7464.0416    464.84192   -1631.3318   -2378.1956     76.35262 
   33000    247.59972   -108.57961   0.22403343   -108.35558    7913.4132    4.2441799    4.2441799    4.2441799    7913.4132   -9476.3387    21051.003    12165.576   -496.26278   -5188.3901   -3414.8527    76.450679 
   33100    408.16358   -108.72346   0.36931498   -108.35415   -4283.2477    4.2432217    4.2432217    4.2432217   -4283.2477   -11344.261    -5783.037    4277.5549   -3484.7927    1976.2417   -3214.4037    76.398911 
   33200    275.82734   -108.60481   0.24957438   -108.35523    6248.3501    4.2427071    4.2427071    4.2427071    6248.3501   -4888.7233    14686.431    8947.3423    2419.2513    372.27363    4083.6646    76.371116 
   33300    300.81579   -108.62698   0.27218444    -108.3548   -1571.0065    4.2444628    4.2444628    4.2444628   -1571.0065   -11821.001    7402.2522   -294.27063   -3372.6957   -789.45492   -1003.0342    76.465969 
   33400     290.5247   -108.61811   0.26287286   -108.35524   -1589.6178    4.2410507    4.2410507    4.2410507   -1589.6178   -5109.1972    9465.0015   -9124.6578   -3456.4948    461.78821    648.05248    76.281706 
   33500    253.48651   -108.58586   0.22935992    -108.3565    2203.5675    4.2471219    4.2471219    4.2471219    2203.5675   -11055.713    17854.766   -188.34981    2172.3391   -2530.2825   -1585.0568    76.609773 
   33600    346.84324   -108.66871   0.31383105   -108.35488   -1432.5818    4.2398092    4.2398092    4.2398092   -1432.5818   -6752.7599     3910.898   -1455.8835     672.0646   -2319.7252    20.947695    76.214732 
   33700    172.24098   -108.51169   0.15584726   -108.35584    222.03014    4.2444996    4.2444996    4.2444996    222.03014   -11752.298    10898.892    1519.4965   -707.40186   -1702.5596    -1759.813    76.467957 
   33800    364.48429   -108.68408   0.32979304   -108.35429   -5166.5955    4.2463105    4.2463105    4.2463105   -5166.5955   -17199.121   -614.60983    2313.9449   -373.61129   -739.11452    2394.8982    76.565876 
   33900    217.09989   -108.55163   0.19643654   -108.35519     7721.771    4.2399272    4.2399272    4.2399272     7721.771   -7120.1978    27175.101    3110.4101     1201.712   -1855.8098    1081.3605    76.221099 
   34000    391.22152   -108.70941   0.35398545   -108.35542   -9732.9644    4.2452656    4.2452656    4.2452656   -9732.9644    -13830.01   -9414.7882    -5954.095   -4979.3916    1959.6672   -6060.3265    76.509367 
   34100    366.55306   -108.68694   0.33166491   -108.35528   -5962.3972    4.2462995    4.2462995    4.2462995   -5962.3972   -10653.755   -2990.0472   -4243.3895    3920.0321     1450.469   -506.82085    76.565279 
   34200    282.89218   -108.61181   0.25596679   -108.35584    4630.9475    4.2386697    4.2386697    4.2386697    4630.9475     -6978.24    19796.014    1075.0682    1318.7634   -6303.2487     713.1747      76.1533 
   34300    315.23335   -108.64063   0.28522976    -108.3554   -5132.1853    4.2473137    4.2473137    4.2473137   -5132.1853   -15697.717    4169.7514     -3868.59   -89.768283   -2655.3723    4644.7733    76.620151 
   34400    186.98255   -108.52432   0.16918574   -108.35513    6201.0141    4.2455909    4.2455909    4.2455909    6201.0141   -10373.462    16364.854     12611.65    2667.5714   -528.59944    2514.4422    76.526953 
   34500    352.44364   -108.67249   0.31889841   -108.35359    587.93694    4.2385584    4.2385584    4.2385584    587.93694   -9251.2145    6338.0426    4676.9828    608.08706   -3818.2962   -840.39546    76.147302 
   34600    252.20545   -108.58326   0.22820079   -108.35506   -4555.3078    4.2483681    4.2483681    4.2483681   -4555.3078   -13915.478    1654.4848   -1404.9301   -1553.6148   -8.2084298   -5434.2856     76.67723 
   34700    331.53184   -108.65408   0.29997698    -108.3541   -1729.0773    4.2437874    4.2437874    4.2437874   -1729.0773   -10832.736    11466.855   -5821.3508   -2051.5989     415.0288   -2425.9094    76.429469 
   34800    264.56568   -108.59348   0.23938459    -108.3541    7880.1203    4.2404661    4.2404661    4.2404661    7880.1203   -10607.233    29851.683    4395.9113    3171.3954   -1061.1978     1896.074    76.250165 
   34900    331.60317   -108.65438   0.30004151   -108.35434   -3839.2039    4.2471722    4.2471722    4.2471722   -3839.2039   -12549.372   -3665.3004    4697.0609    -2507.621    574.21879    497.32419    76.612496 
   35000    351.50595   -108.67199   0.31804997   -108.35394   -2239.2623    4.2433925    4.2433925    4.2433925   -2239.2623   -7602.0843   -3100.4608    3984.7583   -91.649969   -1556.4017    1212.9672     76.40814 
   35100    244.09612   -108.57674    0.2208633   -108.35588    10646.073    4.2385499    4.2385499    4.2385499    10646.073   -8094.6953    25957.133    14075.781    3211.5642    -3642.422   -3146.0948    76.146843 
   35200     394.4168   -108.71349    0.3568766   -108.35662   -11676.972    4.2498219    4.2498219    4.2498219   -11676.972   -16615.924   -630.58689   -17784.404   -961.50588   -1698.1585    -978.0035    76.755976 
   35300    223.11123    -108.5586   0.20187573   -108.35672    6208.1331    4.2391192    4.2391192    4.2391192    6208.1331   -1059.4522    19832.029   -148.17702    1357.6112    2192.7941   -257.48617    76.177527 
   35400    388.29623   -108.70661   0.35133859   -108.35527   -8985.8853    4.2434964    4.2434964    4.2434964   -8985.8853    -16793.71   -1361.5175   -8802.4285    2491.2849   -2167.0675    1840.7781    76.413751 
   35500    260.72236   -108.59145   0.23590707   -108.35555   -5026.9635    4.2473148    4.2473148    4.2473148   -5026.9635    -7645.358     1861.623   -9297.1555   -712.95391   -1373.2485   -548.06107    76.620211 
   35600    200.09261   -108.53628     0.181048   -108.35523    6944.0768    4.2399243    4.2399243    4.2399243    6944.0768   -6124.9397    22669.896    4287.2736   -290.94712    1681.0303   -7174.9963    76.220939 
   35700     311.3064    -108.6372   0.28167657   -108.35553   -1137.3073    4.2445526    4.2445526    4.2445526   -1137.3073   -14821.032    9225.4117    2183.6988    1309.9839   -2749.8105   -1528.9533     76.47082 
   35800     224.0323   -108.55857   0.20270913   -108.35586    -268.9793    4.2462605    4.2462605    4.2462605    -268.9793   -6583.5355    7474.7124   -1698.1147    965.87743    -167.8714   -765.45598     76.56317 
   35900    429.74293   -108.74273   0.38884044   -108.35389   -5966.6449    4.2411605    4.2411605    4.2411605   -5966.6449   -5805.9716   -6737.6833   -5356.2799   -1541.2941   -178.88849    2503.9113    76.287631 
   36000    260.15964    -108.5897   0.23539791    -108.3543    6132.3801    4.2450804    4.2450804    4.2450804    6132.3801    -10038.29    30105.126   -1669.6955    3665.1827   -2008.9092    2130.7578    76.499353 
   36100    345.14546   -108.66559   0.31229486   -108.35329   -2013.7632    4.2447411    4.2447411    4.2447411   -2013.7632   -4355.3298    7769.7591   -9455.7191    3049.6301   -513.66316   -2001.8409    76.481011 
   36200    309.22891   -108.63492   0.27979681   -108.35512    1713.2825    4.2424148    4.2424148    4.2424148    1713.2825   -10409.219    10534.809    5014.2573   -2886.5649    1408.6399    -6213.108    76.355337 
   36300    256.97373   -108.59021   0.23251523   -108.35769    4663.4676    4.2418586    4.2418586    4.2418586    4663.4676   -4821.8762    12206.825     6605.454    942.76253    81.115246   -1577.3505    76.325307 
   36400    354.68949    -108.6773    0.3209305   -108.35637   -5168.1487    4.2460665    4.2460665    4.2460665   -5168.1487   -9102.6797   -2121.0495    -4280.717   -310.08719   -2491.2095    3062.5211    76.552675 
   36500    221.76699   -108.55679   0.20065943   -108.35613    8926.6561    4.2427081    4.2427081    4.2427081    8926.6561   -8378.2661    30352.203     4806.031   -244.07477    1727.4523    430.47479    76.371173 
   36600    313.75363   -108.63959   0.28389087    -108.3557   -322.47378    4.2412144    4.2412144    4.2412144   -322.47378   -3453.9482    5564.2443   -3077.7175   -326.45955   -915.97396    2722.7957     76.29054 
   36700    332.93697   -108.65625   0.30124837     -108.355   -6800.9116    4.2475419    4.2475419    4.2475419   -6800.9116   -11151.145    -3734.105   -5517.4849    3124.3342   -1598.3519   -3909.4451    76.632504 
   36800    322.56645   -108.64708    0.2918649   -108.35522    4048.8951    4.2417124    4.2417124    4.2417124    4048.8951   -8272.6584    18711.148    1708.1954   -2652.5003   -374.73517   -1030.3972    76.317417 
   36900    301.96159   -108.62959   0.27322119   -108.35637    3115.6367     4.240813     4.240813     4.240813    3115.6367    565.55533    4735.4155    4045.9393   -26.381175   -1550.8482    271.81517    76.268881 
   37000    184.97285   -108.52367   0.16736732    -108.3563    1620.2178    4.2486237    4.2486237    4.2486237    1620.2178   -14289.339    17129.542    2020.4504    3052.3422    1090.8186    1602.2473    76.691071 
   37100    416.27448   -108.72995    0.3766539   -108.35329   -2767.7016    4.2400411    4.2400411    4.2400411   -2767.7016   -7528.2092   -1093.3174    318.42163   -3222.0183    1225.3186   -2487.9098    76.227242 
   37200    210.38526   -108.54506     0.190361    -108.3547    5947.8044     4.242142     4.242142     4.242142    5947.8044   -989.18193    21836.269   -3003.6738     2658.992   -460.03057   -4934.3651    76.340606 
   37300    368.90642   -108.68986   0.33379428   -108.35606   -11894.021    4.2475688    4.2475688    4.2475688   -11894.021   -19600.358    1628.7431   -17710.449    963.16107   -2635.0005    1959.9543    76.633961 
   37400    317.19854   -108.64427    0.2870079   -108.35726    811.39146    4.2402569    4.2402569    4.2402569    811.39146   -7020.7395    18110.803   -8655.8891    143.07368    907.06138   -828.49682    76.238879 
   37500    215.77465   -108.55316   0.19523743   -108.35793    2576.1627    4.2434684    4.2434684    4.2434684    2576.1627   -4081.0829     13436.71   -1627.1387   -3117.0452    1008.0079    2394.6989    76.412239 
   37600    354.31795   -108.67673   0.32059432   -108.35613   -9661.7237    4.2469604    4.2469604    4.2469604   -9661.7237   -19425.849   -5696.2554    -3863.067    4119.9584   -3468.1409    339.20067    76.601033 
   37700    282.22831   -108.61035   0.25536611   -108.35499    7773.8001     4.240543     4.240543     4.240543    7773.8001   -4706.3277    19634.965    8392.7631    125.85651    494.06776   -3044.4256    76.254312 
   37800    273.67047   -108.60254   0.24762279   -108.35492   -949.28856    4.2449605    4.2449605    4.2449605   -949.28856   -8635.3138    9929.9107   -4142.4626   -533.88802    707.28699   -4769.0743    76.492869 
   37900    289.80005     -108.617   0.26221718   -108.35478   -4331.1007     4.245597     4.245597     4.245597   -4331.1007   -16456.312    4484.3621   -1021.3518    1146.0585   -901.66525    948.06942    76.527284 
   38000    312.73263    -108.6371   0.28296706   -108.35413    4948.6942    4.2418334    4.2418334    4.2418334    4948.6942   -4744.9691    22718.585   -3127.5328    -3564.489    421.65485    1547.9067    76.323946 
   38100    385.82645   -108.70335   0.34910388   -108.35425   -3816.9682    4.2433678    4.2433678    4.2433678   -3816.9682   -8361.9676    190.06076   -3278.9979    2665.8583   -1921.5124    -1729.922    76.406805 
   38200    185.94152   -108.52391   0.16824379   -108.35566    120.44245    4.2465085    4.2465085    4.2465085    120.44245   -14408.147    16509.384   -1739.9094    875.06965   -1181.0245    1005.1641    76.576584 
   38300    341.63399   -108.66272   0.30911761    -108.3536    2872.7987    4.2402642    4.2402642    4.2402642    2872.7987   -8406.1235    13044.683    3979.8366    1940.4831    1418.3683   -2420.1686    76.239275 
   38400    210.70528   -108.54547   0.19065056   -108.35482     7748.146    4.2443675    4.2443675    4.2443675     7748.146   -10256.094    26484.945    7015.5874     318.2457   -198.05736   -5025.4607    76.460819 
   38500     338.4722   -108.66283   0.30625676   -108.35658   -6029.0901    4.2451703    4.2451703    4.2451703   -6029.0901   -13026.239   -2847.5894   -2213.4415    2925.3024   -1214.6083    1963.9007    76.504213 
   38600    368.92393   -108.69019   0.33381013   -108.35638     2083.796    4.2395409    4.2395409    4.2395409     2083.796   -8801.2989    11132.303    3920.3836    2933.5236    402.63982    2997.2375    76.200264 
   38700    337.34396   -108.66087   0.30523591   -108.35563   -5406.3443    4.2477806    4.2477806    4.2477806   -5406.3443   -14141.696     3892.049   -5969.3859   -1907.6837      1015.05   -5544.1997    76.645423 
   38800    286.98705   -108.61456   0.25967192   -108.35489   -2557.2287    4.2424245    4.2424245    4.2424245   -2557.2287   -12040.274    1844.7947    2523.7937     4803.131   -1553.0604   -1242.1909     76.35586 
   38900    294.12467   -108.62047   0.26613018   -108.35434    2819.5326     4.242954     4.242954     4.242954    2819.5326   -11389.256    12333.549    7514.3057    2390.5575    301.21226    1200.7458    76.384453 
   39000    278.82596   -108.60789   0.25228759    -108.3556   -804.64105    4.2449841    4.2449841    4.2449841   -804.64105   -10713.823    5342.5804     2957.319   -67.031664    3008.9078    90.008079    76.494146 
   39100    276.78003    -108.6073   0.25043639   -108.35686   -4716.0443    4.2412207    4.2412207    4.2412207   -4716.0443   -5704.5867   -8587.6288    144.08255    3632.6682    386.91508   -2072.9752    76.290878 
   39200     208.9619   -108.54604   0.18907311   -108.35697    2314.5874    4.2447119    4.2447119    4.2447119    2314.5874   -12622.231    30988.254   -11422.261   -1376.1612      1797.25    1024.5047    76.479434 
   39300    396.30872   -108.71325   0.35858846   -108.35466   -5680.7515    4.2435231    4.2435231    4.2435231   -5680.7515   -9767.2094    1807.6299   -9082.6751     655.8644    1744.4338   -1960.1648    76.415194 
   39400    225.61605   -108.55981   0.20414214   -108.35567    1112.2857      4.24278      4.24278      4.24278    1112.2857   -4709.2387    17812.939    -9766.843    606.06679   -2284.3601    -10630.19    76.375057 
   39500    388.42263   -108.70741   0.35145296   -108.35595   -6999.7662    4.2435311    4.2435311    4.2435311   -6999.7662   -15406.036    -3083.185   -2510.0779    2315.2698    45.934359    3414.9009    76.415625 
   39600    282.72395   -108.61331   0.25581457   -108.35749     1789.129    4.2444473    4.2444473    4.2444473     1789.129   -8545.9615     12515.22    1398.1291   -1289.3211    1646.6972    1845.8738    76.465128 
   39700    295.92284   -108.62518   0.26775721   -108.35742    283.10539    4.2444308    4.2444308    4.2444308    283.10539   -11060.341    10547.883    1361.7744    2235.9305   -145.77456       874.67    76.464241 
   39800    297.35162   -108.62494      0.26905   -108.35589   -368.20495    4.2409244    4.2409244    4.2409244   -368.20495   -10143.566    6927.2924     2111.659     3156.833    1371.8899   -237.68515    76.274891 
   39900    336.89756   -108.65859   0.30483199   -108.35376   -8743.8354     4.247836     4.247836     4.247836   -8743.8354   -8837.7502   -9393.1526   -8000.6032   -2061.0447    1780.6322   -528.45695    76.648424 
   40000    265.62332   -108.59435   0.24034156   -108.35401    2913.7643     4.241456     4.241456     4.241456    2913.7643   -6080.3142    15688.439   -866.83146    3276.3749    547.49646   -5323.2998    76.303579 
   40100    272.22673   -108.60228   0.24631647   -108.35597     198.8917     4.242022     4.242022     4.242022     198.8917    -7501.819    9967.2751   -1868.7811    2966.5488   -832.79082    1485.0028    76.334126 
   40200    199.12097   -108.53772   0.18016884   -108.35755    4667.6589    4.2466233    4.2466233    4.2466233    4667.6589   -10261.937    24041.512    223.40187    2331.2362    363.62714    1049.4022    76.582796 
   40300    391.08069   -108.71005   0.35385802   -108.35619     2835.974    4.2388354    4.2388354    4.2388354     2835.974   -3471.5586    1530.5895    10448.891   -133.82819   -1925.9259   -1489.3252    76.162229 
   40400    210.74034     -108.548   0.19068229   -108.35732    6288.9907    4.2449956    4.2449956    4.2449956    6288.9907   -10161.961     28599.74    429.19265    3265.1442    177.74353    432.16966    76.494769 
   40500     447.8343    -108.7607   0.40520988   -108.35549   -4838.8668    4.2444259    4.2444259    4.2444259   -4838.8668    -9503.214    38.696664   -5052.0831   -1950.0181    2047.3232    1651.3642    76.463975 
   40600    336.12213   -108.66134   0.30413037   -108.35721    8188.0857    4.2396346    4.2396346    4.2396346    8188.0857   -6225.7694    29734.434    1055.5925   -168.06134   -118.94639   -3104.1823    76.205316 
   40700    312.26664    -108.6411   0.28254541   -108.35855   -6192.0124    4.2468413    4.2468413    4.2468413   -6192.0124   -12718.727   -3540.4075   -2316.9024    4723.2996   -1306.3009   -842.92252    76.594588 
   40800    288.96132   -108.61823   0.26145828   -108.35677   -1371.4368    4.2425995    4.2425995    4.2425995   -1371.4368   -9220.0778    3124.2406    1981.5267   -2165.6815    1653.0156     2968.885    76.365311 
   40900    273.24091   -108.60205   0.24723412   -108.35481     6912.626    4.2419492    4.2419492    4.2419492     6912.626    -7562.776    22351.002    5949.6519   -109.00065    832.43887    -2711.258    76.330197 
   41000     191.0575   -108.52881   0.17287284   -108.35594   -2043.5609     4.244653     4.244653     4.244653   -2043.5609   -8206.6348    4149.2834   -2073.3313   -948.73342   -2506.1938    -2086.838     76.47625 
   41100    293.30105   -108.62183   0.26538496   -108.35645   -6124.5978    4.2424969    4.2424969    4.2424969   -6124.5978   -6403.7043   -2963.3198   -9006.7692    681.25476    880.11043    1315.5645    76.359768 
   41200    275.14751   -108.60568   0.24895925   -108.35673    3290.4978    4.2441024    4.2441024    4.2441024    3290.4978   -9777.1219    27774.481   -8125.8659    997.89946    1276.9954    2092.1501    76.446491 
   41300    364.55873   -108.68738    0.3298604   -108.35752   -5401.3297    4.2417591    4.2417591    4.2417591   -5401.3297   -3501.1118   -2725.0929   -9977.7845    3374.3685    66.624252   -7699.2138    76.319935 
   41400    242.19496   -108.57733   0.21914309   -108.35819     261.3745    4.2453533    4.2453533    4.2453533     261.3745   -11340.887     23601.13   -11476.119    1760.1282    1969.0181   -910.70467    76.514109 
   41500    426.11711   -108.74106   0.38555972    -108.3555   -1722.7206    4.2418971    4.2418971    4.2418971   -1722.7206   -10553.585    4959.9643    425.45936    -3228.941    322.60496    1877.3481    76.327385 
   41600     268.8532   -108.59914   0.24326402   -108.35587    2408.7915    4.2436564    4.2436564    4.2436564    2408.7915   -5143.3071    14676.337   -2306.6553    2219.8792   -987.61389   -3962.6191    76.422395 
   41700    321.02498   -108.64537   0.29047015    -108.3549   -3927.3952    4.2457453    4.2457453    4.2457453   -3927.3952   -16110.424    7734.7953   -3406.5571    1975.5039    409.04597    390.19141    76.535303 
   41800    296.65791   -108.62218   0.26842231   -108.35376    965.18419    4.2412228    4.2412228    4.2412228    965.18419   -4262.8318    10235.888    -3077.504   -766.91377    435.40489   -688.18559    76.290995 
   41900    317.28577   -108.64095   0.28708684   -108.35386   -8447.0278    4.2456649    4.2456649    4.2456649   -8447.0278   -5516.7828   -8990.6763   -10833.624    1471.6635   -2138.1941   -1741.6722    76.530954 
   42000    197.75832   -108.53496   0.17893589   -108.35603    2104.1824    4.2434977    4.2434977    4.2434977    2104.1824   -7016.4066    23898.337   -10569.384    4836.7907    1488.6406   -446.82433    76.413823 
   42100     303.6339   -108.63117   0.27473433   -108.35643   -114.83923     4.241913     4.241913     4.241913   -114.83923   -3752.1852   -2908.3669    6316.0343    -247.2763    3230.8181   -2359.6273    76.328245 
   42200    262.21316   -108.59453   0.23725598   -108.35727   -169.08186     4.245946     4.245946     4.245946   -169.08186   -8435.2467    10342.498   -2414.4971   -1786.9221   -168.92407     1510.422    76.546158 
   42300     253.9362   -108.58636   0.22976681    -108.3566    7649.0928     4.241089     4.241089     4.241089    7649.0928   -9639.8951    15997.577    16589.597    3458.1893    1186.0679   -1931.7238    76.283771 
   42400    385.48199   -108.70413    0.3487922   -108.35533   -589.85912    4.2437579    4.2437579    4.2437579   -589.85912    -11676.25     10043.57   -136.89755   -926.27435     1795.792    3927.1764    76.427879 
   42500    331.56153    -108.6554   0.30000384    -108.3554    4711.4071    4.2452141    4.2452141    4.2452141    4711.4071   -8217.3994     25283.92   -2932.2992    899.04936   -1380.1194   -3787.9705    76.506582 
   42600    429.59206   -108.74282   0.38870393   -108.35411   -3959.8883    4.2422035    4.2422035    4.2422035   -3959.8883   -14153.669    2472.9423   -198.93835   0.85581182   -226.37407     405.3991    76.343924 
   42700    279.56054   -108.60817   0.25295226   -108.35522    1092.3866    4.2433349    4.2433349    4.2433349    1092.3866   -8774.4203    19453.445   -7401.8646   -1114.1474    1998.4075    160.96148    76.405026 
   42800     267.7243   -108.59763   0.24224257   -108.35539    2077.9417    4.2456559    4.2456559    4.2456559    2077.9417   -12445.107    11160.399    7518.5335    1367.0139     594.9063   -733.00397    76.530472 
   42900    260.95457   -108.59155   0.23611718   -108.35543   -1187.7739     4.242949     4.242949     4.242949   -1187.7739   -10667.577    3795.7213     3308.534   -224.91411    2168.2039   -3434.4032    76.384184 
   43000    159.57518   -108.50047   0.14438698   -108.35608    440.44704    4.2427512    4.2427512    4.2427512    440.44704   -7588.7933    3931.5797    4978.5547    4462.1396    4255.7115   -1687.8103    76.373502 
   43100    336.43759   -108.66018    0.3044158   -108.35576   -9397.8265    4.2473787    4.2473787    4.2473787   -9397.8265   -9553.7319   -6392.2075    -12247.54   -724.46008    1783.9302    6159.4585    76.623673 
   43200    283.92299   -108.61262   0.25689949   -108.35572    968.57374     4.239016     4.239016     4.239016    968.57374   -4172.7848    7020.8752     57.63086    1649.1706   -1251.1547    -6481.701    76.171966 
   43300     327.0468   -108.65179   0.29591881   -108.35587   -8978.0621    4.2482703    4.2482703    4.2482703   -8978.0621   -16071.325    608.88261   -11471.744   -632.17961    -328.8632    3864.8807    76.671935 
   43400    331.83484   -108.65578   0.30025113   -108.35553    1871.1158    4.2417992    4.2417992    4.2417992    1871.1158   -9990.2956   -1601.9384    17205.581   -221.45036   -1277.8905   -4474.9917    76.322102 
   43500    308.47562   -108.63508   0.27911523   -108.35597    1203.6587    4.2427756    4.2427756    4.2427756    1203.6587   -13908.954    7130.3013    10389.629    6022.4071    774.21986   -1816.9185     76.37482 
   43600    340.00126   -108.66305   0.30764028   -108.35541   -811.84718    4.2461755    4.2461755    4.2461755   -811.84718   -16027.754    3202.0481    10390.164   -1350.7082    3001.9186    299.08115    76.558572 
   43700    342.58249   -108.66495   0.30997584   -108.35498    -702.5586    4.2423208    4.2423208    4.2423208    -702.5586   -9742.8084    4711.1342    2923.9984   -304.35205     1456.152    4898.3465    76.350261 
   43800    278.57704   -108.60796   0.25206236   -108.35589    149.38721    4.2433922    4.2433922    4.2433922    149.38721   -8306.4899    6339.6945     2414.957    1176.8609    585.38058   -1095.8125    76.408121 
   43900    256.48254   -108.58767   0.23207079    -108.3556   -1492.7761    4.2482946    4.2482946    4.2482946   -1492.7761   -11828.864   -4401.3255    11751.861    -204.3367   -492.96399   -2982.0524    76.673252 
   44000    228.00738     -108.561   0.20630587   -108.35469    11600.391    4.2370548    4.2370548    4.2370548    11600.391    2348.6207    15128.102    17324.451   -10.164799   -2286.8195    5989.0514    76.066291 
   44100    219.83884   -108.55363    0.1989148   -108.35472   -235.44085    4.2490437    4.2490437    4.2490437   -235.44085   -11428.903    4139.7104    6582.8706     983.1125   -2432.7434   -4006.0185    76.713815 
   44200    393.40072   -108.70958   0.35595724   -108.35362   -4811.7134    4.2425063    4.2425063    4.2425063   -4811.7134    -8954.273   -239.14052   -5241.7267    2927.2188    3171.7003   -1465.9905    76.360278 
   44300    295.03328   -108.62208   0.26695231   -108.35512    3341.2608    4.2406555    4.2406555    4.2406555    3341.2608    -5827.103    18799.816   -2948.9309   -1996.2777    4171.0581   -578.33885    76.260384 
   44400    407.05477   -108.72364   0.36831171   -108.35533   -10742.408    4.2495499    4.2495499    4.2495499   -10742.408   -19705.861   -5478.3349   -7043.0281   -376.25771   -1238.4569    7769.7173    76.741238 
   44500    257.76187   -108.58969   0.23322836   -108.35647    9145.6826    4.2377314    4.2377314    4.2377314    9145.6826   -4429.3358    13776.115    18090.268    1601.2798     1452.196   -5990.1731    76.102738 
   44600    356.59139   -108.67936   0.32265138   -108.35671   -5880.4746    4.2473458    4.2473458    4.2473458   -5880.4746   -15820.314    401.25725    -2222.367   -1295.0355   -54.651244     209.6632     76.62189 
   44700     242.4756   -108.57545   0.21939702   -108.35605   -3457.4809    4.2443957    4.2443957    4.2443957   -3457.4809   -11029.424   -9035.1415    9692.1233    1832.7312   -1310.1565    1863.7274     76.46234 
   44800      304.212   -108.62912   0.27525741   -108.35386   -2860.1447    4.2418813    4.2418813    4.2418813   -2860.1447   -2736.6216    3966.3609   -9810.1734   -700.12314    542.59885   -3480.9424    76.326534 
   44900    285.14521   -108.61135   0.25800538   -108.35335    538.73252     4.246456     4.246456     4.246456    538.73252   -8872.9009    3906.4509    6582.6476    261.80391    2788.1051    2652.9646    76.573747 
   45000    215.18967   -108.54951   0.19470813    -108.3548    235.47232    4.2423815    4.2423815    4.2423815    235.47232   -1558.2433   -2740.0462    5004.7065    1121.1289    2605.1166    1230.1875    76.353537 
   45100    296.49124   -108.62319    0.2682715   -108.35492    1811.0964     4.242334     4.242334     4.242334    1811.0964   -4051.6622   -5414.9628    14899.914    242.34131    1391.9114    2144.0239    76.350975 
   45200    279.57548   -108.60764   0.25296577   -108.35467    2666.1939    4.2475464    4.2475464    4.2475464    2666.1939   -14106.372    15405.904    6699.0497   -753.30873    3150.3231   -3962.1728    76.632746 
   45300    403.75011   -108.71966   0.36532159   -108.35434   -783.79402     4.237633     4.237633     4.237633   -783.79402    -660.7283    230.48194   -1921.1357    28.864485   -2687.9637    5875.1686    76.097438 
   45400     294.3394    -108.6227   0.26632448   -108.35637   -565.47433    4.2496643    4.2496643    4.2496643   -565.47433   -18449.826    17995.046   -1241.6428    4622.9919   -589.70393    2006.7716    76.747437 
   45500    424.39549   -108.73967   0.38400196   -108.35567   -1029.0219    4.2399832    4.2399832    4.2399832   -1029.0219   -7513.7118    913.64908    3512.9972   -2778.7756     497.4617    1995.0912    76.224121 
   45600    207.64154   -108.54449   0.18787842   -108.35661    839.95486    4.2452067    4.2452067    4.2452067    839.95486   -13911.828    3163.8639    13267.828   -2063.3408   -92.275079     1122.492    76.506182 
   45700    285.33935   -108.61313   0.25818104   -108.35495   -315.39826    4.2463074    4.2463074    4.2463074   -315.39826   -10916.286    8194.4115    1775.6794    2398.4495    1790.1472   -1531.1596    76.565706 
   45800    243.47884   -108.57473   0.22030477   -108.35442    3348.7757    4.2402255    4.2402255    4.2402255    3348.7757   -8015.4607    12405.286    5656.5019     -1407.05    1782.7802   -3101.9642    76.237189 
   45900    293.03065   -108.62054   0.26514029    -108.3554   -6958.6936    4.2457723    4.2457723    4.2457723   -6958.6936   -6801.7632   -2140.1645   -11934.153     1186.802    1719.1406    2658.6807    76.536763 
   46000    276.75851   -108.60751   0.25041692    -108.3571   -3970.4179    4.2452544    4.2452544    4.2452544   -3970.4179   -8240.7639   -4210.2016    539.71172   -213.66304   -1956.9637    5592.4367     76.50876 
   46100    337.14091   -108.66102   0.30505218   -108.35597    3504.2864    4.2379547    4.2379547    4.2379547    3504.2864   -4298.4106    9151.4617    5659.8082   -964.52943   -668.84891   -1470.1658    76.114766 
   46200    293.15695   -108.62191   0.26525457   -108.35665   -4308.4206    4.2511842    4.2511842    4.2511842   -4308.4206   -18045.088   -4045.0687    9164.8951    -2572.338   -396.11758    62.803526    76.829809 
   46300    282.30999   -108.61107   0.25544002   -108.35563    8852.5858    4.2378623    4.2378623    4.2378623    8852.5858    -934.9784    15970.846    11521.889    1173.6934   -1052.3284   -1123.7507     76.10979 
   46400    403.70444   -108.71964   0.36528026   -108.35436   -2282.1786    4.2449478    4.2449478    4.2449478   -2282.1786   -13972.442    6174.6922    951.21385    793.87693    3707.6575    -429.5272    76.492182 
   46500    321.68026   -108.64573   0.29106306   -108.35467   -9.0161259    4.2473915    4.2473915    4.2473915   -9.0161259   -14098.098    11667.033    2404.0165   -4634.2843    192.52747    1563.9795    76.624363 
   46600    366.33167   -108.68592   0.33146459   -108.35445    3474.1873    4.2387497    4.2387497    4.2387497    3474.1873     1453.135    8575.4779    393.94902    2577.0493   -2.4775168    5921.3143    76.157609 
   46700    218.51569   -108.55376   0.19771759   -108.35604    2338.9039    4.2469995    4.2469995    4.2469995    2338.9039    -16803.89     12018.05    11802.552   -432.09222    1596.3096   -844.80234     76.60315 
   46800    263.79619   -108.59386   0.23868834   -108.35517    -825.3076    4.2431186    4.2431186    4.2431186    -825.3076   -4680.3409    -953.1808    3157.5989   -4062.3387    176.00628   -3565.5216    76.393344 
   46900    187.58357   -108.52519   0.16972956   -108.35546    8872.0549    4.2408254    4.2408254    4.2408254    8872.0549   -3304.2949    19563.847    10356.612    767.72557    383.18347     3507.767    76.269551 
   47000    418.28301   -108.73333   0.37847126   -108.35486   -10651.864    4.2458642    4.2458642    4.2458642   -10651.864   -11707.284   -9521.3391   -10726.969   -567.07428   -104.11344    2765.0833    76.541733 
   47100    248.00196   -108.58168   0.22439738   -108.35728   -828.99443    4.2427069    4.2427069    4.2427069   -828.99443   -8875.1519    5980.5091    407.65955    455.37131    3848.5733    -328.7737    76.371109 
   47200    390.96238   -108.70945   0.35375098    -108.3557   -5254.5194    4.2440336    4.2440336    4.2440336   -5254.5194   -11873.027   -747.03938   -3143.4918   -1525.2804    500.47282    1099.4357    76.442773 
   47300     266.6337   -108.59721   0.24125578   -108.35596    1317.2072    4.2443866    4.2443866    4.2443866    1317.2072   -13389.985    9734.5955    7607.0115    1150.6329    1364.1469    1088.3692    76.461852 
   47400     288.0509   -108.61638    0.2606345   -108.35574    1632.9998    4.2423714    4.2423714    4.2423714    1632.9998   -10852.172    4058.7039    11692.467    26.600294     2492.354   -3597.7317    76.352991 
   47500    353.75308   -108.67464   0.32008322   -108.35456   -4361.8192    4.2473052    4.2473052    4.2473052   -4361.8192   -14418.046    321.72002    1010.8684   -2373.5798   -2147.2832    2186.8732    76.619692 
   47600    287.22093   -108.61432   0.25988353   -108.35443     963.7681    4.2396565    4.2396565    4.2396565     963.7681   -5459.7936    1758.3546    6592.7433    5089.5321    1671.7494    5916.1182      76.2065 
   47700    322.20827   -108.64586   0.29154081   -108.35432   -9162.4384    4.2476782    4.2476782    4.2476782   -9162.4384    -11969.13    -5834.941    -9683.244   -3973.7003    1887.5949    97.601371    76.639881 
   47800    179.68985   -108.51763   0.16258715   -108.35504    10578.043     4.242849     4.242849     4.242849    10578.043   -12880.094    21286.918    23327.304   -2393.6607   -1361.1115   -2472.6133    76.378783 
   47900    325.70539   -108.64952   0.29470508   -108.35481     2118.121     4.239604     4.239604     4.239604     2118.121   -1459.1889    377.46304    7436.0889    1745.8946   -760.72847    684.58587    76.203666 
   48000    188.22287   -108.52709   0.17030801   -108.35679    2652.8888    4.2483064    4.2483064    4.2483064    2652.8888   -15816.407    5784.0232     17991.05   -4029.1145    530.70966   -628.27227    76.673891 
   48100    476.82041   -108.78603   0.43143713    -108.3546   -5667.8547    4.2412465    4.2412465    4.2412465   -5667.8547   -12282.824   -2964.1678   -1756.5719   -664.26025    1058.2527    700.77443    76.292271 
   48200    310.91699   -108.63783   0.28132423   -108.35651    4112.2864     4.242311     4.242311     4.242311    4112.2864   -7506.0869    12991.453    6851.4927   -1249.4117   -602.13912    4973.5068     76.34973 
   48300    334.45868   -108.65878   0.30262524   -108.35616   -7056.6544    4.2488237    4.2488237    4.2488237   -7056.6544   -18451.611   -1682.3979   -1035.9544   -302.44181    1203.3255    1885.1181    76.701902 
   48400    261.32468     -108.592   0.23645207   -108.35555    6547.8985    4.2387329    4.2387329    4.2387329    6547.8985   -14521.695    8047.3374    26118.053    -3428.404   -760.09404   -4814.9256    76.156707 
   48500    297.98824   -108.62453   0.26962602    -108.3549   -1704.4708    4.2448878    4.2448878    4.2448878   -1704.4708   -7580.4445   -2171.9703    4639.0023   -2030.7073   -2259.6715     1302.798     76.48894 
   48600     284.4108   -108.61309   0.25734087   -108.35575   -12647.387    4.2478686    4.2478686    4.2478686   -12647.387   -17439.885   -16344.388   -4157.8875   -1747.6204      2511.95    2547.0155    76.650188 
   48700      275.874   -108.60473   0.24961659   -108.35512    2217.4531    4.2366589    4.2366589    4.2366589    2217.4531   -6372.0162    8316.2547    4708.1209   -6072.1581   -1940.9428    284.83512    76.044972 
   48800    303.94756   -108.62974   0.27501814   -108.35472   -8179.6387    4.2508242    4.2508242    4.2508242   -8179.6387   -12306.256   -16916.757    4684.0964    2907.5267    1249.9552    72.736251    76.810296 
   48900    194.30772   -108.53089   0.17581371   -108.35508    3866.5788    4.2386338    4.2386338    4.2386338    3866.5788   -6823.9635   -1548.3221    19972.022   -2805.7283    3135.3903    2969.2073    76.151367 
   49000    320.36473   -108.64528   0.28987274   -108.35541   -2375.8298    4.2448749    4.2448749    4.2448749   -2375.8298   -13257.567   -7490.8828     13620.96   -4619.2432    2482.7836   -851.54647    76.488242 
   49100    328.86327   -108.65243    0.2975624   -108.35486    4275.9114    4.2445338    4.2445338    4.2445338    4275.9114   -8499.3768    11041.984    10285.127    3271.4182   -519.27931   -1099.3163    76.469808 
   49200    431.76076   -108.74557   0.39066621    -108.3549   -8142.7232    4.2428295    4.2428295    4.2428295   -8142.7232   -12559.948    -6090.399   -5777.8228   -1720.0294   -2029.8624    6287.9168    76.377729 
   49300    242.12897   -108.57533   0.21908338   -108.35625    4803.6126    4.2452197    4.2452197    4.2452197    4803.6126   -13819.116    6956.0257    21273.928   -3545.9445     194.5881     428.4629    76.506881 
   49400    380.51124   -108.69868   0.34429456   -108.35438   -677.54706     4.242261     4.242261     4.242261   -677.54706   -9920.3737     1171.208    6716.5245   -28.605909   -2192.4091    996.29073    76.347029 
   49500    231.87616    -108.5647   0.20980642   -108.35489    1854.0397    4.2434379    4.2434379    4.2434379    1854.0397   -11026.978    1673.2115    14915.886   -742.08904    1623.1734   -2088.5561    76.410592 
   49600    234.80278   -108.56792   0.21245449   -108.35547   -1666.8225    4.2458746    4.2458746    4.2458746   -1666.8225    -12580.54    12202.564   -4622.4911   -2837.3985    366.59399    746.75941    76.542297 
   49700    328.18127   -108.65284   0.29694531   -108.35589   -14.981534    4.2376906    4.2376906    4.2376906   -14.981534   -7559.7886    1667.8889    5846.9552   -539.87747   -86.370227   -247.92397    76.100542 
   49800    284.13945   -108.61364   0.25709535   -108.35654   -10312.963    4.2510402    4.2510402    4.2510402   -10312.963   -14212.293   -6559.8888   -10166.705    2417.6128    30.640446    3743.5928    76.822003 
   49900    244.22232   -108.57679   0.22097749   -108.35581     2246.364    4.2390394    4.2390394    4.2390394     2246.364   -10084.162   -4320.9092    21144.163   -6578.3057   -988.18069     913.4448    76.173228 
   50000    310.16825   -108.63535   0.28064675    -108.3547    1053.7003    4.2430385    4.2430385    4.2430385    1053.7003   -13306.829    9687.2265    6780.7037    205.18159   -3743.1333   -2434.7732    76.389016 
   50100    360.19002   -108.68009    0.3259075   -108.35418    -4847.924    4.2487611    4.2487611    4.2487611    -4847.924   -15977.353   -2031.5454    3465.1267   -1123.5014   -919.44337    856.59492    76.698514 
   50200    293.56901   -108.62105   0.26562741   -108.35543    507.53202    4.2378046    4.2378046    4.2378046    507.53202   -12333.369     8663.675    5192.2899   -7996.7875    2882.6975    2137.4012    76.106681 
   50300    382.15039   -108.70115    0.3457777   -108.35537   -5875.9286    4.2455067    4.2455067    4.2455067   -5875.9286   -15771.904   -5148.5919    3292.7097    1701.2342   -215.45204    2321.8988      76.5224 
   50400    272.23283   -108.60189   0.24632198   -108.35557   -1460.6581    4.2475356    4.2475356    4.2475356   -1460.6581   -17316.621   -1209.6469    14144.294   -1175.7084    618.94733   -757.70936     76.63216 
   50500    262.25797   -108.59173   0.23729652   -108.35443    5517.7697    4.2359176    4.2359176    4.2359176    5517.7697   -4821.7094    8097.4557    13277.563   -3847.0402    544.08286    3747.3782    76.005061 
   50600     244.6693    -108.5757   0.22138193   -108.35432   -2975.5842    4.2494256    4.2494256    4.2494256   -2975.5842   -19255.321    2749.8289    7578.7394    481.21244   -1538.2847   -3240.6288    76.734501 
   50700    329.09315   -108.65268    0.2977704   -108.35491   -4932.1276    4.2418459    4.2418459    4.2418459   -4932.1276   -6961.9782   -1571.6304   -6262.7742   -1450.3382   -2365.8899    3131.9602    76.324623 
   50800    268.67611   -108.60023   0.24310379   -108.35712    3873.3984     4.240654     4.240654     4.240654    3873.3984   -8040.3005    13123.519    6536.9763   -1639.7037    1037.2077    2946.3835      76.2603 
   50900    319.31795   -108.64528    0.2889256   -108.35635   -4680.6847    4.2495306    4.2495306    4.2495306   -4680.6847   -16166.239   -2170.4472     4294.632   -3175.5633    35.812603    929.99921    76.740195 
   51000    280.06035   -108.60809   0.25340449   -108.35469    8689.5664     4.237742     4.237742     4.237742    8689.5664   -5413.5285    8720.3936    22761.834    6081.0329    193.75796   -3702.4668    76.103311 
   51100    332.71588   -108.65673   0.30104832   -108.35568   -847.72267     4.246638     4.246638     4.246638   -847.72267   -15627.281    11173.468    1910.6456   -1526.2965    2537.2958    883.49443    76.583589 
   51200    316.21019   -108.64236   0.28611362   -108.35625   -3325.3452    4.2437591    4.2437591    4.2437591   -3325.3452   -11456.526   -972.85999    2453.3504   -506.25267   -137.26212   -887.11623    76.427944 
   51300    355.89369   -108.67716   0.32202009   -108.35514   -1052.7676    4.2405231    4.2405231    4.2405231   -1052.7676   -12285.669     10770.66   -1643.2937    5468.0885   -3258.6658    288.63002    76.253242 
   51400    340.45375   -108.66266   0.30804971   -108.35461   -4487.6411    4.2477047    4.2477047    4.2477047   -4487.6411     -14240.4   -5435.6968    6213.1734   -3861.4289   -1791.9913    2508.1211    76.641315 
   51500    192.32057   -108.52949    0.1740157   -108.35547    901.23519     4.239761     4.239761     4.239761    901.23519   -5782.0959    -2615.554    11101.355    126.31971    581.40839     1014.137    76.212135 
   51600    288.85518   -108.61558   0.26136224   -108.35422   -5735.5919    4.2453178    4.2453178    4.2453178   -5735.5919   -14809.335   -6216.4018    3818.9614    3680.8384   -912.01864   -2459.9939    76.512187 
   51700    207.17835   -108.54201   0.18745933   -108.35455    7325.1463        4.244        4.244        4.244    7325.1463   -9024.4351    23005.645    7994.2292      648.001    617.98242   -3722.5474    76.440956 
   51800    356.43505   -108.67847   0.32250992   -108.35596    -2590.238    4.2403013    4.2403013    4.2403013    -2590.238   -2072.9549   -2371.8074   -3325.9518   -1527.7009    229.62894    5271.0075    76.241273 
   51900    288.74357   -108.61855   0.26126125   -108.35728   -3488.2053    4.2490067    4.2490067    4.2490067   -3488.2053   -16443.859    7496.6586   -1517.4153    2270.3737   -1411.3487   -916.36182    76.711815 
   52000    416.42044   -108.73131   0.37678597   -108.35452    6370.9542    4.2372424    4.2372424    4.2372424    6370.9542    1206.9278    9663.6131    8242.3217   -662.80531   -231.22701    614.60355    76.076398 
   52100    244.16561   -108.57609   0.22092617   -108.35517    3737.3349    4.2468477    4.2468477    4.2468477    3737.3349   -10263.817    15133.439    6342.3823   -5166.3821   -1785.7408    -495.6588    76.594936 
   52200    335.22647   -108.65877   0.30331995   -108.35545    113.50542    4.2431813    4.2431813    4.2431813    113.50542   -14487.111    11411.641    3415.9861    2739.2446    -1478.857   -1013.2718    76.396727 
   52300    295.09981   -108.62314   0.26701251   -108.35613    4705.6034    4.2401849    4.2401849    4.2401849    4705.6034   -5749.7187    12036.443    7830.0861    2597.1264   -1141.7502   -2204.5024    76.234996 
   52400    334.85669    -108.6586   0.30298537   -108.35562   -8331.5309    4.2472325    4.2472325    4.2472325   -8331.5309   -8270.9663   -7485.3615   -9238.2649   -2633.4843    1981.6147    1041.3938    76.615759 
   52500    314.67312   -108.63973   0.28472285   -108.35501   -8621.0479    4.2421217    4.2421217    4.2421217   -8621.0479   -12765.027   -4728.1861   -8369.9306    1915.2056   -1453.7533    4179.2677    76.339511 
   52600    219.43489   -108.55392    0.1985493   -108.35537     4523.195    4.2423685    4.2423685    4.2423685     4523.195   -3160.6208    8117.8721    8612.3338      1595.33   -1934.4425   -5971.5714    76.352836 
   52700    291.19722   -108.61866   0.26348136   -108.35518   -3397.9124    4.2464456    4.2464456    4.2464456   -3397.9124   -10325.636    435.17802   -303.27904   -1619.5105    915.08961   -1437.5743    76.573182 
   52800    212.17411   -108.54792   0.19197959   -108.35594    3492.0097    4.2411759    4.2411759    4.2411759    3492.0097   -11435.196    3368.7073    18542.518   -2172.2988   -1788.9784   -3157.0486    76.288459 
   52900    336.86955   -108.65938   0.30480665   -108.35458   -694.61803    4.2458466    4.2458466    4.2458466   -694.61803   -7227.8873    3291.1397    1852.8935    1875.6971   -2453.1338     47.09911    76.540781 
   53000    388.45005   -108.70486   0.35147777   -108.35339   -807.87097    4.2444251    4.2444251    4.2444251   -807.87097   -8827.8695   -152.64089    6556.8975    -770.7791    366.33581    3543.0622    76.463929 
   53100    380.26339   -108.69789   0.34407031   -108.35382    224.33972    4.2411975    4.2411975    4.2411975    224.33972    -6996.446    4385.4462     3284.019    777.45127   -357.55137    3172.6274    76.289626 
   53200    225.96592   -108.56054   0.20445872   -108.35608    4897.5739    4.2475912    4.2475912    4.2475912    4897.5739   -12430.459    16506.449    10616.732    6121.7358    595.53471   -3354.5366    76.635171 
   53300    354.50875    -108.6754   0.32076696   -108.35463    6592.0278    4.2382129    4.2382129    4.2382129    6592.0278   -4210.0516    4868.7009    19117.434   -1963.7043    2414.5179   -5679.4539    76.128681 
   53400    217.49654   -108.55357   0.19679544   -108.35678    1281.5922    4.2472496    4.2472496    4.2472496    1281.5922   -13841.249    13095.415    4590.6107    696.51159   -361.50801    1228.2617    76.616684 
   53500    280.71066   -108.60936   0.25399291   -108.35537    1141.3241    4.2414379    4.2414379    4.2414379    1141.3241   -2415.3299    -4215.559    10054.861    2456.2026   -3210.1214    2809.3871    76.302602 
   53600    383.25882   -108.70133   0.34678063   -108.35455   -7237.1783    4.2448606    4.2448606    4.2448606   -7237.1783   -12627.676   -5313.0421   -3770.8174    -1890.161   -2297.1996    1177.2243    76.487473 
   53700    275.97065   -108.60457   0.24970404   -108.35486   -185.91092    4.2440829    4.2440829    4.2440829   -185.91092   -6797.1825    176.23846    6063.2113    1404.4548    1706.1104    352.16464    76.445438 
   53800    218.93776   -108.55401   0.19809948   -108.35591    -89.88533    4.2440633    4.2440633    4.2440633    -89.88533   -10811.405    3380.8552    7160.8943    1931.5786   -2980.5375   -676.45994     76.44438 
   53900    313.56437   -108.63826   0.28371963   -108.35454    2963.4698    4.2429353    4.2429353    4.2429353    2963.4698   -14892.464    9526.6535     14256.22    3096.1589    280.95449   -4648.9648    76.383441 
   54000    352.24111    -108.6731   0.31871515   -108.35439   -3735.6309    4.2458379    4.2458379    4.2458379   -3735.6309   -4919.0675    -4176.256   -2111.5694   -619.87825    478.75329   -454.64457    76.540312 
   54100    287.44982   -108.61486   0.26009064   -108.35477   -2501.7045    4.2409498    4.2409498    4.2409498   -2501.7045   -10641.757   -3307.8004     6444.444    2272.6154   -1220.1513    3751.6307     76.27626 
   54200    407.40295    -108.7221   0.36862675   -108.35347   -9803.7421    4.2464314    4.2464314    4.2464314   -9803.7421   -13388.616   -15615.016     -407.595     1030.746    571.58261   -2135.7792    76.572412 
   54300    240.74998   -108.57291   0.21783564   -108.35507    6354.4984    4.2417329    4.2417329    4.2417329    6354.4984   -2671.9297    3049.5468    18685.878    -3953.554   -3318.0728   -1488.8629     76.31852 
   54400    214.58623   -108.55058   0.19416213   -108.35642    1062.7058    4.2425616    4.2425616    4.2425616    1062.7058   -12586.403    -718.4843    16493.005     4787.141    -673.9796   -278.26661    76.363262 
   54500    262.03297   -108.59303   0.23709294   -108.35594   -2238.0758    4.2454934    4.2454934    4.2454934   -2238.0758   -13418.849    4368.0876     2336.534    342.87581    -618.0385   -1018.0887    76.521682 
   54600     336.7209   -108.65922   0.30467215   -108.35455   -317.42135    4.2435557    4.2435557    4.2435557   -317.42135   -3419.9057    1542.0213    925.62036   -1619.7079     374.6515    2048.6168    76.416951 
   54700     291.8558    -108.6197   0.26407726   -108.35563   -151.07981    4.2436999    4.2436999    4.2436999   -151.07981   -15891.077   -714.58425    16152.422    4076.1336   -2441.4331     6028.733    76.424742 
   54800    316.91474   -108.64266   0.28675111   -108.35591   -2564.2858    4.2453226    4.2453226    4.2453226   -2564.2858    -14125.86    -3551.224    9984.2263   -969.84053   -1363.2734   -1497.0909    76.512447 
   54900    365.77809   -108.68563    0.3309637   -108.35466    3886.9075    4.2421401    4.2421401    4.2421401    3886.9075   -9221.5317    3147.9946     17734.26   -871.57091    2795.3782   -4637.8525    76.340503 
   55000    305.50742   -108.63184   0.27642954   -108.35541   -1422.8381    4.2445363    4.2445363    4.2445363   -1422.8381   -14698.142    12589.844   -2160.2164    1602.1855   -709.66071    1717.8971    76.469944 
   55100    284.99975   -108.61421   0.25787376   -108.35634   -2932.2568     4.242882     4.242882     4.242882   -2932.2568   -10770.572    6383.0805   -4409.2787    2126.2668    739.70297    2505.7328    76.380565 
   55200    334.71331   -108.65787   0.30285564   -108.35501    887.89818    4.2452823    4.2452823    4.2452823    887.89818   -12298.983    6816.1325    8146.5449    924.66062   -1209.7668    1031.2224    76.510267 
   55300    300.39284   -108.62653   0.27180176   -108.35473   -3771.1495    4.2437362    4.2437362    4.2437362   -3771.1495   -14385.163    -7951.051    11022.765    1683.8348   -2072.1321      3759.63    76.426706 
   55400    176.86449   -108.51588   0.16003071   -108.35585   -2827.1964    4.2418637    4.2418637    4.2418637   -2827.1964   -11256.766   -8554.4619    11329.638    4727.7593   -1252.7014    347.67408    76.325585 
   55500    384.59527   -108.70213   0.34798989   -108.35414   -9870.8839    4.2490218    4.2490218    4.2490218   -9870.8839   -18603.768   -3638.7291   -7370.1549   -811.55998    802.77405   -4508.6589     76.71263 
   55600    251.49605   -108.58236   0.22755891   -108.35481    5530.8967    4.2397329    4.2397329    4.2397329    5530.8967   -8353.1423     10358.68    14587.152    2783.7522    532.07244    1546.9251    76.210619 
   55700    221.36004   -108.55539   0.20029121    -108.3551   -1410.7965    4.2445984    4.2445984    4.2445984   -1410.7965   -16935.867    2326.7032    10376.774    5544.3619   -1531.4035    7786.0553    76.473299 
   55800    311.96282    -108.6364   0.28227051   -108.35413    1555.9346    4.2464276    4.2464276    4.2464276    1555.9346   -17013.547   -2409.2669    24090.617   -1959.0194    1846.5106    1084.9765    76.572207 
   55900    391.40867   -108.70887   0.35415479   -108.35471   -19.226858    4.2398302    4.2398302    4.2398302   -19.226858   -7853.4862   -3813.1359    11608.942    6028.6102   -817.20515    -3619.405    76.215867 
   56000    326.77918   -108.65172   0.29567667   -108.35604   -5205.5233    4.2448552    4.2448552    4.2448552   -5205.5233   -12821.244   -12091.904    9296.5788    3851.3196   -2582.3084    3146.1717    76.487179 
   56100    394.88423   -108.71274   0.35729955   -108.35544   -5779.8485    4.2480167    4.2480167    4.2480167   -5779.8485   -14293.044   -5872.5878    2826.0863   -2852.1414    467.66151    2134.5294    76.658204 
   56200    258.12485    -108.5884   0.23355679   -108.35485    8631.3134     4.238136     4.238136     4.238136    8631.3134   -4799.5794    2946.9102    27746.609    5826.4712    1532.0068    1094.0552    76.124535 
   56300    209.43837    -108.5455   0.18950424   -108.35599   -7874.0752    4.2479821    4.2479821    4.2479821   -7874.0752   -18181.363   -11095.362    5654.4996     846.2905    141.12205    6012.8623    76.656331 
   56400    239.93692   -108.57236   0.21709997   -108.35526    953.10028    4.2430331    4.2430331    4.2430331    953.10028   -12196.101    5059.9131    9995.4888    715.57025   -1904.1773    2613.4701    76.388726 
   56500    343.91059   -108.66516   0.31117753   -108.35398   -1944.8729    4.2417217    4.2417217    4.2417217   -1944.8729   -7848.0346   -3012.5733    5025.9891    5145.4492   -965.48243   -3146.5978    76.317919 
   56600    262.90636   -108.59373    0.2378832   -108.35585   -5992.5963    4.2454445    4.2454445    4.2454445   -5992.5963   -14883.097   -4776.1849    1681.4929    779.88126   -914.12314   -1397.7428    76.519036 
   56700    274.91094   -108.60397   0.24874519   -108.35522    -662.4991    4.2445247    4.2445247    4.2445247    -662.4991    -7258.471   -6022.3186    11293.292    1748.5188    -145.1373    4838.7069    76.469313 
   56800    362.42927    -108.6817   0.32793362   -108.35377    3004.7106    4.2420912    4.2420912    4.2420912    3004.7106   -9059.1092   -2930.5577    21003.799     262.4894    2841.1102    3723.3877    76.337864 
   56900    322.44034   -108.64692    0.2917508   -108.35517   -1566.9695     4.244922     4.244922     4.244922   -1566.9695   -13561.716    7815.3761    1045.4314    1127.4946   -4157.2433    3729.3628    76.490789 
   57000    329.09843    -108.6536   0.29777518   -108.35583   -20.072167     4.244223     4.244223     4.244223   -20.072167     -4889.17   -1476.3483    6305.3018   -2112.1607   -939.55187   -740.02496     76.45301 
   57100    321.56992   -108.64611   0.29096322   -108.35515    6582.3677    4.2414708    4.2414708    4.2414708    6582.3677   -12169.156     10559.51    21356.749   -685.93032     472.7753   -3684.7686    76.304378 
   57200    296.96877   -108.62405   0.26870358   -108.35535    -2404.408    4.2455199    4.2455199    4.2455199    -2404.408   -9569.6095   -11672.564    14028.949    5115.2665    1479.4014    1118.5197    76.523117 
   57300    227.18467   -108.56079   0.20556146   -108.35523    1174.7135    4.2430901    4.2430901    4.2430901    1174.7135   -7057.4892   -10776.464    21358.094   -2085.0931    1939.8211    5535.7108    76.391802 
   57400    379.86179   -108.69812   0.34370693   -108.35441   -5075.5381    4.2428156    4.2428156    4.2428156   -5075.5381    -11655.16    1626.4096   -5197.8638    1470.8236    259.51609    3675.3384    76.376976 
   57500    249.85959   -108.58218   0.22607821   -108.35611   -1913.9459    4.2458488    4.2458488    4.2458488   -1913.9459   -7575.9857   -6969.7284    8803.8764    1955.8114   -718.05324   -927.57269    76.540899 
   57600    223.65141   -108.55871    0.2023645   -108.35635     2680.115    4.2429339    4.2429339    4.2429339     2680.115   -7044.7023    3388.8065    11696.241   -4082.3873   -4120.8001    627.67914    76.383366 
   57700    256.28498   -108.58725   0.23189204   -108.35536    4814.4693    4.2431156    4.2431156    4.2431156    4814.4693   -12055.666    2185.4901    24313.584    1583.4018    636.70151   -4988.8495    76.393182 
   57800    358.44285   -108.67884   0.32432663   -108.35452   -4498.5272    4.2459385    4.2459385    4.2459385   -4498.5272   -10759.276   -3645.5209     909.2153   -868.31896   -1358.5859     697.7361    76.545755 
   57900    346.45872   -108.66813   0.31348313   -108.35465    -1448.838    4.2412261    4.2412261    4.2412261    -1448.838   -8674.2301   -1337.6489     5665.365   -1972.9206     3726.966    5334.0743    76.291171 
   58000    371.56219   -108.69113   0.33619728   -108.35493   -5807.8638    4.2455753    4.2455753    4.2455753   -5807.8638   -13441.225   -10019.813    6037.4462    2823.5166    2441.0017    2759.8341    76.526112 
   58100    280.33197   -108.60894   0.25365025   -108.35529     3314.344    4.2431263    4.2431263    4.2431263     3314.344   -10447.667   -8715.0863    29105.785    1074.0755    1435.4272   -2093.6643    76.393761 
   58200    296.61932   -108.62393   0.26838739   -108.35554   -1498.7311    4.2432204    4.2432204    4.2432204   -1498.7311   -7761.7613    -8863.736    12129.304     558.1783   -2449.8304   -722.21539    76.398844 
   58300    237.92566   -108.57101   0.21528013   -108.35573   -757.83336    4.2440688    4.2440688    4.2440688   -757.83336   -12545.897    3310.3808    6962.0166   -834.14149   -1860.3132    3001.6102    76.444674 
   58400    346.86865   -108.66825   0.31385404    -108.3544   -2966.1655    4.2434428    4.2434428    4.2434428   -2966.1655   -6081.9405   -4579.1606    1762.6045    806.15518   -37.225231    1031.2114    76.410855 
   58500    214.45484   -108.54994   0.19404325    -108.3559    8873.0074    4.2432264    4.2432264    4.2432264    8873.0074   -5747.8079   -353.48838    32720.318   -489.64176    37.684821    5358.1968    76.399168 
   58600     281.3036   -108.61117   0.25452941   -108.35664   -1133.4464    4.2440819    4.2440819    4.2440819   -1133.4464   -5940.9898   -7635.7812    10176.432   -2412.1462    3460.9107    24.246295    76.445387 
   58700    332.70132   -108.65653   0.30103514    -108.3555    1196.1664    4.2421225    4.2421225    4.2421225    1196.1664   -2867.7643   -3086.2413    9542.5049    4566.3361    493.63676   -2772.9826    76.339553 
   58800    419.09331   -108.73422   0.37920444   -108.35502   -2644.4787    4.2452719    4.2452719    4.2452719   -2644.4787    -11948.47    947.20762    3067.8267   -36.771773    340.92599    1572.6818    76.509708 
   58900    273.12825   -108.60408   0.24713218   -108.35694    2394.4476    4.2415561    4.2415561    4.2415561    2394.4476   -2425.3464   -1936.0335    11544.723    277.22032   -2930.5726    6259.1559    76.308982 
   59000    265.91321   -108.59734   0.24060386   -108.35673    1316.8264     4.245698     4.245698     4.245698    1316.8264   -15021.916   -1524.2702    20496.666    2101.6662    536.58088    2085.2552    76.532747 
   59100    314.14946   -108.63956   0.28424903   -108.35531    2670.7867    4.2430901    4.2430901    4.2430901    2670.7867   -8379.1883    -1259.164    17650.712   -2851.5483   -330.53235     2992.828    76.391801 
   59200    276.21442   -108.60565   0.24992462   -108.35572   -3080.9222    4.2431707    4.2431707    4.2431707   -3080.9222   -3646.9133   -5750.8171    154.96382    134.42715    1083.9879    3608.9161    76.396155 
   59300    298.90946   -108.62583   0.27045956   -108.35537   -2840.1435    4.2463564    4.2463564    4.2463564   -2840.1435   -15602.309   -704.47151    7786.3499    917.30934     1682.234   -3202.2151    76.568357 
   59400    322.80473   -108.64662    0.2920805   -108.35454    5092.9914    4.2398688    4.2398688    4.2398688    5092.9914   -3261.8028   -8524.7917    27065.569    22.434464   -2451.6424   -3172.6119    76.217948 
   59500    230.18758   -108.56402   0.20827856   -108.35575    1471.0043    4.2451054    4.2451054    4.2451054    1471.0043   -6124.8691   -2999.9313    13537.813    1513.5984   -1485.0154    6731.2354    76.500704 
   59600    328.48429   -108.65241   0.29721949   -108.35519   -4566.1504     4.246001     4.246001     4.246001   -4566.1504   -17007.635   -307.06327    3616.2466    3160.0406    1646.9013    3921.3916    76.549134 
   59700    347.02373   -108.66881   0.31399436   -108.35481    7031.6778    4.2385941    4.2385941    4.2385941    7031.6778   -2836.8332    7552.4274    16379.439    3727.4698     1263.247   -2921.0525    76.149227 
   59800    291.07058   -108.61916   0.26336678   -108.35579   -2952.2898    4.2481784    4.2481784    4.2481784   -2952.2898   -15347.531    1806.6636    4683.9981   -1501.7286    265.35417    2096.9361     76.66696 
   59900    305.92086   -108.63273   0.27680363   -108.35593   -4334.8413    4.2421731    4.2421731    4.2421731   -4334.8413   -15190.375   -8572.5106    10758.361    2485.4859   -1191.6288    2171.7173    76.342287 
   60000    248.32742   -108.58077   0.22469187   -108.35608    5534.2004    4.2396495    4.2396495    4.2396495    5534.2004   -8704.3622   -3386.6427    28693.606    2398.2719    567.55369   -593.64527     76.20612 
   60100    429.90439   -108.74493   0.38898652   -108.35594   -14926.929    4.2500939    4.2500939    4.2500939   -14926.929   -16832.921   -17790.432   -10157.435   -1937.2594    67.655415   -1002.5473    76.770712 
   60200    222.75012   -108.55843   0.20154899   -108.35688    2920.5114     4.238764     4.238764     4.238764    2920.5114   -11050.711    4948.3759     14863.87    4696.3653    2649.4039    3046.6951    76.158383 
   60300    290.55452   -108.61851   0.26289983   -108.35561   -2831.7368    4.2441296    4.2441296    4.2441296   -2831.7368   -12446.098   -7721.7355    11672.623    2955.0164    2347.9178   -4807.4163    76.447964 
   60400    266.01449   -108.59612    0.2406955   -108.35543   -1297.9151    4.2467904    4.2467904    4.2467904   -1297.9151   -17398.711   -4412.9584    17917.924   -1119.9566   -1613.2086   -1463.6862    76.591835 
   60500    273.29525   -108.60247   0.24728329   -108.35519    934.25609    4.2407006    4.2407006    4.2407006    934.25609   -6577.4033     1694.094    7686.0776    6145.9728    2823.9254    4496.8994    76.262816 
   60600     353.6806   -108.67435   0.32001764   -108.35434   -4017.9784    4.2447272    4.2447272    4.2447272   -4017.9784   -12253.728   -7535.5781    7735.3711    871.32698   -1981.4593     1805.936     76.48026 
   60700    337.64694   -108.66055   0.30551005   -108.35504   -6119.0689    4.2467623    4.2467623    4.2467623   -6119.0689   -13184.682   -4998.6011   -173.92339    -2250.076   -1166.6978    476.62966    76.590316 
   60800    234.22936   -108.56788   0.21193565   -108.35595    5988.9062    4.2391352    4.2391352    4.2391352    5988.9062   -5444.7821   -6532.1625    29943.663    3926.6158   -1352.3686   -4.7195031     76.17839 
   60900    306.29956    -108.6332   0.27714628   -108.35605   -4149.0228    4.2463725    4.2463725    4.2463725   -4149.0228   -16277.332   -5026.1433    8856.4069   -974.19334    4072.1847   -2495.7263    76.569227 
   61000    311.91255   -108.63746   0.28222503   -108.35523   -1379.4826    4.2442657    4.2442657    4.2442657   -1379.4826   -13122.571    1900.6534    7083.4694     70.87811    1760.7223   -4990.2263    76.455317 
   61100    340.89209   -108.66326   0.30844633   -108.35481   -2176.9075     4.242736     4.242736     4.242736   -2176.9075    -7450.634   -499.60276    1419.5143    1888.2727    387.08273    7331.8752    76.372679 
   61200     230.2515   -108.56481   0.20833639   -108.35647    3116.6406    4.2437591    4.2437591    4.2437591    3116.6406   -16923.618    1130.5106    25143.029    595.22927   -1159.5777    5670.3317    76.427942 
   61300    304.53977    -108.6316   0.27555398   -108.35605   -2008.7805    4.2463173    4.2463173    4.2463173   -2008.7805     -8787.88   -14589.803    17351.341     380.6759   -3427.9821   -2211.0463    76.566243 
   61400    337.60644   -108.66091    0.3054734   -108.35544    1933.7862    4.2404939    4.2404939    4.2404939    1933.7862   -6835.6338   -3710.3635    16347.356   -625.48254    1202.6554   -1509.6223    76.251664 
   61500    348.60375   -108.67033     0.315424   -108.35491    -8494.226    4.2464337    4.2464337    4.2464337    -8494.226   -9182.7624    -3750.963   -12548.953    677.07281    951.57332     2039.496    76.572536 
   61600    314.13938   -108.63854   0.28423992    -108.3543   -2018.3719    4.2443293    4.2443293    4.2443293   -2018.3719   -7238.2848   -9350.8559    10534.025   -2953.1254    2650.5124   -1497.2194    76.458751 
   61700    251.43883    -108.5822   0.22750713    -108.3547    7128.3993    4.2414712    4.2414712    4.2414712    7128.3993   -7879.1572    4988.2051     24276.15    1246.2559   -863.92433    789.93944    76.304396 
   61800    235.43907   -108.56871   0.21303022   -108.35568   -389.02032    4.2448147    4.2448147    4.2448147   -389.02032   -8171.4721   -6693.2334    13697.645    2028.9624    3469.9505    5460.2383     76.48499 
   61900    298.48392   -108.62537   0.27007453    -108.3553   -4308.3761    4.2436214    4.2436214    4.2436214   -4308.3761   -10626.853   -3826.3894    1528.1138   -5397.6657   -388.03674    134.06939    76.420503 
   62000    349.56966   -108.67193   0.31629797   -108.35563   -134.84325    4.2431032    4.2431032    4.2431032   -134.84325   -7653.6839   -2087.4149    9336.5691    2799.9158   -619.14971   -3614.0252    76.392509 
   62100    262.93795   -108.59432   0.23791178   -108.35641    695.73428    4.2442115    4.2442115    4.2442115    695.73428   -5188.8359   -13595.359    20871.398   -872.30496   -84.961751    331.70643    76.452385 
   62200     255.9958   -108.58775   0.23163038   -108.35611   -164.44652    4.2431425    4.2431425    4.2431425   -164.44652   -15927.396   -9804.9741     25239.03   -4893.1978    1186.2852    1127.3741    76.394632 
   62300    405.74099    -108.7222   0.36712298   -108.35508    -3620.094    4.2433776    4.2433776    4.2433776    -3620.094   -6614.8792   -10040.762    5795.3596    1468.3888    624.32416    133.10969    76.407332 
   62400    310.55824   -108.63758   0.28099962   -108.35658   -3850.4409      4.24427      4.24427      4.24427   -3850.4409   -5669.7279   -4902.1451   -979.44978   -1384.7533   -269.55462    2910.4152    76.455548 
   62500    315.42524   -108.64189   0.28540339   -108.35648    61.653089    4.2411334    4.2411334    4.2411334    61.653089     -13854.4   -1442.3859    15481.745   -1206.7007    1859.8036   -2781.4257    76.286169 
   62600    267.24591   -108.59805   0.24180971   -108.35624    736.83237    4.2477873    4.2477873    4.2477873    736.83237   -5395.6596   -5727.4233     13333.58    87.661398   -1828.6334   -3628.6186    76.645788 
   62700    247.70127   -108.58013   0.22412531   -108.35601    2332.5198    4.2392071    4.2392071    4.2392071    2332.5198      -5647.1   -4285.5635    16930.223    -963.4665    860.90344   -1031.7329    76.182267 
   62800    309.68163   -108.63646   0.28020644   -108.35626   -7941.7614    4.2464948    4.2464948    4.2464948   -7941.7614   -14455.421   -10061.759    691.89617   -2655.8332    589.76428    2510.5927    76.575845 
   62900    307.52484   -108.63324   0.27825494   -108.35498    1395.7286    4.2432586    4.2432586    4.2432586    1395.7286   -2195.7458   -6536.5466    12919.478   -503.18047   -1743.9357   -2614.3282    76.400903 
   63000     302.7132   -108.62868   0.27390127   -108.35478    1222.5014    4.2420778    4.2420778    4.2420778    1222.5014   -8589.5277   -1499.3156    13756.348    1686.0301    2231.0925     37.27667    76.337138 
   63100    198.54966   -108.53596    0.1796519   -108.35631    6186.9185    4.2443218    4.2443218    4.2443218    6186.9185   -11114.037     2878.818    26795.974   -3855.3219    577.93592   -1733.4746    76.458351 
   63200    336.88484   -108.66097   0.30482049   -108.35615    1269.8508    4.2426886    4.2426886    4.2426886    1269.8508   -4475.8623   -126.06128    8411.4761   -251.47046     618.7117   -3458.8948     76.37012 
   63300    390.92696   -108.70914   0.35371893   -108.35542    850.38615    4.2433002    4.2433002    4.2433002    850.38615    -13394.06    10034.348    5910.8707     2321.841   -3090.8555    560.27524     76.40315 
   63400     335.7352   -108.65886   0.30378027   -108.35508   -683.27701     4.246097     4.246097     4.246097   -683.27701   -5713.3715   -872.10549     4535.646   -4881.3305     432.6262    3413.7102    76.554327 
   63500    309.65581   -108.63499   0.28018308   -108.35481    3717.1945    4.2409278    4.2409278    4.2409278    3717.1945   -7695.6058   -1909.7138    20756.903   -1243.3205    3433.8331    2706.5725    76.275076 
   63600    315.88692   -108.64054   0.28582113   -108.35472   -2074.5631    4.2472909    4.2472909    4.2472909   -2074.5631   -10388.855    -1715.192    5880.3573    1055.4159   -306.01033   -4642.5981    76.618921 
   63700    216.51109   -108.55064   0.19590378   -108.35474    2919.7889    4.2424121    4.2424121    4.2424121    2919.7889    -6295.686   -996.95093    16052.004    18.458435    5034.6255   -1472.2363    76.355187 
   63800    327.22687   -108.65027   0.29608175   -108.35419   -5573.5942    4.2424591    4.2424591    4.2424591   -5573.5942   -11732.043    6536.5744   -11525.314    288.15897   -2244.1659   -1982.3645    76.357727 
   63900    224.98549   -108.55896    0.2035716   -108.35539   -1309.2291    4.2479642    4.2479642    4.2479642   -1309.2291   -13514.247    4833.7081    4752.8516    1175.4715    862.49625    432.32864    76.655364 
   64000     272.7113    -108.6019   0.24675492   -108.35514     4340.389    4.2384948    4.2384948    4.2384948     4340.389   -3353.3289   -2011.3692    18385.865   -1036.1026    655.20118    5062.7074    76.143871 
   64100    277.57101   -108.60609   0.25115208   -108.35494   -1864.5477    4.2471245    4.2471245    4.2471245   -1864.5477   -17932.396   -6691.2419    19029.994   -3438.8794    51.122425     1647.482    76.609913 
   64200    374.18193   -108.69314   0.33856768   -108.35458   -1935.6291    4.2429882    4.2429882    4.2429882   -1935.6291   -5910.4494   -8771.8699     8875.432    1146.5257    2883.7556   -2344.3711    76.386301 
   64300    394.47014   -108.71241   0.35692488   -108.35549   -2806.2923    4.2414738    4.2414738    4.2414738   -2806.2923   -8626.5943   -5302.7467    5510.4642   -3135.2908   -128.08414   -1562.6194    76.304539 
   64400    295.12117   -108.62308   0.26703184   -108.35605    225.13788    4.2472671    4.2472671    4.2472671    225.13788   -9276.3555   -4652.2022    14603.971   -959.63846    1816.8867    436.37464    76.617632 
   64500    314.77372   -108.63896   0.28481388   -108.35415    3320.7119    4.2418302    4.2418302    4.2418302    3320.7119   -3694.6595     2356.684    11300.111    5494.3976   -7212.2133   -1263.9844    76.323772 
   64600    208.50063     -108.543   0.18865575   -108.35434    5771.6375    4.2424061    4.2424061    4.2424061    5771.6375   -6851.7909   -3012.3499    27179.053    -2315.315    815.71949    1911.7292    76.354868 
   64700    333.21727   -108.65516   0.30150199   -108.35365   -9606.7258    4.2460019    4.2460019    4.2460019   -9606.7258   -12971.986   -5598.0341   -10250.158   -1472.8171    705.95479     898.2616    76.549182 
   64800     256.4382   -108.58629   0.23203068   -108.35426    -260.6288    4.2411043    4.2411043    4.2411043    -260.6288   -11508.758    6552.5243    4174.3471    665.96539   -999.20394   -2962.5179    76.284599 
   64900    329.57264   -108.65278   0.29820425   -108.35457   -5507.0548    4.2449353    4.2449353    4.2449353   -5507.0548   -12290.793   -11031.536    6801.1644   -2507.0282    2170.5807   -1668.8884    76.491506 
   65000    193.36009   -108.53083   0.17495627   -108.35588    3309.3231    4.2445844    4.2445844    4.2445844    3309.3231   -13853.069    1891.4437    21889.595   -2834.0208   -1853.7384    4359.7981    76.472541 
   65100    372.94561   -108.69202   0.33744903   -108.35457   -3431.1086    4.2431137    4.2431137    4.2431137   -3431.1086   -12191.214   -1146.4183    3044.3063   -780.18127   -1960.9122   -63.058985    76.393078 
   65200    275.83498   -108.60527   0.24958129   -108.35569    3889.1128    4.2444203    4.2444203    4.2444203    3889.1128   -7757.5063    9217.0207    10207.824    1627.4277   -3301.1844   -2819.0711    76.463672 
   65300    387.76702   -108.70654   0.35085975   -108.35568   -2135.6822    4.2420418    4.2420418    4.2420418   -2135.6822   -9775.5716     2256.066     1112.459   -2599.6478      480.492    608.29519    76.335199 
   65400    290.31915   -108.61894   0.26268686   -108.35625    6837.1259    4.2445942    4.2445942    4.2445942    6837.1259   -6663.3858    3058.3784    24116.385    2415.7556   -423.26292    -1417.852    76.473072 
   65500    316.92854   -108.64277    0.2867636   -108.35601    2998.2719    4.2429492    4.2429492    4.2429492    2998.2719   -5026.5895   -3910.5324    17931.937   -1312.9102    902.48908   -4678.9982    76.384192 
   65600    294.13009   -108.62141   0.26613509   -108.35528   -2792.5145    4.2435466    4.2435466    4.2435466   -2792.5145   -12457.944   -7982.8193     12063.22   -5095.4909    2614.4564    2037.2378     76.41646 
   65700    321.50601    -108.6449   0.29090539   -108.35399     -829.403    4.2445681    4.2445681    4.2445681     -829.403   -9009.5387    2069.3027     4452.027    1680.3191   -2935.1394    4813.4998    76.471658 
   65800    291.04979    -108.6179   0.26334796   -108.35455   -1967.8998    4.2435081    4.2435081    4.2435081   -1967.8998   -12356.653    667.90106    5785.0531   -2662.5839   -1036.0856   -3855.0135    76.414381 
   65900    163.80392   -108.50432   0.14821323   -108.35611    2950.9488    4.2421645    4.2421645    4.2421645    2950.9488   -11418.545   -4045.4658    24316.857   -2385.5666    514.86595   -2999.0355    76.341821 
   66000    327.32937   -108.65114   0.29617449   -108.35496   -4904.9873    4.2462199    4.2462199    4.2462199   -4904.9873   -7049.5058   -8747.0564    1081.6003    1564.9378    2957.2771    1021.8856    76.560974 
   66100    268.48829   -108.59756   0.24293384   -108.35463    4130.1623    4.2407361    4.2407361    4.2407361    4130.1623   -7825.1706    2347.3709    17868.286   -1522.1079   -1510.7918   -212.29551     76.26473 
   66200    407.41962   -108.72324   0.36864183   -108.35459    -10593.38    4.2448451    4.2448451    4.2448451    -10593.38   -9405.6809    -17378.21    -4996.249   -3156.8099     -1542.99   -4112.2278    76.486633 
   66300    275.70102   -108.60563   0.24946008   -108.35617    5032.9982    4.2435293    4.2435293    4.2435293    5032.9982   -6406.4075    1916.0031    19589.399   -1808.4309   -1377.1561    642.37697    76.415525 
   66400     396.7972   -108.71412   0.35903044   -108.35509   -3548.1791    4.2427144    4.2427144    4.2427144   -3548.1791    -13188.18   -7307.9781    9851.6203   -1580.9805   -2546.9829    371.65372    76.371515 
   66500    193.58272   -108.53133   0.17515772   -108.35617    1804.9265    4.2446165    4.2446165    4.2446165    1804.9265   -12294.902   -4968.7686     22678.45   -3512.5102    3290.0301    -4888.585    76.474275 
   66600     390.6785   -108.70849   0.35349412   -108.35499   -3742.0687     4.244493     4.244493     4.244493   -3742.0687   -12120.564    1024.4421   -130.08386    974.69643    1739.4946    2962.6467    76.467603 
   66700    280.64586   -108.60972   0.25393427   -108.35578    4188.4575    4.2409034    4.2409034    4.2409034    4188.4575   -8249.9341    6008.5382    14806.768      1927.34    290.45392    503.41703    76.273755 
   66800    262.51657   -108.59424   0.23753051   -108.35671   -7286.8122    4.2465528    4.2465528    4.2465528   -7286.8122   -10510.654   -11946.173    596.39005    -2059.126   -1636.3023   -399.45279    76.578981 
   66900    232.60554   -108.56597   0.21046638   -108.35551    7667.0862    4.2422141    4.2422141    4.2422141    7667.0862   -2508.4673   -191.62138    25701.347   -71.592667   -2014.5071   -2547.5459      76.3445 
   67000    345.67569   -108.66746   0.31277463   -108.35469    1351.4461    4.2432729    4.2432729    4.2432729    1351.4461   -2276.3366    703.49273    5627.1822   -2089.0278   -2684.7148    131.19862    76.401677 
   67100    261.61631   -108.59307   0.23671594   -108.35636     608.2185    4.2447594    4.2447594    4.2447594     608.2185   -7821.5631    5715.1156    3931.1031   -5514.7236    66.193692   -2810.9509    76.481998 
   67200    340.08948   -108.66266   0.30772011   -108.35494    1439.0525    4.2439889    4.2439889    4.2439889    1439.0525   -10297.055    5274.9767    9339.2362   -1613.0719    3769.5526    2226.3334    76.440359 
   67300    317.68646   -108.64184   0.28744938   -108.35439    5545.4306     4.241691     4.241691     4.241691    5545.4306   -9191.6949     5031.245    20796.742   -423.16267   -1266.6279    4478.6452    76.316259 
   67400    277.75002   -108.60643   0.25131406   -108.35512   -3148.3199    4.2464515    4.2464515    4.2464515   -3148.3199   -16583.325   -5902.0359    13040.401   -1534.4678    379.58998   -3287.2503    76.573503 
   67500    398.37846    -108.7144    0.3604612   -108.35394   -6281.5351    4.2434849    4.2434849    4.2434849   -6281.5351   -11180.133   -10271.339    2606.8661    1463.6792   -3465.2596   -2032.7381    76.413128 
   67600     308.5423   -108.63343   0.27917556   -108.35426    2162.0403    4.2414045    4.2414045    4.2414045    2162.0403   -10375.358    9245.0026    7616.4762    170.57694    -3740.871   -257.83349    76.300797 
   67700    268.34886   -108.59839   0.24280769   -108.35559   -8596.3789    4.2465721    4.2465721    4.2465721   -8596.3789   -13506.229   -13982.277    1699.3691   -2124.2446    855.19756    2087.9028    76.580026 
   67800    159.88006   -108.50116   0.14466284   -108.35649    7077.8316     4.242187     4.242187     4.242187    7077.8316   -8488.2452    1584.3777    28137.362   -2368.8152    610.90763   -276.62311    76.343037 
   67900    365.04514   -108.68554   0.33030051   -108.35524       519.96    4.2429347    4.2429347    4.2429347       519.96   -3805.5025    1495.3386    3870.0439   -1313.1963    2762.3373    3655.6282    76.383411 
   68000    219.01727   -108.55445   0.19817143   -108.35627    -1159.186    4.2467058    4.2467058    4.2467058    -1159.186   -9269.4636   -489.52776    6281.4333   -4898.7411   -2854.4586   -999.29359    76.587257 
   68100    381.51698    -108.7002   0.34520458   -108.35499   -2516.0107     4.240957     4.240957     4.240957   -2516.0107   -3551.2436   -6127.3605     2130.572   -2393.3728    1056.7263   -5198.8476    76.276649 
   68200    308.65566   -108.63449   0.27927812   -108.35521    6250.7562    4.2438934    4.2438934    4.2438934    6250.7562   -8587.1686   -3678.4442    31017.881    2660.7877   -5245.5461   -706.97222    76.435199 
   68300    318.02696   -108.64366   0.28775747   -108.35591   -3413.2827    4.2446652    4.2446652    4.2446652   -3413.2827   -10395.775   -9558.8666     9714.794   -3150.1948    -880.0157    541.62354    76.476911 
   68400    298.99119   -108.62581   0.27053351   -108.35527    125.27032    4.2412271    4.2412271    4.2412271    125.27032   -10930.322   -3470.1441    14776.277   -624.85774    1776.2304   -389.87751    76.291223 
   68500    344.65889   -108.66598   0.31185461   -108.35412   -945.12552    4.2457989    4.2457989    4.2457989   -945.12552   -5862.3466    5129.4092   -2102.4391    1097.6905   -609.36281   -578.42001    76.538203 
   68600    262.13987   -108.59254   0.23718966   -108.35535    1288.1108    4.2415422    4.2415422    4.2415422    1288.1108   -9831.6496   -748.89928    14444.881   -3412.7818    2349.8796   -975.21823     76.30823 
   68700    221.77513   -108.55716    0.2006668   -108.35649   -2811.6196    4.2451047    4.2451047    4.2451047   -2811.6196   -10246.423   -8880.9019    10692.466   -1269.2889   -2822.2604   -5448.2494    76.500664 
   68800    330.95088   -108.65406   0.29945131    -108.3546   -1347.7201    4.2421895    4.2421895    4.2421895   -1347.7201   -1746.3635   -8452.9312    6156.1344    254.45549    1976.8197   -212.32276    76.343169 
   68900    306.79787   -108.63197   0.27759716   -108.35438   -4220.2602    4.2445008    4.2445008    4.2445008   -4220.2602   -7954.0196    1125.7559   -5832.5169   -1830.6855     -1138.68    3285.4801    76.468023 
   69000    321.90732   -108.64627   0.29126851   -108.35501   -3974.0337    4.2432086    4.2432086    4.2432086   -3974.0337   -7974.4416   -7240.0315     3292.372   -1276.7987    669.20453   -5757.9942    76.398205 
   69100     274.4784   -108.60386   0.24835383    -108.3555    4871.1039    4.2430592    4.2430592    4.2430592    4871.1039   -2798.5886    1299.9974    16111.903    1099.4853    1263.0067   -4205.4625    76.390133 
   69200    314.08212   -108.63926    0.2841881   -108.35507    2478.2541    4.2426618    4.2426618    4.2426618    2478.2541   -9855.6673    147.33608    17143.094   -2504.8522    -4559.625    932.18397    76.368674 
   69300    256.20488   -108.58725   0.23181956   -108.35543   -1758.4754    4.2450774    4.2450774    4.2450774   -1758.4754    -13532.39   -3399.7938    11656.758   -2745.9062    2135.5763   -5184.5569    76.499189 
   69400    395.51233   -108.71228   0.35786787   -108.35441   -2802.7235    4.2423082    4.2423082    4.2423082   -2802.7235   -3001.2678   -6717.7188     1310.816    2795.3605   -193.40545   -1637.9106    76.349582 
   69500    316.74989   -108.64108   0.28660196   -108.35448    504.44812    4.2456266    4.2456266    4.2456266    504.44812   -14427.246   -643.22987     16583.82   -454.09107    544.60503    5398.9552    76.528884 
   69600    307.83804   -108.63322   0.27853833   -108.35468   -3569.1889    4.2416651    4.2416651    4.2416651   -3569.1889   -9543.0375   -12978.149     11813.62   -1345.3199   -807.43778    -672.9448    76.314864 
   69700    206.35012   -108.54202   0.18670993   -108.35531    493.65419    4.2447094    4.2447094    4.2447094    493.65419   -7747.2307   -6791.9643    16020.158    2950.6964   -1923.7103    -7865.181    76.479295 
   69800    377.81959   -108.69619   0.34185911   -108.35433   -3728.6285    4.2437767    4.2437767    4.2437767   -3728.6285   -11621.628    3730.8617    -3295.119   -1525.8267    630.02845   -1559.2282    76.428895 
   69900    225.00283   -108.55966   0.20358729   -108.35608    1750.8769    4.2414811    4.2414811    4.2414811    1750.8769   -6476.4308    5639.3163    6089.7454   -3508.1841   -7240.6646    1625.4241    76.304932 
   70000    291.17625    -108.6188   0.26346239   -108.35534   -6417.6725    4.2467852    4.2467852    4.2467852   -6417.6725   -5042.3609   -4030.7111   -10179.945   -121.15093    2155.7192   -4160.4328    76.591557 
   70100    318.11761   -108.64166    0.2878395   -108.35382     479.7121    4.2416204    4.2416204    4.2416204     479.7121    -9126.643   -4225.1722    14790.952   -3265.5843   -131.88833    1303.9641    76.312453 
   70200      269.467   -108.59878   0.24381941   -108.35496   -738.65676    4.2424849    4.2424849    4.2424849   -738.65676   -6361.6847   -2544.7902    6690.5046    -1045.455   -1533.8043    1376.6888    76.359122 
   70300    355.75832   -108.67693   0.32189761   -108.35503   -8395.5207    4.2464735    4.2464735    4.2464735   -8395.5207   -15719.761    -10112.37    645.56869     4121.924    687.63079   -3718.7875    76.574691 
   70400    306.66051   -108.63221   0.27747287   -108.35473    4070.6889    4.2416998    4.2416998    4.2416998    4070.6889   -4407.9035    10254.539    6365.4314    -857.6594   -5541.2477      -2402.6    76.316738 
   70500    351.42202    -108.6729   0.31797403   -108.35492   -335.38634    4.2411984    4.2411984    4.2411984   -335.38634   -9223.8894   -2329.7199     10547.45   -2303.8633    2745.5553    2656.0976    76.289676 
   70600     191.1628   -108.52946   0.17296811   -108.35649     12.58635    4.2473281    4.2473281    4.2473281     12.58635   -11500.236   -3907.3937    15445.388   -462.06642   -6.2920702   -867.42793    76.620931 
   70700    360.90423    -108.6815   0.32655373   -108.35495    2076.5591    4.2396921    4.2396921    4.2396921    2076.5591     1510.798   -3720.1765    8439.0559   -155.91291    5430.7318   -3822.6779     76.20842 
   70800    297.57273   -108.62438   0.26925006   -108.35513    1604.7612    4.2447933    4.2447933    4.2447933    1604.7612    -6969.454     2516.904    9266.8337   -3239.1677   -1032.8014    890.64377    76.483835 
   70900     330.4275   -108.65396   0.29897775   -108.35498   -8065.5322    4.2455603    4.2455603    4.2455603   -8065.5322   -4849.7255   -10459.308   -8887.5628    977.47072    -2173.315   -3209.2368    76.525299 
   71000    223.33401   -108.55785    0.2020773   -108.35577    4351.4217    4.2419265    4.2419265    4.2419265    4351.4217   -2648.4856   -584.34106    16287.092    2488.5675    1574.5991    193.18282    76.328971 
   71100    323.33924   -108.64706   0.29256413    -108.3545    839.33889    4.2440062    4.2440062    4.2440062    839.33889   -12328.164    2544.1045    12302.077   -2227.0494   -3299.6051    3078.9377    76.441291 
   71200    237.90304   -108.57031   0.21525967   -108.35505   -2234.0031    4.2447229    4.2447229    4.2447229   -2234.0031   -9954.9399   -3828.6046    7081.5352    1486.5888    5126.7805   -1207.2594    76.480028 
   71300    361.75721   -108.68211   0.32732553   -108.35479   -2349.1393      4.24145      4.24145      4.24145   -2349.1393    -1338.579    759.24448   -6468.0833   -1481.3321    1489.7806   -4161.6955    76.303255 
   71400    342.65076   -108.66512   0.31003761   -108.35508   -1498.8744    4.2464794    4.2464794    4.2464794   -1498.8744   -6034.2341   -9460.4735    10998.084   -3209.7311    1350.3337    55.204857    76.575011 
   71500    282.76429   -108.61129   0.25585108   -108.35544     2066.451    4.2405977    4.2405977    4.2405977     2066.451    4371.8264   -6738.8325    8566.3592    1578.7365   -2500.9938   -1489.7613    76.257264 
   71600    299.39606   -108.62614   0.27089985   -108.35525   -1649.4403    4.2456783    4.2456783    4.2456783   -1649.4403   -6867.9384   -12768.391    14688.008    1281.8339    -2363.514   -3111.9565    76.531682 
   71700    300.50272   -108.62589   0.27190117   -108.35399    2952.4989    4.2437956    4.2437956    4.2437956    2952.4989   -2800.3023    5742.4871    5915.3121   -956.87274    1752.5775    1656.7798    76.429915 
   71800    362.34276   -108.68171   0.32785534   -108.35385   -4391.4507    4.2414034    4.2414034    4.2414034   -4391.4507   -8428.2696     -6778.37    2032.2875   -866.58723   -656.54732    44.631759     76.30074 
   71900    214.71324   -108.55003   0.19427706   -108.35575    -1378.019    4.2476155    4.2476155    4.2476155    -1378.019    -9379.672   -5123.6938    10369.309     1130.594    4525.0407   -4798.2919    76.636487 
   72000    317.47178   -108.64152   0.28725514   -108.35427    2627.1582    4.2405588    4.2405588    4.2405588    2627.1582   -4523.1573   -6439.2181     18843.85   -5152.4957   -3190.0356    -92.13278    76.255165 
   72100    256.64685   -108.58691   0.23221947   -108.35469    996.16527    4.2438363    4.2438363    4.2438363    996.16527   -6745.0082   -3055.5723    12789.076   -1430.5393   -2665.8731    2350.1952    76.432115 
   72200    362.29155   -108.68305   0.32780901   -108.35524   -8217.7487    4.2465218    4.2465218    4.2465218   -8217.7487   -2868.9314   -11860.437   -9923.8783    3507.5223   -1151.1416   -3457.3027    76.577306 
   72300    224.48434    -108.5591   0.20311815   -108.35599    9930.4341    4.2404133    4.2404133    4.2404133    9930.4341   -174.88804     5209.923    24756.267   -1136.3285    4135.8257   -968.00153    76.247315 
   72400    368.54002   -108.68811   0.33346276   -108.35465    -5276.397    4.2469497    4.2469497    4.2469497    -5276.397   -10870.943   -11754.488    6796.2399    3160.2718     2411.116   -1775.8182    76.600458 
   72500    233.50981   -108.56719   0.21128458    -108.3559    3787.8265    4.2426932    4.2426932    4.2426932    3787.8265    -5943.172   -655.88852     17962.54    2158.6043    253.68284   -4716.7752    76.370371 
   72600    367.89852   -108.68807   0.33288231   -108.35518   -4483.6952    4.2428915    4.2428915    4.2428915   -4483.6952   -11170.506   -4124.6669    1844.0868   -2171.4116    1464.6562   -3298.0636    76.381075 
   72700    323.07728   -108.64768   0.29232711   -108.35536   -2010.7459    4.2460827    4.2460827    4.2460827   -2010.7459     -12803.2    1632.6893    5138.2733   -2203.8098   -5455.5454    4236.6083    76.553553 
   72800    346.23012   -108.66799   0.31327629   -108.35471    -3540.324    4.2418007    4.2418007    4.2418007    -3540.324   -4902.3289   -9037.2237    3318.5806   -1133.4296    798.91515   -1921.8782    76.322183 
   72900    188.95476   -108.52665   0.17097024   -108.35568    848.59814    4.2457536    4.2457536    4.2457536    848.59814   -3732.3558   -10250.154    16528.304   -1350.9313    2924.6701   -4734.9419    76.535751 
   73000    299.77017   -108.62586   0.27123835   -108.35463    844.76245    4.2430029    4.2430029    4.2430029    844.76245   -2140.0262    3091.4514    1582.8622    25.919274    2181.2341    1392.3669    76.387092 
   73100    274.37493   -108.60341   0.24826021   -108.35514    525.74604    4.2438763    4.2438763    4.2438763    525.74604   -2072.1717   -2557.8897    6207.2995    6333.0993   -874.92483   -5129.4972    76.434276 
   73200     261.1123   -108.59128   0.23625989   -108.35502    1419.5916    4.2447434    4.2447434    4.2447434    1419.5916   -4142.5635    4735.9741    3665.3643    234.85053   -2038.6386   -1832.8359    76.481134 
   73300     352.3314   -108.67267   0.31879686   -108.35387    278.16661     4.243416     4.243416     4.243416    278.16661   -11502.487   -2904.5241    15241.511   -1227.8238   -357.36793    2668.5851     76.40941 
   73400    290.45418   -108.61708   0.26280905   -108.35427    2431.0752    4.2440535    4.2440535    4.2440535    2431.0752   -8138.2353   -6505.7268    21937.188    1485.5215   -3053.3099    1918.6718    76.443847 
   73500    369.57298   -108.68885   0.33439739   -108.35445   -6918.9952    4.2441818    4.2441818    4.2441818   -6918.9952   -12648.683   -13201.496     5093.194   -2671.0041    5645.4967   -4453.7236    76.450784 
   73600     344.1832   -108.66597   0.31142419   -108.35454   -1177.7869    4.2430301    4.2430301    4.2430301   -1177.7869   -9918.9403    1876.2586     4509.321    -2318.522    3093.0722   -3226.8434    76.388562 
   73700    350.01183   -108.67151   0.31669806   -108.35481   -932.20233    4.2446292    4.2446292    4.2446292   -932.20233   -3555.1877   -10839.512    11598.093    382.03419   -1028.2982    2080.8035    76.474962 
   73800    184.12965    -108.5233   0.16660437    -108.3567    1813.7317     4.243588     4.243588     4.243588    1813.7317   -6157.8039   -1883.8609     13482.86    1922.4653     -482.644   -1723.7072    76.418696 
   73900    239.59287    -108.5729   0.21678866   -108.35611   -235.00095     4.244287     4.244287     4.244287   -235.00095   -3639.8848    -5844.251    8779.1329   -1114.4132   -3105.5486    2721.1691    76.456468 
   74000    259.29309   -108.58907   0.23461384   -108.35445    6281.4662    4.2429427    4.2429427    4.2429427    6281.4662   -2175.0053    4728.6952    16290.709    2848.8392   -171.18988    1458.9236    76.383843 
   74100    356.86088    -108.6782   0.32289522    -108.3553   -8777.9997    4.2441633    4.2441633    4.2441633   -8777.9997   -7894.4956   -7194.7969   -11244.707   -148.56197    1812.1015   -1846.5529    76.449781 
   74200    263.64419   -108.59509   0.23855081   -108.35654    13.834498    4.2445692    4.2445692    4.2445692    13.834498   -3120.0485   -3670.0436    6831.5956   -4154.5814    5698.1669   -5128.1316    76.471719 
   74300    387.27536   -108.70535   0.35041488   -108.35494    2072.9628     4.241283     4.241283     4.241283    2072.9628   -9017.9235    -7713.467    22950.279    3082.6614   -992.16625   -697.78429     76.29424 
   74400     274.5332   -108.60386   0.24840341   -108.35546    2193.0432    4.2444542    4.2444542    4.2444542    2193.0432   -7268.6517   -4488.9633    18336.745   -1905.6852   -310.50913    941.29315    76.465503 
   74500    323.33929   -108.64779   0.29256418   -108.35522    -1339.165    4.2451055    4.2451055    4.2451055    -1339.165   -5911.6918   -2148.4731      4042.67   -1227.7018    1658.6537    -800.4272    76.500712 
   74600    351.71679   -108.67231   0.31824074   -108.35406    5378.1065    4.2402607    4.2402607    4.2402607    5378.1065   -7050.3739     8861.512    14323.181    1504.1136   -411.50906    1163.6016    76.239083 
   74700    295.89928   -108.62257   0.26773589   -108.35484   -48.520229    4.2447387    4.2447387    4.2447387   -48.520229   -2841.3036   -5601.2618    8297.0047    189.19003    2543.7274   -3738.6936    76.480883 
   74800    205.04957   -108.54145   0.18553316   -108.35591    723.61212    4.2456619    4.2456619    4.2456619    723.61212   -5296.8466   -10977.996    18445.679   -2063.9853    1628.7329   -2199.2138    76.530796 
   74900    329.22715   -108.65176   0.29789164   -108.35387    5769.8468    4.2386071    4.2386071    4.2386071    5769.8468   -6733.7478    9396.5023    14646.786    -1459.151    1602.1459     2213.835    76.149926 
   75000    344.37766   -108.66571   0.31160015   -108.35411   -6122.0552    4.2468562    4.2468562    4.2468562   -6122.0552   -6931.1815   -8583.5537   -2851.4305    1694.5323   -2824.1274    304.32822    76.595398 
   75100    257.41923    -108.5885   0.23291833   -108.35558   -3672.5462    4.2445691    4.2445691    4.2445691   -3672.5462   -10238.257    7435.7861   -8215.1673   -1824.8856    1781.9921   -4049.4053    76.471712 
   75200    263.59942   -108.59467    0.2385103   -108.35616    7323.8879    4.2404172    4.2404172    4.2404172    7323.8879    -7460.193   -2797.2185    32229.075    3449.0532    1478.5256   -3720.1418    76.247525 
   75300    286.59042   -108.61575   0.25931304   -108.35644     332.8396    4.2464321    4.2464321    4.2464321     332.8396   -6227.7788    -3296.375    10522.673    1874.4741    3111.8114   -3358.6611    76.572453 
   75400    281.90685   -108.61166   0.25507524   -108.35659   -3869.3987    4.2440221    4.2440221    4.2440221   -3869.3987   -7211.3986   -12046.832    7650.0342   -2281.6346    3447.3905   -4657.1068    76.442153 
   75500    366.61996   -108.68597   0.33172545   -108.35424   -1228.8947     4.241342     4.241342     4.241342   -1228.8947   -5214.6729    1069.7618    458.22687     1087.843    681.44736    44.220961    76.297424 
   75600    368.22447   -108.68726   0.33317724   -108.35408   -3995.9743    4.2467628    4.2467628    4.2467628   -3995.9743   -8641.8798   -14260.407    10914.364   -1113.0231   -1086.0704    3278.8159    76.590342 
   75700    275.36018   -108.60443   0.24915168   -108.35528   -4092.6898    4.2433018    4.2433018    4.2433018   -4092.6898   -11385.679   -8936.2206    8043.8302   -3450.8638   -498.52034   -3947.4699     76.40324 
   75800    203.18437   -108.53945   0.18384549   -108.35561    2878.2209    4.2428716    4.2428716    4.2428716    2878.2209   -10228.469   -1369.8787     20233.01   -2218.2762    4781.3601   -1890.0963    76.380003 
   75900    378.94852   -108.69622   0.34288059   -108.35334   -2622.1214    4.2444933    4.2444933    4.2444933   -2622.1214   -10256.187    7122.0701   -4732.2477    2759.0854   -485.36883   -4898.8141    76.467618 
   76000    270.66636   -108.59975   0.24490461   -108.35485   -5540.6324    4.2461201    4.2461201    4.2461201   -5540.6324    -12258.05   -833.82361   -3530.0238    387.63263    5117.9813   -1688.7925    76.555572 
   76100     272.0694   -108.60076   0.24617411   -108.35458    2465.7292     4.239772     4.239772     4.239772    2465.7292   -2823.5357    2176.1275    8044.5959    596.88432    2538.0393    282.59104    76.212729 
   76200    347.83453   -108.66879   0.31472799   -108.35406    -3388.374    4.2476472    4.2476472    4.2476472    -3388.374   -9622.7049   -5419.9257    4877.5087    1595.1531   -3610.3919    1468.9149    76.638205 
   76300    289.74309   -108.61739   0.26216564   -108.35523   -346.47428    4.2420759    4.2420759    4.2420759   -346.47428   -3834.6211   -9001.6318     11796.83   -4559.9791   -269.45228   -2557.5997    76.337038 
   76400    198.78564   -108.53693   0.17986542   -108.35706    5397.2502    4.2417178    4.2417178    4.2417178    5397.2502   -5839.0499    14300.361    7730.4397   -2409.5099    1202.3737   -4336.9593    76.317706 
   76500     408.1323   -108.72448   0.36928668    -108.3552    -5242.952    4.2459333    4.2459333    4.2459333    -5242.952   -11936.403   -5956.2649    2163.8122   -738.51465    2093.4757    2953.4316    76.545469 
   76600    307.38864   -108.63338    0.2781317   -108.35525   -1768.5192    4.2430677    4.2430677    4.2430677   -1768.5192   -9411.0962    3028.2465    1077.2922   -650.65603     12.11728     228.5474    76.390592 
   76700    247.94569   -108.58082   0.22434647   -108.35647   -2604.7636    4.2440595    4.2440595    4.2440595   -2604.7636   -13082.883   -6295.0008    11563.593    -7.729217    3440.3482   -63.825962    76.444171 
   76800    358.68933   -108.67969   0.32454964   -108.35514   -1729.9402    4.2447978    4.2447978    4.2447978   -1729.9402   -11551.269    1423.4922    4937.9565    3588.2182   -3504.1868   -201.54414    76.484077 
   76900    275.07672   -108.60336    0.2488952   -108.35446    2285.4731     4.242832     4.242832     4.242832    2285.4731    -8025.298    5029.7656    9851.9519   -719.16917   -4897.4477   -2617.0077    76.377864 
   77000    324.29127   -108.64845   0.29342555   -108.35503   -9106.1144    4.2447221    4.2447221    4.2447221   -9106.1144   -9396.7297   -662.63348    -17258.98    -4936.625    3272.7865   -6223.1829    76.479984 
   77100    222.71853   -108.55721    0.2015204   -108.35568     4680.029    4.2429896    4.2429896    4.2429896     4680.029   -277.49084    6024.5411    8293.0368    72.721029   -1016.7656    3256.7036    76.386374 
   77200     376.8264   -108.69491   0.34096044   -108.35395   -4955.6401    4.2452632    4.2452632    4.2452632   -4955.6401   -7185.0557   -8945.7381    1263.8733   -1011.9015    2867.5954    4690.1706    76.509233 
   77300      161.359   -108.50151   0.14600102   -108.35551    6215.5531     4.243484     4.243484     4.243484    6215.5531   -3011.1833   -846.08973    22503.932   -226.17425    3743.7696    -2485.245     76.41308 
   77400    352.59421   -108.67318   0.31903465   -108.35414   -3384.1318    4.2435922    4.2435922    4.2435922   -3384.1318   -7209.1962   -9801.0753    6857.8761    587.31165    1058.0486   -1686.6425    76.418925 
   77500    368.94237   -108.68806   0.33382681   -108.35423   -3819.7617    4.2448053    4.2448053    4.2448053   -3819.7617   -12921.038   -6866.3277    8328.0805    1316.6288    -3185.794   -1162.0273    76.484484 
   77600    308.87585   -108.63458   0.27947736   -108.35511   -3839.4937    4.2435011    4.2435011    4.2435011   -3839.4937   -7493.0529   -9460.3041    5434.8758   -1176.4096   -597.63069   -2785.2764    76.414006 
   77700    240.93433   -108.57382   0.21800245   -108.35582    6012.2289    4.2435505    4.2435505    4.2435505    6012.2289   -9258.0535    5311.7947    21982.945   -507.99235    2592.3198    -964.5805    76.416671 
   77800    392.05285   -108.70938   0.35473765   -108.35464    794.93732    4.2431259    4.2431259    4.2431259    794.93732   -7137.3501   -3036.7002    12558.862   -622.51473   -690.70637    4577.8996    76.393734 
   77900    194.20681   -108.53303    0.1757224   -108.35731    2125.6388    4.2438461    4.2438461    4.2438461    2125.6388    897.45478    248.64782    5230.8138   -2725.2803    3516.2687   -3013.3283    76.432642 
   78000     371.2729   -108.69155   0.33593552   -108.35561    -4744.112    4.2431588    4.2431588    4.2431588    -4744.112   -385.68003   -7669.2194   -6177.4367    3352.3352    1482.8467   -3034.3731    76.395513 
   78100    292.24022   -108.61954   0.26442509   -108.35511    4720.7813    4.2432142    4.2432142    4.2432142    4720.7813    988.54224    1515.9719     11657.83     993.2343   -3129.7788   -919.47457    76.398509 
   78200    275.00226    -108.6042   0.24882783   -108.35537   -491.39536    4.2440554    4.2440554    4.2440554   -491.39536   -5764.6099   -4348.3984    8638.8222    -1327.843   -2353.3297     2117.143    76.443953 
   78300    263.63354   -108.59349   0.23854116   -108.35494    6.8490959    4.2437524    4.2437524    4.2437524    6.8490959   -10272.516    5485.3575    4807.7061    281.93492    2151.3943   -980.48582    76.427582 
   78400    348.99768   -108.66943   0.31578044   -108.35365   -713.56623    4.2419982    4.2419982    4.2419982   -713.56623   -8619.4338   -3353.5703    9832.3054   -115.63264    1697.5246   -1195.9473    76.332844 
   78500    369.18842   -108.68838   0.33404944   -108.35433   -9676.7195    4.2465524    4.2465524    4.2465524   -9676.7195   -14746.214   -10942.138   -3341.8058   -2835.4997   0.12892473    -191.1795    76.578958 
   78600    193.47753   -108.53079   0.17506254   -108.35573    6937.1073    4.2426283    4.2426283    4.2426283    6937.1073   -3464.2358    2441.5604    21833.997   -2342.2132    2229.1059   -3420.8012    76.366863 
   78700    378.81938   -108.69584   0.34276373   -108.35307    1038.8341    4.2427665    4.2427665    4.2427665    1038.8341   -1738.9571    -3963.212    8818.6714    2554.4417   -5799.3413    622.87254    76.374328 
   78800    199.07036   -108.53447   0.18012304   -108.35435     3325.122    4.2462304    4.2462304    4.2462304     3325.122   -3256.0667     1072.483     12158.95   -48.154003   -2849.4249    121.13324    76.561539 
   78900    340.40757   -108.66301   0.30800793   -108.35501    -3211.929    4.2423283    4.2423283    4.2423283    -3211.929    1689.2552   -2941.5357   -8383.5063    1529.3136    2564.3597    2825.8991    76.350666 
   79000     275.4338     -108.604   0.24921829   -108.35478    5458.2043    4.2438685    4.2438685    4.2438685    5458.2043   -2635.9825    3770.0967    15240.499    2857.6396     1770.529   -3190.8093    76.433852 
   79100    343.39608   -108.66511   0.31071199   -108.35439    -7433.348    4.2466269    4.2466269    4.2466269    -7433.348   -14127.587   -7934.8299   -237.62694   -1333.6569    1927.7601   -2350.6484    76.582991 
   79200    217.32745   -108.55211   0.19664245   -108.35547    5649.8041    4.2405936    4.2405936    4.2405936    5649.8041   -6536.4624    2694.6857    20791.189   -1076.4438    918.00292   -4191.2555    76.257043 
   79300    381.65285   -108.69891   0.34532751   -108.35358   -5699.5982    4.2455943    4.2455943    4.2455943   -5699.5982   -13048.617   -13333.888    9283.7108   -1353.0626    -1198.217    481.66618    76.527137 
   79400    309.71982   -108.63493     0.280241   -108.35469   -5531.6131    4.2436835    4.2436835    4.2436835   -5531.6131   -11845.067   -7347.4135    2597.6412   -2037.5385   -7032.8578    2967.3193    76.423858 
   79500    304.24126   -108.63087   0.27528388   -108.35558   -3087.0504    4.2437487    4.2437487    4.2437487   -3087.0504    -4252.921   -10775.838    5767.6079   -696.14519     2337.057   -5540.1317    76.427381 
   79600     252.6744   -108.58394   0.22862511   -108.35532    5963.1226    4.2442637    4.2442637    4.2442637    5963.1226    86.317573    4492.6453    13310.405    2057.9498    2076.4463    452.19703     76.45521 
   79700    280.86349   -108.60808   0.25413119   -108.35395    1827.8765     4.242693     4.242693     4.242693    1827.8765   -4747.6267   -2795.8019    13027.058   -91.056872     52.69328    -3834.017    76.370357 
   79800    264.83697   -108.59438   0.23963005   -108.35475   -1969.8913    4.2464996    4.2464996    4.2464996   -1969.8913   -491.45594   -4541.5447   -876.67326    459.65276    2378.6036   -2366.5771    76.576105 
   79900    372.31089   -108.68994   0.33687472   -108.35306     654.5699    4.2401935    4.2401935    4.2401935     654.5699   -1821.0231    1309.3422    2475.3907    3208.3724    -2490.221   -1194.5878    76.235462 
   80000    349.03786   -108.66938   0.31581679   -108.35356   -6920.5784    4.2471288    4.2471288    4.2471288   -6920.5784   -7501.1385   -5331.3156   -7929.2813   -1055.1114   -4300.5031    3865.6312    76.610146 
   80100    277.81142   -108.60616   0.25136961   -108.35479    75.327888    4.2447352    4.2447352    4.2447352    75.327888   -6857.6693   -3647.3784    10731.031   -2237.5951   -814.99104   -352.41595    76.480692 
   80200    287.97928   -108.61497   0.26056971    -108.3544    7965.7234     4.239351     4.239351     4.239351    7965.7234   -1290.5859    5992.0032    19195.753   -920.33262    4554.3404   -4994.7709    76.190027 
   80300    264.00689   -108.59347   0.23887898   -108.35459   -1665.9837    4.2479008    4.2479008    4.2479008   -1665.9837   -1453.4669   -8673.6171    5129.1329    517.89338   -1680.1165    584.86275    76.651929 
   80400    350.21015   -108.67126   0.31687751   -108.35438   -5445.6069    4.2428241    4.2428241    4.2428241   -5445.6069   -2925.2632   -8066.1524    -5345.405   -577.00087    758.71532   -2885.9599    76.377436 
   80500    223.27697   -108.55792   0.20202569   -108.35589    11090.595    4.2403172    4.2403172    4.2403172    11090.595     7350.234    9581.0274    16340.523    361.38771   -1522.3662    1722.7719    76.242135 
   80600    359.11525   -108.67988   0.32493503   -108.35495   -4556.2867    4.2486463    4.2486463    4.2486463   -4556.2867   -9532.0324   -12173.735    8036.9076    594.73464   -7436.4217    12.959139    76.692296 
   80700    232.37249   -108.56544   0.21025551   -108.35518    5981.6696    4.2405025    4.2405025    4.2405025    5981.6696   -8638.9901    6207.9087     20376.09   -1020.8462   -3288.2852   -466.69334    76.252126 
   80800    388.82937   -108.70574   0.35182098   -108.35392   -4021.3805    4.2436402    4.2436402    4.2436402   -4021.3805   -7679.3982   -6738.1042    2353.3609    950.57156    1499.5157   -4502.4575    76.421521 
   80900    324.96099   -108.64806   0.29403153   -108.35402   -3409.4577    4.2460184    4.2460184    4.2460184   -3409.4577   -9702.5638    4273.9654   -4799.7745   -1758.9582    757.89743   -966.13244    76.550076 
   81000    338.39858   -108.65995   0.30619014   -108.35376   -4492.7806    4.2428699    4.2428699    4.2428699   -4492.7806   -12007.077   -346.66449   -1124.6001   -1064.4356   -5801.6256    4118.3508    76.379913 
   81100    230.48842   -108.56295   0.20855077    -108.3544     6578.865    4.2430746    4.2430746    4.2430746     6578.865   -1671.0473    1000.3135    20407.329    891.08504    984.11733   -881.56745    76.390965 
   81200    278.38038   -108.60588   0.25188442   -108.35399   -4178.0977    4.2459189    4.2459189    4.2459189   -4178.0977   -9516.1775   -9934.2554    6916.1398    1947.9651   -3792.3003    1442.7217    76.544694 
   81300    260.56455   -108.58949   0.23576428   -108.35373   -2729.1279    4.2421232    4.2421232    4.2421232   -2729.1279   -5956.9347   -6168.2884    3937.8393   -3300.4791   -7625.8746   -2101.6862    76.339594 
   81400    323.10908   -108.64539   0.29235589   -108.35304   -2930.1932    4.2451879    4.2451879    4.2451879   -2930.1932   -5428.7532   -8200.9827    4839.1563   -1814.7093    2758.3135   -2517.8483    76.505167 
   81500    339.72558   -108.66094   0.30739085   -108.35355   -3105.6237    4.2433176    4.2433176    4.2433176   -3105.6237    -5568.475    2192.4802   -5940.8763    1554.7031   -1624.8259   -3362.5059    76.404089 
   81600    264.99045   -108.59475   0.23976893   -108.35498   -2758.4103    4.2448014    4.2448014    4.2448014   -2758.4103   -17489.414   -2331.7184    11545.901   -3366.6248   -3177.9189    1460.4533    76.484272 
   81700    317.28805   -108.64161    0.2870889   -108.35453   -829.09021    4.2428784    4.2428784    4.2428784   -829.09021   -7103.2975   -5405.7343    10021.761    1329.8002   -102.64737      2484.21    76.380369 
   81800    287.08154   -108.61407   0.25975741   -108.35432   -440.43043    4.2446327    4.2446327    4.2446327   -440.43043    612.02959   -2495.9714    562.65057    456.35744   -3357.1992    107.51941    76.475152 
   81900    342.48315   -108.66401   0.30988595   -108.35413   -5012.2413    4.2433458    4.2433458    4.2433458   -5012.2413   -8488.2641   -4993.0577   -1555.4022    680.23919   -6019.4794   -992.26713    76.405617 
   82000    272.65751   -108.60165   0.24670624   -108.35494    2044.8763     4.243919     4.243919     4.243919    2044.8763    8365.3722    881.31893   -3112.0621   -546.33445     2730.707   -2877.9263     76.43658 
   82100    339.85397   -108.66201   0.30750701    -108.3545   -1912.8422    4.2428859    4.2428859    4.2428859   -1912.8422    -3865.325   -4053.4657    2180.2642   -3704.9573    1706.9245     591.2745    76.380775 
   82200    181.13577   -108.51973   0.16389545   -108.35584    34.139167    4.2451792    4.2451792    4.2451792    34.139167   -8115.2589   -3601.1316    11818.808   -147.87685   -5346.3732    752.48211    76.504692 
   82300    328.15028   -108.65126   0.29691727   -108.35434    904.39791    4.2429652    4.2429652    4.2429652    904.39791   -5116.3511   -2969.8267    10799.372    -1836.988   -563.36336   -2593.2798    76.385059 
   82400    334.57394   -108.65643   0.30272953    -108.3537    1767.3389    4.2447235    4.2447235    4.2447235    1767.3389   -4985.7248    6169.0826     4118.659    2603.1882   -1722.5329   -1254.5633    76.480058 
   82500    348.34221   -108.66898   0.31518735   -108.35379   -4033.1078    4.2426411    4.2426411    4.2426411   -4033.1078   -5458.9343   -4006.7942   -2633.5948   -1609.3798   -7352.2525    926.22384    76.367557 
   82600    289.55336   -108.61678   0.26199396   -108.35478    958.31942    4.2456178    4.2456178    4.2456178    958.31942   -7350.4567     4769.956    5455.4589   -372.60895   -351.87305    1.5631089    76.528411 
   82700    332.87344   -108.65579   0.30119088    -108.3546    6797.6259     4.241677     4.241677     4.241677    6797.6259    1396.7599   -245.34604    19241.464    2238.1157    4429.4301    1107.8594    76.315505 
   82800    232.39653   -108.56602   0.21027726   -108.35574    6919.8166     4.242982     4.242982     4.242982    6919.8166   -983.53667    7554.8307    14188.156   -3452.0669   -2579.3197    2340.9133    76.385966 
   82900    297.58901   -108.62385   0.26926479   -108.35459   -1829.7433    4.2468421    4.2468421    4.2468421   -1829.7433   -11146.736    5862.4369    -204.9305   -56.814819   -1900.2216    482.09904    76.594636 
   83000    416.96542   -108.72993   0.37727907   -108.35265   -2283.7476     4.240718     4.240718     4.240718   -2283.7476   -524.36403    940.86647   -7267.7451   -1853.3083    -1.854891   -2903.2934    76.263755 
   83100    230.37465   -108.56298   0.20844783   -108.35453    317.73494    4.2444752    4.2444752    4.2444752    317.73494    -8488.524    2903.9845    6537.7444    995.81948   -4553.2026   -2537.1642    76.466641 
   83200    307.27093   -108.63219    0.2780252   -108.35417    -8496.557    4.2469982    4.2469982    4.2469982    -8496.557   -18147.958   -10982.287    3640.5746   -1274.7679     -4977.89    383.16371     76.60308 
   83300    227.68163    -108.5601   0.20601112   -108.35409    12435.134    4.2392252    4.2392252    4.2392252    12435.134    1747.2737    11225.407    24332.722   -2367.2199    3071.1888    2514.3007    76.183247 
   83400    351.96122   -108.67283   0.31846191   -108.35437   -6926.6055    4.2473875    4.2473875    4.2473875   -6926.6055   -11342.293   -3956.0626   -5481.4609    345.80961   -1557.5947    2637.5822    76.624147 
   83500    231.41193   -108.56455   0.20938638   -108.35516   -2294.1367      4.24369      4.24369      4.24369   -2294.1367    -10949.72    1991.1625    2076.1474   -4506.9148   -6133.2449   -1331.6239     76.42421 
   83600    426.14155   -108.73915   0.38558183   -108.35357   -1633.5836    4.2411072    4.2411072    4.2411072   -1633.5836   -6316.2919   -0.4837108    1416.0247    1372.6283    1549.1023    360.35816    76.284756 
   83700    284.68127   -108.61281   0.25758559   -108.35523    800.45381    4.2456774    4.2456774    4.2456774    800.45381   -7026.0506    -2286.179    11713.591   -933.65712   -4180.2694   -1425.2868    76.531633 
   83800    212.07734   -108.54873   0.19189204   -108.35684   -924.11417    4.2418748    4.2418748    4.2418748   -924.11417   -17281.324    3718.2093    10790.773   -2134.0951   -5920.3234     2255.598    76.326181 
   83900    386.80968   -108.70586   0.34999353   -108.35587   -3439.5515    4.2440524    4.2440524    4.2440524   -3439.5515   -8943.5162   -2606.8243     1231.686   -889.13344    719.14047   -440.32362    76.443789 
   84000    288.24365   -108.61601   0.26080891    -108.3552   -694.35537    4.2454058    4.2454058    4.2454058   -694.35537   -11485.721   -610.64724    10013.302   -1503.5723    1332.7877   -352.77309    76.516945 
   84100    267.64773   -108.59685   0.24217329   -108.35468   -6592.7532    4.2419271    4.2419271    4.2419271   -6592.7532   -14088.265   -4194.5753   -1495.4189   -4437.0409   -4779.9829   -4.1373073    76.329003 
   84200    307.29602   -108.63324    0.2780479   -108.35519   -85.914258    4.2461168    4.2461168    4.2461168   -85.914258   -10717.671     -892.149    11352.077   -1362.8218   -3124.4648   -3950.7686    76.555397 
   84300     257.3966   -108.58774   0.23289786   -108.35484    7360.5829    4.2414647    4.2414647    4.2414647    7360.5829   -2715.3056    3842.6695    20954.385   -102.46812   -1874.3108     2224.508    76.304048 
   84400    264.32842   -108.59428   0.23916991   -108.35511    -5001.988    4.2439537    4.2439537    4.2439537    -5001.988   -12039.027   -8455.9623    5489.0254   -2343.0785   -7519.1784    3107.4955    76.438458 
   84500    377.63113   -108.69583   0.34168858   -108.35414   -3582.0366    4.2460379    4.2460379    4.2460379   -3582.0366   -11610.163    4398.4847   -3534.4316    1861.7736   -207.63046    2889.1408    76.551129 
   84600    327.99387    -108.6505   0.29677575   -108.35373    1995.2126    4.2414871    4.2414871    4.2414871    1995.2126   -5540.0761    5705.3943    5820.3195   -322.21689    2227.3959   -4903.2682    76.305257 
   84700    286.07486   -108.61335   0.25884654    -108.3545   -5261.9842    4.2443847    4.2443847    4.2443847   -5261.9842   -14693.698   -2603.3895    1511.1351    -1433.885   -4542.8619   -4446.5265     76.46175 
   84800    269.45149    -108.5978   0.24380537     -108.354    1665.2935    4.2463765    4.2463765    4.2463765    1665.2935   -15726.722    9179.6439    11542.958   -1949.3473   -70.984137    454.49056    76.569445 
   84900    373.83642   -108.69156   0.33825505   -108.35331    -444.4106    4.2397344    4.2397344    4.2397344    -444.4106   -2395.4054   -5435.8908    6498.0644   -755.73248   -1125.2239   -500.49715    76.210699 
   85000    241.82453   -108.57439   0.21880792   -108.35559   -9069.3911    4.2474298    4.2474298    4.2474298   -9069.3911   -17330.295    1590.4628   -11468.341   -2273.1302   -7873.7752    2407.4799    76.626438 
   85100    292.27664   -108.61961   0.26445805   -108.35515   -504.81605    4.2432153    4.2432153    4.2432153   -504.81605   -5501.3652    1299.8193    2687.0978   -2260.4821    215.67125   -1806.6228    76.398564 
   85200    260.93492    -108.5911    0.2360994     -108.355    11773.873    4.2390891    4.2390891    4.2390891    11773.873   -341.09278    7616.8087    28045.902    3170.3707    4938.7603    922.66523    76.175909 
   85300    218.90458   -108.55468   0.19806946   -108.35661   -1256.1116    4.2478968    4.2478968    4.2478968   -1256.1116   -8728.1133    -4304.605    9264.3837   -2863.5174   -981.58332   -2324.2257    76.651714 
   85400    371.99753   -108.69154   0.33659118   -108.35495   -1774.6069    4.2421651    4.2421651    4.2421651   -1774.6069   -7728.6532    -4264.691    6669.5234   -22.269184   -3533.6767   -126.40346    76.341856 
   85500     373.6469   -108.69219   0.33808357   -108.35411    3808.6133    4.2417088    4.2417088    4.2417088    3808.6133   -6586.0947    8824.7494    9187.1852    826.41659    640.50806    1049.7215    76.317222 
   85600      386.304   -108.70427   0.34953598   -108.35474   -11155.754    4.2491395    4.2491395    4.2491395   -11155.754   -18059.682   -11465.896   -3941.6842   -1362.7451   -4886.1894     -220.151    76.719005 
   85700    220.06727   -108.55364   0.19912149   -108.35451    8141.1537    4.2401529    4.2401529    4.2401529    8141.1537   -7056.3883    9171.8436    22308.006   -1563.9557   -2331.3287    2999.8774     76.23327 
   85800    379.77365   -108.69674   0.34362718   -108.35311   -3554.8479    4.2438971    4.2438971    4.2438971   -3554.8479   -11579.438   -3657.0404     4571.934   -2560.2919    7334.3844   -4357.0031    76.435397 
   85900    196.97847   -108.53312   0.17823026   -108.35489   -4395.9599    4.2461665    4.2461665    4.2461665   -4395.9599   -4511.3758   -1209.5714   -7466.9325    389.29424   -298.97489    2721.7476    76.558085 
   86000    307.04982   -108.63234   0.27782513   -108.35452   -5520.2548    4.2415375    4.2415375    4.2415375   -5520.2548    -4925.874    -4980.191   -6654.6993   -2327.9247    -2825.444    1017.9072    76.307978 
   86100    256.10478   -108.58671   0.23172899   -108.35498    4672.9357     4.244043     4.244043     4.244043    4672.9357   -2427.9159    9317.3071     7129.416    1441.5627   -729.98115    1425.0205    76.443282 
   86200    246.28822   -108.57867   0.22284675   -108.35582   -1634.6724    4.2437233    4.2437233    4.2437233   -1634.6724   -4699.5403   -9602.8448    9398.3678   -2185.8691   -3292.4896    1009.6922    76.426011 
   86300    261.22504   -108.59221    0.2363619   -108.35584   -2435.3828    4.2444887    4.2444887    4.2444887   -2435.3828   -11846.507    -4925.887    9466.2459   -2388.9778    -6889.919   -2384.9812    76.467369 
   86400    373.55666   -108.69141   0.33800192    -108.3534    3173.2107    4.2426285    4.2426285    4.2426285    3173.2107   -8072.2196    6393.4631    11198.389    2968.5198    2461.1209    2381.4539    76.366876 
   86500    442.43377   -108.75435   0.40032337   -108.35403   -9621.0803    4.2458634    4.2458634    4.2458634   -9621.0803   -14387.412   -8186.9063    -6288.923   -3394.1335    4835.4526   -1949.2391     76.54169 
   86600     236.3664   -108.57068   0.21386929   -108.35681    5688.9499    4.2433635    4.2433635    4.2433635    5688.9499   -10020.296    9162.2421    17924.904   -1260.2027   -4974.1816    1783.1259    76.406573 
   86700    410.87679   -108.72725   0.37176995   -108.35548   -455.89883    4.2411489    4.2411489    4.2411489   -455.89883   -6043.0816   -2726.1145    7401.4997   -730.20061    -534.5698   -1751.6284    76.287003 
   86800    188.11521   -108.52667    0.1702106   -108.35646    2355.5956    4.2458628    4.2458628    4.2458628    2355.5956   -4697.0613    885.95525    10877.893   -486.61414   -860.46809   -731.44451    76.541657 
   86900    295.04744   -108.62185   0.26696512   -108.35488    -3058.134    4.2430233    4.2430233    4.2430233    -3058.134   -6614.4684   -2820.9923    261.05877    -4258.847   -3489.5161    40.547423    76.388193 
   87000    270.84647   -108.59931   0.24506758   -108.35424    2235.1551    4.2425656    4.2425656    4.2425656    2235.1551   -656.13337    6915.1055    446.49335   -502.31846   -114.80992    1292.9803    76.363478 
   87100    299.38125   -108.62477   0.27088644   -108.35389   -5898.0063    4.2452383    4.2452383    4.2452383   -5898.0063    -11033.14   -2589.9811   -4070.8979    1361.2806    5790.9169    2722.6123    76.507891 
   87200    212.35549   -108.54713   0.19214371   -108.35499   -2512.8396    4.2440684    4.2440684    4.2440684   -2512.8396     -9966.02    -7787.638    10215.139   -3566.0726   -1459.8558   -3146.0616    76.444654 
   87300    348.41746   -108.66903   0.31525544   -108.35377    310.40483    4.2416703    4.2416703    4.2416703    310.40483    -10483.05   -362.07069    11776.335    2399.0033   -2385.2829    2585.6379    76.315142 
   87400    339.43448     -108.661   0.30712745   -108.35387   -5099.9238    4.2470234    4.2470234    4.2470234   -5099.9238   -13554.527    1744.3096   -3489.5537   -1019.0573    2297.3794   -4046.7839    76.604442 
   87500    365.55708   -108.68439   0.33076373   -108.35363   -4566.1914    4.2412677    4.2412677    4.2412677   -4566.1914   -8528.2541   -5273.1387    102.81852   -2374.6924   -5077.9154    519.60378    76.293413 
   87600    326.36384   -108.64975   0.29530087   -108.35445   -256.44952    4.2450465    4.2450465    4.2450465   -256.44952   -3656.2466    3474.4141   -587.51611   -1481.4413     875.1513    993.26068    76.497517 
   87700    299.97508   -108.62816   0.27142376   -108.35673     773.3515    4.2422142    4.2422142    4.2422142     773.3515   -5764.3837   -4535.0164    12619.455   -1467.4833    7009.8124   -2095.7648    76.344507 
   87800    223.31822   -108.56017   0.20206301    -108.3581    3649.2947     4.243108     4.243108     4.243108    3649.2947   -1450.1464   -4809.1741    17207.205   -1298.9333     909.7963    323.01449    76.392771 
   87900    275.65142    -108.6048    0.2494152   -108.35538    381.09943    4.2454173    4.2454173    4.2454173    381.09943    -7252.518    2700.1621    5695.6542   -826.73047   -2557.7963   -1246.6967    76.517567 
   88000    340.34206   -108.66168   0.30794864   -108.35373   -4568.7959    4.2414007    4.2414007    4.2414007   -4568.7959   -8377.3081    4410.9201   -9739.9997    2826.7834      2579.65     1462.413    76.300595 
   88100    230.56623   -108.56342   0.20862117    -108.3548   -1090.3027    4.2462466    4.2462466    4.2462466   -1090.3027   -10380.848   -6318.7478    13428.687    -3420.169   -1229.6906    21.769941    76.562417 
   88200    343.68227   -108.66469   0.31097094   -108.35372    -1997.762    4.2437801    4.2437801    4.2437801    -1997.762   -10481.273    139.14791    4348.8387    976.27679   -2885.6455    2557.1411    76.429076 
   88300    248.84799   -108.57907   0.22516289   -108.35391    7991.8289    4.2401454    4.2401454    4.2401454    7991.8289   -3426.9381    11743.355    15659.069    1741.2488    5875.2233   -2992.8897    76.232866 
   88400    378.07072   -108.69555   0.34208634   -108.35347   -5891.2135     4.248056     4.248056     4.248056   -5891.2135   -7897.2021   -8416.5925   -1359.8458   -3703.2796    3504.8308   -4505.9099    76.660334 
   88500    302.38759   -108.62701   0.27360665    -108.3534    4174.0618    4.2416296    4.2416296    4.2416296    4174.0618    678.00769    12492.151   -647.97364    636.47434     -2595.49   -334.73435    76.312945 
   88600    384.61448   -108.70121   0.34800726   -108.35321   -1607.8103     4.241606     4.241606     4.241606   -1607.8103   -1904.6795   -3549.9211    631.16974    199.26885    1252.9071    1407.7116    76.311672 
   88700    209.09093   -108.54488   0.18918987   -108.35569    1743.7754    4.2479629    4.2479629    4.2479629    1743.7754   -12102.111    6801.0184    10532.419   -1326.3553   -108.87119    1023.8499    76.655294 
   88800    324.03253    -108.6482   0.29319144   -108.35501    2580.7258     4.238389     4.238389     4.238389    2580.7258   -3588.9596   -1013.6519    12344.789   -2634.9768   -4398.2544    257.50943     76.13817 
   88900    269.01812    -108.5988   0.24341324   -108.35539   -3652.2246    4.2473258    4.2473258    4.2473258   -3652.2246   -14850.376    7646.6148   -3752.9126    802.83837    4429.9208   -54.727714    76.620808 
   89000    269.21991    -108.5981   0.24359584    -108.3545   -2682.9596    4.2429586    4.2429586    4.2429586   -2682.9596   -7758.1166    -4454.538    4163.7759   -1472.1397    5309.1711    -573.6044    76.384703 
   89100    321.55117    -108.6444   0.29094626   -108.35345   -3191.0812    4.2432337    4.2432337    4.2432337   -3191.0812     454.4887   -7033.0236   -2994.7086   -2158.3813   -2789.3382    -1504.918    76.399561 
   89200    236.16044   -108.56797   0.21368293   -108.35429    4955.0863    4.2452951    4.2452951    4.2452951    4955.0863   -4576.7861    7856.7357    11585.309    3367.3653   -2160.2171    1415.4188    76.510958 
   89300    302.41239   -108.62873   0.27362908    -108.3551    208.11103     4.241717     4.241717     4.241717    208.11103   -1797.7717   -3789.3271    6211.4318   -2474.1746     2506.897    2631.0297    76.317662 
   89400    271.77433   -108.60168   0.24590712   -108.35577    4618.6011     4.243721     4.243721     4.243721    4618.6011   -7948.4528    1865.5856    19938.671    -4267.574     -2565.23   -3563.9239    76.425886 
   89500    447.90772   -108.75874   0.40527632   -108.35347   -7692.1335    4.2461361    4.2461361    4.2461361   -7692.1335   -9847.8218   -7678.8711   -5549.7077   -233.35035   -1866.6515   -1578.0741     76.55644 
   89600    291.72473   -108.61807   0.26395866   -108.35411   -1114.7755    4.2407754    4.2407754    4.2407754   -1114.7755   -12996.139    6410.0022    3241.8103   -4298.8315    8268.0926   -2870.1495    76.266852 
   89700    354.92058   -108.67471    0.3211396   -108.35357   -6475.1372    4.2463007    4.2463007    4.2463007   -6475.1372   -12901.257   -11488.777    4964.6216   -3502.1526    1084.8258    3133.6462    76.565342 
   89800    253.12249   -108.58352   0.22903055   -108.35449    3945.5785    4.2429091    4.2429091    4.2429091    3945.5785   -7213.8371    11193.115    7857.4579    2041.1184   -2426.9984    3123.7889    76.382029 
   89900    217.48359   -108.55217   0.19678372   -108.35539   -657.58098    4.2429453    4.2429453    4.2429453   -657.58098   -6288.7945   -4604.8056    8920.8572   -86.313383     1997.035     1007.378    76.383983 
   90000    242.72273   -108.57438   0.21962063   -108.35476   -3098.0393    4.2454863    4.2454863    4.2454863   -3098.0393   -3256.3498   -6786.9261    749.15814   -1213.4299    -1677.616   -157.76825    76.521298 
   90100    314.44515   -108.63779   0.28451658   -108.35328   -772.51102    4.2427398    4.2427398    4.2427398   -772.51102    5601.7873    800.77847   -8720.0988    1901.7598    -1728.071   -2517.9269    76.372882 
   90200    317.25724   -108.64123   0.28706101   -108.35417   -912.22108    4.2430863    4.2430863    4.2430863   -912.22108   -7621.6483    2806.6084    2078.3767    -2800.568    4166.5327   -1121.8781    76.391595 
   90300    267.34121   -108.59793   0.24189595   -108.35604    2151.3328    4.2441113    4.2441113    4.2441113    2151.3328   -7672.0306    2170.7255    11955.304   -4156.1498    2680.5907   -2666.2375    76.446972 
   90400    409.76413   -108.72566    0.3707632   -108.35489    1488.7384    4.2420779    4.2420779    4.2420779    1488.7384   -7203.7954   -741.93559    12411.946    608.01928   -2540.5354    5241.7399    76.337146 
   90500    280.96268   -108.61013   0.25422094   -108.35591    3956.9479    4.2438702    4.2438702    4.2438702    3956.9479   -9244.7378    8170.5414     12945.04     496.8591    3461.5061   -1611.2011    76.433945 
   90600    356.89926    -108.6782   0.32292995   -108.35527    -3972.828    4.2429789    4.2429789    4.2429789    -3972.828   -2572.0055   -2195.5921   -7150.8865    -4138.424    2324.8349   -1671.9632    76.385795 
   90700    320.96201   -108.64468   0.29041318   -108.35426    4919.1772    4.2430964    4.2430964    4.2430964    4919.1772   -1331.3839    7230.4269    8858.4885     21.20003   -897.14504    326.52054    76.392146 
   90800    289.43274   -108.61591   0.26188483   -108.35403   -280.39293    4.2438118    4.2438118    4.2438118   -280.39293   -3794.2181    1966.7712    986.26806    632.48595    4766.3209    739.61503    76.430788 
   90900     175.5996   -108.51403   0.15888621   -108.35514   -900.66106    4.2427497    4.2427497    4.2427497   -900.66106   -10354.477   -783.55898    8436.0526   -4585.7199    6639.0387    2501.4415    76.373418 
   91000    313.29001   -108.63719   0.28347139   -108.35372   -3137.5884    4.2452141    4.2452141    4.2452141   -3137.5884   -7841.4772   -2442.5009    871.21277    526.07902   -860.24877   -2735.2681    76.506579 
   91100    305.61563   -108.63002   0.27652744    -108.3535   -1377.8877    4.2422285    4.2422285    4.2422285   -1377.8877   -8064.4556    10097.218   -6166.4258    1050.3801   -953.02533    1952.1077    76.345275 
   91200    270.24408   -108.59878   0.24452252   -108.35425   -6071.8034    4.2437402    4.2437402    4.2437402   -6071.8034     -11301.9   -1910.1276   -5003.3824   -2576.0843    5827.5339   -2959.3924    76.426919 
   91300    371.15343   -108.68952   0.33582743    -108.3537    -4937.779    4.2453487    4.2453487    4.2453487    -4937.779   -9301.4411   -2676.0727   -2835.8232   -3053.8126   -2223.3488   -892.89261    76.513856 
   91400    304.48017   -108.63022   0.27550006   -108.35472    5213.0255    4.2408863    4.2408863    4.2408863    5213.0255   -1114.5738    6282.5609    10471.089   -867.10273    3968.3086    3078.4846    76.272834 
   91500    238.55111   -108.57202   0.21584605   -108.35617   -350.94809     4.246188     4.246188     4.246188   -350.94809   -12670.459    6054.9391    5562.6757   -4557.8068     7466.683    4186.8936    76.559248 
   91600    301.57779   -108.62691   0.27287392   -108.35404    4204.3454    4.2437915    4.2437915    4.2437915    4204.3454   -1462.2707    437.68801    13637.619    -4524.486    1257.6202    2482.3887    76.429696 
   91700     395.3132    -108.7107    0.3576877   -108.35301   -17.702333    4.2426427    4.2426427    4.2426427   -17.702333    -4395.616    8768.9362   -4426.4272    2132.5437     2223.006   -2703.8227    76.367642 
   91800    239.64742   -108.57132   0.21683802   -108.35449    -4007.501    4.2447349    4.2447349    4.2447349    -4007.501   -13824.548   -2701.6321    4503.6766   -2654.8168     392.6197   -27.266496    76.480678 
   91900    368.82471    -108.6868   0.33372035   -108.35308   -7886.9069    4.2445388    4.2445388    4.2445388   -7886.9069   -8012.6673   -8101.3823    -7546.671   -272.33192   -186.85555   -3915.3184    76.470075 
   92000    261.22502    -108.5892   0.23636189   -108.35283    8917.5668     4.242441     4.242441     4.242441    8917.5668    4862.1562    13755.295    8135.2489    947.60526   -2842.1186    906.76571    76.356751 
   92100    244.96901   -108.57593   0.22165311   -108.35427   -1000.0885    4.2439336    4.2439336    4.2439336   -1000.0885   -10262.955   -5763.8784    13026.568   -4993.1114     6988.397     740.5125    76.437371 
   92200    190.15673   -108.52709   0.17205781   -108.35503    4490.1778    4.2430534    4.2430534    4.2430534    4490.1778    8971.2375    4018.0752    481.22084   -4485.6419    2490.5063    887.95672    76.389823 
   92300    413.44423   -108.72721   0.37409302   -108.35312   -1276.1848    4.2440108    4.2440108    4.2440108   -1276.1848   -2337.6906   -5676.8215    4185.9575   -1696.4944   -931.94646    2899.0084    76.441542 
   92400    285.69476   -108.61433   0.25850262   -108.35582    2588.8539    4.2405312    4.2405312    4.2405312    2588.8539    112.30581    11731.628   -4077.3717   -2259.5375    2623.7472   -1309.2675    76.253675 
   92500    327.91824   -108.65274   0.29670732   -108.35603   -6172.3576     4.246538     4.246538     4.246538   -6172.3576   -5699.2449   -9776.8812   -3040.9468   -4283.1327    46.113758    2508.9097    76.578183 
   92600    416.88107   -108.73066   0.37720276   -108.35346    1971.0615     4.243028     4.243028     4.243028    1971.0615   -4677.8282      6041.41    4549.6028    3323.4363     49.54876    -267.2219    76.388449 
   92700    243.80859   -108.57509   0.22060314   -108.35449    3390.9771    4.2411855    4.2411855    4.2411855    3390.9771    5849.8797    1190.8044    3132.2472   -1618.3952    2286.0477    1703.3295    76.288981 
   92800    257.71487   -108.58895   0.23318583   -108.35576   -6800.8895    4.2455511    4.2455511    4.2455511   -6800.8895   -14684.075   -3141.5099   -2577.0832   -7261.8509    6480.0616   -722.34083    76.524804 
   92900        286.2   -108.61359   0.25895978   -108.35464    6525.3534    4.2427099    4.2427099    4.2427099    6525.3534    8360.0898    9711.8264    1504.1442      947.533   -3412.1676     -639.079    76.371271 
   93000    352.08174   -108.67301   0.31857096   -108.35444   -1966.9295    4.2410155    4.2410155    4.2410155   -1966.9295   -3945.1068    4765.6714   -6721.3531   -852.84758     935.3559      3701.24    76.279807 
   93100    206.20962   -108.54256    0.1865828   -108.35598    -9711.566    4.2467981    4.2467981    4.2467981    -9711.566   -13665.532    -5036.129   -10433.037   -3356.8154    2717.3346   -3154.2945    76.592251 
   93200    332.46046   -108.65498   0.30081721   -108.35416   -736.27656     4.241697     4.241697     4.241697   -736.27656   -1949.8423   -5742.4478    5483.4604   -2515.4873   -2302.7069    3461.7878    76.316586 
   93300    307.62578   -108.63306   0.27834627   -108.35472    6414.3363    4.2422149    4.2422149    4.2422149    6414.3363   -710.71922    17244.601    2709.1276    526.91816    3682.9599    1766.8014    76.344543 
   93400    202.68022   -108.54032   0.18338932   -108.35693    -2301.583    4.2463423    4.2463423    4.2463423    -2301.583   -9324.3022   -5907.9789    8327.5322   -7352.4953     4618.062    2158.0432    76.567594 
   93500     321.9678   -108.64671   0.29132323   -108.35538    1977.0684    4.2409608    4.2409608    4.2409608    1977.0684   -2398.5333    5096.0851    3233.6533   -3982.2009    2153.0924   -859.92635    76.276855 
   93600    432.94665   -108.74514   0.39173923    -108.3534   -3607.4754     4.245472     4.245472     4.245472   -3607.4754    -5348.564   -1031.2265   -4442.6357     1915.278   -2727.1173   -2226.2433    76.520526 
   93700    308.52551     -108.634   0.27916036   -108.35484   -6486.6006    4.2430797    4.2430797    4.2430797   -6486.6006    -15623.87   -3335.3149   -500.61719   -2972.7831    2056.9214    1295.3168    76.391242 
   93800     329.3018    -108.6533   0.29795918   -108.35534   -3890.1827    4.2449999    4.2449999    4.2449999   -3890.1827   -1894.1272   -5035.0996   -4741.3211    327.61803   -767.09574   -3922.7617    76.495001 
   93900    334.68582   -108.65627   0.30283076   -108.35344    5066.5665    4.2431103    4.2431103    4.2431103    5066.5665   -425.37075    9541.5581    6083.5122   -1714.7814   -116.40456    3178.2071    76.392897 
   94000    175.10267   -108.51364   0.15843657    -108.3552   -1813.4843    4.2442444    4.2442444    4.2442444   -1813.4843   -3504.5684   -3349.4063    1413.5218    -5849.081    6183.1915    1715.3656    76.454165 
   94100    205.20256    -108.5404   0.18567159   -108.35473   -285.31278    4.2443172    4.2443172    4.2443172   -285.31278    507.89332   -4146.2056     2782.374   -5395.5575    1915.5966    3463.5471      76.4581 
   94200    309.86143    -108.6326   0.28036913   -108.35223    5130.5702    4.2442654    4.2442654    4.2442654    5130.5702    -1822.144    13035.972    4177.8821    1933.4582    568.67463    970.22249    76.455301 
   94300    336.26511   -108.65751   0.30425974   -108.35325   -5138.5321    4.2421502    4.2421502    4.2421502   -5138.5321     -4675.73   -3904.1518   -6835.7144   -2959.9765    6.2602206   -2013.8695    76.341052 
   94400    249.39278   -108.58008   0.22565583   -108.35442   -3626.1212    4.2474288    4.2474288    4.2474288   -3626.1212   -6490.0261    1769.3398   -6157.6772   -2256.9486    52.886634    1645.2247    76.626383 
   94500    474.94871     -108.782   0.42974358   -108.35225    281.32877    4.2412881    4.2412881    4.2412881    281.32877    -3339.687    1883.8556    2299.8178    5206.6382   -1195.7158   -3558.5996    76.294518 
   94600    238.67901   -108.57075   0.21596179   -108.35479     7093.293    4.2429805    4.2429805    4.2429805     7093.293    2501.1125    17742.508    1036.2585    -5661.927    3093.8953    1978.2275    76.385882 
   94700    269.91925    -108.6007   0.24422861   -108.35647   -833.28065     4.246594     4.246594     4.246594   -833.28065   -12171.036    2985.3324    6685.8619   -5758.6285    5090.4102    144.25005    76.581208 
   94800    356.02253   -108.67627   0.32213666   -108.35414    8546.8906    4.2397425    4.2397425    4.2397425    8546.8906    5614.2254    9361.4701    10664.976   -570.63722   -911.76485    3781.7752    76.211139 
   94900    310.17223   -108.63542   0.28065035   -108.35477   -769.08929    4.2436886    4.2436886    4.2436886   -769.08929   -6696.2211    5459.5623   -1070.6091    1143.1303    1697.2544    1564.3679    76.424134 
   95000    305.19344   -108.63142   0.27614544   -108.35528    -13070.24      4.24737      4.24737      4.24737    -13070.24   -18821.611   -12769.638   -7619.4703   -5412.4729    1697.7189   -2894.0691    76.623199 
   95100    246.65509   -108.57838   0.22317871    -108.3552    9621.0719    4.2385831    4.2385831    4.2385831    9621.0719     3787.845    17705.735    7369.6361    1205.1739   -1481.2237    1849.4656    76.148631 
   95200    342.06744   -108.66414   0.30950981   -108.35463    -7807.333    4.2467363    4.2467363    4.2467363    -7807.333   -12462.437   -6840.8183   -4118.7437   -1363.2371     1268.922   -3515.0653    76.588909 
   95300    116.19249   -108.46139   0.10513341   -108.35626     -1882.43    4.2435662    4.2435662    4.2435662     -1882.43   -5086.7108   -5986.2879    5425.7086   -5360.2121    5638.7662    2139.1808    76.417521 
   95400    324.52817   -108.64795   0.29363991   -108.35431   -250.85948    4.2411635    4.2411635    4.2411635   -250.85948   -4739.4373   -5241.1585    9228.0174    3278.2271    1198.6304   -3419.4066    76.287794 
   95500    369.86935   -108.68811   0.33466556   -108.35345   -2553.0871    4.2459133    4.2459133    4.2459133   -2553.0871   -8950.1285    5491.1694    -4200.302   -1731.6181   -914.05273    2849.6539    76.544391 
   95600    280.82319   -108.60911   0.25409473   -108.35502   -5621.8114    4.2430533    4.2430533    4.2430533   -5621.8114   -14510.291   -3150.3092    795.16612    -1958.784    3089.2109     310.8364    76.389815 
   95700    391.03189   -108.70825   0.35381387   -108.35444   -3607.4156    4.2429071    4.2429071    4.2429071   -3607.4156   -7918.2203    4119.6049   -7023.6314   -350.95275   -338.57232   -3001.4759    76.381919 
   95800    364.47343   -108.68411   0.32978322   -108.35432   -1544.6771      4.24558      4.24558      4.24558   -1544.6771   -12447.381    6754.6541    1058.6959   -532.13335   -1724.8662     2916.051    76.526363 
   95900    260.68327   -108.59049    0.2358717   -108.35462   -1065.1374    4.2422727    4.2422727    4.2422727   -1065.1374   -5924.3655   -7382.4856    10111.439   -6602.6563    5615.3367   -797.89292     76.34766 
   96000     270.8835   -108.59971   0.24510109   -108.35461    2882.3146    4.2450757    4.2450757    4.2450757    2882.3146   -7877.8313      8973.86    7550.9151   -3074.3091    3104.3922    2017.4095    76.499101 
   96100    278.97393   -108.60615   0.25242148   -108.35373     3494.054    4.2430399    4.2430399    4.2430399     3494.054    2339.3688    935.96201    7206.8312    4952.1988   -86.799681   -5273.2324    76.389092 
   96200    268.93534   -108.59749   0.24333835   -108.35415   -6296.0167    4.2439266    4.2439266    4.2439266   -6296.0167   -7342.6139   -890.05736   -10655.379   -3107.7529    1536.3956   -387.51151    76.436995 
   96300    228.96715   -108.56246   0.20717429   -108.35528    2384.1135    4.2453484    4.2453484    4.2453484    2384.1135   -5508.4271    4772.2149    7888.5528    567.32033    -716.2176    1047.4303    76.513845 
   96400    356.77711   -108.67658   0.32281942   -108.35376    4522.0788    4.2406815    4.2406815    4.2406815    4522.0788   -5178.1893    12237.778    6506.6481    386.86034    -2854.267    2183.4345    76.261786 
   96500     281.4845   -108.60932   0.25469309   -108.35463   -2818.1109    4.2471023    4.2471023    4.2471023   -2818.1109   -13731.161   -1313.6923    6590.5208   -3151.1238    1194.2193    2971.9878    76.608713 
   96600    319.82016   -108.64353      0.28938   -108.35415   -108.13509    4.2439961    4.2439961    4.2439961   -108.13509   -5662.9766   -1786.9964    7125.5677   -4108.2948    4662.2302   -1171.4466     76.44075 
   96700    380.18273   -108.69777   0.34399733   -108.35378    3752.9453    4.2397551    4.2397551    4.2397551    3752.9453   -1980.2917    9476.8647    3762.2627    196.46661    -2661.994     380.4881    76.211818 
   96800    316.19997   -108.64094   0.28610438   -108.35484   -3523.1983    4.2488083    4.2488083    4.2488083   -3523.1983   -5470.8081   -255.94669   -4842.8402    118.42292   -529.46078   -6472.1114    76.701065 
   96900    292.58057   -108.61865   0.26473305   -108.35392    2279.5784    4.2411732    4.2411732    4.2411732    2279.5784   -2962.3498    9301.5676    499.51731   -4274.9855    1343.5446     1109.506    76.288317 
   97000    311.91695   -108.63554   0.28222901   -108.35331    401.38246    4.2413698    4.2413698    4.2413698    401.38246    -4634.468    72.605531    5766.0099    4439.7766   -3748.9604    614.78073    76.298926 
   97100    269.41355   -108.59754   0.24377104   -108.35377   -7962.9555    4.2488607    4.2488607    4.2488607   -7962.9555   -9777.9848   -10737.561   -3373.3204   -2443.2861   -2039.4957    484.11536    76.703905 
   97200    252.97181   -108.58238   0.22889421   -108.35349   -1266.6534    4.2406022    4.2406022    4.2406022   -1266.6534   -7539.1061   -6957.7474    10696.893   -4918.3079     3827.953    1119.9092    76.257506 
   97300    275.31524   -108.60238   0.24911101   -108.35327    1563.5339    4.2419983    4.2419983    4.2419983    1563.5339   -2155.7757    4715.2803    2131.0972    3137.2146    426.25316   -3514.1969    76.332847 
   97400     277.7435    -108.6051   0.25130815   -108.35379   -6470.1157     4.247952     4.247952     4.247952   -6470.1157   -6005.9486   -6296.2196   -7108.1788   -867.67179   -2590.2605    3376.1646    76.654704 
   97500    283.84659   -108.61059   0.25683036   -108.35376   -365.71754     4.240179     4.240179     4.240179   -365.71754   -4685.6093   -3053.6223     6642.079   -3400.2847    2821.2932   -1314.6041    76.234678 
   97600     280.1688   -108.60765   0.25350262   -108.35415    5800.1513    4.2437296    4.2437296    4.2437296    5800.1513    1056.8343   -514.07516    16857.695    946.90738   -4507.1897   -870.41882    76.426351 
   97700     382.3888   -108.70045   0.34599342   -108.35446    -4113.477    4.2461408    4.2461408    4.2461408    -4113.477   -15500.634   -4638.1772    7798.3804    66.766831   -3988.3402   -500.77443    76.556692 
   97800    327.74253   -108.65124   0.29654833    -108.3547    2932.3869    4.2414332    4.2414332    4.2414332    2932.3869   -1714.8227   -1864.2519    12376.235   -4841.5651    2820.8676   -1080.5125    76.302345 
   97900    394.25239   -108.71066   0.35672784   -108.35394    -2356.529    4.2441834    4.2441834    4.2441834    -2356.529   -10975.154   -1358.3766    5263.9433   -183.40888   -489.79216   -649.43606    76.450867 
   98000    320.33419   -108.64449    0.2898451   -108.35464   -3269.4153    4.2447244    4.2447244    4.2447244   -3269.4153   -8063.1579   -665.90423   -1079.1836    1304.6871   -3277.6776    157.50062    76.480108 
   98100    200.84391   -108.53743   0.18172779    -108.3557    7086.3919    4.2434742    4.2434742    4.2434742    7086.3919   -3894.8791   -3217.8126    28371.867   -1704.1049   -1520.5063    5598.5115    76.412553 
   98200    250.40814     -108.582   0.22657454   -108.35543    1861.5374    4.2441114    4.2441114    4.2441114    1861.5374   -6346.8263    6439.3972    5492.0413    1310.7638    1762.3509    3598.7916    76.446977 
   98300    227.58918   -108.56088   0.20592748   -108.35495   -784.44469    4.2421387    4.2421387    4.2421387   -784.44469   -1434.5214    -2749.672    1830.8593    1572.5289   -9409.8703    418.68431    76.340427 
   98400    292.14919   -108.61878   0.26434272   -108.35444   -5401.0744    4.2470475    4.2470475    4.2470475   -5401.0744   -7036.4195   -10550.226    1383.4226   -3675.9109    2449.8758   -351.54875     76.60575 
   98500    370.24553   -108.68853   0.33500594   -108.35352   -2591.1392    4.2408269    4.2408269    4.2408269   -2591.1392   -7412.9961    -5049.609    4689.1873   -1397.8355    2856.6084   -3363.8521    76.269628 
   98600    295.54182    -108.6215   0.26741245   -108.35409    -1665.169    4.2451769    4.2451769    4.2451769    -1665.169   -5572.0956   -3071.8612    3648.4497    207.32378   -5504.3329   -297.90775    76.504569 
   98700     347.6333   -108.66842   0.31454592   -108.35387   -2419.9899    4.2459693    4.2459693    4.2459693   -2419.9899   -15500.026   -4752.9423    12992.999   -4571.1956   -1551.1694    126.53864    76.547419 
   98800    327.12232   -108.64964   0.29598715   -108.35365    5258.1962    4.2404107    4.2404107    4.2404107    5258.1962    1047.5705    5029.1907    9697.8273   -176.13952   -1278.1361    4007.7833    76.247175 
   98900    322.50858   -108.64587   0.29181254   -108.35405   -604.24445    4.2460288    4.2460288    4.2460288   -604.24445   -3335.9814    989.95593    533.29208    4014.2337   -865.40875     2326.932    76.550635 
   99000    257.41705   -108.58667   0.23291636   -108.35376    1521.7552    4.2446298    4.2446298    4.2446298    1521.7552   -7350.0598     -3139.47    15054.796   -131.18056   -300.24792   -2641.9089    76.474997 
   99100    299.43072   -108.62379   0.27093121   -108.35286    4148.3448    4.2407566    4.2407566    4.2407566    4148.3448    4360.7558   -1574.7417    9659.0203   -1380.0698    5356.7295    117.50238    76.265837 
   99200     249.3387   -108.57974    0.2256069   -108.35413   -903.85836     4.247074     4.247074     4.247074   -903.85836   -15843.626   -5887.1129    19019.164     595.0399   -4184.9113   -2467.8966    76.607184 
   99300    279.58484   -108.60815   0.25297424   -108.35518   -2204.5792    4.2410976    4.2410976    4.2410976   -2204.5792   -1945.0506   -12106.665    7437.9779   -4429.7126    -3393.134    1261.9577    76.284237 
   99400    358.43903   -108.67907   0.32432317   -108.35475     -4005.82    4.2441742    4.2441742    4.2441742     -4005.82   -11389.124   -11691.906     11063.57   -4465.8811   -124.87998   -111.20285     76.45037 
   99500    280.50619   -108.60883   0.25380789   -108.35503   -918.64321    4.2460874    4.2460874    4.2460874   -918.64321   -1109.7901   -3073.2992    1427.1597    2306.5492   -2317.5617    1089.0032    76.553803 
   99600    283.89563   -108.61133   0.25687474   -108.35446    2476.3133    4.2408507    4.2408507    4.2408507    2476.3133   -5379.4146    669.84175    12138.513   -1648.6271    575.17717   -1303.4552    76.270912 
   99700    302.61116   -108.62813   0.27380894   -108.35432    1659.0414    4.2466221    4.2466221    4.2466221    1659.0414   -6669.9689   -3392.2206    15039.314    -285.7518    4705.1952   -5754.3247    76.582729 
   99800    306.61018   -108.63247   0.27742734   -108.35505    227.86506    4.2426323    4.2426323    4.2426323    227.86506   -6362.6834    2554.4687    4491.8098    3449.7042     1082.585   -533.88799    76.367077 
   99900    322.05746    -108.6467   0.29140436   -108.35529   -3125.5852     4.241078     4.241078     4.241078   -3125.5852   -7772.0907   -542.14033   -1062.5245   -2777.8933   -7207.9912   -87.055283    76.283179 
  100000    337.47288   -108.65963   0.30535255   -108.35428   -8970.8684    4.2492696    4.2492696    4.2492696   -8970.8684   -11131.557    -18324.74    2543.6922   -2096.0987    1080.3547    4426.3304    76.726054 
Loop time of 22.4965 on 1 procs for 100000 steps with 8 atoms

Pair  time (%) = 7.4463 (33.0998)
Kspce time (%) = 5.29337 (23.5298)
Neigh time (%) = 0 (0)
Comm  time (%) = 1.05957 (4.70994)
Outpt time (%) = 0.0255709 (0.113666)
Other time (%) = 8.67167 (38.5468)

Nlocal:    8 ave 8 max 8 min
Histogram: 1 0 0 0 0 0 0 0 0 0
Nghost:    2189 ave 2189 max 2189 min
Histogram: 1 0 0 0 0 0 0 0 0 0
Neighs:    2472 ave 2472 max 2472 min
Histogram: 1 0 0 0 0 0 0 0 0 0

Total # of neighbors = 2472
Ave neighs/atom = 309
Neighbor list builds = 0
Dangerous builds = 0
unfix 20
unfix 21
print "seeds:250968"
seeds:250968
