LAMMPS (10 Feb 2015)
# ---- initialize simulations
clear
units metal
dimension 3
boundary p p p
atom_style charge
atom_modify map array
# ---- create atoms
read_data /Users/eugeneragasa/pyflamestk_git/pypospack/tests/tests_integration/workflow/WorkflowLammpsThermalExpansion/MgO_NaCl_unit.npt.T500/lammps.structure
  triclinic box = (0 0 0) to (4.2565 4.2565 4.2565) with tilt (0 0 0)
  1 by 1 by 1 MPI processor grid
  reading atoms ...
  8 atoms
# ---- define interatomic potential
include potential.mod
mass 1 24.305
mass 2 15.999

group Mg type 1
4 atoms in group Mg
group O type 2
4 atoms in group O

set group Mg charge 1.7
  4 settings made for charge
set group O charge -1.7
  4 settings made for charge

variable R_cut equal 10.0

pair_style buck/coul/long ${R_cut}
pair_style buck/coul/long 10
pair_coeff 1 1 0.0 0.5 0.0 ${R_cut}
pair_coeff 1 1 0.0 0.5 0.0 10
pair_coeff 1 2 929.69 0.29909 0.0 ${R_cut}
pair_coeff 1 2 929.69 0.29909 0.0 10
pair_coeff 2 2 4870 0.2679 77 ${R_cut}
pair_coeff 2 2 4870 0.2679 77 10

kspace_style pppm 1.0e-5

neighbor 1.0 bin
neigh_modify every 1 delay 0 check yes
# ---- define settings
compute eng all pe/atom
compute eatoms all reduce sum c_eng
# ---- run minimization
reset_timestep 0
fix 1 all box/relax iso 0.0 vmax 0.001
thermo 10
thermo_style custom step pe lx ly lz xy xz yz press pxx pyy pzz pxy pxz pyz c_eatoms
min_style cg
minimize 1e-25 1e-25 5000 10000
PPPM initialization ...
  G vector (1/distance) = 0.353152
  grid = 8 8 8
  stencil order = 5
  estimated absolute RMS force accuracy = 4.10333e-05
  estimated relative force accuracy = 2.84961e-06
  using double precision FFTs
  3d grid and FFT values/proc = 3375 512
Neighbor list info ...
  1 neighbor list requests
  update every 1 steps, delay 0 steps, check yes
  master list distance cutoff = 11
Memory usage per processor = 4.06549 Mbytes
Step PotEng Lx Ly Lz Xy Xz Yz Press Pxx Pyy Pzz Pxy Pxz Pyz eatoms 
       0   -119.82944       4.2565       4.2565       4.2565            0            0            0   -43102.631   -43102.631   -43102.631   -43102.631 -1.1410716e-10 2.0651384e-11 1.0044018e-10   -119.82944 
       9    -119.8549     4.222448     4.222448     4.222448            0            0            0   -490.28356   -490.28356   -490.28356   -490.28356 -3.7927136e-11 -7.2182599e-11 3.2130495e-11    -119.8549 
Loop time of 0.159774 on 1 procs for 9 steps with 8 atoms

Minimization stats:
  Stopping criterion = linesearch alpha is zero
  Energy initial, next-to-last, final = 
        -119.829437963     -119.854898204     -119.854898204
  Force two-norm initial, final = 6.22404 0.0696885
  Force max component initial, final = 6.22404 0.069669
  Final line search alpha, max atom move = 1.75215e-06 1.2207e-07
  Iterations, force evaluations = 9 35

Pair  time (%) = 0.0150421 (9.41459)
Kspce time (%) = 0.127859 (80.0248)
Neigh time (%) = 0 (0)
Comm  time (%) = 0.000827312 (0.517801)
Outpt time (%) = 0 (0)
Other time (%) = 0.0160458 (10.0428)

Nlocal:    8 ave 8 max 8 min
Histogram: 1 0 0 0 0 0 0 0 0 0
Nghost:    2189 ave 2189 max 2189 min
Histogram: 1 0 0 0 0 0 0 0 0 0
Neighs:    2344 ave 2344 max 2344 min
Histogram: 1 0 0 0 0 0 0 0 0 0

Total # of neighbors = 2344
Ave neighs/atom = 293
Neighbor list builds = 0
Dangerous builds = 0
unfix 1
# ---- define output variables ----
variable natoms equal "count(all)"
variable tot_energy equal "c_eatoms"
variable length_x equal "lx"
variable length_y equal "ly"
variable length_z equal "lz"
variable tilt_xy equal "xy"
variable tilt_xz equal "xz"
variable tilt_yz equal "yz"
variable tot_press equal "press"
variable press_xx equal "pxx"
variable press_yy equal "pyy"
variable press_zz equal "pzz"
variable press_xy equal "pxy"
variable press_xz equal "pxz"
variable press_yz equal "pyz"

# ---- output ----
print "pypospack:output_section:begin"
pypospack:output_section:begin
print "tot_energy = ${tot_energy}"
tot_energy = -119.854898204259
print "num_atoms = ${natoms}"
num_atoms = 8
print "xx = ${length_x}"
xx = 4.222448
print "yy = ${length_y}"
yy = 4.222448
print "zz = ${length_z}"
zz = 4.222448
print "xy = ${tilt_xy}"
xy = 0
print "xz = ${tilt_xz}"
xz = 0
print "yz = ${tilt_yz}"
yz = 0
print "tot_press = ${tot_press}"
tot_press = -490.283556338482
print "pxx = ${press_xx}"
pxx = -490.283556338668
print "pyy = ${press_yy}"
pyy = -490.283556338614
print "pzz = ${press_zz}"
pzz = -490.283556338163
print "pxy = ${press_xy}"
pxy = -3.79271362347293e-11
print "pxz = ${press_xz}"
pxz = -7.2182599384956e-11
print "pyz = ${press_yz}"
pyz = 3.21304951944417e-11
print "pypospack:output_section:done"
pypospack:output_section:done
print "pypospack:lammps_sim:done"
pypospack:lammps_sim:done
#------------------------------------------------------------------------------
# RUN THERMOSTAT
# running using an NPT Nose-Hoover style thermostat
#------------------------------------------------------------------------------
variable tempdamp equal 0.1
variable pressdamp equal 1.0
# set initial velocities
velocity all create 500 9060285 mom yes dist gaussian loop all
# fix for Nose-Hoover style thermostat
fix 20 all npt temp 500 500 0.1 aniso 0.0 0.0 1.0 drag 1.0 couple xyz
variable boxx equal lx
variable boxy equal ly
variable boxz equal lz
variable boxp equal press
variable boxt equal temp
# calculate averages every 10000 steps
reset_timestep 0
fix 21 all ave/time 10 10 100 v_boxx v_boxy v_boxz v_boxp v_boxt file lattice.out
thermo_style custom step temp pe ke etotal press lx ly lz press pxx pyy pzz pxy pxz pyz vol
thermo_modify flush yes
thermo 100
run 100000
PPPM initialization ...
  G vector (1/distance) = 0.353501
  grid = 8 8 8
  stencil order = 5
  estimated absolute RMS force accuracy = 4.03791e-05
  estimated relative force accuracy = 2.80417e-06
  using double precision FFTs
  3d grid and FFT values/proc = 3375 512
Memory usage per processor = 3.06549 Mbytes
Step Temp PotEng KinEng TotEng Press Lx Ly Lz Press Pxx Pyy Pzz Pxy Pxz Pyz Volume 
       0          500    -119.8549   0.45241051   -119.40249    5929.0146     4.222448     4.222448     4.222448    5929.0146    5355.1271    4658.4087    7773.5078   -554.50164   -3786.1443    1710.1615    75.282309 
     100     162.6959   -119.48303   0.14721067   -119.33582   -2813.1151     4.240956     4.240956     4.240956   -2813.1151    886.66598   -4207.4745   -5118.5367    4695.3676   -1456.2855    2404.5608    76.276595 
     200    332.88162   -119.52156   0.30119828   -119.22036    -3343.538    4.2350479    4.2350479    4.2350479    -3343.538    -2365.888   -3221.3339    -4443.392   -430.96947   -6722.1079   -3619.1799    75.958253 
     300    363.99637   -119.43822   0.32935157   -119.10887    7648.2278    4.2372547    4.2372547    4.2372547    7648.2278    5214.1243     9184.275    8546.2843    5138.7112   -3928.1438    -936.7511    76.077057 
     400    666.68293   -119.62678   0.60322873   -119.02355   -8442.5986    4.2444691    4.2444691    4.2444691   -8442.5986   -11780.625   -3725.1666   -9822.0044     1389.275    5160.2777   -491.34984    76.466308 
     500    279.88485   -119.22375    0.2532457    -118.9705    250.58324    4.2442891    4.2442891    4.2442891    250.58324   -13096.961    11428.663    2420.0482    3565.6957    928.00621   -3128.4906    76.456579 
     600    436.53019   -119.34236   0.39498169   -118.94738   -2741.7077    4.2389152    4.2389152    4.2389152   -2741.7077   -3089.4827    6250.2096    -11385.85    99.167771    466.07534    -7531.784    76.166534 
     700     540.9828   -119.43128   0.48949261   -118.94179    1735.4702     4.244234     4.244234     4.244234    1735.4702   -3819.6881     6281.011    2745.0877    2016.2831    6629.3796   -10207.838    76.453602 
     800    433.27021   -119.33052   0.39203199   -118.93848   -12660.756    4.2511032    4.2511032    4.2511032   -12660.756   -18317.944   -10517.649   -9146.6755    4517.3477    4013.6394     711.4297    76.825419 
     900    541.59129   -119.42952   0.49004318   -118.93948    13782.162    4.2303138    4.2303138    4.2303138    13782.162    20495.843    17154.472    3696.1716   -3491.4001    1921.1061    -640.0302    75.703814 
    1000    523.68779   -119.42077   0.47384371   -118.94692   -858.08659    4.2521305    4.2521305    4.2521305   -858.08659   -10972.981   -1118.2332    9516.9541    6186.1837   -562.46447    1841.5088    76.881128 
    1100     457.4912   -119.35748   0.41394765   -118.94353    3199.5407    4.2458772    4.2458772    4.2458772    3199.5407    18561.984   -10012.151    1048.7892   -1218.9383    -3690.648   -4031.7902    76.542436 
    1200    569.65466   -119.45408   0.51543551   -118.93864    11669.748    4.2303141    4.2303141    4.2303141    11669.748    14707.761    14785.553    5515.9287    5822.5583    1903.3069    4711.9982    75.703827 
    1300    601.95617   -119.48816   0.54466259   -118.94349    -4488.646    4.2539761    4.2539761    4.2539761    -4488.646     4400.014   -16090.137   -1775.8148    1028.7101   -6039.7995    3547.9871    76.981281 
    1400    507.14236   -119.40328   0.45887306   -118.94441   -5311.9961    4.2438723    4.2438723    4.2438723   -5311.9961    609.35182   -13747.878   -2797.4619     1764.346   -11001.413     5103.922    76.434057 
    1500    228.88753   -119.15147   0.20710224   -118.94437    5035.3749    4.2325702    4.2325702    4.2325702    5035.3749    11712.719    2336.1083    1057.2976    6648.1933   -4040.7618    1470.1098    75.825015 
    1600    710.10014   -119.58687   0.64251353   -118.94436   -13962.731    4.2521598    4.2521598    4.2521598   -13962.731   -3782.6166   -21384.002   -16721.573   -2936.0655   -7661.4012    1747.2553    76.882716 
    1700    491.72149   -119.38928   0.44491994   -118.94436   -2042.8807    4.2456053    4.2456053    4.2456053   -2042.8807    10938.301   -20191.344    3124.4009    6144.0403    2051.0456    6624.9187    76.527736 
    1800    377.44577   -119.28524   0.34152087   -118.94372    5051.7924    4.2320218    4.2320218    4.2320218    5051.7924    16527.157   -3685.5181    2313.7383   -7445.2879   -815.22089      820.217    75.795546 
    1900    399.75231   -119.30584   0.36170429   -118.94413   -6333.4065    4.2551755    4.2551755    4.2551755   -6333.4065    8177.1295   -19449.936   -7727.4126    2125.2535    3876.1525   -4442.5587    77.046415 
    2000    867.35569   -119.72588   0.78480165   -118.94108    -3756.537    4.2386386    4.2386386    4.2386386    -3756.537   -1765.8154   -8489.8481   -1013.9475   -4771.2575    10484.782   -2179.9863    76.151624 
    2100    325.18263   -119.23784   0.29423208   -118.94361    11060.549    4.2381013    4.2381013    4.2381013    11060.549    24075.144    6008.2815    3098.2213   -2946.5452    1284.6585   -2607.0796    76.122668 
    2200     374.5403   -119.28364   0.33889193   -118.94475   -13565.139    4.2525162    4.2525162    4.2525162   -13565.139    -21786.97    5682.5322    -24590.98   -1955.4015     573.3758   -2617.4605    76.902051 
    2300    579.80894   -119.46772   0.52462331    -118.9431    13659.695    4.2353469    4.2353469    4.2353469    13659.695     21724.63    7143.2449     12111.21    2210.7638   -2915.2325   -2330.7014    75.974342 
    2400    585.25525   -119.47338   0.52955125   -118.94383   -5822.5899    4.2452506    4.2452506    4.2452506   -5822.5899   -10563.348    5576.7202   -12481.142   -1152.9706   -4426.1757   -3979.0482    76.508554 
    2500    341.13831    -119.2524   0.30866911   -118.94373   -3497.0449    4.2462903    4.2462903    4.2462903   -3497.0449    2547.6991   -5052.8976   -7985.9362   -1180.3368   -3763.9041     2589.876    76.564779 
    2600    456.13036   -119.35764   0.41271634   -118.94492    4882.2705    4.2389796    4.2389796    4.2389796    4882.2705    9009.1097   -6656.7035    12294.405    5755.3053   -5211.0139    4312.0287    76.170005 
    2700    637.13366   -119.52145   0.57649193   -118.94496    -3289.942    4.2415891    4.2415891    4.2415891    -3289.942    8106.2549   -18124.433     148.3527    -5547.919   -7297.8868   -1145.4664    76.310761 
    2800    465.38025   -119.36446   0.42108583   -118.94338    567.94431    4.2464047    4.2464047    4.2464047    567.94431    16885.574   -11607.923   -3573.8178    2461.7963    103.02434     3778.227     76.57097 
    2900    507.98666   -119.40438   0.45963701   -118.94474   -981.54313     4.236608     4.236608     4.236608   -981.54313    3824.6814   -8324.2911    1554.9803   -8055.7469    -2369.314     3738.679    76.042228 
    3000    530.96591   -119.42746   0.48042912   -118.94703    700.25763    4.2440705    4.2440705    4.2440705    700.25763    10895.676   -8586.6266   -208.27704   -1510.9698    2039.4211    4158.2433    76.444771 
    3100    449.09976   -119.35164    0.4063549   -118.94529   -11492.694    4.2487853    4.2487853    4.2487853   -11492.694   -6101.0962   -5116.0218   -23260.963    3820.4433      739.581    3480.9675     76.69982 
    3200    410.01703   -119.31278   0.37099203   -118.94179    2364.7358    4.2369899    4.2369899    4.2369899    2364.7358    5131.8892    4714.9227   -2752.6044   -1518.1797    1516.0904   -3209.4856    76.062794 
    3300    680.83178   -119.55966    0.6160309   -118.94362    -8628.414    4.2503351    4.2503351    4.2503351    -8628.414   -12597.063   -9392.5624   -3895.6166   -3134.6361    7976.2415    704.11284    76.783784 
    3400    421.51491   -119.32593   0.38139555   -118.94453    4329.5416    4.2411687    4.2411687    4.2411687    4329.5416    18500.602   -7261.2528     1749.276    3640.6372   -4291.9266    2930.7515    76.288071 
    3500    464.14282   -119.36415   0.41996618   -118.94418    1424.3383    4.2382264    4.2382264    4.2382264    1424.3383   -1559.9111   -2116.5517    7949.4778    1000.0959   -1031.4962   -3415.2147     76.12941 
    3600    547.43721   -119.43947   0.49533269   -118.94413    4191.0902    4.2447813    4.2447813    4.2447813    4191.0902    20648.476   -16137.115    8061.9093    1763.5524    -5063.321    -3240.284    76.483184 
    3700     687.5901   -119.56792   0.62214597   -118.94578   -3840.3314    4.2429199    4.2429199    4.2429199   -3840.3314   -3612.1876    -10840.66     2931.854   -761.52072   -5064.0776   -3582.6686     76.38261 
    3800     286.3197   -119.20644   0.25906808   -118.94737    7750.1102    4.2384726    4.2384726    4.2384726    7750.1102    6014.3698    3961.3121    13274.649   -5131.2972    1812.1479   -2426.8863    76.142676 
    3900    404.42866   -119.31241   0.36593555   -118.94647   -8234.7118    4.2484124    4.2484124    4.2484124   -8234.7118    109.58063   -3362.9782   -21450.738     1346.982   -8071.6557    -2701.196     76.67963 
    4000    664.43893   -119.54441   0.60119831   -118.94321   -3527.5256    4.2455337    4.2455337    4.2455337   -3527.5256   -2783.6952   -3165.5462   -4633.3354   -3525.9823    3040.4432   -4807.3066     76.52386 
    4100    496.72042   -119.39077   0.44944308   -118.94133     4051.945    4.2365766    4.2365766    4.2365766     4051.945    2934.8678    6278.8964    2942.0707   -5242.1366    -2694.311   -778.84805    76.040538 
    4200    404.53701   -119.30805   0.36603359   -118.94202   -16871.439    4.2526102    4.2526102    4.2526102   -16871.439   -6157.6758   -16619.497   -27837.143   -332.74123     4624.433    4894.9941    76.907154 
    4300    514.57625   -119.40678   0.46559941   -118.94118    7054.0397    4.2399121    4.2399121    4.2399121    7054.0397    7393.2547    59.382535    13709.482    1498.8758   -1735.0214    2061.4818    76.220283 
    4400    768.33223   -119.63706   0.69520315   -118.94186   -3896.0595     4.239288     4.239288     4.239288   -3896.0595    251.22936   -4884.3762   -7055.0318    10.586536     1364.221    2614.6764    76.186632 
    4500    340.88654   -119.25043    0.3084413   -118.94199    666.45368    4.2508683    4.2508683    4.2508683    666.45368    4815.1342   -4037.1424    1221.3692   -3867.9316    2817.6822    1483.9757    76.812683 
    4600    400.49414   -119.30407   0.36237552   -118.94169    4671.4133     4.238017     4.238017     4.238017    4671.4133   -7625.7005    12068.459    9571.4813   -3283.2864   -5987.8591    -902.6567    76.118123 
    4700    551.06058   -119.44191   0.49861119    -118.9433    4012.4985    4.2408369    4.2408369    4.2408369    4012.4985     371.2513     2262.357    9403.8873   -154.76985    900.50616    2634.1578    76.270172 
    4800    511.45624   -119.40586   0.46277635   -118.94308   -3930.9852     4.251375     4.251375     4.251375   -3930.9852    3146.1472   -6125.7004   -8813.4024      279.109   -8338.3885   -4007.8903    76.840159 
    4900    429.87311   -119.33134   0.38895822   -118.94239   -4973.9937    4.2394692    4.2394692    4.2394692   -4973.9937   -5048.0009    2015.2932   -11889.274   -3983.0134     4721.955   -382.97571    76.196402 
    5000      534.952   -119.42776   0.48403581   -118.94373    4677.9519     4.238611     4.238611     4.238611    4677.9519    7195.4119    -1251.491    8089.9347   -316.21028   -5637.8542   -445.67591    76.150138 
    5100    584.80325   -119.47153   0.52914227   -118.94238   -7814.4324    4.2546858    4.2546858    4.2546858   -7814.4324    22670.531   -16422.581   -29691.247    2899.9783    777.95531    77.908205    77.019816 
    5200    538.26432   -119.42848   0.48703286   -118.94144     2770.072    4.2357959    4.2357959    4.2357959     2770.072     11587.71    4540.0281    -7817.522    3559.0028    1281.8129   -945.42056    75.998508 
    5300    406.74541   -119.31347    0.3680318   -118.94544    8588.3562    4.2402521    4.2402521    4.2402521    8588.3562    21912.214    11820.696   -7967.8417   -3911.2464    1058.2125   -2817.9936    76.238621 
    5400    609.91269   -119.49568   0.55186182   -118.94382   -11715.952    4.2523246    4.2523246    4.2523246   -11715.952   -21319.057   -2249.7938   -11579.006   -2988.2498    3840.8218   -3439.8571    76.891656 
    5500     360.8622   -119.26966    0.3265157   -118.94315    12635.048    4.2350478    4.2350478    4.2350478    12635.048    8386.4643    27206.906    2311.7738    1923.0107   -7903.5597   -2080.3859    75.958248 
    5600    422.19031   -119.32437   0.38200666   -118.94236   -4460.9882    4.2436425    4.2436425    4.2436425   -4460.9882   -14632.069    14610.258   -13361.154   -1471.7517    2179.5529    1022.2191    76.421642 
    5700    523.70028    -119.4155   0.47385502   -118.94165   -8684.5607    4.2503887    4.2503887    4.2503887   -8684.5607   -12150.808    5118.8228   -19021.697   -3083.5771   -4739.0137   -851.64739     76.78669 
    5800    568.22928    -119.4559   0.51414579   -118.94175    2557.4435    4.2382779    4.2382779    4.2382779    2557.4435    3720.3913    2901.7659    1050.1733   -4502.9255   -9633.0803    5027.2801    76.132185 
    5900    502.06656   -119.39679   0.45428037   -118.94251   -5328.7726    4.2399511    4.2399511    4.2399511   -5328.7726      2302.43   -6115.4712   -12173.276   -505.22755   -3048.2655    2753.5227    76.222387 
    6000    356.07061   -119.26393   0.32218017   -118.94175   -4055.9732    4.2523869    4.2523869    4.2523869   -4055.9732    30574.629   -9716.7104   -33025.838    3677.6112   -7546.4776    4276.0165    76.895036 
    6100    797.78054   -119.66473    0.7218486   -118.94288   -2875.4472    4.2352768    4.2352768    4.2352768   -2875.4472    562.72319    -9554.046    364.98135    652.18771    3774.9449    2299.9314     75.97057 
    6200    389.02388   -119.29951   0.35199698   -118.94752    13038.094    4.2386565    4.2386565    4.2386565    13038.094    29370.122    4465.5534    5278.6078   -3737.6446   -8133.4373   -3495.5102    76.152591 
    6300    400.27992    -119.3053   0.36218168   -118.94312    -15059.27    4.2557704    4.2557704    4.2557704    -15059.27   -17778.909    3012.6873   -30411.588    2130.4191    -3757.405   -1657.9316    77.078732 
    6400    421.89935   -119.32243    0.3817434   -118.94069    15386.876    4.2313686    4.2313686    4.2313686    15386.876    9024.8214    31429.861    5705.9471     735.3123   -3979.9948   -780.02554    75.760455 
    6500    693.23131   -119.57303   0.62725025   -118.94578   -1996.1566    4.2458348    4.2458348    4.2458348   -1996.1566   -4932.8416    4302.2605   -5357.8888   -1435.8194   -2314.1921   -2241.2005    76.540144 
    6600    401.04033    -119.3063   0.36286972   -118.94343   -5018.6575    4.2510802    4.2510802    4.2510802   -5018.6575   -8340.5101    7579.6367   -14295.099   -6013.6393   -722.26166    651.84421    76.824171 
    6700    329.98165   -119.23894   0.29857433   -118.94037    10485.189    4.2309909    4.2309909    4.2309909    10485.189    2134.6837    19026.626    10294.257   -4473.0012   -5683.6085     3218.704    75.740172 
    6800    616.84432   -119.50106   0.55813371   -118.94293   -5515.9392    4.2470698    4.2470698    4.2470698   -5515.9392    8527.8001   -14802.585   -10273.032    67.411562    5538.5385     832.8242    76.606956 
    6900    672.11884   -119.55024   0.60814725    -118.9421   -7731.4391    4.2475475    4.2475475    4.2475475   -7731.4391    3207.8513   -17446.952   -8955.2163   -477.08185    6654.7702    9157.4873    76.632807 
    7000    342.81599   -119.25244   0.31018711   -118.94226    2695.8532    4.2356638    4.2356638    4.2356638    2695.8532    8960.0411    1030.8793   -1903.3607   -9754.7535    1259.5048    1100.3229    75.991401 
    7100    507.15228   -119.40217   0.45888204   -118.94329    -11892.07    4.2469325    4.2469325    4.2469325    -11892.07   -4593.5646   -14084.162   -16998.485     137.3862    1460.5361    376.52672    76.599526 
    7200    608.99757   -119.49267    0.5510338   -118.94164   -280.34124    4.2488537    4.2488537    4.2488537   -280.34124    5424.4286   -5832.6067   -432.84562    2213.3911    1332.4768    4388.7857    76.703527 
    7300    606.13828   -119.48774   0.54844666   -118.93929   -617.15628    4.2358776    4.2358776    4.2358776   -617.15628   -2923.7533    11632.473   -10560.188   -727.62642      506.032   -1837.0716    76.002905 
    7400    204.67763   -119.13007   0.18519662   -118.94487    9282.9939    4.2457411    4.2457411    4.2457411    9282.9939    4888.1926    11827.107    11133.682   -4273.2245   -3965.4245   -5055.5603    76.535079 
    7500    621.15116   -119.50541   0.56203062   -118.94338    -4503.274    4.2473152    4.2473152    4.2473152    -4503.274   -17943.144    10792.326   -6359.0041   -5111.0269   -4938.0508   -1877.3588    76.620236 
    7600    504.39283   -119.39999   0.45638523   -118.94361    13738.061    4.2317376    4.2317376    4.2317376    13738.061      2461.89    16082.613     22669.68    5065.3667   -6591.1711    -3941.364    75.780277 
    7700     484.3456   -119.38197   0.43824608   -118.94373   -11194.617    4.2475465    4.2475465    4.2475465   -11194.617   -14243.536    -8226.279   -11114.037    3748.0713    1972.3952   -1425.1014     76.63275 
    7800    401.99075   -119.30868   0.36372968   -118.94495   -7463.5534    4.2459575    4.2459575    4.2459575   -7463.5534    3173.9454     -5880.62   -19683.986   -8320.4215   -2865.5019    647.54167    76.546778 
    7900     668.6807   -119.54856   0.60503635   -118.94353   -4329.3475     4.235865     4.235865     4.235865   -4329.3475    -13230.09   -866.20085    1108.2484    -4475.703   -2126.8843    -2404.611    76.002232 
    8000    486.46749   -119.38357   0.44016601    -118.9434    -8363.909    4.2482315    4.2482315    4.2482315    -8363.909   -2898.9598   -13439.804    -8752.963    4981.3041    4109.9586    6886.4132    76.669836 
    8100    436.45992   -119.33679   0.39491811   -118.94187   -2989.1911    4.2444517    4.2444517    4.2444517   -2989.1911   -5444.8414    4619.8653   -8142.5974    2629.9715    1258.8606    -3223.036    76.465368 
    8200     556.7367    -119.4468   0.50374707   -118.94305    11714.374    4.2379603    4.2379603    4.2379603    11714.374    4983.1505    5868.3621     24291.61   -2008.9404    5993.2811    4682.9756    76.115069 
    8300    585.84557    -119.4736   0.53008538   -118.94351    4346.6174    4.2430753    4.2430753    4.2430753    4346.6174   -1312.4539    1310.2464     13042.06   -3644.2222   -4557.6044   -511.41991    76.391002 
    8400    335.01974   -119.24612    0.3031329   -118.94299    4377.0963    4.2460393    4.2460393    4.2460393    4377.0963   -8245.6732    14474.981    6901.9813    4823.3673    1541.3771    475.51011    76.551204 
    8500    494.46904   -119.39061   0.44740598   -118.94321    147.12899    4.2379365    4.2379365    4.2379365    147.12899   -557.26975   -2534.3579    3533.0146    10450.793   -981.52345   -2953.2317    76.113789 
    8600    532.89651   -119.42758   0.48217596    -118.9454    2240.4714    4.2424625    4.2424625    4.2424625    2240.4714     11416.11   -7375.8059    2681.1104   -2301.1621   -5310.8609   -6888.1838    76.357912 
    8700    529.09198   -119.42227   0.47873354   -118.94353    -15065.46    4.2487214    4.2487214    4.2487214    -15065.46   -24275.744   -5136.1012   -15784.534   -5017.8571   -2870.5239   -1236.8857    76.696364 
    8800    314.94452   -119.22756   0.28496842   -118.94259    433.96909    4.2377846    4.2377846    4.2377846    433.96909    3080.6486    17868.304   -19647.045    1932.0527   -9209.4961   -1715.5969    76.105606 
    8900     694.4319   -119.57136   0.62833657   -118.94302   -9871.1798    4.2432091    4.2432091    4.2432091   -9871.1798   -14109.345     -12096.4   -3407.7944    1351.9926    540.65152   -1972.7568    76.398233 
    9000    538.39191   -119.43063   0.48714831   -118.94348    1749.3751    4.2465192    4.2465192    4.2465192    1749.3751   -1150.5305    14058.502   -7659.8458   -4100.5325   -1396.7183   -4527.1636    76.577163 
    9100    486.79361   -119.38207   0.44046109   -118.94161   -1109.0514    4.2405605    4.2405605    4.2405605   -1109.0514   -5629.5199    12264.789   -9962.4232   -6522.6685    671.04431    2264.9431    76.255256 
    9200    393.19628   -119.29879   0.35577225   -118.94302    10127.054    4.2390886    4.2390886    4.2390886    10127.054    4955.0816    7572.1299     17853.95   -1565.8203    -1173.214   -2562.3706    76.175882 
    9300    626.71109   -119.51073   0.56706136   -118.94367   -2365.7212     4.248324     4.248324     4.248324   -2365.7212   -3713.4404   -4807.6577    1423.9345     7542.246    3781.6052    -1269.637     76.67484 
    9400    496.26117   -119.39205   0.44902754   -118.94303    3825.8443    4.2410294    4.2410294    4.2410294    3825.8443   -463.79218   -8810.2925    20751.618    43.747966   -933.62526   -2361.3003    76.280557 
    9500    367.31109   -119.27579   0.33235079   -118.94344   -268.35603    4.2391168    4.2391168    4.2391168   -268.35603     13253.68     169.6283   -14228.377   -2844.4418    1617.7839    -2829.963    76.177398 
    9600    512.19842   -119.40711    0.4634479   -118.94366   -11353.931    4.2489623    4.2489623    4.2489623   -11353.931   -8991.4846   -9812.2336   -15258.074    4889.1229    -4941.087    6056.7563    76.709408 
    9700    580.38337   -119.46729   0.52514307   -118.94214   -3590.9522    4.2408876    4.2408876    4.2408876   -3590.9522   -3596.6678    1058.9558   -8235.1445    6546.2384   -4416.3739    -6446.153    76.272906 
    9800     503.9844   -119.39875   0.45601567   -118.94273    -5100.282    4.2401459    4.2401459    4.2401459    -5100.282    2484.8978   -4399.7183   -13386.026    5795.5097    3816.5648   -3951.1845    76.232893 
    9900     426.4179   -119.32922   0.38583188   -118.94339    -1553.406    4.2453537    4.2453537    4.2453537    -1553.406   -5122.3791    22771.665   -22309.504   -2855.2313   -9594.0123   -55.643843    76.514126 
   10000    547.04246   -119.43905   0.49497552   -118.94408    2737.1104    4.2422846    4.2422846    4.2422846    2737.1104   -5873.3042    5695.0589    8389.5767    967.53321   -1509.1606   -1467.9262    76.348304 
   10100    619.54902   -119.50352   0.56058097   -118.94294    6785.4932    4.2368467    4.2368467    4.2368467    6785.4932    4253.3344    5189.5436    10913.602    5979.0656   -889.89847    3533.5224    76.055082 
   10200    401.03332   -119.30554   0.36286337   -118.94267    6051.4033    4.2453083    4.2453083    4.2453083    6051.4033   -1091.5124    14165.204    5080.5186    838.49918    1674.7196   -5046.0717    76.511672 
   10300    524.17804   -119.41779    0.4742873    -118.9435   -4095.7471    4.2433772    4.2433772    4.2433772   -4095.7471     10812.75   -10945.272   -12154.719   -5795.9257    1565.2442   -3270.5113    76.407312 
   10400    477.60934    -119.3765   0.43215096   -118.94435    7300.6567    4.2382927    4.2382927    4.2382927    7300.6567    15068.574   -639.37676    7472.7732   -659.26931   -383.10657    2297.3249     76.13298 
   10500    504.46295   -119.40062   0.45644868   -118.94417   -9940.4831    4.2459063    4.2459063    4.2459063   -9940.4831   -8651.4295   -7438.9976   -13731.022    1426.4287   -2034.9559   -617.46897    76.544013 
   10600    386.30149   -119.29255   0.34953371   -118.94301   -5908.5371    4.2444939    4.2444939    4.2444939   -5908.5371    10514.406   -7357.4859   -20882.532    4338.5477    5937.0514   -4036.1792     76.46765 
   10700    551.78447    -119.4427   0.49926618   -118.94343   -61.051366    4.2391075    4.2391075    4.2391075   -61.051366   -2270.2765   -12540.086    14627.208    1032.9413   -2944.2205     861.2952    76.176899 
   10800    535.91292   -119.43132   0.48490527   -118.94641    425.40524    4.2417147    4.2417147    4.2417147    425.40524   -10344.348    17110.454   -5489.8899    593.06905   -6331.3774   -336.09884    76.317538 
   10900    368.02818   -119.27741   0.33299963   -118.94441    849.49325    4.2472693    4.2472693    4.2472693    849.49325   -9095.6702    5789.1323    5855.0177    10820.329   -2033.2798    6227.7547    76.617748 
   11000    610.67678   -119.49405   0.55255319    -118.9415    3061.5931    4.2343067    4.2343067    4.2343067    3061.5931    1613.7663   -3663.9952    11235.008    11081.825   -5169.4226    1314.6376     75.91838 
   11100    595.19347   -119.48281   0.53854356   -118.94426    3348.2837    4.2445033    4.2445033    4.2445033    3348.2837   -4954.0573    15197.982   -199.07326     813.4624    56.734929    609.55452    76.468159 
   11200    513.70034   -119.40818   0.46480686   -118.94338   -9402.7678    4.2493456    4.2493456    4.2493456   -9402.7678    -4060.014   -8512.1976   -15636.092    5052.8258    -7880.055    1794.9746     76.73017 
   11300    374.26594   -119.28062   0.33864369   -118.94198    2630.6851    4.2332672    4.2332672    4.2332672    2630.6851    13540.235    5589.6969   -11237.877     5106.583   -1188.7506   -2627.8155    75.862482 
   11400    637.91839   -119.52105   0.57720196   -118.94384   -6712.2762    4.2474731    4.2474731    4.2474731   -6712.2762    -4121.664   -10253.319   -5761.8458   -826.33184   -2040.2667    2989.1362    76.628779 
   11500    638.67949   -119.52022   0.57789062   -118.94233   -10834.031    4.2484613    4.2484613    4.2484613   -10834.031   -4837.7898   -16402.247   -11262.055    -2081.527    3267.9635   -2151.1426    76.682279 
   11600    306.07216   -119.22073   0.27694052   -118.94379    6134.7143    4.2337083    4.2337083    4.2337083    6134.7143    13847.525    7758.7885   -3202.1705   -7010.3003   -4156.9117   -1802.5683    75.886201 
   11700     412.2141   -119.32014   0.37297998   -118.94716      1487.73    4.2449296    4.2449296    4.2449296      1487.73   -7321.9253   -21.137898    11806.253   -1996.5441    3572.0596    1221.0122    76.491199 
   11800     656.1944   -119.53693   0.59373848   -118.94319   -5513.7951    4.2488986    4.2488986    4.2488986   -5513.7951   -17309.007   -6790.5694    7558.1912   -1851.0947    5618.9099   -2186.5849    76.705956 
   11900    474.91049   -119.37036     0.429709   -118.94066    21708.582    4.2308501    4.2308501    4.2308501    21708.582    18726.105    13834.265    32565.376   -3063.6405    4701.3717   -3922.3248    75.732609 
   12000    456.38845   -119.35733   0.41294986   -118.94438    -4766.062    4.2468663    4.2468663    4.2468663    -4766.062    -5972.061    6725.8433   -15051.968   -1967.3923    3360.0999   -509.94357    76.595943 
   12100    363.70561   -119.27506   0.32908848   -118.94597    225.76631    4.2489382    4.2489382    4.2489382    225.76631    2763.3927   -4283.8632    2197.7694    8412.0008   -738.05641   -3475.4384    76.708105 
   12200    612.04509   -119.49502   0.55379126   -118.94123   -135.63068    4.2311203    4.2311203    4.2311203   -135.63068   -3498.2581    -3090.953    6182.3191    5430.5321   -454.42504    5221.4093     75.74712 
   12300    502.02966   -119.39711   0.45424699   -118.94286   -15050.165    4.2501352    4.2501352    4.2501352   -15050.165    24.800366   -11177.936    -33997.36   -501.35151   -2091.2043    1467.1461    76.772954 
   12400      542.209   -119.43362    0.4906021   -118.94302   -8741.5746    4.2467139    4.2467139    4.2467139   -8741.5746    563.78317    -15960.82   -10827.687     7909.936   -3933.1557   -2619.8302    76.587698 
   12500    453.70967   -119.35505   0.41052604   -118.94452    464.51791    4.2315702    4.2315702    4.2315702    464.51791   -4119.1149   -3423.3675    8936.0361    3873.1246   -4769.9577    8780.4567    75.771282 
   12600    463.18938   -119.36448   0.41910349   -118.94537   -1332.0523     4.247297     4.247297     4.247297   -1332.0523    -2371.413    6592.4566   -8217.2004     4814.571    1097.9921    2293.7235    76.619252 
   12700     566.1627   -119.45443   0.51227591   -118.94216   -662.21133     4.246721     4.246721     4.246721   -662.21133   -4532.4958   -1726.9956    4272.8573   -2971.5064   -751.50158     8352.111    76.588083 
   12800    563.23528   -119.45291   0.50962712   -118.94328    12783.078    4.2291531    4.2291531    4.2291531    12783.078     4976.284    17409.552    15963.398   -1477.3964    5092.3584    2910.8508    75.641518 
   12900    336.85457   -119.25281   0.30479309   -118.94802    6479.9864    4.2486505    4.2486505    4.2486505    6479.9864   -17118.771    25723.012    10835.719    1385.9868    4207.9699     1407.192    76.692521 
   13000    499.60248    -119.3979   0.45205082   -118.94585   -11462.953    4.2480459    4.2480459    4.2480459   -11462.953   -11656.838   -6945.8855   -15786.137    -653.4899    796.49173    6841.1725    76.659788 
   13100    573.18897    -119.4596   0.51863343   -118.94096    15111.738    4.2282657    4.2282657    4.2282657    15111.738    11917.008    14300.787    19117.421   -4838.6781     5601.784   -229.21505    75.593912 
   13200    533.31651   -119.42705   0.48255599    -118.9445   -15817.936    4.2538061    4.2538061    4.2538061   -15817.936   -20157.643   -13801.544   -13494.622    714.54046    -1530.819   -3776.2733    76.972054 
   13300    365.96638   -119.27435   0.33113407   -118.94322   -6223.6289    4.2444917    4.2444917    4.2444917   -6223.6289    1965.9217   -9159.2755   -11477.533    2696.6092    1917.5328    1022.3515    76.467531 
   13400    529.29903   -119.42094   0.47892088   -118.94202    8863.9837    4.2311435    4.2311435    4.2311435    8863.9837    11465.471   -4728.9818    19855.462    3617.2339   -3378.0694   -5834.0156    75.748365 
   13500    630.84849   -119.51356   0.57080497   -118.94275   -14850.255     4.251456     4.251456     4.251456   -14850.255   -10438.382   -20871.809   -13240.575     1775.484    2287.2962   -1390.2633    76.844546 
   13600    451.68739   -119.35093   0.40869624   -118.94223    6408.5182     4.242809     4.242809     4.242809    6408.5182    10571.152   -857.81913    9512.2214    4506.0179    1632.6612   -6633.9881    76.376623 
   13700    516.64209   -119.40977   0.46746862   -118.94231    2088.2098    4.2319446    4.2319446    4.2319446    2088.2098   -4728.2849    7386.3143    3606.5998    9776.6712     1325.899   -4316.5611    75.791397 
   13800     427.3475   -119.33133     0.386673   -118.94466   -1608.0644    4.2496687    4.2496687    4.2496687   -1608.0644    -5897.309    2799.8235   -1726.7077    5386.4332   -135.82014    1868.4967    76.747675 
   13900    658.71048    -119.5372   0.59601508   -118.94119    -5830.232    4.2452095    4.2452095    4.2452095    -5830.232   -5192.9964   -8668.7917    -3628.908   -522.04675    2935.7781   -2658.8125    76.506332 
   14000    424.84947    -119.3256   0.38441273   -118.94119    6813.6455    4.2314797    4.2314797    4.2314797    6813.6455   -5076.8696    20369.881    5147.9251    2033.4255    4012.7383    1908.0117    75.766425 
   14100    494.45122   -119.39325   0.44738986   -118.94586   -9132.3092    4.2510806    4.2510806    4.2510806   -9132.3092   -10341.524   -4048.5612   -13006.842    3113.7038   -3483.4841    3030.1241    76.824197 
   14200    360.04199   -119.27114   0.32577356   -118.94537    2754.2901    4.2436477    4.2436477    4.2436477    2754.2901     11602.55   -7350.0632     4010.383    732.91062     796.4039    1697.0916    76.421922 
   14300    652.25506   -119.53232   0.59017408   -118.94215    7305.0283     4.229928     4.229928     4.229928    7305.0283   -117.22161    11365.498    10666.809   -445.41136    -5278.443    8713.9258    75.683104 
   14400    428.82867   -119.33422   0.38801319   -118.94621    5768.6742    4.2507494    4.2507494    4.2507494    5768.6742    16370.724   -5781.7394    6717.0381   -4867.4994    3298.4553    839.28529    76.806239 
   14500    510.16374   -119.40612   0.46160687   -118.94452   -5001.1264    4.2414603    4.2414603    4.2414603   -5001.1264     2766.313   -18632.449      862.757    7245.8534   -5454.0872    178.53864    76.303809 
   14600    350.17728   -119.26102   0.31684776   -118.94417    15613.007     4.231871     4.231871     4.231871    15613.007    6898.4262    5542.4354    34398.159     11246.22    -4716.078    124.40078    75.787443 
   14700    691.11468    -119.5678   0.62533509   -118.94247   -23120.737    4.2518463    4.2518463    4.2518463   -23120.737   -16340.768   -20486.007   -32535.436   -4233.1398   -1313.0395   -1910.7168    76.865713 
   14800    495.02935   -119.39218   0.44791296   -118.94427   -6986.3508    4.2424804    4.2424804    4.2424804   -6986.3508    2606.8085   -19275.444   -4290.4166    7771.6545    2995.1067    4044.7063    76.358875 
   14900    487.50597   -119.38412   0.44110565   -118.94301   -3133.9821    4.2331959    4.2331959    4.2331959   -3133.9821   -11950.095   -2627.4676    5175.6168    8578.1513    6031.0664   -3313.5735    75.858647 
   15000    388.98154   -119.29684   0.35195867   -118.94488   -12693.974    4.2523807    4.2523807    4.2523807   -12693.974   -4697.2547   -13024.482   -20360.184    6125.4256    85.827173   -618.47654    76.894702 
   15100    680.62321   -119.55835   0.61584219   -118.94251      2129.63    4.2406939    4.2406939    4.2406939      2129.63    4901.4198   -2593.5827    4081.0528   -62.264438   -857.25069    642.07314    76.262456 
   15200    475.26595   -119.37482   0.43003062   -118.94479    9896.1073    4.2332583    4.2332583    4.2332583    9896.1073    8622.3606   -3028.0327    24093.994    -5595.142     1930.003   -5220.5862    75.862005 
   15300    350.86865   -119.26246   0.31747332   -118.94499    268.53204    4.2507336    4.2507336    4.2507336    268.53204   -10216.804    1097.5066    9924.8932    9055.7318    1840.2586   -356.66012    76.805384 
   15400    469.80395   -119.36857   0.42508848   -118.94349    12941.474    4.2381944    4.2381944    4.2381944    12941.474    6020.9537    13163.393    19640.075    6189.3914   -6469.4195   -3004.0608    76.127686 
   15500    653.18325   -119.53366   0.59101393   -118.94264    3914.1874    4.2348581    4.2348581    4.2348581    3914.1874   -249.25832   -7104.3149    19096.136   -1574.6427   -3768.6046   -4331.9923    75.948043 
   15600    453.04215   -119.35377   0.40992206   -118.94384   -2051.7761     4.248921     4.248921     4.248921   -2051.7761   -7553.8252    1203.2454    195.25143   -2106.6933   -6682.4917    3541.9264     76.70717 
   15700    356.09863   -119.26814   0.32220553   -118.94593   -5542.0877    4.2403437    4.2403437    4.2403437   -5542.0877   -24223.119    8878.6435    -1281.788    9167.1154    3070.1896   -6720.9118    76.243562 
   15800    631.32433   -119.51592   0.57123552   -118.94468     -1447.13    4.2347724    4.2347724    4.2347724     -1447.13   -3641.8778   -8836.7815    8137.2691    12339.803      981.746    3281.0736     75.94343 
   15900    513.13195   -119.40815   0.46429258   -118.94385   -8993.3765    4.2510165    4.2510165    4.2510165   -8993.3765   -3809.4032   -15103.137   -8067.5893   -3051.6256   -3438.4591    3111.1067    76.820722 
   16000     540.6513   -119.43213   0.48919266   -118.94294    -12339.85    4.2405017    4.2405017    4.2405017    -12339.85   -18936.344   -8909.4154   -9173.7904   -511.36489    1377.9758   -5336.2412    76.252083 
   16100    383.43494   -119.29415   0.34693999   -118.94721    12340.849    4.2351162    4.2351162    4.2351162    12340.849    771.72824   -441.07936    36691.899    1084.9165    4703.8938    8448.9324    75.961928 
   16200    547.79361   -119.44094   0.49565517   -118.94528   -12656.111    4.2498386    4.2498386    4.2498386   -12656.111   -6169.9242   -21857.699   -9940.7087    8120.3238    5015.1508   -25.181712    76.756878 
   16300    466.56024   -119.36454   0.42215351   -118.94239    9368.4616    4.2373049    4.2373049    4.2373049    9368.4616    -5051.144    9183.8457    23972.683   -3993.5272    5250.4408     5119.194    76.079765 
   16400     655.6618   -119.53628   0.59325657   -118.94302    4969.5111    4.2357807    4.2357807    4.2357807    4969.5111    1826.0309    4279.5688    8802.9337   -7916.8816   -1894.0923    7255.6332    75.997692 
   16500    490.75712   -119.39204   0.44404736     -118.948   -1577.4793    4.2473925    4.2473925    4.2473925   -1577.4793   -21438.273    11456.084    5249.7503    4703.1969    3547.0037   -1663.3764    76.624415 
   16600    341.71753   -119.25749   0.30919321    -118.9483     6428.371    4.2370779    4.2370779    4.2370779     6428.371   -5722.0616    19248.046    5759.1281     4739.699    2222.9797    2294.0816    76.067534 
   16700    517.79811   -119.41455   0.46851461   -118.94603   -1476.6281    4.2366737    4.2366737    4.2366737   -1476.6281   -11821.678   -984.92815     8376.722    3881.5104    236.17566   -1261.3459    76.045767 
   16800    681.61514   -119.56248    0.6167397   -118.94574   -7440.0584     4.248462     4.248462     4.248462   -7440.0584   -19905.073    3598.5342   -6013.6362    -6341.108   -2835.7121   -7462.3853    76.682312 
   16900    504.38914   -119.40223   0.45638189   -118.94584   -4077.3115    4.2388926    4.2388926    4.2388926   -4077.3115   -7608.4774   -16650.959    12027.502    7236.6132   -2394.5202   -3383.1539    76.165315 
   17000      207.327   -119.13506   0.18759383   -118.94746   -2093.7178    4.2396886    4.2396886    4.2396886   -2093.7178   -13927.301   -18636.367    26282.515    10465.061    3706.2219   -9118.8073    76.208229 
   17100    572.22235   -119.46235   0.51775881    -118.9446   -6834.5983    4.2464679    4.2464679    4.2464679   -6834.5983   -18754.589   -6106.1674    4356.9615    986.23978    1136.3692   -377.74431     76.57439 
   17200    666.63824   -119.54591   0.60318829   -118.94272    2544.2871    4.2398424    4.2398424    4.2398424    2544.2871    2536.1185   -3294.7316    8391.4744   -3548.1704    25.265991    2068.2973    76.216522 
   17300    469.48418   -119.36838   0.42479915   -118.94358    3983.5895    4.2380901    4.2380901    4.2380901    3983.5895   -2210.7299   -7945.6611     22107.16    7722.0118    2397.6748   -6508.5983    76.122065 
   17400    276.34234   -119.19638   0.25004036   -118.94634    4951.2862    4.2453811    4.2453811    4.2453811    4951.2862   -9290.2727    28313.581     -4169.45    5351.8095    3076.3009    3474.1714    76.515612 
   17500    655.43137   -119.53733   0.59304808   -118.94429   -2047.9189    4.2406224    4.2406224    4.2406224   -2047.9189   -10974.193    10266.311   -5435.8751   -333.64565    6363.8769   -3123.6361    76.258598 
   17600    601.72981   -119.48683   0.54445778   -118.94238    7469.4633    4.2379848    4.2379848    4.2379848    7469.4633    9484.9665    5450.5138    7472.9096   -5430.3745    1614.2964    -32.35382    76.116391 
   17700    485.06755    -119.3813   0.43889931    -118.9424   -14882.336    4.2488372    4.2488372    4.2488372   -14882.336   -19004.245   -4127.6749   -21515.088   -2158.0426   -4625.6134    5359.8108    76.702633 
   17800    398.78044   -119.30488   0.36082492   -118.94405    3718.8518    4.2382935    4.2382935    4.2382935    3718.8518    381.89481    1352.7153    9421.9452    6500.8308    3694.6386    -11856.32    76.133027 
   17900     553.5224   -119.44555    0.5008387   -118.94471   -4859.8654     4.241244     4.241244     4.241244   -4859.8654    3116.1245   -14800.739   -2894.9819   -818.50369     -2870.32   -3813.5265    76.292138 
   18000    450.11591   -119.35006   0.40727433   -118.94279   -5304.4107    4.2463137    4.2463137    4.2463137   -5304.4107   -5329.4512   -7512.9016   -3070.8793   -5338.9759   -2014.6983   -794.55767    76.566049 
   18100    476.47182   -119.37366   0.43112172   -118.94254    3758.2247    4.2385013    4.2385013    4.2385013    3758.2247    81.582566    7996.3166     3196.775     4055.035   -1618.3676   -7452.1028    76.144224 
   18200    546.88208   -119.44032    0.4948304   -118.94549     2899.988    4.2395622    4.2395622    4.2395622     2899.988   -1394.8075    2982.3602    7112.4111    11866.901   -2996.3989   -2003.4087    76.201414 
   18300    460.33421    -119.3611   0.41652006   -118.94458    1457.6166     4.245284     4.245284     4.245284    1457.6166   -19385.598    22688.544    1069.9035    7117.6333    8495.1675   -6177.0929     76.51036 
   18400     460.1331   -119.35994    0.4163381    -118.9436    3428.1883    4.2376799    4.2376799    4.2376799    3428.1883     2180.771    6751.9318    1351.8619      4543.98    4684.6581    1755.0398    76.099961 
   18500    615.69981   -119.50231   0.55709813   -118.94521   -2870.7353    4.2409658    4.2409658    4.2409658   -2870.7353    -5194.134    953.20713   -4371.2789    3631.9303   -2295.7181    11518.044    76.277127 
   18600    564.07657   -119.45539   0.51038833     -118.945   -3485.2082    4.2450556    4.2450556    4.2450556   -3485.2082     -12012.9   -3026.9724    4584.2483    10723.825    2851.5609    2199.1131    76.498014 
   18700    412.94008   -119.31758   0.37363686   -118.94395   -5879.7453    4.2376343    4.2376343    4.2376343   -5879.7453    2409.6706   -18994.876   -1054.0299    10008.191    3349.5651   -3822.5329    76.097504 
   18800    431.97759    -119.3358    0.3908624   -118.94494   -1374.9902    4.2412685    4.2412685    4.2412685   -1374.9902   -6540.3726    933.09811     1482.304   -1424.6944    484.89276    7022.0266     76.29346 
   18900    600.02052   -119.48839   0.54291117   -118.94548   -3345.0727    4.2437108    4.2437108    4.2437108   -3345.0727   -7947.4808     13599.75   -15687.487   -1965.9382    4254.7492   -839.27371    76.425331 
   19000    534.17576   -119.42891   0.48333346   -118.94557    2654.6695    4.2370576    4.2370576    4.2370576    2654.6695    7093.3616   -13014.394    13885.041    1505.4544   -5806.0734    4189.9915    76.066441 
   19100    388.05928   -119.29816    0.3511242   -118.94704    7121.4407    4.2392719    4.2392719    4.2392719    7121.4407    -4537.213    25876.307    25.227988    1977.5196    2539.7219   -6453.2363    76.185765 
   19200    554.87517   -119.44909   0.50206271   -118.94703   -9289.7142    4.2447758    4.2447758    4.2447758   -9289.7142   -14636.455    1762.2661   -14994.954   -1469.5763    5655.4982   -4863.0728    76.482889 
   19300    550.97171   -119.44407   0.49853078   -118.94554    7619.5182    4.2351959    4.2351959    4.2351959    7619.5182    6585.7604    7226.2144    9046.5799   -3600.2952   -6248.6889    8204.9451    75.966219 
   19400    461.66945   -119.36269   0.41772822   -118.94496   -11771.372    4.2461488    4.2461488    4.2461488   -11771.372   -7447.1616   -24065.631   -3801.3223    1357.3495   -117.16697    4467.6119    76.557126 
   19500    437.45823   -119.34035    0.3958214   -118.94453   -895.41568    4.2403218    4.2403218    4.2403218   -895.41568   -8527.0415    6096.5123   -255.71785     6653.804   -795.17556   -3870.5995    76.242383 
   19600    546.96828   -119.43917   0.49490839   -118.94426    1623.3802    4.2413315    4.2413315    4.2413315    1623.3802    3028.8654   -1578.1196    3419.3949    5918.9751    3495.6533   -1256.1883    76.296858 
   19700    470.58516   -119.36949   0.42579534    -118.9437   -3626.9255     4.243457     4.243457     4.243457   -3626.9255    2225.1786   -3435.7492   -9670.2059    2513.1065    5594.3021    3627.4488    76.411621 
   19800    447.09156   -119.34808   0.40453784   -118.94355    10180.046    4.2401827    4.2401827    4.2401827    10180.046    6246.4639    18621.935    5671.7389    2118.5457    431.07436    9104.9481     76.23488 
   19900      530.413   -119.42453   0.47992883    -118.9446    1553.6233    4.2418725    4.2418725    4.2418725    1553.6233    3382.4304    11520.688   -10242.248    4598.2053   -67.438168    860.18973     76.32606 
   20000    491.20042   -119.38913   0.44444846   -118.94469    3382.4378    4.2395667    4.2395667    4.2395667    3382.4378   -1377.5831    11149.061    375.83581    219.73132    9889.4165   -5645.1424     76.20166 
   20100    451.73945   -119.35281   0.40874334   -118.94407   -3078.3516    4.2436519    4.2436519    4.2436519   -3078.3516   -11085.894    6910.4544   -5059.6154   -2098.2199   -122.10283    4131.6217     76.42215 
   20200    566.63947   -119.45633    0.5127073   -118.94362   -3976.6935    4.2366217    4.2366217    4.2366217   -3976.6935    2322.1548   -1169.2588   -13082.976   -7186.1483   -1498.4468    8847.1193    76.042966 
   20300    568.07649   -119.45811   0.51400755   -118.94411   -7153.0537    4.2450139    4.2450139    4.2450139   -7153.0537   -16010.991   -441.58644    -5006.584    -1579.035     2699.778    1069.2178    76.495756 
   20400    418.26097   -119.32358   0.37845132   -118.94512   -4728.1203    4.2389881    4.2389881    4.2389881   -4728.1203   -5717.5612   -20544.853    12078.053    363.03008   -907.03634   -2712.3467    76.170463 
   20500     485.9826   -119.38605   0.43972727   -118.94632   -3960.6173      4.24153      4.24153      4.24153   -3960.6173     9035.483   -2666.5562   -18250.779    -2574.605    5712.7256   -2555.4696    76.307573 
   20600    530.98885   -119.42602   0.48044987   -118.94557    5450.0855    4.2440021    4.2440021    4.2440021    5450.0855    6474.7498    14057.994    -4182.487   -3473.5432   -2018.6316    10005.327    76.441072 
   20700    526.44606   -119.42087   0.47633946   -118.94453    1356.7562    4.2374462    4.2374462    4.2374462    1356.7562    16295.365   -13607.828    1382.7314    3081.4332   -3648.7013    5436.2563    76.087376 
   20800    414.39197   -119.32011   0.37495056   -118.94516    7606.4489    4.2422506    4.2422506    4.2422506    7606.4489    13317.455    10940.476   -1438.5839    7425.6725    1630.1138    2477.0742    76.346469 
   20900    647.71206    -119.5309   0.58606349   -118.94483   -4518.5983    4.2414626    4.2414626    4.2414626   -4518.5983   -12751.862    9532.7145   -10336.648    5980.5692    6335.5514    2478.9913    76.303935 
   21000    407.90886   -119.31444   0.36908451   -118.94536    934.72747    4.2378918    4.2378918    4.2378918    934.72747     2538.363    2314.9882   -2049.1688    7674.6255    -3213.204    12523.174    76.111377 
   21100    497.87199   -119.39517   0.45048504   -118.94469   -9242.0384    4.2427556    4.2427556    4.2427556   -9242.0384   -2396.1352   -17749.222   -7580.7585    -1919.123    2660.4964    6517.8463    76.373737 
   21200    587.55152   -119.47646   0.53162896   -118.94483   -9970.7862    4.2444425    4.2444425    4.2444425   -9970.7862   -22761.587   -8829.9173    1679.1455    11271.437   -2299.3885   -1834.5565     76.46487 
   21300    613.22883   -119.49878   0.55486233   -118.94392    2187.2651    4.2375888    4.2375888    4.2375888    2187.2651    3885.2365    6465.7946   -3789.2357   -976.62871    5714.8063   -697.31881    76.095053 
   21400     294.7579   -119.21214   0.26670315   -118.94543     -2400.66    4.2441225    4.2441225    4.2441225     -2400.66     11775.25   -8276.2186   -10701.011   -3446.5854    3290.9619      2517.64    76.447578 
   21500     431.9491   -119.33541   0.39083662   -118.94458   -468.37133    4.2437634    4.2437634    4.2437634   -468.37133    8208.0532   -4628.7824   -4984.3848   -833.66399   -2900.6479    168.15156    76.428176 
   21600    684.45096   -119.56341   0.61930561   -118.94411    7655.6603    4.2356573    4.2356573    4.2356573    7655.6603    120.07426     26675.09   -3828.1837   -1405.6545   -1373.6366   -1620.9759     75.99105 
   21700    490.07752   -119.38904   0.44343244   -118.94561   -5625.2582    4.2439108    4.2439108    4.2439108   -5625.2582    2326.3951   -9309.8571   -9892.3126    3295.9385    4315.9073    547.43555     76.43614 
   21800     300.3546    -119.2192   0.27176715   -118.94743    388.51392    4.2406732    4.2406732    4.2406732    388.51392   -3006.3937    3546.5367    625.39881    5541.0203   -800.45033    7608.3555    76.261335 
   21900    574.21465   -119.46758   0.51956148   -118.94802    2512.7631    4.2332955    4.2332955    4.2332955    2512.7631    5226.1715    14612.106   -12299.988    95.810184    -3045.546    10815.174    75.864003 
   22000    563.63594   -119.45806   0.50998964   -118.94807   -3795.3083    4.2461785    4.2461785    4.2461785   -3795.3083   -8373.4982    2045.4492   -5057.8758    9697.7779   -4146.3461    5760.9496    76.558732 
   22100    455.11038   -119.35704   0.41179343   -118.94525    342.08122    4.2393221    4.2393221    4.2393221    342.08122   -148.23595   -12213.249    13387.729    6432.3429   -912.42657    4982.8239    76.188467 
   22200    562.45068   -119.45476   0.50891719   -118.94584   -1296.3181    4.2385649    4.2385649    4.2385649   -1296.3181      3289.54    1019.9504   -8198.4448   -783.36674    3936.2094    7031.9154    76.147651 
   22300    514.67167   -119.41323   0.46568574   -118.94755    2035.0732     4.245088     4.245088     4.245088    2035.0732    6425.9871    17575.388   -17896.156    2297.4078   -5796.5702    3715.7799    76.499762 
   22400    404.09712   -119.31196   0.36563556   -118.94632   -7030.3378    4.2425987    4.2425987    4.2425987   -7030.3378    4664.8532   -12233.337    -13522.53   -1751.2554   -4860.6092   -1927.3181    76.365266 
   22500    417.11955   -119.32136   0.37741853   -118.94394    7689.5046    4.2364985    4.2364985    4.2364985    7689.5046    9317.6868    12969.014    781.81339   -2066.0815   -6250.3562   -6125.5174    76.036333 
   22600    796.89907   -119.66561   0.72105103   -118.94456   -9322.0823    4.2462212    4.2462212    4.2462212   -9322.0823   -8322.1438   -2009.0437   -17635.059   -2145.1285    741.04812   -1337.2106    76.561046 
   22700    361.96597   -119.27329   0.32751442   -118.94578    2087.5281     4.240934     4.240934     4.240934    2087.5281      7378.07    9506.0171   -10621.503   -5719.8552   -4467.8751   -413.02405     76.27541 
   22800     346.2636   -119.25867   0.31330658   -118.94536    509.86776    4.2356758    4.2356758    4.2356758    509.86776    6855.8225    1159.5407   -6485.7599   -4471.0717    -8090.373   -2463.4352    75.992047 
   22900    520.28084   -119.41634   0.47076104   -118.94557   -5291.3424    4.2481798    4.2481798    4.2481798   -5291.3424   -6457.0689   -4403.3558   -5013.6024    1104.5401   -3921.7115   -371.48289    76.667036 
   23000    778.35082   -119.64695   0.70426818   -118.94268    2265.1991    4.2360521    4.2360521    4.2360521    2265.1991   -1732.2469    9701.2911   -1173.4468   -4706.7781    3996.7618    368.32532    76.012303 
   23100    429.31052   -119.33226   0.38844918   -118.94381    1443.6842    4.2407471    4.2407471    4.2407471    1443.6842     1184.158   -1031.4278    4178.3224    465.72328   -1209.8645    4793.0942    76.265325 
   23200    392.27391   -119.30078   0.35493768   -118.94585   -7879.3286    4.2460082    4.2460082    4.2460082   -7879.3286     2415.679   -9508.8357   -16544.829    3736.0797   -4009.1046    3984.6888    76.549521 
   23300    536.63539   -119.43049   0.48555898   -118.94493    4779.9144    4.2379525    4.2379525    4.2379525    4779.9144    3769.0743    12609.447   -2038.7783   -873.01759   -1252.2494   -2362.3231    76.114648 
   23400    570.49131   -119.45957   0.51619253   -118.94337   -7865.3679     4.242953     4.242953     4.242953   -7865.3679   -1423.9952   -7000.3089     -15171.8    8229.4882    646.60154    -823.0224    76.384397 
   23500    478.04056   -119.37609   0.43254114   -118.94355   -2959.1719    4.2428342    4.2428342    4.2428342   -2959.1719    10353.203   -13418.065   -5812.6533    1259.7637    4875.0081    4327.1642    76.377984 
   23600    514.84739   -119.41156   0.46584474   -118.94572   -483.40015    4.2375106    4.2375106    4.2375106   -483.40015    7603.2709    6550.3555   -15603.827    4037.3047    -2654.161   -5706.2485    76.090845 
   23700    381.17509   -119.29276   0.34489523   -118.94786    3845.1736    4.2404194    4.2404194    4.2404194    3845.1736    16126.871    11128.769    -15720.12     314.1814   -2067.0576   -5180.2589    76.247644 
   23800    484.82698   -119.38429   0.43868164   -118.94561   -3991.0003    4.2455309    4.2455309    4.2455309   -3991.0003   -932.19373     1248.767   -12289.574   -2390.1591    4972.7851   -4079.2565    76.523711 
   23900    547.14528   -119.44001   0.49506855   -118.94494    11567.531    4.2352224    4.2352224    4.2352224    11567.531    19002.667    1809.7917    13890.135    1760.9123    7183.2055   -75.432914    75.967645 
   24000    566.19127   -119.45852   0.51230176   -118.94622   -4177.6757    4.2450543    4.2450543    4.2450543   -4177.6757   -12553.723    17016.672   -16995.976   -827.85119    -2833.755   -2820.5419     76.49794 
   24100    335.48761   -119.24806   0.30355624    -118.9445   -2819.0882    4.2445087    4.2445087    4.2445087   -2819.0882    4036.2458   -12416.629    -76.88126   -401.27247   -1097.6832   -1812.2605    76.468449 
   24200     498.2522   -119.39428   0.45082906   -118.94345   -403.15077    4.2352238    4.2352238    4.2352238   -403.15077    14106.097   -12148.111   -3167.4378    309.38927    3014.9203    2441.1819     75.96772 
   24300    640.57677    -119.5232   0.57960733   -118.94359   -10759.821     4.245703     4.245703     4.245703   -10759.821   -18430.438   -6578.9407   -7270.0829    243.06061    5664.6836     120.4982    76.533016 
   24400    551.85552   -119.44209   0.49933047   -118.94276    757.32119    4.2408193    4.2408193    4.2408193    757.32119    9665.7437   -5119.2777   -2274.5024    4328.7297    482.38127    3233.3584    76.269217 
   24500    463.32162   -119.36304   0.41922314   -118.94381   -7638.8539    4.2390171    4.2390171    4.2390171   -7638.8539    4810.7723   -14020.605   -13706.729    5332.5167   -5289.0753   -5642.7485    76.172027 
   24600    460.22717   -119.36157   0.41642321   -118.94515     3715.506    4.2411609    4.2411609    4.2411609     3715.506    13198.082    8029.4232   -10080.987    2051.0854      1730.92     1611.116    76.287651 
   24700    535.39606   -119.42935   0.48443761   -118.94492   -1360.6654    4.2451887    4.2451887    4.2451887   -1360.6654     1141.876     12327.44   -17551.312    8104.3365    10297.393   -457.31625    76.505206 
   24800    466.66367   -119.36612    0.4222471   -118.94387    3010.1049    4.2375886    4.2375886    4.2375886    3010.1049     9892.686    4052.4418   -4914.8132    2291.4934    347.23423   -774.18425    76.095044 
   24900    583.74372   -119.47272   0.52818358   -118.94454    5504.8338    4.2403371    4.2403371    4.2403371    5504.8338    9972.3377    11551.739   -5009.5757   -2863.6767   -4842.7251   -4234.0819    76.243206 
   25000    439.26741   -119.34414   0.39745838   -118.94669    -6427.019    4.2456464    4.2456464    4.2456464    -6427.019    2188.5419   -6195.1733   -15274.426    1356.0347    4675.3029   -638.56403    76.529958 
   25100    405.61396     -119.313   0.36700803   -118.94599    3393.9331    4.2346224    4.2346224    4.2346224    3393.9331   -550.36082    10152.365    579.79479   -11964.173    9501.0569    2109.7677     75.93536 
   25200    504.03446   -119.40133   0.45606097   -118.94527   -4232.5367     4.244019     4.244019     4.244019   -4232.5367    3751.0275   -12341.694   -4106.9431   -2189.4107    7511.8935   -3776.6673    76.441986 
   25300    689.08019   -119.56681   0.62349423   -118.94332   -9666.3004    4.2420709    4.2420709    4.2420709   -9666.3004     927.3419   -21165.356   -8760.8873   -3282.5615   -356.27338    5679.8342    76.336769 
   25400    453.56258   -119.35514   0.41039295   -118.94475    9643.0832    4.2363354    4.2363354    4.2363354    9643.0832    13960.603    10366.348    4602.2983   -5766.1201    2418.7448   -1374.0392     76.02755 
   25500    383.05012   -119.29274    0.3465918   -118.94615   -6387.4498    4.2438648    4.2438648    4.2438648   -6387.4498    1337.1889   -128.39982   -20371.138    2422.3766    10691.934    756.18144    76.433654 
   25600    491.85755   -119.39064   0.44504305   -118.94559    6108.2188    4.2410978    4.2410978    4.2410978    6108.2188    19867.966    3653.3139   -5196.6239   -4947.6919    4779.5731    1911.4238    76.284247 
   25700    667.89141   -119.54843   0.60432218   -118.94411    1333.7437    4.2357869    4.2357869    4.2357869    1333.7437    -5295.114    9838.4013   -542.05634   -218.64626   -6848.7338   -268.51416    75.998025 
   25800    432.34834   -119.33748   0.39119786   -118.94628   -3923.9614    4.2465964    4.2465964    4.2465964   -3923.9614   -7788.3469    6844.0539   -10827.591    2741.4367   -1729.6144    875.56943    76.581341 
   25900     496.3912   -119.39599   0.44914519   -118.94685   -4361.0793    4.2415142    4.2415142    4.2415142   -4361.0793    7137.0248   -9229.4175   -10990.845   -3140.3205    4111.5573    135.82376    76.306718 
   26000    330.23268     -119.247   0.29880147    -118.9482    4724.6302    4.2349176    4.2349176    4.2349176    4724.6302    2837.9592   -289.96979    11625.901   -4692.2597   -1771.7099     1368.841    75.951244 
   26100    625.29353   -119.50956   0.56577872   -118.94378   -12280.506    4.2477608    4.2477608    4.2477608   -12280.506   -11883.633   -8056.1466   -16901.737    161.52085   -5504.9349    388.46637     76.64435 
   26200    483.79437   -119.38075   0.43774732     -118.943    8226.4835    4.2389714    4.2389714    4.2389714    8226.4835    20762.952   -8803.8961    12720.394    -4701.454   -1857.3159    4507.8959     76.16956 
   26300    623.56605   -119.50884   0.56421567   -118.94462   -4827.9236    4.2367628    4.2367628    4.2367628   -4827.9236    3398.6909    -7743.753   -10138.709    1779.3873    7794.7832   -2270.5792    76.050564 
   26400    305.88135   -119.22303   0.27676787   -118.94626    9431.4262    4.2441173    4.2441173    4.2441173    9431.4262    15031.133    12610.069    653.07585   -4425.4861    10809.485    2693.5935    76.447298 
   26500    550.20281   -119.44163   0.49783506   -118.94379   -6134.5174     4.242673     4.242673     4.242673   -6134.5174   -4611.9001    986.22125   -14777.873   -5441.1107   -849.49599   -575.26768    76.369275 
   26600    590.37034   -119.47695   0.53417949   -118.94277    6237.5985    4.2363809    4.2363809    4.2363809    6237.5985    10960.246    863.01318    6889.5359    2030.7002   -2655.8321    2595.3103    76.030001 
   26700    539.11063   -119.43234   0.48779862   -118.94454    -6893.229    4.2459978    4.2459978    4.2459978    -6893.229   -19843.092    10215.225    -11051.82   -3277.0079    11362.065    5998.8523    76.548961 
   26800    361.70573   -119.27257   0.32727895   -118.94529   -7928.2082    4.2436315    4.2436315    4.2436315   -7928.2082   -23311.997    12187.472     -12660.1   -1108.4448    5190.4509    140.47403     76.42105 
   26900     480.3365   -119.37878   0.43461856   -118.94416    7052.3575    4.2348097    4.2348097    4.2348097    7052.3575    17478.439    4775.1843   -1096.5506   -2621.7542   -5156.1282    7336.5586    75.945439 
   27000    590.60659   -119.47815   0.53439326   -118.94376   -10232.368    4.2480924    4.2480924    4.2480924   -10232.368   -10761.179   -15733.497   -4202.4277   -908.21183   -5560.4013    535.23732    76.662302 
   27100     530.2006   -119.42226   0.47973664   -118.94252    797.73738    4.2385115    4.2385115    4.2385115    797.73738    3522.6893   -1104.3961   -25.081083    9015.9712   -2603.1316    5878.4063    76.144773 
   27200    458.90124   -119.35999   0.41522349   -118.94477    4553.2836    4.2372654    4.2372654    4.2372654    4553.2836    15294.012   -3450.1867    1816.0256    4557.3928    4017.5988    3795.5536    76.077636 
   27300     537.9833   -119.43206    0.4867786   -118.94528   -7876.0133    4.2455805    4.2455805    4.2455805   -7876.0133    2227.7571   -12345.594   -13510.203    1345.3927   -3843.9901   -2613.4303    76.526391 
   27400    411.72743   -119.31674   0.37253963    -118.9442    10071.265    4.2393577    4.2393577    4.2393577    10071.265    9656.7332    10395.567    10161.495    7368.5912   -10895.665    3496.1617    76.190387 
   27500    580.43157   -119.46843   0.52518668   -118.94324   -4765.2958    4.2386972    4.2386972    4.2386972   -4765.2958   -16608.705   -1901.9907    4214.8081    5137.1721    2873.4939    1433.7781    76.154783 
   27600    473.57155   -119.37411   0.42849749   -118.94562    4490.9041    4.2447878    4.2447878    4.2447878    4490.9041   -802.68641     12975.75    1299.6486    795.75651    5426.4726    4172.0209    76.483533 
   27700    486.88387   -119.38586   0.44054276   -118.94531    -2800.113     4.242911     4.242911     4.242911    -2800.113   -10600.028    2250.8468   -51.157576   -2235.0718   -4322.6346    1880.6919    76.382128 
   27800    381.01761   -119.28928   0.34475274   -118.94453   -233.19467    4.2362655    4.2362655    4.2362655   -233.19467   -11973.736    1411.9232    9862.2291   -8222.8938   -1579.2915    4177.9463    76.023792 
   27900    587.72749   -119.47526   0.53178819   -118.94347   -4211.8702    4.2461916    4.2461916    4.2461916   -4211.8702   -5247.3372   -9753.5637    2365.2903   -1863.2656   -62.434177   -2261.4264    76.559441 
   28000    639.11444   -119.52068   0.57828418    -118.9424   -8559.2775    4.2402388    4.2402388    4.2402388   -8559.2775   -2292.2093   -17762.228   -5623.3957    1496.4543     5737.669    6096.2086    76.237905 
   28100    359.34065   -119.26895   0.32513897   -118.94381    2694.0217    4.2376388    4.2376388    4.2376388    2694.0217    12055.962    -2314.881   -1659.0155   -13204.333    2821.4981    1756.6005    76.097749 
   28200    545.29154    -119.4371   0.49339124   -118.94371   -3571.5538    4.2427174    4.2427174    4.2427174   -3571.5538    -6708.093   -3332.8018   -673.76674    -2276.936   -7834.8714   -1534.5666    76.371672 
   28300     558.5978      -119.45   0.50543103   -118.94457    1585.3205    4.2424152    4.2424152    4.2424152    1585.3205    15911.197   -5972.9852   -5182.2504    679.23767     2.770215    2515.6965    76.355359 
   28400    542.14291   -119.43395    0.4905423    -118.9434    6229.1599    4.2377129    4.2377129    4.2377129    6229.1599    12766.718   -916.71043    6837.4721    1964.8281    1789.7527   -2856.4697    76.101741 
   28500    335.28223   -119.24962   0.30337041   -118.94625    2872.9391    4.2417395    4.2417395    4.2417395    2872.9391   -15557.518    21076.436    3099.8996    1451.7852   -1150.5896    3325.3799    76.318881 
   28600    544.23018   -119.43763    0.4924309    -118.9452   -4971.8679    4.2460259    4.2460259    4.2460259   -4971.8679    2116.8267   -5553.1903    -11479.24   -850.02066   -4944.3822   -2266.6638    76.550481 
   28700    507.64906   -119.40374   0.45933154   -118.94441    8026.0669     4.233662     4.233662     4.233662    8026.0669    6955.3139     5928.201    11194.686      84.0577   -7282.8484    -8311.274    75.883707 
   28800    438.04516   -119.34144   0.39635246   -118.94509   -12866.869    4.2443827    4.2443827    4.2443827   -12866.869    -27496.44   -16203.004    5098.8364    8789.1974    3334.8816   -742.88886    76.461637 
   28900    479.82185   -119.37849   0.43415289   -118.94434   -666.13126    4.2427775    4.2427775    4.2427775   -666.13126   -1683.4723   -3660.6238    3345.7022   -802.04482     6470.697   -940.18075    76.374922 
   29000    662.69067   -119.54332   0.59961645    -118.9437   -6874.8419    4.2358478    4.2358478    4.2358478   -6874.8419    5374.9559   -15619.278   -10380.203   -5322.9137   -4200.4107    1630.3557    76.001303 
   29100    419.40796   -119.32418   0.37948914   -118.94469   -99.707238     4.242119     4.242119     4.242119   -99.707238    289.25349   -8045.8945    7457.5192    2080.5192    924.77234    -3450.732    76.339366 
   29200    467.96136   -119.36638   0.42342127   -118.94295   -4818.0929    4.2449931    4.2449931    4.2449931   -4818.0929   -8985.1531   -4748.8471   -720.27844   -5424.8862    924.41707   -4919.6302    76.494632 
   29300    576.03288   -119.46529   0.52120666   -118.94408    6708.2149    4.2368389    4.2368389    4.2368389    6708.2149    18028.871   -1836.8948    3932.6681    2882.9967    1320.6537    4357.0815    76.054662 
   29400    587.72314   -119.47681   0.53178424   -118.94503     7353.506    4.2405923    4.2405923    4.2405923     7353.506    14464.773    9605.9118   -2010.1671   -2552.8945    2196.7144     5286.083    76.256971 
   29500    262.38056   -119.18204   0.23740744   -118.94464   -3937.8361    4.2485305    4.2485305    4.2485305   -3937.8361   -10052.978    2425.1264   -4185.6571   -3768.7702   -5045.1636   -1364.9741    76.686026 
   29600    531.46304   -119.42353   0.48087893   -118.94265     6250.172    4.2325984    4.2325984    4.2325984     6250.172    4623.4378    6181.2099    7945.8682    6889.3674   -5118.9545   -3957.1992    75.826532 
   29700     593.6126   -119.48313   0.53711315   -118.94602   -2063.3732    4.2446865    4.2446865    4.2446865   -2063.3732    1957.1673   -8083.0865   -64.200291    1878.4484    6566.8762    1398.0166    76.478061 
   29800    503.91426   -119.39892   0.45595221   -118.94297   -11115.174    4.2432987    4.2432987    4.2432987   -11115.174   -16096.326   -8822.1505   -8427.0444    4319.9096   -1709.1295    8117.0937    76.403069 
   29900    313.45031   -119.22742   0.28361642    -118.9438     5597.796    4.2358262    4.2358262    4.2358262     5597.796    585.47705      7852.51     8355.401    962.05854   -2449.4367    4034.9524     76.00014 
   30000    698.67505   -119.57609   0.63217587   -118.94392   -12494.755    4.2434796    4.2434796    4.2434796   -12494.755   -11419.929   -15945.624   -10118.712    4774.7706    979.09373   -6017.9618    76.412843 
   30100    531.55439   -119.42508   0.48096158   -118.94412    5499.6257    4.2415408    4.2415408    4.2415408    5499.6257    10613.777   -7520.7372    13405.837    6940.3906   -1508.1844    394.43123    76.308155 
   30200    447.34178   -119.34849   0.40476424   -118.94373   -6055.3105    4.2396444    4.2396444    4.2396444   -6055.3105   -10456.589   -1418.0396   -6291.3035    2368.1093    3891.4305    8096.3735    76.205848 
   30300    418.50338   -119.32394   0.37867065   -118.94527    4461.0108    4.2403989    4.2403989    4.2403989    4461.0108   -3824.3401     17204.67    2.7027889   -1641.6119    -6773.388    4698.3983    76.246542 
   30400    715.88176   -119.59316   0.64774486   -118.94542   -7724.8948    4.2444389    4.2444389    4.2444389   -7724.8948    6169.0596   -11588.673   -17755.071    3269.6587   -8654.6468   -5559.4969    76.464679 
   30500    366.01261   -119.27628    0.3311759   -118.94511    2620.6103    4.2365281    4.2365281    4.2365281    2620.6103   -671.72151    9870.7466    -1337.194    1921.7942    2149.8677   -6827.7538    76.037927 
   30600    421.31233    -119.3266   0.38121225   -118.94538    -4760.296    4.2439293    4.2439293    4.2439293    -4760.296   -8105.3472   -8789.6204    2614.0796     -3342.86   -4301.3473    5772.8867    76.437141 
   30700    523.87513   -119.41899   0.47401323   -118.94498     3937.797    4.2398784    4.2398784    4.2398784     3937.797     6844.756   -4988.7752    9957.4103    6757.4596   -686.65663    7237.2837    76.218466 
   30800    579.26673   -119.46877   0.52413271   -118.94464    5603.9257    4.2384464    4.2384464    4.2384464    5603.9257    2283.1817    8901.8479    5626.7474   -4763.6934    1543.1422   -4757.2637    76.141263 
   30900    393.26624   -119.29941   0.35583556   -118.94358     3307.513    4.2434326    4.2434326    4.2434326     3307.513   -6067.7869   -7266.0325    23256.358    4585.4261    -3307.101    -8464.749    76.410306 
   31000    458.81762   -119.35905   0.41514782    -118.9439     480.7668    4.2385178    4.2385178    4.2385178     480.7668    -14781.05   -4590.8714    20814.222    6102.3188      6013.45    1410.1308    76.145112 
   31100    585.04982   -119.47374   0.52936537   -118.94438    927.67011    4.2399643    4.2399643    4.2399643    927.67011    9380.9304     537.0416   -7134.9617   -6969.9282    453.43516    9523.6367      76.2231 
   31200    502.47804   -119.39929   0.45465269   -118.94464   -6360.2653    4.2413912    4.2413912    4.2413912   -6360.2653   -12833.145    5179.0087    -11426.66    4127.0037    -6589.498    2757.5455    76.300081 
   31300    479.94554   -119.37862   0.43426481   -118.94435   -10690.586    4.2432882    4.2432882    4.2432882   -10690.586   -21526.037   -4709.0838   -5836.6384   -1831.1559    2730.1518   -7696.1688    76.402504 
   31400    551.89848   -119.44489   0.49936934   -118.94552   -192.49043    4.2358991    4.2358991    4.2358991   -192.49043    17748.001   -8558.8196   -9766.6527   -4750.1905   -4563.1756   -1501.2071    76.004067 
   31500    526.40553   -119.42357   0.47630279   -118.94727   -10119.007    4.2461219    4.2461219    4.2461219   -10119.007   -5509.6141   -11665.615   -13181.791     2534.725   -3489.9808    11893.759    76.555672 
   31600     469.1409   -119.36971   0.42448855   -118.94522    4107.0478    4.2390611    4.2390611    4.2390611    4107.0478    1185.5291    884.31881    10251.296   -3385.5903    698.20754    4646.8967    76.174398 
   31700    535.48634   -119.42957   0.48451929   -118.94505    4708.0769    4.2358637    4.2358637    4.2358637    4708.0769    5177.7153    6423.4555    2523.0598     47.43768   -4157.7783   -7700.6339    76.002162 
   31800    528.74218   -119.42319   0.47841703   -118.94478     3432.023    4.2450056    4.2450056    4.2450056     3432.023   -653.77325   -7074.9667    18024.809     4369.365    1828.0604   -9177.2116    76.495311 
   31900    473.81576   -119.37317   0.42871846   -118.94445    6003.6351    4.2374392    4.2374392    4.2374392    6003.6351    2685.9825   -2898.6916    18223.615    1396.7953    2774.4062    4760.2113    76.086995 
   32000    408.58798    -119.3139   0.36969899   -118.94421    1121.7396    4.2391044    4.2391044    4.2391044    1121.7396   -16345.078    6708.8238    13001.473     1714.986   -1347.3181    7836.0753     76.17673 
   32100    568.75853   -119.45822   0.51462467   -118.94359   -8074.9049    4.2438973    4.2438973    4.2438973   -8074.9049   -10332.622   -5604.7843    -8287.308    3097.0806    6414.8893   -5083.5713    76.435411 
   32200    506.95994   -119.40432     0.458708   -118.94561   -8004.4541    4.2399506    4.2399506    4.2399506   -8004.4541   -2744.0396   -12150.581   -9118.7415    684.12239    2894.5178   -8897.9068    76.222361 
   32300    503.00735   -119.40111   0.45513162   -118.94598   -1296.0873    4.2363537    4.2363537    4.2363537   -1296.0873   -7056.4496   -1984.3371    5152.5248    4182.8491   -1248.0347    824.94612    76.028535 
   32400    341.70407   -119.25655   0.30918102   -118.94737    -3727.411    4.2464544    4.2464544    4.2464544    -3727.411    2722.1398    -17258.35    3353.9772     2143.883    4558.5757     10702.17    76.573656 
   32500    607.76751   -119.49449   0.54992081   -118.94457    5773.9137    4.2365526    4.2365526    4.2365526    5773.9137    8590.6896    2190.5932    6540.4585   -5288.8058   -1314.2259    3491.3506    76.039246 
   32600    546.20175   -119.44032   0.49421482   -118.94611    11278.213    4.2393062    4.2393062    4.2393062    11278.213   -3091.6181    10897.568     26028.69    4724.1511   -498.43871   -7223.1643    76.187609 
   32700     433.6942   -119.33715   0.39241563   -118.94474   -25.482464    4.2445334    4.2445334    4.2445334   -25.482464    11.443304   -18235.042    18147.151    513.94502    2484.6395   -508.02354    76.469786 
   32800    378.83397   -119.28667   0.34277694   -118.94389    8896.7894    4.2356243    4.2356243    4.2356243    8896.7894    8817.0375   -20.576862    17893.908     3519.733   -4222.1656    6885.7201    75.989273 
   32900    552.00902   -119.44317   0.49946936    -118.9437   -4825.8328    4.2415549    4.2415549    4.2415549   -4825.8328   -6282.3954   -2290.6784   -5904.4246    2878.9885    2207.1803    5018.5895    76.308915 
   33000    659.46269   -119.53974    0.5966957   -118.94304   -9244.9668    4.2429479    4.2429479    4.2429479   -9244.9668   -25261.682   -10033.387    7560.1679   -4714.6567   -3524.3939   -4800.6244    76.384122 
   33100    347.99205   -119.25894   0.31487052   -118.94407   -4222.6819    4.2402195    4.2402195    4.2402195   -4222.6819   -5155.7216   -8254.7703    742.44625    9758.8348   -4057.0375   -5276.8446    76.236864 
   33200    489.48899   -119.38767   0.44289993   -118.94477   -8493.5873    4.2395084    4.2395084    4.2395084   -8493.5873   -1514.2392   -20616.925    -3349.598    1222.8934   -716.45176    10040.715    76.198513 
   33300    542.76919   -119.43704   0.49110897   -118.94593    226.06579    4.2446252    4.2446252    4.2446252    226.06579   -3920.2873   -7864.8439    12463.329   -1346.3658   -853.39649    7117.4701    76.474749 
   33400     607.3515   -119.49261    0.5495444   -118.94307   -1315.2373    4.2378559    4.2378559    4.2378559   -1315.2373    1941.6668   -6054.6408    167.26219    -240.0315   -1172.4811   -4953.3894    76.109446 
   33500    396.00432    -119.3027   0.35831303   -118.94439    6670.1373    4.2401109    4.2401109    4.2401109    6670.1373    3175.8281   -3679.6601    20514.244   -1460.6476    2610.2615   -2987.7428    76.231007 
   33600    558.58096   -119.45057   0.50541579   -118.94515    436.14119    4.2417764    4.2417764    4.2417764    436.14119    9876.9171   -9411.4319    842.93839   -798.04666    1505.2158    1827.8476    76.320872 
   33700     503.4639    -119.4008   0.45554471   -118.94526    5163.5277    4.2398689    4.2398689    4.2398689    5163.5277   -2594.2352    2373.9049    15710.913   -1290.3366     5197.313       6050.1    76.217955 
   33800    534.48062   -119.42628    0.4836093   -118.94267   -5510.9599    4.2387017    4.2387017    4.2387017   -5510.9599   -11117.867   -2986.4809   -2428.5322   -5018.7705    3932.9671    670.67026    76.155022 
   33900    477.63421   -119.37718   0.43217347   -118.94501   -222.51465    4.2396337    4.2396337    4.2396337   -222.51465   -3169.8949    2398.6997     103.6513   -2739.7338    731.37246   -8982.7874    76.205268 
   34000    654.76803    -119.5383   0.59244787   -118.94585   -13069.818    4.2439171    4.2439171    4.2439171   -13069.818   -15966.928   -23544.621    302.09682    7175.5253    2175.1952    7136.5924    76.436482 
   34100    323.85947   -119.23913   0.29303486    -118.9461   -640.38589    4.2383258    4.2383258    4.2383258   -640.38589    -2627.641   -3241.3896     3947.873   -2253.9658   -37.500382    11027.649    76.134767 
   34200    531.84557   -119.42577   0.48122505   -118.94455   -9141.2679    4.2409418    4.2409418    4.2409418   -9141.2679   -4534.2545    -20236.11   -2653.4393    -1544.607   -1281.3803    5767.2378     76.27583 
   34300    576.68554   -119.46608    0.5217972   -118.94428    232.16505    4.2436586    4.2436586    4.2436586    232.16505    -7091.222   -4027.1259    11814.843    1908.9724   -4420.3944    1244.1679    76.422512 
   34400    637.61715   -119.52074   0.57692939   -118.94381   -4110.4228     4.238762     4.238762     4.238762   -4110.4228   -8764.9488   -5258.8028    1692.4833    491.62376   -2369.0682    4981.9123    76.158274 
   34500    242.15542   -119.16476   0.21910731   -118.94566    11908.921    4.2367167    4.2367167    4.2367167    11908.921    21790.886    -5920.861    19856.738    3088.0507   -5391.8469    7635.2426    76.048085 
   34600    524.69235   -119.41978   0.47475266   -118.94503   -5930.4054    4.2470143    4.2470143    4.2470143   -5930.4054   -6780.5246   -10209.534   -801.15722   -5755.1276   -1110.5073    3318.8926    76.603952 
   34700    631.04424   -119.51461   0.57098209   -118.94363    12616.189    4.2362017    4.2362017    4.2362017    12616.189   -8068.0164    19492.538    26424.047   -6384.4417   -2905.3852   -4596.8916    76.020355 
   34800    516.02746   -119.41156   0.46691249   -118.94465   -2196.1243    4.2375763    4.2375763    4.2375763   -2196.1243   -3183.0042   -7430.3166     4024.948   -1405.6786   -792.78271   -735.31744    76.094382 
   34900    291.03519   -119.20992   0.26333476   -118.94659   -1961.8841    4.2461708    4.2461708    4.2461708   -1961.8841   -4763.4169   -2241.5225    1119.2872   -3337.1313   -2262.6369    52.149918    76.558316 
   35000     548.9999   -119.44355   0.49674665   -118.94681   -1039.3184    4.2362207    4.2362207    4.2362207   -1039.3184   -6969.4738   -15214.196    19065.715   -8431.0944    2075.4822    4746.0072     76.02138 
   35100    514.70734   -119.41231   0.46571802    -118.9466   -1632.2294    4.2373354    4.2373354    4.2373354   -1632.2294   -14704.022     670.0573    9137.2769   -11496.066   -907.39479    -856.7682    76.081406 
   35200    491.58985   -119.38785   0.44480083   -118.94305   -6757.0217    4.2466873    4.2466873    4.2466873   -6757.0217   -13886.265   -15086.604    8701.8045   -2658.7311    1916.7365   -2608.0319    76.586259 
   35300    469.55809   -119.37112   0.42486603   -118.94625    245.21625    4.2366335    4.2366335    4.2366335    245.21625    3440.1829   -12365.477    9660.9433    763.35673    796.02719    9823.0056    76.043601 
   35400    519.32807   -119.41705   0.46989895   -118.94716    5038.2018    4.2361466    4.2361466    4.2361466    5038.2018    4099.8676   -7742.3222     18757.06   -3479.9599   -1579.1891    3204.0605    76.017387 
   35500    308.47136   -119.22595   0.27911137   -118.94684   -1324.7482    4.2477357    4.2477357    4.2477357   -1324.7482    546.91369    -2551.374   -1969.7844   -4844.7047    5243.7037    962.50742    76.642994 
   35600    641.80724   -119.52444   0.58072067   -118.94372    -1038.746    4.2365225    4.2365225    4.2365225    -1038.746    4390.1511   -6227.3226   -1279.0664    4216.2229   -1258.6089    1669.2376    76.037628 
   35700    629.72917   -119.51631   0.56979219   -118.94651    11331.172    4.2369228    4.2369228    4.2369228    11331.172    5329.0568    17240.276    11424.182     4565.497    433.38715   -1989.1119    76.059181 
   35800    448.19796   -119.35268   0.40553893   -118.94714   -11396.128    4.2477767    4.2477767    4.2477767   -11396.128   -2876.6514   -22809.692   -8502.0407   -758.63069   -145.17302    2415.5167    76.645214 
   35900    211.02492   -119.13783   0.19093978   -118.94689    10327.504    4.2354334    4.2354334    4.2354334    10327.504    8351.1469    11557.004    11074.362   -3289.6803    1207.9499   -3582.4417    75.978997 
   36000    810.87396   -119.67841    0.7336958   -118.94471   -7046.9753    4.2374469    4.2374469    4.2374469   -7046.9753   -13581.145   -12323.399    4763.6179   -3186.2731   -29.044458   -7659.2002     76.08741 
   36100    632.80145   -119.51729   0.57257205   -118.94472   -5929.0116    4.2469799    4.2469799    4.2469799   -5929.0116   -11545.179   -384.52309   -5857.3329    8158.1833    1177.4845   -1489.2334    76.602091 
   36200    361.46697   -119.27208   0.32706291   -118.94501    -1910.661    4.2354421    4.2354421    4.2354421    -1910.661    2347.1767   -9256.6996    1177.5398   -3176.0991    -4096.599    3843.7332     75.97947 
   36300    280.69986   -119.20122   0.25398314   -118.94724   -1592.6076     4.241483     4.241483     4.241483   -1592.6076    1359.4336   -7993.4383    1856.1818   -5061.6777    1821.5405    488.33751    76.305037 
   36400    755.02605   -119.62777   0.68316344    -118.9446   -4961.1264    4.2444034    4.2444034    4.2444034   -4961.1264   -5427.9881   -17363.535    7908.1436     1131.999   -774.24133    1402.8123    76.462756 
   36500     480.6893   -119.37791   0.43493778   -118.94297    4452.2987    4.2390364    4.2390364    4.2390364    4452.2987    14245.778    4752.8906   -5641.7727    4880.9796   -2808.6472   -257.38199    76.173066 
   36600    455.20382   -119.35611   0.41187798   -118.94423    -1597.736     4.239923     4.239923     4.239923    -1597.736    5396.7505   -8487.8165   -1702.1422   -3506.7346    1729.1564    5500.6817    76.220873 
   36700    379.55383   -119.29134   0.34342828   -118.94791    11169.244    4.2417901    4.2417901    4.2417901    11169.244    8424.6955   -2050.2766    27133.314    -5511.476   -1815.2854    883.23805    76.321609 
   36800    642.59952   -119.52703   0.58143755   -118.94559   -7026.4372    4.2405901    4.2405901    4.2405901   -7026.4372    2881.2799   -14949.421   -9011.1704   -8629.5247     1826.701   -2712.1421    76.256856 
   36900    393.63907   -119.30082    0.3561729   -118.94464     10657.01    4.2359176    4.2359176    4.2359176     10657.01    2883.9205    18958.551    10128.558    7418.6795    3258.0124   -5573.3305    76.005063 
   37000    656.38141   -119.53878   0.59390769   -118.94488   -14002.841    4.2432197    4.2432197    4.2432197   -14002.841   -16436.362    -15215.86     -10356.3    2531.6344   -810.71137    187.34662    76.398802 
   37100    447.95515   -119.35224   0.40531923   -118.94692    1607.0126    4.2417176    4.2417176    4.2417176    1607.0126   -1928.0482    13315.352   -6566.2658   -7583.0098    6481.2199    2677.8662    76.317698 
   37200    489.38378   -119.38864   0.44280473   -118.94583   -5302.1562    4.2353421    4.2353421    4.2353421   -5302.1562    2337.3593   -12601.896   -5641.9322    -3575.719    3924.7036    1692.0049    75.974085 
   37300    355.30841    -119.2674   0.32149051   -118.94591   -714.84849    4.2449697    4.2449697    4.2449697   -714.84849    9137.9248   -7611.8591   -3670.6112    2883.9353     3342.145   -59.525793    76.493367 
   37400    696.49111   -119.57356   0.63019979   -118.94336   -4880.0791    4.2437744    4.2437744    4.2437744   -4880.0791   -2855.8057   -6824.0714   -4960.3604    4305.5231    7247.0236     4233.404    76.428767 
   37500    447.94357   -119.35003   0.40530876   -118.94472    10955.221    4.2328706    4.2328706    4.2328706    10955.221    19694.956     2041.482    11129.224    -5356.618   -488.22583    5557.9734    75.841163 
   37600    409.22681   -119.31624   0.37027702   -118.94596   -7415.1783    4.2481224    4.2481224    4.2481224   -7415.1783    6184.9271   -29791.058    1360.5954   -8595.2342    486.83049    3655.9628    76.663926 
   37700    391.82535   -119.29957   0.35453181   -118.94504       4956.1    4.2407554    4.2407554    4.2407554       4956.1    -1630.869    6248.2175    10250.952    839.75603   -602.73491   -1599.2892    76.265774 
   37800    712.45935   -119.58769   0.64464819   -118.94305   -104.87639    4.2320797    4.2320797    4.2320797   -104.87639   -2718.0584   -7720.6861    10124.115     10740.84   -6521.5354   -2825.5562    75.798657 
   37900    501.12116   -119.39712   0.45342495   -118.94369   -2108.6787    4.2478927    4.2478927    4.2478927   -2108.6787   -2943.9599    8473.0711   -11855.147   -6874.8748   -3686.7942    693.04173    76.651494 
   38000    472.03765   -119.37123   0.42710959   -118.94412   -5714.8038    4.2391101    4.2391101    4.2391101   -5714.8038   -5727.0817   -5697.2487   -5720.0811   -7000.6302   -4623.7367   -680.51895    76.177041 
   38100    379.70943   -119.28899   0.34356908   -118.94542    10603.836    4.2331563    4.2331563    4.2331563    10603.836    6772.4201    5556.1488    19482.939    917.93136   -5114.4627   -773.79906    75.856518 
   38200    625.80641   -119.51057   0.56624279   -118.94433   -10682.435    4.2484829    4.2484829    4.2484829   -10682.435    -2486.446   -14635.017    -14925.84    6448.4921    948.98266   -2544.9038    76.683449 
   38300    515.44099   -119.41072   0.46638184   -118.94434    546.46107    4.2388672    4.2388672    4.2388672    546.46107    12121.021   -3022.6861   -7458.9518    2240.6658   -3439.1087    1369.5836    76.163943 
   38400    528.78342   -119.42255   0.47845436   -118.94409   -634.24059     4.235699     4.235699     4.235699   -634.24059    -3819.931   -4936.2739    6853.4831   -6380.0742   -315.20536    3602.0928    75.993292 
   38500    421.21954   -119.32727   0.38112829   -118.94614   -6570.6169    4.2484364    4.2484364    4.2484364   -6570.6169    5891.6201   -18684.886   -6918.5849   -1101.3869    4908.6675    1692.9661    76.680928 
   38600    520.64881   -119.41493   0.47109399   -118.94384   -2619.2162    4.2381787    4.2381787    4.2381787   -2619.2162    10548.643   -18040.072   -366.21975     9444.642   -3279.6097   -404.12648    76.126838 
   38700     517.1444   -119.41153   0.46792312   -118.94361     2565.935    4.2371395    4.2371395    4.2371395     2565.935    -7232.392    8724.5954    6205.6016    6163.7567     2903.731    2212.3441    76.070853 
   38800    593.06031   -119.48031   0.53661343   -118.94369   -2922.3988    4.2441548    4.2441548    4.2441548   -2922.3988   -669.36305   -2395.7459   -5702.0874   -7363.1363   -5.9792632    4458.7835    76.449326 
   38900    497.59961   -119.39545   0.45023858   -118.94522    3378.5505    4.2388703    4.2388703    4.2388703    3378.5505    4941.8548        -3906    9099.7967   -1493.1961    -3424.141    5272.8125    76.164112 
   39000    335.59464   -119.25003   0.30365308   -118.94637    9785.7353     4.235485     4.235485     4.235485    9785.7353    20217.424   -225.35453    9365.1364    5075.3392    1903.5619    1624.2406    75.981775 
   39100    518.87275   -119.41425   0.46948697   -118.94476   -5592.1352    4.2443428    4.2443428    4.2443428   -5592.1352   -7474.4917   -3269.3963   -6032.5175    2018.9816   -3060.7702     652.0703    76.459482 
   39200    620.72232   -119.50476    0.5616426   -118.94312    2014.8423     4.240845     4.240845     4.240845    2014.8423    7011.5401    10510.477    -11477.49   -5471.7852   -468.09289    2629.4739    76.270606 
   39300    605.23306   -119.49167    0.5476276   -118.94404   -5569.5405    4.2364798    4.2364798    4.2364798   -5569.5405    10176.302   -18912.263   -7972.6602    -2708.974    1892.0354    2629.7656     76.03533 
   39400    222.36531   -119.14954    0.2012008   -118.94834   -3933.5344     4.244538     4.244538     4.244538   -3933.5344   -3035.7099   -10907.595    2142.7018    1750.6314    2171.9865    36.359204    76.470031 
   39500    516.83014   -119.41396   0.46763877   -118.94632   -2751.8396    4.2406488    4.2406488    4.2406488   -2751.8396     6626.017    -14740.89   -140.64549    7196.5629   -723.88294   -3819.9991    76.260021 
   39600    583.17724   -119.47271   0.52767103   -118.94504    2346.3957    4.2367612    4.2367612    4.2367612    2346.3957    20570.406   -10065.061   -3466.1575    1753.8788    4058.6411   -2022.3166    76.050481 
   39700    614.48717   -119.49993   0.55600091   -118.94393   -1460.4264    4.2425697    4.2425697    4.2425697   -1460.4264    12940.344   -8644.5968   -8677.0264   -3343.3916   -523.38619   -1973.5135    76.363698 
   39800    329.75336    -119.2451   0.29836777   -118.94673     2177.636     4.240143     4.240143     4.240143     2177.636    1658.9423    -2173.514    7047.4797    7300.3644    2142.3368   -890.79399    76.232734 
   39900    454.21179   -119.35729   0.41098037   -118.94631    -1909.263    4.2354709    4.2354709    4.2354709    -1909.263    3289.3345   -15859.905    6842.7814    6313.3425    2039.7993   -3077.0939    75.981016 
   40000    542.23276   -119.43496    0.4906236   -118.94433    2728.8302    4.2433731    4.2433731    4.2433731    2728.8302    12496.169    7627.6916    -11937.37   -5211.0337   -2269.6966   -3914.5531    76.407088 
   40100    614.05166   -119.49854   0.55560684   -118.94293   -6326.6461    4.2407477    4.2407477    4.2407477   -6326.6461   -13372.789   -5529.7069   -77.441954   -1869.3418    3100.1472   -1068.2348    76.265356 
   40200    409.02686   -119.31505    0.3700961   -118.94496    11834.996    4.2371611    4.2371611    4.2371611    11834.996    9495.0911    12937.953    13071.943   -1184.9139   -3935.8677    1027.5622    76.072018 
   40300    393.61743   -119.30278   0.35615332   -118.94663    -34.16071    4.2446228    4.2446228    4.2446228    -34.16071    26739.574   -26712.059   -129.99745    2132.4876      906.387   -251.25564    76.474617 
   40400    456.41916   -119.35793   0.41297765   -118.94496   -46.561836    4.2398428    4.2398428    4.2398428   -46.561836    3848.5441   -6395.5799    2407.3503   -1524.8211   -476.21074   -1525.9443    76.216547 
   40500    677.40076   -119.55406   0.61292644   -118.94114    2079.5116    4.2390085    4.2390085    4.2390085    2079.5116    13904.539    1640.3478   -9306.3515   -3202.6249    1070.6325    1509.2392    76.171561 
   40600    528.57615   -119.42133   0.47826681   -118.94306   -10548.038    4.2454582    4.2454582    4.2454582   -10548.038   -99.141638   -22453.748   -9091.2256    5521.1562    437.52813    1323.7353    76.519777 
   40700    399.56265   -119.30616   0.36153268   -118.94463   -2155.6461    4.2377038    4.2377038    4.2377038   -2155.6461    11117.836   -27909.682    10324.908    7266.8389    -321.6112    954.37586    76.101253 
   40800    383.83357   -119.29278   0.34730068   -118.94548    649.75217    4.2393332    4.2393332    4.2393332    649.75217   -12632.774    1722.8864    12859.144   -614.64712     252.6905   -4630.3047    76.189068 
   40900    596.39652   -119.48315    0.5396321   -118.94352   -11092.948    4.2443499    4.2443499    4.2443499   -11092.948   -8464.6664   -17521.286   -7292.8901   -3417.3744   -145.10756   -5210.0142    76.459868 
   41000     582.7357   -119.47115   0.52727151   -118.94388    7104.7931    4.2370448    4.2370448    4.2370448    7104.7931    8750.7858    2969.9433    9593.6503    3524.2557   -232.77457   -2208.0197    76.065751 
   41100    401.31377    -119.3097   0.36311713   -118.94658    230.34293    4.2404145    4.2404145    4.2404145    230.34293   -99.236671   -7230.1117    8020.3771    3060.6462   -2068.4396   -3702.6456    76.247381 
   41200    451.78872   -119.35378   0.40878793   -118.94499   -1085.8814    4.2437875    4.2437875    4.2437875   -1085.8814    4090.6051   -3547.5407   -3800.7087   -4458.1406    2728.2335    -6156.424    76.429479 
   41300    576.86206   -119.46411   0.52195692   -118.94216    9528.9095    4.2371366    4.2371366    4.2371366    9528.9095    19221.322    5815.2915    3550.1154   -7526.1245    -6308.172   -6045.0731    76.070698 
   41400    660.31614   -119.53925   0.59746792   -118.94179   -5672.4988    4.2416795    4.2416795    4.2416795   -5672.4988    3027.3152   -14073.943   -5970.8687    3698.5618    422.02163   -3120.1709    76.315642 
   41500     375.6065     -119.283   0.33985665   -118.94314    3635.5516    4.2443576    4.2443576    4.2443576    3635.5516    1648.0686    46.266766    9212.3194    3525.0885   -4619.1761   -590.43465    76.460281 
   41600    441.02463   -119.34225   0.39904835   -118.94321   -1645.4808    4.2373557    4.2373557    4.2373557   -1645.4808   -3034.7681   -15233.582    13331.908    268.60309   -593.94009    440.02953    76.082501 
   41700    518.21625   -119.41264   0.46889295   -118.94375   -5059.1102    4.2425201    4.2425201    4.2425201   -5059.1102    3880.9284   -20966.644     1908.385   -2972.9853    46.329037   -2107.8559    76.361021 
   41800    597.32399   -119.48281    0.5404713   -118.94234   -7787.4709    4.2437212    4.2437212    4.2437212   -7787.4709    -14033.64   -6264.1968    -3064.576     4712.733   -4950.5362    3097.4529    76.425895 
   41900    435.14223   -119.33807   0.39372583   -118.94434   -4389.5351    4.2364363    4.2364363    4.2364363   -4389.5351   -16680.183   -5193.7966     8705.374    11810.202    2818.8863    4833.0325    76.032985 
   42000    498.49397   -119.39664   0.45104782   -118.94559   -1030.3114    4.2426673    4.2426673    4.2426673   -1030.3114    12032.758   -16132.704    1009.0125   -2111.7108   -750.20269    2552.5487    76.368969 
   42100    486.78936   -119.38429   0.44045725   -118.94384     2961.501     4.242376     4.242376     4.242376     2961.501    9331.8413   -1557.5873     1110.249   -5858.7322    648.67454    -521.8822    76.353242 
   42200    557.54733   -119.44658   0.50448054    -118.9421    5770.1499    4.2354975    4.2354975    4.2354975    5770.1499    10060.797    822.32321    6427.3293    1079.0238    1306.3125    3058.0908    75.982449 
   42300    474.19187   -119.37241   0.42905877   -118.94335    9631.9797    4.2421755    4.2421755    4.2421755    9631.9797    13336.864    8589.7313    6969.3441    2777.7386     54.21003    3185.7466    76.342416 
   42400    540.21265   -119.43343   0.48879575   -118.94464   -1706.0759    4.2411402    4.2411402    4.2411402   -1706.0759    13501.757   -24122.344    5502.3587   -4439.9206    1268.8287    560.06983    76.286535 
   42500     367.5804   -119.27727   0.33259447   -118.94468    3966.1412    4.2371444    4.2371444    4.2371444    3966.1412   -1294.5496   -1372.8696    14565.843   -8953.8467     2657.119   -2467.9503    76.071116 
   42600    507.57549   -119.40318   0.45926497   -118.94392   -9769.1305    4.2424892    4.2424892    4.2424892   -9769.1305   -15315.505   -8266.4242    -5725.462   -1398.5685   -1654.6031   -2708.2486     76.35935 
   42700    562.27226   -119.45295   0.50875576   -118.94419   -8561.2992    4.2447428    4.2447428    4.2447428   -8561.2992    754.35559   -24119.188   -2319.0653    6337.0732    2862.1447    4595.0441    76.481103 
   42800    544.00777   -119.43554   0.49222966   -118.94331   -4569.9033    4.2374595    4.2374595    4.2374595   -4569.9033   -1031.9874   -13366.774    689.05182    751.23107     1559.906   -118.14252    76.088089 
   42900    383.65506   -119.29274   0.34713916    -118.9456    683.28235    4.2412157    4.2412157    4.2412157    683.28235   -4895.1946    2890.2563    4054.7853    -2114.578   -3899.8893   -3203.6124    76.290607 
   43000    547.23748   -119.43844   0.49515197   -118.94329   -5323.9875    4.2449333    4.2449333    4.2449333   -5323.9875    3418.6181   -24729.803    5339.2226    2698.1658    2953.9968    571.90698    76.491401 
   43100     552.4642   -119.44228   0.49988121    -118.9424    11746.193    4.2337753    4.2337753    4.2337753    11746.193    21826.396    11160.672    2251.5102    7752.7413   -4628.4463     4844.185      75.8898 
   43200     519.9013   -119.41444   0.47041762   -118.94402   -1331.5844    4.2424858    4.2424858    4.2424858   -1331.5844   -720.02169   -9291.7501    6017.0186     1443.391   -318.17822    4130.0819    76.359168 
   43300    434.24366   -119.33649   0.39291279   -118.94358   -758.87429     4.243142     4.243142     4.243142   -758.87429   -5209.6901    390.53673    2542.5305   -6054.5597   -1715.4334    -696.5828    76.394608 
   43400    526.25026   -119.41918   0.47616229   -118.94301    4754.4339    4.2336881    4.2336881    4.2336881    4754.4339    12708.943   -7893.0385     9447.397   -4329.5654   -4311.9914    1559.6339     75.88511 
   43500    482.69132   -119.38151   0.43674925   -118.94476   -5861.3214    4.2427189    4.2427189    4.2427189   -5861.3214     3160.949   -12702.267   -8042.6464    2737.8084    3071.6184    6994.0315    76.371756 
   43600    467.72269   -119.36844   0.42320532   -118.94523    -5535.028    4.2440142    4.2440142    4.2440142    -5535.028   -21817.883   -8027.2734    13240.072   -3291.7867   -2365.7844    3238.5228    76.441727 
   43700    516.95964   -119.41331   0.46775594   -118.94556    1241.1493    4.2343906    4.2343906    4.2343906    1241.1493    3702.9439   -13174.697      13195.2   -7137.8942   -884.32851   -2513.8052    75.922891 
   43800    488.20379   -119.38856   0.44173705   -118.94682   -6279.7386    4.2447435    4.2447435    4.2447435   -6279.7386   -1218.0455    -26003.27    8382.0996   -3078.4179   -1335.0777   -554.45286    76.481138 
   43900     511.7199   -119.40724   0.46301492   -118.94422    -3752.033    4.2438852    4.2438852    4.2438852    -3752.033   -12317.143   -7238.3521    8299.3963    2724.9733   -1016.6547     3072.779    76.434755 
   44000    471.34656   -119.36993   0.42648427   -118.94344    1761.7631    4.2346862    4.2346862    4.2346862    1761.7631    10805.176   -8955.5026    3435.6159    1172.7004   -2714.3127    8643.1357    75.938796 
   44100    544.10894   -119.43595    0.4923212   -118.94363   -997.96877    4.2428573    4.2428573    4.2428573   -997.96877    1071.0796   -5618.9759    1553.9899   -5773.0563   -1289.9362   -2897.2048    76.379228 
   44200    536.48384   -119.42836   0.48542186   -118.94294    3396.4841    4.2408025    4.2408025    4.2408025    3396.4841     1887.228    3493.5426    4808.6816   -790.01853   -5412.6047    731.93984    76.268312 
   44300    556.58151   -119.44667   0.50360665   -118.94307    1878.2378    4.2360431    4.2360431    4.2360431    1878.2378   -1855.1602    6419.9338    1069.9397    2774.9956   -3042.6822    5290.8111    76.011817 
   44400    452.49219   -119.35409   0.40942444   -118.94467    2834.0234    4.2417823    4.2417823    4.2417823    2834.0234    1147.6829   -785.04174    8139.4291    293.28709   -3397.7936    7675.8686    76.321191 
   44500    463.86524   -119.36461   0.41971502    -118.9449   -5082.6907    4.2430406    4.2430406    4.2430406   -5082.6907   -793.43032   -25609.878    11155.236   -5790.0902   -5437.4906      1436.54    76.389132 
   44600    561.30359   -119.45131   0.50787928   -118.94343    122.03831    4.2372446    4.2372446    4.2372446    122.03831   -16270.165    5131.9635    11504.316   -1837.9952     607.1843    1701.4728    76.076515 
   44700    513.52379   -119.40867   0.46464712   -118.94403   -6661.0328    4.2433812    4.2433812    4.2433812   -6661.0328   -11572.739   -18883.456    10473.096    4276.5885   -1532.1286    2075.2903    76.407525 
   44800      472.373   -119.37303   0.42741302   -118.94562   -8774.9814    4.2423472    4.2423472    4.2423472   -8774.9814    3840.6621   -31231.992    1066.3858    968.71389    3222.4158    6551.5878    76.351687 
   44900    430.08587   -119.33528   0.38915073   -118.94613    920.89215    4.2376364    4.2376364    4.2376364    920.89215   -5745.0114   -7272.1321     15779.82   -8326.0915   -2009.5594   -1208.9016     76.09762 
   45000    448.62235   -119.35122   0.40592293   -118.94529   -938.58085    4.2430634    4.2430634    4.2430634   -938.58085   -1007.9307   -10524.148    8716.3361   -4697.5208    2809.3976   -4780.8822    76.390359 
   45100    586.07575   -119.47257   0.53029366   -118.94228   -930.66499     4.240793     4.240793     4.240793   -930.66499    4240.1874   -16384.757     9352.575    1931.8336   -2201.2691   -1148.7608    76.267802 
   45200    517.54294   -119.41124   0.46828373   -118.94296    15362.089    4.2353536    4.2353536    4.2353536    15362.089    20183.773    17911.588    7990.9059   -4253.4392   -1194.5364    2043.4812    75.974704 
   45300    489.71678   -119.38824   0.44310604   -118.94514   -1118.1406    4.2425113    4.2425113    4.2425113   -1118.1406    -7223.009   -10958.866    14827.453   -8963.2426    -1088.746    1051.1526    76.360545 
   45400    341.33799   -119.25544   0.30884978   -118.94659    8023.9369    4.2397228    4.2397228    4.2397228    8023.9369    5694.4999    8549.2524    9828.0586   -7838.6373   -3656.4472   -3124.1694    76.210075 
   45500    650.41048    -119.5326   0.58850507   -118.94409   -3184.4511    4.2360739    4.2360739    4.2360739   -3184.4511    5333.6915   -15808.947    921.90238    2119.3479    3142.1654    891.78554    76.013474 
   45600    523.28148   -119.41912   0.47347608   -118.94565   -5025.1863    4.2441533    4.2441533    4.2441533   -5025.1863   -6715.9308   -2122.2654   -6237.3627     2463.268    570.22167    3097.3938    76.449245 
   45700    565.60992   -119.45624   0.51177574   -118.94446    -8583.003    4.2418405    4.2418405    4.2418405    -8583.003   -6114.9226   -13727.968   -5906.1188   -8286.7711   -1759.3327    5886.9903    76.324332 
   45800    263.85758   -119.18554   0.23874388    -118.9468    751.62554    4.2377781    4.2377781    4.2377781    751.62554    26629.946    -29029.96      4654.89   -5837.0544    1382.7628     177.7042    76.105254 
   45900    577.87755   -119.46808   0.52287575    -118.9452   -9817.5974    4.2429356    4.2429356    4.2429356   -9817.5974    1547.3538   -26890.476   -4109.6697    6980.0953     1440.841   -3040.6104    76.383459 
   46000    510.27338   -119.40593   0.46170608   -118.94422    5004.7884    4.2415824    4.2415824    4.2415824    5004.7884    10740.925    8697.2177   -4423.7779    3721.1822   -1180.4265    3194.9354    76.310401 
   46100    587.30294   -119.47422   0.53140404   -118.94282   -5399.5791    4.2365656    4.2365656    4.2365656   -5399.5791    4402.9458   -15151.913     -5449.77   -4212.7665    3102.9787    1903.7098    76.039944 
   46200    405.19609   -119.31193   0.36662993    -118.9453    9386.6873    4.2405754    4.2405754    4.2405754    9386.6873    24129.914    1195.0093     2835.138   -10235.681    1295.5392   -2118.9123    76.256063 
   46300    492.93087   -119.39265   0.44601421   -118.94664   -1728.5518    4.2410242    4.2410242    4.2410242   -1728.5518   -602.38554   -7101.0836    2517.8137   -1764.7275    1343.3744   -2727.9414    76.280276 
   46400    484.22312   -119.38442   0.43813526   -118.94628    5195.3586    4.2362926    4.2362926    4.2362926    5195.3586    694.87654    13158.735    1732.4645    7172.2709    2636.0907   -2458.3061    76.025249 
   46500     585.7824   -119.47476   0.53002823   -118.94473    2252.8504    4.2390693    4.2390693    4.2390693    2252.8504    13899.422   -7062.6231    -78.24785   -3162.3474   -2523.5977   -494.49351    76.174838 
   46600    548.69901   -119.44291   0.49647439   -118.94644   -10042.255    4.2428596    4.2428596    4.2428596   -10042.255   -3555.7181   -19552.714   -7018.3329   -8331.3257      654.661   -227.68853    76.379355 
   46700     432.4451    -119.3388   0.39128541   -118.94751    2199.1268    4.2377102    4.2377102    4.2377102    2199.1268    7494.4343   -4034.9182    3137.8642    3926.1597   -1470.8327   -4603.5658    76.101593 
   46800    376.30645   -119.28825   0.34048999   -118.94776     -4994.61    4.2380657    4.2380657    4.2380657     -4994.61    14064.348    -28353.71   -694.46833    9565.0495   -366.01708   -1596.6521    76.120749 
   46900    560.02651   -119.45203   0.50672376   -118.94531   -9200.1491    4.2448478    4.2448478    4.2448478   -9200.1491    11766.899   -25163.272   -14204.074    4492.5028   -1642.9542    904.54156    76.486776 
   47000    709.05415   -119.58573    0.6415671   -118.94416    4395.7127    4.2355132    4.2355132    4.2355132    4395.7127    10532.733    11926.607   -9272.2017   -6362.4052    780.04733   -362.27626    75.983294 
   47100    397.91808   -119.30885   0.36004464    -118.9488   -4170.5101    4.2402067    4.2402067    4.2402067   -4170.5101    12996.278   -20503.668   -5004.1401   -2794.2571   -1853.8973    1070.9852    76.236173 
   47200    340.89993   -119.25647   0.30845342   -118.94802   -50.905252    4.2430943    4.2430943    4.2430943   -50.905252    13933.393   -15050.625     964.5165    4942.1375   -1684.3818    321.38607    76.392029 
   47300    500.56332   -119.39875   0.45292021   -118.94583    5797.8174    4.2365817    4.2365817    4.2365817    5797.8174     6731.997     9873.014    788.44114    1184.7119    1824.4453    1333.2527    76.040812 
   47400    801.63404   -119.66844   0.72533533   -118.94311   -6522.5986    4.2396271    4.2396271    4.2396271   -6522.5986   -3860.3478   -209.27948   -15498.169   -5408.9621   -889.22682    3699.1928    76.204912 
   47500    398.29241   -119.30597   0.36038334   -118.94558    11609.091    4.2405267    4.2405267    4.2405267    11609.091     24578.17    6543.8682    3705.2358   -974.84377    760.61537     353.0582    76.253436 
   47600    418.34256   -119.32572   0.37852514    -118.9472   -9233.5656    4.2389771    4.2389771    4.2389771   -9233.5656    4679.5929    -36171.98    3791.6905    12288.506    1488.7816    861.07154    76.169871 
   47700    381.05942   -119.29245   0.34479057   -118.94766    11928.836    4.2367441    4.2367441    4.2367441    11928.836    27188.636      3345.61    5252.2608     10043.24   -926.17024    279.84205    76.049558 
   47800    722.78113   -119.59951   0.65398756   -118.94552   -12788.279    4.2424702    4.2424702    4.2424702   -12788.279   -5744.6245   -19160.261   -13459.951   -1303.1992    669.65813   -772.12936    76.358325 
   47900     503.7701   -119.40242   0.45582178    -118.9466   -3147.9542    4.2390313    4.2390313    4.2390313   -3147.9542    21635.128   -24158.493   -6920.4983    3107.4828    2077.6435    348.42256    76.172791 
   48000    446.60494   -119.35286   0.40409754   -118.94877   -5554.0447    4.2398306    4.2398306    4.2398306   -5554.0447   -3085.6297   -8899.5537   -4676.9508    7773.6397   -4208.2122   -3604.9697    76.215886 
   48100    338.74093   -119.25575   0.30649991   -118.94925   -4639.5405    4.2428248    4.2428248    4.2428248   -4639.5405    425.21937   -8175.1649   -6168.6759    2241.4561    2496.0125   -1972.1142    76.377474 
   48200    607.04829   -119.49461   0.54927005   -118.94534   -596.42206    4.2384843    4.2384843    4.2384843   -596.42206    21619.307    -16245.68   -7162.8932   -5872.4854   -92.423165   -84.731229    76.143307 
   48300    573.57543   -119.46344   0.51898311   -118.94446     9136.538    4.2374621    4.2374621    4.2374621     9136.538    11537.477    24156.173    -8284.036   -8139.9252   -3998.4138    -1284.651    76.088231 
   48400    588.09558   -119.47806   0.53212124   -118.94594   -1434.0234    4.2406771    4.2406771    4.2406771   -1434.0234    12602.203   -7779.0858   -9125.1879    4452.5112    3353.7744   -1991.7009     76.26155 
   48500    292.55088   -119.21285   0.26470618   -118.94814    9143.9125    4.2375816    4.2375816    4.2375816    9143.9125    18819.025    2819.4137    5793.2994    7122.1758   -2418.4616   -566.49631    76.094668 
   48600    502.47937   -119.40117   0.45465389   -118.94651   -4001.6758    4.2367872    4.2367872    4.2367872   -4001.6758    11906.442   -25380.711    1469.2416   -3854.9995   -194.40997   -384.97352    76.051879 
   48700    616.70496    -119.5036   0.55800761   -118.94559     -6909.59    4.2426168    4.2426168    4.2426168     -6909.59   -4868.9504   -2895.2999    -12964.52   -4783.7521    1305.2759    632.07939    76.366243 
   48800    616.01579   -119.50378   0.55738403   -118.94639   -6698.2508    4.2390688    4.2390688    4.2390688   -6698.2508   -6529.8053   -9456.1346   -4108.8124    9382.8223   -2203.4266   -1082.1733    76.174815 
   48900    321.39655   -119.23926   0.29080635   -118.94845   -5109.8605    4.2402702    4.2402702    4.2402702   -5109.8605    12304.724   -25326.585   -2307.7199     9944.619   -475.42608   -1026.1254      76.2396 
   49000    459.74778   -119.36381   0.41598946   -118.94782   -5750.2982    4.2427098    4.2427098    4.2427098   -5750.2982    8672.9512   -21082.972   -4840.8739   -1123.6037    71.605971    1892.0982    76.371263 
   49100    550.57195   -119.44453   0.49816907   -118.94636    10238.836    4.2361693    4.2361693    4.2361693    10238.836    16253.196    17742.531   -3279.2177   -13436.738   -1971.3886    857.33184    76.018612 
   49200    662.76046   -119.54462   0.59967959   -118.94494    -3926.809    4.2394395    4.2394395    4.2394395    -3926.809    10027.316   -9669.4016   -12138.341   -2447.1708   -473.19502    389.43992    76.194798 
   49300    323.04908   -119.23917    0.2923016   -118.94687    13140.278    4.2397693    4.2397693    4.2397693    13140.278    27659.011    12834.006   -1072.1818    2725.8027    2730.6364    758.84479    76.212581 
   49400    567.26802   -119.46029   0.51327603   -118.94701   -5611.4639    4.2365949    4.2365949    4.2365949   -5611.4639   -3803.2956   -10962.371    -2068.725   -956.06032   -1171.9074    2547.1378    76.041522 
   49500    412.71985   -119.32083    0.3734376    -118.9474    5259.2281    4.2401168    4.2401168    4.2401168    5259.2281    6560.3095    16092.398   -6875.0237   -14664.362    2040.9597    2550.4677    76.231325 
   49600     607.3651   -119.49399   0.54955671   -118.94443   -9691.2634    4.2406659    4.2406659    4.2406659   -9691.2634    4153.5028   -21862.434   -11364.859   -3479.1021    1106.2687    796.82378    76.260946 
   49700     469.9875   -119.37187   0.42525457   -118.94662    -1670.649    4.2393127    4.2393127    4.2393127    -1670.649    404.35298    2383.1488   -7799.4486    11483.742    707.08116    759.88765    76.187963 
   49800    613.86277    -119.5026   0.55543593   -118.94717   -6519.4503    4.2410788    4.2410788    4.2410788   -6519.4503    7268.7933   -15191.395   -11635.749    7134.4654   -1652.9063    1575.0503    76.283221 
   49900    239.89171   -119.16512   0.21705906   -118.94806   -3373.1194    4.2418731    4.2418731    4.2418731   -3373.1194    25576.128   -31499.102   -4196.3845    -9547.991   -12.285281    1227.1251    76.326089 
   50000    636.72968   -119.52127    0.5761264   -118.94514   -5746.7399    4.2373461    4.2373461    4.2373461   -5746.7399   -1024.3177   -10887.774   -5328.1278   -8529.9879   -825.27785   -1414.0389    76.081982 
   50100     609.8141   -119.49933   0.55177261   -118.94755     7373.781    4.2383219    4.2383219    4.2383219     7373.781    14594.113    17135.249   -9608.0186   -2174.9419   -914.05063    -3132.985    76.134553 
   50200    512.91663   -119.41093   0.46409774   -118.94684   -7678.3052    4.2424659    4.2424659    4.2424659   -7678.3052    3141.2061   -15015.751   -11160.371    2006.1932    1231.8462   -1606.5494    76.358095 
   50300    241.75547   -119.16607   0.21874543   -118.94732    16212.913    4.2343079    4.2343079    4.2343079    16212.913    16317.711    17452.203    14868.826   -13059.784   -2860.4108   -607.46704    75.918446 
   50400     679.6723   -119.56175   0.61498178   -118.94677   -4377.8657    4.2400651    4.2400651    4.2400651   -4377.8657   -326.08123   -4153.4348   -8654.0812    -13695.68    3379.0325   -3225.2511    76.228534 
   50500     627.5133   -119.51288   0.56778722   -118.94509    2163.2949    4.2434263    4.2434263    4.2434263    2163.2949    1782.8429    23119.668   -18412.626    3486.3534   -477.14082   -3828.6141    76.409962 
   50600    419.34484   -119.32423   0.37943203    -118.9448   -4369.4132    4.2345815    4.2345815    4.2345815   -4369.4132    15277.949   -26141.599   -2244.5897    9042.4497   -20.720204   -3274.4777    75.933161 
   50700    393.40309   -119.30494   0.35595939   -118.94898   -9016.4473    4.2428891    4.2428891    4.2428891   -9016.4473    11375.547   -28979.315   -9445.5741     1335.219    740.91535   -239.76408    76.380947 
   50800    606.97075   -119.49724   0.54919989   -118.94804   -6097.3136    4.2437482    4.2437482    4.2437482   -6097.3136    7063.2874   -10709.478    -14645.75   -6483.8431   -112.04961    26.703421    76.427356 
   50900    505.42958   -119.40256   0.45732331   -118.94523   -2339.3003    4.2325834    4.2325834    4.2325834   -2339.3003    16176.121   -17657.591   -5536.4306   -4344.2411     139.5537     -5909.13    75.825724 
   51000    481.14118    -119.3822   0.43534665   -118.94685    992.22639    4.2427153    4.2427153    4.2427153    992.22639    19283.876   -3730.1859   -12577.011    3643.8601    343.40713   -1186.4362     76.37156 
   51100    594.00993   -119.48554   0.53747266   -118.94807   -1549.7652    4.2406924    4.2406924    4.2406924   -1549.7652   -915.12923    6627.5784   -10361.745    -7473.837   -1044.7196    3870.1828    76.262374 
   51200     412.7881    -119.3217   0.37349935    -118.9482    10735.986    4.2310771    4.2310771    4.2310771    10735.986    21866.632    3592.2334     6749.092    -11360.59    474.60404    3704.9714    75.744796 
   51300    375.17647    -119.2858   0.33946756   -118.94634   -916.08931    4.2453765    4.2453765    4.2453765   -916.08931    8207.1455   -1240.2333   -9715.1801   -7764.3691   -74.751159   -377.91036     76.51536 
   51400    690.12445   -119.56967   0.62443911   -118.94524   -1304.9885    4.2374543    4.2374543    4.2374543   -1304.9885    14297.074   -7815.3684   -10396.671    688.04306    503.93361   -793.20853    76.087812 
   51500    623.06862   -119.50935   0.56376558   -118.94558    6858.6736    4.2348203    4.2348203    4.2348203    6858.6736     19369.34    9229.6155   -8022.9344    3862.2905    1452.0926    5083.9752    75.946009 
   51600    342.04584     -119.257   0.30949027   -118.94751   -11307.715    4.2453992    4.2453992    4.2453992   -11307.715    14202.714   -38945.315   -9180.5449   -5812.5173   -1998.6044    4071.5911    76.516586 
   51700    325.10617   -119.24232    0.2941629   -118.94815   -3267.2154    4.2382266    4.2382266    4.2382266   -3267.2154    16738.826   -33195.452    6654.9798   -4268.8035    1796.4052   -2949.9627    76.129421 
   51800     747.2761   -119.62228   0.67615112   -118.94613   -6320.0097    4.2378179    4.2378179    4.2378179   -6320.0097    475.97744   -3656.9938   -15779.013    4659.2604   -3325.1786   -6005.4742    76.107396 
   51900    535.87814    -119.4308    0.4848738   -118.94593   -7237.1042    4.2428775    4.2428775    4.2428775   -7237.1042    9014.9359   -13393.935   -17332.313   -3051.7929   -392.04043    519.41078    76.380319 
   52000    441.78658   -119.34603   0.39973778    -118.9463    -5360.816    4.2387277    4.2387277    4.2387277    -5360.816     1603.341   -22280.271    4594.4825   -6253.0835    939.94461    1497.7931    76.156423 
   52100     391.0469   -119.30289   0.35382745   -118.94907    11919.451    4.2362277    4.2362277    4.2362277    11919.451    25113.052    7553.1534    3092.1463   -11979.955   -5113.5197   -5032.9745    76.021752 
   52200    612.73923   -119.50229   0.55441934   -118.94787   -1473.3912     4.242005     4.242005     4.242005   -1473.3912    14934.744   -355.81156   -18999.106   -4025.9314     3092.675    -5427.343    76.333209 
   52300    448.69769   -119.35095    0.4059911   -118.94496    12608.995    4.2360744    4.2360744    4.2360744    12608.995    25038.685    13303.337   -515.03744    2416.4189   -743.72623   -3709.2512    76.013502 
   52400    589.35919   -119.47903   0.53326458   -118.94577   -608.72975     4.236328     4.236328     4.236328   -608.72975     13898.52   -10523.571   -5201.1378   -7245.5292   -1101.0534    3738.1696    76.027156 
   52500      546.204   -119.44383   0.49421686   -118.94961   -4398.8615    4.2431829    4.2431829    4.2431829   -4398.8615    6001.0702   -6737.6221   -12460.033   -3572.7717    4409.2864   -991.64701    76.396818 
   52600    365.94982   -119.28136   0.33111909   -118.95024   -4800.0407     4.236194     4.236194     4.236194   -4800.0407     11427.17   -22818.037   -3009.2543    268.16801    -424.3697   -8559.3257    76.019941 
   52700    440.05279   -119.34568   0.39816902   -118.94752   -9204.8006    4.2393365    4.2393365    4.2393365   -9204.8006    7864.2851   -33240.669   -2238.0181    4794.2623    4694.1951   -615.58203    76.189248 
   52800    688.87956   -119.56903   0.62331271   -118.94572   -8569.3871    4.2457962    4.2457962    4.2457962   -8569.3871    4444.8961   -10610.837   -19542.221   -1312.3494    4274.1184    676.84104    76.538055 
   52900    624.14135   -119.51084   0.56473621    -118.9461     5352.684    4.2323686    4.2323686    4.2323686     5352.684    21042.179   -2866.8905    -2117.237   -11509.249   -4334.3927    1175.0002    75.814182 
   53000    266.31784   -119.19042   0.24096998   -118.94945    711.54713    4.2434192    4.2434192    4.2434192    711.54713    26054.567   -25537.849    1617.9229   -5277.7274    1107.5919   -3866.9889    76.409579 
   53100    414.11088   -119.32136   0.37469623   -118.94666    118.60893    4.2416148    4.2416148    4.2416148    118.60893    11398.591   -5101.2472   -5941.5167    2769.3485   -1117.0506   -1129.2574    76.312146 
   53200    702.34807   -119.58139    0.6354993   -118.94589    9292.7017    4.2297719    4.2297719    4.2297719    9292.7017      17523.7    13031.962   -2677.5569    2404.8826   -4614.8861    3270.2519    75.674726 
   53300    596.43595   -119.48551   0.53966778   -118.94584    -4129.838    4.2440773    4.2440773    4.2440773    -4129.838   -1869.5298    7157.2317   -17677.216   -1675.6389    2619.5114    1269.8046    76.445136 
   53400    319.93868    -119.2387   0.28948724   -118.94921    1710.9079    4.2388929    4.2388929    4.2388929    1710.9079    25577.069   -18376.417   -2067.9277    1731.2601   -5403.5006   -3550.9885    76.165329 
   53500    478.53381   -119.38245   0.43298745   -118.94946    2584.4371    4.2327629    4.2327629    4.2327629    2584.4371    16203.628   -8307.9516   -142.36461    9386.9005    1892.2228   -6182.4201    75.835374 
   53600    572.07862   -119.46667   0.51762876   -118.94904    -6659.701    4.2455287    4.2455287    4.2455287    -6659.701    11609.001   -14887.965   -16700.139    5057.2843   -1573.1853     1208.531    76.523589 
   53700    469.71634   -119.37098   0.42500922   -118.94597   -11642.684    4.2400725    4.2400725    4.2400725   -11642.684    5633.5387   -30417.915   -10143.677    1273.1376   -2709.4922     1364.384    76.228936 
   53800     589.7934   -119.48022   0.53365746   -118.94656   -4827.2143    4.2351348    4.2351348    4.2351348   -4827.2143    8004.8775   -9048.3655   -13438.155   -4484.9784    287.52892    -6337.493    75.962933 
   53900    494.67973   -119.39807   0.44759661   -118.95048   -5438.1049    4.2432022    4.2432022    4.2432022   -5438.1049    746.21653   -7003.3048   -10057.226   -3161.3541   -2940.2994   -6944.6353    76.397857 
   54000     363.1841   -119.27676    0.3286166   -118.94814   -4994.2388    4.2404434    4.2404434    4.2404434   -4994.2388    -1168.491    -12847.38   -966.84563    5672.7309   -361.09685   -302.20647    76.248941 
   54100    513.32225   -119.41024   0.46446476   -118.94578        16345    4.2322198    4.2322198    4.2322198        16345    24958.856    16747.326    7328.8195   -5073.6008    -933.0978    1242.6566    75.806183 
   54200    771.94513   -119.64538   0.69847217   -118.94691   -256.72154    4.2423816    4.2423816    4.2423816   -256.72154    2619.8105    18616.256   -22006.231   -4958.9936   -2260.6577   -4377.9665    76.353544 
   54300    375.76745   -119.28789   0.34000229   -118.94789    11607.781    4.2403788    4.2403788    4.2403788    11607.781    22258.742    13925.367   -1360.7664    4624.8281    300.85995   -8196.0227    76.245455 
   54400    329.61887   -119.24555   0.29824608    -118.9473    2700.0015    4.2313445    4.2313445    4.2313445    2700.0015     20822.48   -17206.871    4484.3949    3835.7423   -1252.5497   -4270.7782     75.75916 
   54500     620.5448   -119.50844   0.56148197   -118.94696   -10362.298    4.2479939    4.2479939    4.2479939   -10362.298    2747.3116   -14727.048   -19107.156     7631.581   -1273.8617    482.04558     76.65697 
   54600    628.10609   -119.51392   0.56832359   -118.94559   -8579.0166    4.2386143    4.2386143    4.2386143   -8579.0166   -922.02561    -9396.285   -15418.739    2428.1014    1673.3381    809.61459    76.150316 
   54700    367.64596   -119.27967   0.33265379   -118.94701   -7619.6766    4.2351204    4.2351204    4.2351204   -7619.6766    11857.737   -24799.502   -9917.2642    565.89934   -2907.0999   -10444.993    75.962159 
   54800    436.08288   -119.34222   0.39457695   -118.94764    -2985.073    4.2470597    4.2470597    4.2470597    -2985.073    12485.073   -3956.9353   -17483.356    10250.841    2814.1106    247.30754    76.606407 
   54900    594.46156   -119.48516   0.53788131   -118.94727   -1391.5897     4.234068     4.234068     4.234068   -1391.5897    -1613.151     67.47449   -2629.0926   -1083.9178   -328.97497    2873.5444    75.905543 
   55000     406.3745   -119.31501   0.36769619   -118.94732    14398.485    4.2345785    4.2345785    4.2345785    14398.485    25174.334    20791.397   -2770.2777   -9514.8268    3453.7442    2180.0549    75.933003 
   55100    598.62928   -119.48751   0.54165236   -118.94586   -10135.989    4.2482013    4.2482013    4.2482013   -10135.989   -124.58069   -5522.1722   -24761.215   -1882.3935    3682.0176   -2952.9894      76.6682 
   55200    483.62243   -119.38511   0.43759174   -118.94752    16370.907    4.2292211    4.2292211    4.2292211    16370.907    28996.213    10062.049    10054.459    3603.2732    3625.2452   -1455.9202    75.645162 
   55300    423.34158   -119.32983   0.38304836   -118.94678   -3449.5686    4.2434661    4.2434661    4.2434661   -3449.5686      5520.95   -10723.098   -5146.5576     5489.805    2367.9246    4176.1009    76.412113 
   55400    379.44527   -119.28968   0.34333006   -118.94635   -6586.3416    4.2459437    4.2459437    4.2459437   -6586.3416    22477.695    -25046.71    -17190.01   -5598.7089    296.10987    1172.8255    76.546031 
   55500     721.6173   -119.59547    0.6529345   -118.94253    3264.2069    4.2312874    4.2312874    4.2312874    3264.2069    16257.976   -6004.1864   -461.16861     -5520.03    476.84486   -1881.4408    75.756095 
   55600    437.42954   -119.34119   0.39579544   -118.94539   -9437.3876     4.246434     4.246434     4.246434   -9437.3876   -3934.0153   -5631.2477     -18746.9    5016.2923   -864.74677   -4563.7304    76.572552 
   55700    433.13286   -119.33616   0.39190772   -118.94425   -10677.699    4.2410985    4.2410985    4.2410985   -10677.699   -7000.7654   -21006.104   -4026.2265    4171.1219   -2000.6897    1511.7873    76.284287 
   55800    441.32113   -119.34566   0.39931663   -118.94634    9310.3202    4.2310783    4.2310783    4.2310783    9310.3202    13935.574    9439.0946    4556.2918   -3166.8857   -3931.8058   -97.283717    75.744862 
   55900    634.91524   -119.52132   0.57448465   -118.94684   -4801.1339    4.2430905    4.2430905    4.2430905   -4801.1339    2956.6034    1940.5996   -19300.605   -9561.3792   -1174.8686    -5324.804    76.391827 
   56000    395.10879   -119.30521   0.35750274    -118.9477     10298.96    4.2389037    4.2389037    4.2389037     10298.96    22501.973    18874.146    -10479.24    1192.5654    -1060.263   -5970.8256    76.165913 
   56100    549.62753   -119.44351   0.49731454    -118.9462    10689.398    4.2303583    4.2303583    4.2303583    10689.398    30979.271   -2693.6921    3782.6161    6909.2347   -832.19441   -1756.9782    75.706203 
   56200    545.55745    -119.4405   0.49363184   -118.94687    -5376.242    4.2485344    4.2485344    4.2485344    -5376.242     16149.19    -16253.67   -16024.246    1182.9977   -6042.8679    1558.9869    76.686234 
   56300     463.1922   -119.36519   0.41910604   -118.94608   -2576.5312    4.2356381    4.2356381    4.2356381   -2576.5312   -4385.7634    892.08873   -4235.9188   -4032.7326    270.48267   -6715.0942    75.990016 
   56400    341.23502   -119.25527   0.30875662   -118.94651   -8949.0503    4.2375609    4.2375609    4.2375609   -8949.0503     1989.122   -21250.617   -7585.6554   -5037.5124    1821.0492   -4748.9162    76.093551 
   56500    639.56328   -119.52309   0.57869029    -118.9444   -15812.404    4.2475976    4.2475976    4.2475976   -15812.404   -11064.949    -22627.59   -13744.673    7576.7268    -1251.119   -1636.3753    76.635517 
   56600    579.87124   -119.46875   0.52467969   -118.94407    -64.94448     4.236531     4.236531     4.236531    -64.94448   -5910.5628     9276.884   -3561.1546    3315.1296    1410.8644    869.75254    76.038086 
   56700    448.21299   -119.35161   0.40555254   -118.94605     4832.812    4.2340997    4.2340997    4.2340997     4832.812    17706.441   -11245.084     8037.079   -8205.5225   -507.58424    919.89033    75.907249 
   56800    337.82712   -119.25357   0.30567308   -118.94789    8945.2438    4.2477391    4.2477391    4.2477391    8945.2438    23501.718    12224.198   -8890.1845   -8212.4379    4613.1631   -5061.5315    76.643175 
   56900    656.53998   -119.54129   0.59405117   -118.94724    8527.2514     4.232272     4.232272     4.232272    8527.2514    17475.796    9634.7252   -1528.7666   -107.50017    6656.5031   -731.59362    75.808988 
   57000    526.04252   -119.42316   0.47597433   -118.94719    12500.803    4.2326592    4.2326592    4.2326592    12500.803    11235.907    18839.257    7427.2436    -570.1848    778.30869    3982.5943    75.829801 
   57100    498.08317    -119.3953   0.45067612   -118.94462   -21862.734    4.2539419    4.2539419    4.2539419   -21862.734   -14126.948   -30528.505   -20932.749    3127.5178    3275.4092    2791.6327    76.979425 
   57200    378.66171   -119.28889   0.34262107   -118.94627    2023.5159    4.2281845    4.2281845    4.2281845    2023.5159    4721.8951    -1923.247    3271.8997   -12014.068    3041.9201   -5085.3839    75.589554 
   57300    541.47483   -119.43792   0.48993781   -118.94799   -14479.093    4.2422497    4.2422497    4.2422497   -14479.093   -21080.233     1428.304   -23785.348   -716.26483    3251.3032   -4948.1447    76.346422 
   57400    479.61453   -119.37777    0.4339653    -118.9438   -13577.059    4.2499536    4.2499536    4.2499536   -13577.059   -10546.768    -9688.164   -20496.244    4791.1216    2925.4621   -445.40038    76.763111 
   57500    629.30487   -119.51137   0.56940827   -118.94196    6454.9623    4.2287095    4.2287095    4.2287095    6454.9623    11406.368   -1479.0233    9437.5422   -4995.2201   -4046.7677    3400.9368    75.617718 
   57600     399.0742    -119.3102   0.36109072   -118.94911    11055.732    4.2411966    4.2411966    4.2411966    11055.732        16759    22057.881    -5649.686   -5010.7316    264.15871   -4665.0912    76.289578 
   57700    455.09872   -119.35886   0.41178289   -118.94708   -3564.6269    4.2461435    4.2461435    4.2461435   -3564.6269     1563.158   -466.06013   -11790.979   -4162.4879    4142.5474   -7028.9819    76.556841 
   57800    457.75851   -119.35831   0.41418952   -118.94412    20790.436    4.2262335    4.2262335    4.2262335    20790.436    22097.535     24566.86    15706.914   -4215.0812    1626.7496    1091.4128    75.484964 
   57900    707.54573   -119.58559   0.64020224   -118.94539   -9778.1317    4.2437792    4.2437792    4.2437792   -9778.1317   -2704.6301   -15608.308   -11021.457    3413.4892    54.119877    3473.8189    76.429029 
   58000     444.8502   -119.35065   0.40250981   -118.94814   -2959.6763    4.2446001    4.2446001    4.2446001   -2959.6763   -9442.5737    7782.7492   -7219.2045   -7148.7625    237.46559    1871.1686    76.473391 
   58100    376.76513    -119.2864   0.34090501   -118.94549   -1188.7174    4.2288493    4.2288493    4.2288493   -1188.7174    2232.2538   -14152.331    8353.9245   -8107.8769    7182.9747   -6341.8148    75.625217 
   58200    468.20424   -119.37003   0.42364103   -118.94639   -14547.569    4.2480258    4.2480258    4.2480258   -14547.569   -10641.471   -14553.656   -18447.581    701.10074    8261.7273   -2016.0607    76.658697 
   58300    688.05359   -119.56647   0.62256535    -118.9439   -3538.8782    4.2414265    4.2414265    4.2414265   -3538.8782   -4418.9089    9559.7641    -15757.49   -4412.7983    75.262038    10622.641    76.301986 
   58400    521.88563   -119.41769   0.47221309   -118.94548    410.87829    4.2318587    4.2318587    4.2318587    410.87829    8821.1341   -8199.7322    611.23301    3608.4305   -214.96281    4260.9197    75.786786 
   58500    397.59083   -119.30734   0.35974854   -118.94759    5172.9809    4.2419369    4.2419369    4.2419369    5172.9809    15935.045    3914.4837   -4330.5859   -176.51977    5337.1726   -3004.1999    76.329536 
   58600    504.85049   -119.40377   0.45679933   -118.94697   -3410.5762    4.2429594    4.2429594    4.2429594   -3410.5762    1999.7961    7038.3102   -19269.835   -3263.4056    6650.2054   -5898.2133    76.384746 
   58700    528.35852   -119.42487   0.47806989    -118.9468    8116.4625    4.2288407    4.2288407    4.2288407    8116.4625     9230.597    19636.651   -4517.8606    2174.8145   -940.87332    2814.3233    75.624756 
   58800     534.6278   -119.43004   0.48374247    -118.9463   -3299.1887    4.2435962    4.2435962    4.2435962   -3299.1887    4523.2677   -5377.6724   -9043.1615   -2317.1843   -4798.1355    6089.5326    76.419142 
   58900     481.9238   -119.38286   0.43605478    -118.9468   -10912.297    4.2449389    4.2449389    4.2449389   -10912.297   -9903.7321   -15020.142   -7813.0181   -1975.3635    1663.2468   -5755.9683    76.491704 
   59000    525.29721   -119.41937   0.47529995   -118.94407    8708.4251    4.2294415    4.2294415    4.2294415    8708.4251    772.62144    24874.693    477.96054   -2167.7805    5783.5371   -5519.9187    75.656993 
   59100    375.24654   -119.28608   0.33953095   -118.94655   -9006.2948    4.2476582    4.2476582    4.2476582   -9006.2948   -3752.8607    1490.9856   -24757.009   -5163.6534    239.97455    4394.6657    76.638799 
   59200    565.53371   -119.45586   0.51170678   -118.94416   -5324.4551    4.2409525    4.2409525    4.2409525   -5324.4551     753.4664   -15342.417   -1384.4149    1131.7712   -5968.5897     4323.856    76.276408 
   59300     541.3744   -119.43405   0.48984694    -118.9442    9068.7447    4.2323769    4.2323769    4.2323769    9068.7447    3187.2096    27522.578   -3503.5534    2746.3603   -1099.6017    4223.5782    75.814626 
   59400    575.31707   -119.46573   0.52055898   -118.94517   -14041.043     4.244186     4.244186     4.244186   -14041.043    -5292.931   -8424.3706   -28405.826   -3573.9062    6698.6502   -2524.4552    76.451012 
   59500    320.76048     -119.237   0.29023082   -118.94677    8264.3452    4.2385095    4.2385095    4.2385095    8264.3452    15596.065    11999.874   -2802.9031    2980.9292    839.00753    321.64807    76.144663 
   59600    559.19852   -119.45138   0.50597457   -118.94541   -1439.5464    4.2339416    4.2339416    4.2339416   -1439.5464    5914.7582     3573.311   -13806.708   -99.802339   -7315.1544    12458.371    75.898742 
   59700    490.10961   -119.38913   0.44346147   -118.94567    3014.7705    4.2440097    4.2440097    4.2440097    3014.7705     1884.046    29987.665     -22827.4    6577.9311   -723.29181    3227.0591    76.441483 
   59800    549.43029   -119.44125   0.49713607   -118.94412    853.59935     4.238465     4.238465     4.238465    853.59935    3766.1774   -6072.0323    4866.6529    6443.2503    4475.6678    2091.1848    76.142269 
   59900    443.54462   -119.34698   0.40132849   -118.94565    158.61306    4.2383399    4.2383399    4.2383399    158.61306   -2148.2997    8612.5979    -5988.459   -3354.7702    4954.1203    899.00487    76.135527 
   60000    512.77571   -119.41062   0.46397023   -118.94665   -1742.5432    4.2414452    4.2414452    4.2414452   -1742.5432   -556.43624    13439.011   -18110.204    4181.0635   -2340.4241    7478.3476    76.302993 
   60100    351.28026   -119.26475   0.31784576    -118.9469   -2771.0344    4.2396723    4.2396723    4.2396723   -2771.0344    6789.3364    -8076.848   -7025.5915    932.79771   -3465.2294     8633.619    76.207351 
   60200    617.19947   -119.50303   0.55845505   -118.94458   -733.59845    4.2363149    4.2363149    4.2363149   -733.59845   -4174.0614    3187.2636   -1213.9976   -3613.6707    3832.7855    -5066.721    76.026451 
   60300    617.32698   -119.50465   0.55857042   -118.94608     3772.218    4.2389834    4.2389834    4.2389834     3772.218    1765.5985    16696.628   -7145.5726     950.1162    1437.8283   -3105.7109    76.170208 
   60400    452.39328    -119.3561   0.40933495   -118.94676   -3100.1632    4.2401695    4.2401695    4.2401695   -3100.1632    11315.682    7022.4635   -27638.635   -7054.1764   -3111.2305    6056.3691    76.234164 
   60500    301.27552    -119.2196   0.27260042     -118.947    8975.5428    4.2343317    4.2343317    4.2343317    8975.5428    7392.9399    34173.921   -14640.233    -1578.611   -10275.031    612.67636    75.919724 
   60600    558.46788   -119.45304   0.50531347   -118.94773   -6381.7536    4.2418365    4.2418365    4.2418365   -6381.7536   -2017.8057    -2283.049   -14844.406    2503.4245   -1348.1266   -3152.2789    76.324114 
   60700    693.17266   -119.57189   0.62719719   -118.94469   -3857.3085    4.2388881    4.2388881    4.2388881   -3857.3085   -2016.1491    7329.2621   -16885.039   -8529.8644    2579.4706   -9316.4758    76.165072 
   60800    351.85242   -119.26371   0.31836347   -118.94535   -5550.7314    4.2400298    4.2400298    4.2400298   -5550.7314   -2675.2658    3571.8658   -17548.794    1699.6257   -7287.1324    4585.1656    76.226632 
   60900    478.78366   -119.38041   0.43321352   -118.94719   -6441.2852    4.2381584    4.2381584    4.2381584   -6441.2852   -1677.6636    -7887.655   -9758.5371   -2046.6366    -3660.105    8987.9409    76.125743 
   61000    468.11306   -119.37176   0.42355853    -118.9482    3023.7915    4.2410969    4.2410969    4.2410969    3023.7915    3146.1378    14215.239   -8290.0023   -2318.2079   -1608.8283    -648.7902    76.284196 
   61100      584.258   -119.47255   0.52864892    -118.9439   -2671.8702    4.2384712    4.2384712    4.2384712   -2671.8702   -1940.5423    2790.6732   -8865.7414    7950.5525    3236.9809   -761.15478      76.1426 
   61200    504.74363   -119.40158   0.45670264   -118.94488    12571.063    4.2342681    4.2342681    4.2342681    12571.063    9770.0586    17977.309    9965.8216    22.132525    796.82213    5394.9492    75.916305 
   61300    558.47811   -119.45228   0.50532273   -118.94695    1414.4604    4.2414715    4.2414715    4.2414715    1414.4604    3685.5502     4753.231   -4195.3999   -1542.3013   -6524.2473    10655.768    76.304414 
   61400    431.81283   -119.33722   0.39071332    -118.9465    3980.0094     4.238704     4.238704     4.238704    3980.0094    6933.2674    26649.921    -21643.16    5598.9569    -2926.215    2053.1718    76.155146 
   61500    428.26943   -119.33292   0.38750718   -118.94542    -4562.261    4.2366697    4.2366697    4.2366697    -4562.261    9238.1265   -10092.364   -12832.546   -1588.2599    -1665.782   -10464.212    76.045555 
   61600    613.83711   -119.50038   0.55541272   -118.94496   -10517.587    4.2432316    4.2432316    4.2432316   -10517.587   -788.81901   -19365.627   -11398.316    5828.6001   -698.69568   -3845.7981    76.399446 
   61700    600.49121   -119.48838   0.54333707   -118.94505   -12255.769    4.2414309    4.2414309    4.2414309   -12255.769   -21426.768    7290.5084   -22631.046    1939.4564   -7396.2858    2639.2513    76.302221 
   61800    352.47571   -119.26452   0.31892743    -118.9456    -1918.224    4.2351926    4.2351926    4.2351926    -1918.224    3120.0476    3893.0009   -12767.721   -5423.8989   -8463.3975   -2724.8194    75.966043 
   61900    476.09184   -119.37615   0.43077791   -118.94538    -2941.053    4.2450852    4.2450852    4.2450852    -2941.053   -11.266403     3776.803   -12588.696    6386.6039    1646.6875    -4198.394     76.49961 
   62000    597.46185   -119.48508   0.54059604   -118.94448    6584.8199    4.2358411    4.2358411    4.2358411    6584.8199   -11652.913    23993.728    7413.6445   -3475.6883    727.88838   -6247.9224    76.000944 
   62100    481.84101   -119.38089   0.43597987   -118.94491     13449.04    4.2344536    4.2344536    4.2344536     13449.04    5677.0082    18603.957    16066.155   -4388.1179   -3924.1489    6423.1647    75.926285 
   62200    455.22608   -119.35739   0.41189813   -118.94549     -2597.64    4.2445352    4.2445352    4.2445352     -2597.64   -3222.1693     4286.668   -8857.4188   -1806.1504   -3119.9505    5745.6455     76.46988 
   62300    495.59129    -119.3959   0.44842141   -118.94748    5034.4673    4.2337009    4.2337009    4.2337009    5034.4673    12317.072   -6030.3784    8816.7083   -3814.2174    1508.7165    1885.9399    75.885799 
   62400    557.79238   -119.45026   0.50470226   -118.94556   -3797.3145    4.2383315    4.2383315    4.2383315   -3797.3145   -6462.3802    -926.7551   -4002.8082    2135.5442    3164.6638   -1804.5759    76.135074 
   62500    425.36523   -119.33069    0.3848794   -118.94581   -12530.702    4.2456748    4.2456748    4.2456748   -12530.702   -14529.585   -8502.4341   -14560.086   -346.10741    2371.1099   -1342.0662    76.531489 
   62600    585.86855   -119.47507   0.53010617   -118.94496   -1058.2896    4.2354139    4.2354139    4.2354139   -1058.2896   -2461.3036    1095.8215   -1809.3865   -7432.4733   -3624.6761    7114.9981    75.977952 
   62700    448.37777   -119.35261   0.40570163   -118.94691   -2178.9268     4.239005     4.239005     4.239005   -2178.9268   -13980.305     17633.82   -10190.296    2565.1788   -3790.9633    2357.6951    76.171376 
   62800    470.67957   -119.37026   0.42588076   -118.94438   -6976.3158    4.2443704    4.2443704    4.2443704   -6976.3158   -12270.945    7141.0582   -15799.061    3051.8664    4036.1328   -10091.599    76.460973 
   62900    576.92939   -119.46628   0.52201784   -118.94426    7116.6564    4.2350603    4.2350603    4.2350603    7116.6564   -1119.1106    16834.437    5634.6425   -3802.6102     1664.698   -1994.4341    75.958921 
   63000    522.41354   -119.41917   0.47269075   -118.94648   -206.01865    4.2365551    4.2365551    4.2365551   -206.01865   -20067.464    9202.9423    10246.466    1808.6691    -2572.088    1348.7329    76.039383 
   63100    339.33773   -119.25282   0.30703991   -118.94578    3677.3274    4.2443134    4.2443134    4.2443134    3677.3274   -3244.0264    10165.853    4110.1554   -1790.2525   -311.75576    3200.2223    76.457895 
   63200    507.92767   -119.40421   0.45958363   -118.94463    276.94389    4.2368102    4.2368102    4.2368102    276.94389    10433.466   -2966.4855   -6636.1486   -1495.9516    1189.2968    3450.8237    76.053119 
   63300    697.96863   -119.57597   0.63153669   -118.94444     4470.225    4.2347155    4.2347155    4.2347155     4470.225   -597.58523   -485.31396    14493.574    3406.3046    1885.7265   -6800.7214    75.940374 
   63400    374.23249   -119.28468   0.33861342   -118.94606   -5398.5047     4.247115     4.247115     4.247115   -5398.5047   -15574.151   -5860.0435    5238.6801   -5596.9013    2538.0259     4092.252    76.609401 
   63500    328.17943   -119.24309   0.29694365   -118.94615   -2624.2762    4.2347055    4.2347055    4.2347055   -2624.2762   -6108.0187    3606.6945   -5371.5043   -2398.4987   -2711.3479    9865.3821    75.939832 
   63600    616.51204   -119.50433   0.55783305    -118.9465    4906.3359    4.2369343    4.2369343    4.2369343    4906.3359    3758.5469    904.45606    10056.005    271.04296   -4345.5799   -4340.5744    76.059801 
   63700    663.23983   -119.54364   0.60011333   -118.94353     -11136.7    4.2454026    4.2454026    4.2454026     -11136.7   -24827.404   -4311.3431   -4271.3536   -2340.1509     1600.804   -1974.5321    76.516774 
   63800    322.34352   -119.23604    0.2916632   -118.94438    1493.8824    4.2355859    4.2355859    4.2355859    1493.8824    -18669.53    9345.3895    13805.788   -197.29672   -2455.8298   -1878.7957    75.987208 
   63900    482.18929   -119.38348     0.436295   -118.94718   -51.031274    4.2355889    4.2355889    4.2355889   -51.031274   -6580.0682     12234.62   -5807.6458   -2637.0145   -5193.7485    1052.4057    75.987366 
   64000    553.73167   -119.44861   0.50102805   -118.94758    -3831.813    4.2456155    4.2456155    4.2456155    -3831.813   -15064.956     753.5191    2815.9982   -3543.4686   -2136.2364    7239.5674    76.528283 
   64100    536.96826   -119.43058   0.48586016   -118.94472    1982.0163    4.2346182    4.2346182    4.2346182    1982.0163   -5810.7431    11020.863    735.92932    2952.3625   -4317.0432   -4749.7585    75.935138 
   64200    475.41318   -119.37662   0.43016384   -118.94646    3145.0577    4.2371112    4.2371112    4.2371112    3145.0577    12400.826    2900.7345   -5866.3878    2430.5152    608.39331   -3043.0072    76.069328 
   64300    584.55618   -119.47562   0.52891872    -118.9467   -7389.5957    4.2470343    4.2470343    4.2470343   -7389.5957   -11349.572   -8534.6214   -2284.5942   -913.37357   -2357.8192    9045.9888    76.605036 
   64400    392.84966   -119.30096   0.35545863   -118.94551    5862.3395    4.2324502    4.2324502    4.2324502    5862.3395    13605.186   -1844.8061    5826.6383    2702.5735   -2944.8148    8248.2989    75.818566 
   64500    473.41019   -119.37206   0.42835149   -118.94371   -5182.8886    4.2402168    4.2402168    4.2402168   -5182.8886    -7100.008   -11703.168    3254.5104    4537.3572    3414.5426    2232.2763    76.236718 
   64600     702.5833   -119.57856   0.63571213   -118.94285   -6404.6805    4.2443102    4.2443102    4.2443102   -6404.6805    -11432.68   -12442.112    4660.7506    8035.7488   -265.77374    1567.2072     76.45772 
   64700    541.25973   -119.43432   0.48974318   -118.94458    2307.5719      4.23293      4.23293      4.23293    2307.5719   -543.34007    2218.5993    5247.4564    1551.8491    1670.0922    3942.1519    75.844356 
   64800    277.80406   -119.19764   0.25136295   -118.94627   -656.05226    4.2390298    4.2390298    4.2390298   -656.05226   -15937.623    6800.0711     7169.395   -3507.1083    -3594.754    11410.383    76.172713 
   64900    474.51756   -119.37398   0.42935346   -118.94463   -10061.276    4.2488874    4.2488874    4.2488874   -10061.276   -19762.149    2238.9606   -12660.639    5237.8687    332.24046    841.36018    76.705353 
   65000     747.5411   -119.61918    0.6763909   -118.94279    6996.2866    4.2299873    4.2299873    4.2299873    6996.2866     2564.346    2038.1265    16386.387    5377.5115    885.72217   -5379.8201    75.686287 
   65100    394.56973   -119.30412   0.35701498    -118.9471   -2443.0704    4.2406866    4.2406866    4.2406866   -2443.0704   -17669.028     6972.281    3367.5354   -2262.0102    70.865702    2692.4804    76.262058 
   65200    343.25043    -119.2548    0.3105802   -118.94422   -4834.9307    4.2478959    4.2478959    4.2478959   -4834.9307   -8813.2324   -398.98845   -5292.5711   -2994.5873    -1388.676    2106.8591    76.651666 
   65300    610.35298   -119.49573    0.5522602   -118.94347    10090.301     4.228808     4.228808     4.228808    10090.301     6690.591   -2787.4985    26367.811     2893.526    -2677.306    4017.6003    75.623002 
   65400    493.26774   -119.39272   0.44631902    -118.9464    1892.5027    4.2386098    4.2386098    4.2386098    1892.5027    1820.8104   -8439.1351    12295.833    7038.2181    1174.9486   -724.19557    76.150069 
   65500    384.80942    -119.2919   0.34818365   -118.94372   -4413.1199    4.2473779    4.2473779    4.2473779   -4413.1199   -8020.5329   -8371.6992    3152.8726    1367.9612   -268.04646   -1478.0128    76.623625 
   65600     623.1258   -119.50851   0.56381732    -118.9447    1450.1307    4.2301643    4.2301643    4.2301643    1450.1307    1253.6527    1686.3976    1410.3417   -7240.7191   -3011.8606     7900.565    75.695785 
   65700    525.40011   -119.42201   0.47539306   -118.94661    3607.5556    4.2380876    4.2380876    4.2380876    3607.5556   -1119.0948    3390.7799    8550.9818    4666.7783    556.98911    6810.9234    76.121928 
   65800    308.37315   -119.22485   0.27902251   -118.94583   -13719.704    4.2496311    4.2496311    4.2496311   -13719.704   -29185.399   -1412.7353   -10560.977    10375.512   -2616.0539   -721.69215    76.745637 
   65900    557.12916    -119.4471   0.50410218     -118.943    5120.7966    4.2306256    4.2306256    4.2306256    5120.7966    5465.8643    9631.2658    265.25987    287.12115    1204.0115    -2152.735    75.720553 
   66000     724.4606   -119.60135   0.65550717   -118.94585   -3073.7354    4.2415529    4.2415529    4.2415529   -3073.7354   -8013.1608    6647.4842   -7855.5296   -2156.9454    4545.0882    1394.7963    76.308804 
   66100    328.37352   -119.24132   0.29711926    -118.9442   -8134.8264    4.2457261    4.2457261    4.2457261   -8134.8264   -24146.034    6926.0236   -7184.4689    1206.4674   -3737.8598    4933.7277    76.534267 
   66200    332.34218   -119.24508   0.30071019   -118.94437    6526.8981    4.2324448    4.2324448    4.2324448    6526.8981    4588.9055   -5420.1349    20411.924    12689.383     792.6072   -832.04445    75.818277 
   66300     646.6804   -119.53147   0.58513002   -118.94634    543.07309    4.2384176    4.2384176    4.2384176    543.07309   -161.09411   -7915.4347    9705.7481    9149.3686    3326.2911   -6205.5237    76.139714 
   66400    592.99946   -119.47995   0.53655837    -118.9434   -8479.4676    4.2453658    4.2453658    4.2453658   -8479.4676   -6498.0907   -10609.894   -8330.4178   -10171.207   -962.15328   -3601.1443    76.514782 
   66500    315.30716   -119.22977   0.28529655   -118.94447    9309.8421    4.2320738    4.2320738    4.2320738    9309.8421     11176.51    3176.2974    13576.719    704.90386    2460.3242   -944.48194    75.798341 
   66600    562.84462    -119.4571   0.50927364   -118.94783   -2960.8552    4.2389007    4.2389007    4.2389007   -2960.8552   -14410.202    5664.4427   -136.80657    13408.617   -1056.5602   -2324.1992    76.165749 
   66700    484.35599   -119.38523   0.43825547   -118.94697    2245.1669    4.2454361    4.2454361    4.2454361    2245.1669    5355.0596    6447.4383   -5066.9971    7178.5203    612.44226    -5954.471    76.518586 
   66800    550.32182   -119.44044   0.49794275   -118.94249   -827.29475    4.2323148    4.2323148    4.2323148   -827.29475   -647.35039    5913.7911    -7748.325   -4092.1615    4477.6199    -2679.504    75.811288 
   66900    589.19823   -119.48038   0.53311894   -118.94726    1137.2353    4.2403132    4.2403132    4.2403132    1137.2353   -14967.882    22604.837   -4225.2489   -2033.2416   -4336.7213    2749.3551    76.241917 
   67000    518.69396   -119.41774    0.4693252   -118.94841    -5169.198      4.24446      4.24446      4.24446    -5169.198   -8293.6793   -4169.2873   -3044.6276    9816.1315   -3062.6845    2391.1769    76.465815 
   67100    243.82477   -119.16701   0.22061778   -118.94639    621.47581    4.2337267    4.2337267    4.2337267    621.47581   -8795.3603     2442.378    8217.4098    13462.486    978.92869    3224.2898     75.88719 
   67200    645.72906   -119.52907   0.58426922    -118.9448   -4934.8358    4.2395228    4.2395228    4.2395228   -4934.8358    -8607.564   -7897.9065    1700.9632    456.10991   -4740.6802    2249.9741    76.199288 
   67300    760.02002   -119.63277   0.68768208   -118.94509   -4886.4661    4.2418436    4.2418436    4.2418436   -4886.4661   -1980.7404   -7029.3687   -5649.2892   -7068.4764   -2406.5793    2293.9498    76.324497 
   67400    333.26217   -119.24847   0.30154262   -118.94693     1038.715    4.2347862    4.2347862    4.2347862     1038.715   -6847.1032   -737.04329    10700.291    13608.637   -5482.2144    4128.0555    75.944174 
   67500    269.32413   -119.19145   0.24369013   -118.94776    1689.4574    4.2391209    4.2391209    4.2391209    1689.4574   -7807.7699    6964.7664    5911.3757    13904.137   -5547.9482     1775.083    76.177622 
   67600    760.65476   -119.63404   0.68825641   -118.94578   -4204.5093    4.2417237    4.2417237    4.2417237   -4204.5093   -10178.599    520.23647    -2955.165   -492.03453   -2035.0732    2107.1327    76.318026 
   67700    620.27404    -119.5048   0.56123698   -118.94356    4476.7988     4.236836     4.236836     4.236836    4476.7988    9093.5617    4760.0023    -423.1677   -2443.6065   -3453.4162    1510.0257    76.054508 
   67800    314.68608   -119.23154   0.28473458   -118.94681   -1523.8969     4.238933     4.238933     4.238933   -1523.8969   -17406.219    12082.478    752.05091    9052.6168   -1965.2925   -3136.4454    76.167491 
   67900    360.99575   -119.27592   0.32663654   -118.94928   -1067.2752    4.2436151    4.2436151    4.2436151   -1067.2752    -12719.57     3150.927    6366.8171    9696.3797   -220.11407    3348.8955    76.420161 
   68000     636.2633   -119.52175    0.5757044   -118.94605    1116.9387    4.2340532    4.2340532    4.2340532    1116.9387   -2295.6987    8383.4645   -2736.9498    2288.2921   -137.86383    2535.6998    75.904744 
   68100    451.64628   -119.35304   0.40865904   -118.94439   -2941.1357    4.2422009    4.2422009    4.2422009   -2941.1357   -6515.7817    6454.5283   -8762.1535   -3018.9741    3482.9223   -3487.6282    76.343788 
   68200    568.62962   -119.46014   0.51450803   -118.94563   -290.41758    4.2398056    4.2398056    4.2398056   -290.41758   -9288.6834    3533.4093    4884.0213    8552.3815    2804.5244    3496.5742    76.214541 
   68300    486.93216   -119.38784   0.44058645   -118.94725    8467.7702    4.2341259    4.2341259    4.2341259    8467.7702   -3946.9532    11495.721    17854.543    15069.474    -841.3452   -2730.9742    75.908659 
   68400    390.60516   -119.29945   0.35342775   -118.94603   -3809.6728    4.2408283    4.2408283    4.2408283   -3809.6728   -12874.103   -5472.6206    6917.7051     3263.856    1572.5642    744.84453    76.269704 
   68500    519.23559   -119.41314   0.46981527   -118.94332   -3178.4682    4.2406124    4.2406124    4.2406124   -3178.4682   -1392.1132   -423.76698   -7719.5246   -6086.6155    2923.2269    101.23887    76.258055 
   68600    666.44991   -119.54746   0.60301789   -118.94444   -5303.0419    4.2379916    4.2379916    4.2379916   -5303.0419    -21916.46   -6622.5165    12629.851    10843.956    2574.7103   -8322.2588    76.116754 
   68700    425.24031   -119.32996   0.38476637   -118.94519   -2684.4379    4.2382722    4.2382722    4.2382722   -2684.4379   -3809.1493   -8561.6598    4317.4955     9525.706   -2972.3076    1579.6276    76.131877 
   68800    340.98566   -119.25269   0.30853099   -118.94416   -8964.6541    4.2454426    4.2454426    4.2454426   -8964.6541   -21971.095    12099.941   -17022.809   -1836.0099    154.03758   -204.61997    76.518934 
   68900    589.83785     -119.478   0.53369768   -118.94431    4490.8126    4.2317299    4.2317299    4.2317299    4490.8126   -14678.794    14528.785    13622.447   -3804.7266    2261.4339   -3148.8174    75.779865 
   69000    594.36251   -119.48427   0.53779169   -118.94647    2581.9144    4.2397155    4.2397155    4.2397155    2581.9144   -4699.0633    5978.3564    6466.4502      1808.89    1346.5112    2682.0928    76.209683 
   69100    383.08408   -119.29173   0.34662253   -118.94511    1674.0074    4.2434479    4.2434479    4.2434479    1674.0074   -5518.2622    13699.983   -3159.6989    9874.6606   -2150.7168   -1621.7408    76.411132 
   69200    544.87947   -119.43728    0.4930184   -118.94426    4961.7209     4.232286     4.232286     4.232286    4961.7209   -12840.611    11170.744    16555.029    273.11821   -2494.2146    1625.9723    75.809744 
   69300    550.05573    -119.4437   0.49770198     -118.946    992.22555    4.2420048    4.2420048    4.2420048    992.22555   -5726.5073    -5644.243    14347.427   -4892.8764    3633.9463    3919.6583    76.333199 
   69400     433.1003   -119.33658   0.39187825    -118.9447   -8862.2217    4.2420487    4.2420487    4.2420487   -8862.2217    -8282.039    -3263.669   -15040.957    873.61684    2862.3441   -4392.4315    76.335571 
   69500     479.6322   -119.37673    0.4339813   -118.94275   -3648.8118    4.2363797    4.2363797    4.2363797   -3648.8118   -6986.6629   -3883.6947   -76.077728    11026.024    96.211211    3207.3994    76.029937 
   69600    648.44975   -119.53088   0.58673096   -118.94415   -1262.4494    4.2381277    4.2381277    4.2381277   -1262.4494   -12748.523   -1975.8265    10937.002    75.347187    2699.6833   -779.74458    76.124093 
   69700    432.33663   -119.33687   0.39118726   -118.94569   -8817.6972    4.2437893    4.2437893    4.2437893   -8817.6972   -17435.119    6400.7794   -15418.752   -5208.1912    3620.3318   -3403.1858    76.429573 
   69800    283.43371   -119.20198   0.25645678   -118.94552    10304.391    4.2346081    4.2346081    4.2346081    10304.391   -4252.1379    30160.599    5004.7118   -1044.8298    2652.2761    3019.5261    75.934591 
   69900    655.76127   -119.53809   0.59334658   -118.94474   -4412.6621    4.2406991    4.2406991    4.2406991   -4412.6621   -23548.596    4278.0309    6032.5786    2631.1758    1557.1975   -3403.1882    76.262735 
   70000    575.47503   -119.46411    0.5207019   -118.94341    2412.2577     4.242368     4.242368     4.242368    2412.2577   -15501.563    21923.082    815.25427    2959.5139    317.55057    1857.2323     76.35281 
   70100    402.50352   -119.30919   0.36419364     -118.945   -1615.7744    4.2355312    4.2355312    4.2355312   -1615.7744   -3495.7474    1063.0403   -2414.6162   -9722.5488    2367.7824     4579.663    75.984261 
   70200    313.12209   -119.23105   0.28331945   -118.94773   -1698.2378    4.2399904    4.2399904    4.2399904   -1698.2378   -19188.177    3680.3101    10413.153    -4059.987    686.90031    1384.5789    76.224505 
   70300    713.66006   -119.59118   0.64573462   -118.94545   -5836.2707    4.2414396    4.2414396    4.2414396   -5836.2707   -12939.364   -5582.7169    1013.2685    2608.0835   -1654.5984    7973.9917    76.302692 
   70400    575.79147   -119.46556   0.52098822   -118.94457    2943.3712    4.2345246    4.2345246    4.2345246    2943.3712    9845.3278    774.51882   -1789.7331    713.68583    -926.9097    951.91711    75.930101 
   70500    488.72713   -119.38983   0.44221058   -118.94762    1106.0946    4.2394177    4.2394177    4.2394177    1106.0946   -1779.7041    6678.5665   -1580.5785   -6077.8575    1624.8027    258.27967    76.193622 
   70600    407.55835   -119.31612   0.36876736   -118.94735    1901.0076    4.2427263    4.2427263    4.2427263    1901.0076   -14883.305    14418.205    6168.1227   -2974.2733    600.63473    3481.3881    76.372153 
   70700    536.40405   -119.42964   0.48534966   -118.94429    4067.9432     4.233193     4.233193     4.233193    4067.9432    -8142.663    18337.876    2008.6172   -297.61773     1205.582   -1428.5732    75.858494 
   70800    580.69804   -119.46871   0.52542779   -118.94328    -4816.803    4.2430129    4.2430129    4.2430129    -4816.803   -2055.6622     1529.204   -13923.951    4691.4239   -1437.8369   -3031.4268    76.387633 
   70900    547.42437   -119.43952   0.49532108    -118.9442   -5481.1374    4.2422353    4.2422353    4.2422353   -5481.1374   -19129.525    2369.0579    317.05478    2098.7807    -1076.226   -3988.9519    76.345644 
   71000    346.90023   -119.25978   0.31388262   -118.94589    -1992.374    4.2347575    4.2347575    4.2347575    -1992.374    -17349.53    6400.8437    4971.5646   -5632.0521     2380.101   -4346.1646    75.942633 
   71100    396.48931    -119.3047   0.35875186   -118.94595   -4157.8731    4.2411521    4.2411521    4.2411521   -4157.8731   -15139.832    875.66898    1790.5438    4870.3341   -702.79371    322.53576    76.287175 
   71200    601.30007   -119.48747   0.54406894    -118.9434   -6120.4556    4.2451241    4.2451241    4.2451241   -6120.4556   -16059.978   -2362.6516    61.262507    4720.4071   -2012.6743    -3542.775    76.501714 
   71300    557.36711   -119.44756   0.50431748   -118.94324    7808.2174     4.231029     4.231029     4.231029    7808.2174   -7261.3296     13731.95    16954.032   -2686.8584    2494.7482   -3899.1941    75.742213 
   71400    342.90713    -119.2569   0.31026958   -118.94663    4666.7441    4.2438251    4.2438251    4.2438251    4666.7441   -1654.2889    9795.1959    5859.3252   -3335.5388      5678.25    3714.4926    76.431509 
   71500    521.49092   -119.41677   0.47185594   -118.94491   -2582.8966    4.2429485    4.2429485    4.2429485   -2582.8966   -17871.543    19457.885   -9335.0318   -3466.4957    2867.0012    2089.7688    76.384154 
   71600    636.86997   -119.51845   0.57625333    -118.9422    10752.782     4.229603     4.229603     4.229603    10752.782    6106.4745    17177.146    8974.7246    1847.8646    42.619146    3830.5073    75.665656 
   71700    481.42221   -119.37858   0.43560094   -118.94298   -9601.3538    4.2462387    4.2462387    4.2462387   -9601.3538   -12357.774   -9242.2996   -7203.9879    5916.6852    250.99566   -974.34196     76.56199 
   71800    477.65173   -119.37547   0.43218932   -118.94328   -3000.8358    4.2370497    4.2370497    4.2370497   -3000.8358    1352.9959    2927.4771    -13282.98   -3804.9853    2486.9879   -1173.9977    76.066016 
   71900    562.79989   -119.45358   0.50923316   -118.94434   -2462.1199    4.2360243    4.2360243    4.2360243   -2462.1199   -7129.5084    3409.6657   -3666.5172   -1800.1197   -1357.9357    4325.6723    76.010804 
   72000    450.34195   -119.35293   0.40747886   -118.94545   -3815.4888    4.2406428    4.2406428    4.2406428   -3815.4888   -22765.683   -8160.1507    19479.367    9949.2248   -1844.5649   -3249.9556    76.259695 
   72100    368.62864   -119.28004   0.33354294    -118.9465   -3778.4844    4.2430059    4.2430059    4.2430059   -3778.4844   -7535.2022   -7601.0666    3800.8155    5318.1299   -3443.6257   -6662.6833    76.387258 
   72200    657.36135   -119.53983   0.59479437   -118.94503    5937.0742    4.2336463    4.2336463    4.2336463    5937.0742    5195.0115    6622.3188    5993.8924    1064.1785   -503.94929   -4558.0893    75.882866 
   72300    499.02814   -119.39912   0.45153114   -118.94759    15.641114    4.2408819    4.2408819    4.2408819    15.641114   -22564.083    5385.3073    17225.699   -1890.4979    1692.8148   -923.53831    76.272599 
   72400    393.47042   -119.30142    0.3560203    -118.9454   -5159.1191    4.2438659    4.2438659    4.2438659   -5159.1191    -13628.12    1368.0479   -3217.2849    3847.2707    2672.4331    2253.2422    76.433713 
   72500     501.3003   -119.39904   0.45358704   -118.94546     10269.71    4.2287312    4.2287312    4.2287312     10269.71    11567.619    15441.127    3800.3836    8834.0168    4876.9995    1822.9904    75.618882 
   72600    605.69964   -119.49352   0.54804976   -118.94547   -12174.624    4.2459097    4.2459097    4.2459097   -12174.624   -15697.316   -14395.839   -6430.7174    499.44046    1547.1416   -2637.1714    76.544195 
   72700    447.29881   -119.34796   0.40472537   -118.94323     2878.201    4.2372989    4.2372989    4.2372989     2878.201    8274.3318    4383.5297   -4023.2584    -7734.208    4854.3277     8619.706     76.07944 
   72800    512.21382   -119.40821   0.46346183   -118.94474   -6806.6691    4.2359702    4.2359702    4.2359702   -6806.6691   -7525.0079   -5582.2907   -7312.7087    7978.4382     4875.421    4256.6951    76.007895 
   72900    507.99996   -119.40628   0.45964904   -118.94663     1485.767    4.2404268    4.2404268    4.2404268     1485.767   -7424.8665   -6429.7093    18311.877    8752.5176   -1658.2451    2370.3871    76.248047 
   73000    401.04172   -119.30834   0.36287097   -118.94547   -5250.3481    4.2411594    4.2411594    4.2411594   -5250.3481   -13434.323    -2360.015    43.293679    422.29621   -3714.5567     -3883.48    76.287569 
   73100    521.19501   -119.41586    0.4715882   -118.94427    970.21451    4.2355985    4.2355985    4.2355985    970.21451    4682.6948   -981.71457    -790.3367    -1638.449   -318.31213   -7224.6455    75.987883 
   73200    676.06111   -119.55863    0.6117143   -118.94692    1418.9798    4.2396367    4.2396367    4.2396367    1418.9798   -9528.8711    6698.5455    7087.2649   -427.66798   -4682.0539    854.59195     76.20543 
   73300    349.57041   -119.26384   0.31629865   -118.94754   -8470.3412    4.2424817    4.2424817    4.2424817   -8470.3412   -16074.343    -2500.167   -6836.5136    10600.718    3218.1375     -4082.98    76.358947 
   73400    379.89152    -119.2894   0.34373383   -118.94567    8095.0495    4.2304961    4.2304961    4.2304961    8095.0495    14277.657   -914.71179    10922.203    3369.2834   -6342.4521   -12993.002    75.713598 
   73500    663.60183    -119.5456   0.60044088   -118.94516   -7373.1233    4.2453727    4.2453727    4.2453727   -7373.1233   -4687.2399   -11335.269   -6096.8606   -4429.8484   -2025.3301   -4761.9459    76.515158 
   73600    647.93343   -119.53061   0.58626378   -118.94435    4225.8467    4.2354541    4.2354541    4.2354541    4225.8467    3068.5883    5831.8086    3777.1431    2508.2506     7449.742   -453.14368    75.980112 
   73700    302.39102    -119.2194   0.27360975   -118.94579    5535.5207    4.2365464    4.2365464    4.2365464    5535.5207    2491.7851   -10831.943     24946.72    7225.0919    3887.7357    4730.6397    76.038912 
   73800    490.19921   -119.38959   0.44354255   -118.94605   -3801.7611    4.2425009    4.2425009    4.2425009   -3801.7611   -10535.541   -7443.8868    6574.1447    4348.4428    5805.5203   -4813.8844    76.359985 
   73900    669.66203   -119.55003   0.60592428    -118.9441    2636.7304    4.2375194    4.2375194    4.2375194    2636.7304    8583.8156     12080.22   -12753.845   -1783.9969    3724.0359   -7487.7125    76.091317 
   74000    422.99883    -119.3268   0.38273823   -118.94406   -7121.3126    4.2371806    4.2371806    4.2371806   -7121.3126   -12351.844   -10680.294    1668.2001   -51.698257   -437.55845   -689.71948    76.073066 
   74100    429.97657   -119.33532   0.38905184   -118.94627   -6442.8354     4.240973     4.240973     4.240973   -6442.8354   -5976.1738   -4451.9505    -8900.382    9738.2291    7408.7799    6550.1389    76.277514 
   74200    529.20011   -119.42533   0.47883138    -118.9465   -4487.7482     4.242018     4.242018     4.242018   -4487.7482     11404.57   -5126.6027   -19741.211    6779.5479    917.51425   -9451.3812    76.333911 
   74300     448.0664   -119.35128    0.4054199   -118.94586    5777.5584    4.2312271    4.2312271    4.2312271    5777.5584    10219.796   -694.63708     7807.516   -3593.9681   -4999.9163   -11165.115    75.752857 
   74400    425.42566   -119.32968   0.38493408   -118.94475    139.47876    4.2453246    4.2453246    4.2453246    139.47876    8736.2849   -14377.345    6059.4965    1592.4026   -4241.9042   -1978.7948    76.512557 
   74500    626.98589   -119.51177   0.56731001   -118.94446    2684.6439     4.237907     4.237907     4.237907    2684.6439    8443.9077     6031.936   -6421.9121    5025.3244   -3111.5085    1114.7081    76.112198 
   74600    504.03964   -119.40107   0.45606566     -118.945    7928.0474    4.2338361    4.2338361    4.2338361    7928.0474    710.01716    -893.3511    23967.476    8740.2186    1423.7636   -1669.0968     75.89307 
   74700    364.65632   -119.27439    0.3299487   -118.94444   -8067.0053    4.2447548    4.2447548    4.2447548   -8067.0053   -10911.256   -7459.4492   -5830.3109    1538.4878     2334.681   -7797.8204    76.481749 
   74800    598.10247   -119.48363   0.54117569   -118.94245   -4674.8567    4.2366983    4.2366983    4.2366983   -4674.8567    -3098.583    4597.9498   -15523.937   -4672.2806   -6752.4128    2947.4685    76.047094 
   74900    730.18746   -119.60457   0.66068896   -118.94388   -6872.5857    4.2387164    4.2387164    4.2387164   -6872.5857   -9774.8541    -6363.904   -4478.9991    7839.0182    4634.1979    3938.8746    76.155819 
   75000    328.79184   -119.24342   0.29749777   -118.94592   -5035.8911    4.2393888    4.2393888    4.2393888   -5035.8911   -9763.5777    394.52433   -5738.6199    9099.1226    4836.3039    703.06373    76.192067 
   75100     359.7147   -119.27178   0.32547742    -118.9463   -5894.3548    4.2422996    4.2422996    4.2422996   -5894.3548    880.53385   -10593.426   -7970.1728    207.42644     1162.666   -9773.9661    76.349118 
   75200    653.20006   -119.53585   0.59102914   -118.94482    9797.3084    4.2332741    4.2332741    4.2332741    9797.3084    16703.031    5930.5866    6758.3077    607.76947    1365.8368   -5665.7018    75.862854 
   75300    599.86122   -119.48861   0.54276704   -118.94584   -1706.6789    4.2403695    4.2403695    4.2403695   -1706.6789    -4720.075    3314.8358   -3714.7977    3202.8988    -4455.239    312.80952    76.244952 
   75400    258.07631   -119.17977   0.23351287   -118.94626    7384.2954    4.2391584    4.2391584    4.2391584    7384.2954    9699.8068    4122.6005    8330.4788    10257.991    -1026.188   -1235.8621    76.179642 
   75500    508.14074   -119.40679   0.45977642   -118.94702    2960.8915    4.2329188    4.2329188    4.2329188    2960.8915    9717.6464   -2350.4496    1515.4778    5637.3969    6354.1597   -9765.2536    75.843751 
   75600    587.77855   -119.47866   0.53183439   -118.94683   -2878.8565    4.2428846    4.2428846    4.2428846   -2878.8565    1230.5107    6988.6092   -16855.689   -4344.4816   -6583.0812   -1221.6458    76.380705 
   75700    477.13725   -119.37535   0.43172381   -118.94363   -3929.1903    4.2369592    4.2369592    4.2369592   -3929.1903   -7856.1463   -1057.8279   -2873.5967    505.77597   -5713.4446     4493.629    76.061142 
   75800    451.26412   -119.35327   0.40831326   -118.94496   -9666.1782    4.2395791    4.2395791    4.2395791   -9666.1782   -12317.174   -13987.684   -2693.6763    8167.7846    1547.8856    1858.0635    76.202328 
   75900      610.155   -119.49822   0.55208106   -118.94614    2048.2395    4.2374998    4.2374998    4.2374998    2048.2395    8765.8914    331.56941   -2952.7425    4320.0286   -358.89422   -468.17235    76.090258 
   76000    420.00681   -119.32709   0.38003099   -118.94705   -4346.7546    4.2410912    4.2410912    4.2410912   -4346.7546   -14251.891   -10925.128    12136.755   -652.33081    4024.9914   -3684.8577     76.28389 
   76100     428.6832   -119.33299   0.38788157   -118.94511    5497.7549    4.2341246    4.2341246    4.2341246    5497.7549    2745.1315     -706.786    14454.919   -2959.9427   -5034.2898    32.485984    75.908584 
   76200     661.9865    -119.5463    0.5989793   -118.94732    1767.4948    4.2390827    4.2390827    4.2390827    1767.4948    11058.317   -872.44818   -4883.3841    7255.6669   -3187.7618    2740.4654     76.17556 
   76300    565.45484   -119.45772   0.51163542   -118.94608   -4873.9105    4.2407826    4.2407826    4.2407826   -4873.9105   -14165.393    1456.4611   -1912.7991    9619.5419    1289.0812   -6090.6746    76.267241 
   76400    308.21837   -119.22388   0.27888246   -118.94499    3271.7861    4.2339903    4.2339903    4.2339903    3271.7861    11209.779     788.1777    -2182.598     1034.009    2701.0679   -8792.0768    75.901362 
   76500    539.87611   -119.43292   0.48849125   -118.94443   -12413.631    4.2430273    4.2430273    4.2430273   -12413.631   -12244.727   -1945.1665   -23051.001   -6.6699528   -9115.0482    517.15262    76.388411 
   76600    630.52357   -119.51512   0.57051098    -118.9446    2619.7328    4.2382575    4.2382575    4.2382575    2619.7328    649.23127    6862.8633    347.10394    3364.6662   -5981.3142   -2237.9868    76.131083 
   76700    416.24536   -119.32103   0.37662755    -118.9444    -1865.584    4.2381139    4.2381139    4.2381139    -1865.584   -265.97295    -10096.39    4765.6113    6654.8244   -2151.2283   -119.34779    76.123347 
   76800    357.50846   -119.26848   0.32348117     -118.945    4460.5479    4.2378793    4.2378793    4.2378793    4460.5479    10528.654   -6249.5027     9102.492    1221.6469     5632.729   -3046.2834    76.110708 
   76900    693.70978    -119.5728   0.62768319   -118.94511   -167.72902    4.2425018    4.2425018    4.2425018   -167.72902   -1542.5605    -10361.14    11400.513   -8486.8648    4883.5038   -211.29444    76.360033 
   77000    501.44403   -119.39908    0.4537171   -118.94536    2145.4757    4.2347075    4.2347075    4.2347075    2145.4757    3654.5663   -247.40478    3029.2656     2693.723    -2087.721     4797.051    75.939939 
   77100    298.96139   -119.21724   0.27050654   -118.94674   -3779.5158    4.2386315    4.2386315    4.2386315   -3779.5158   -5952.6192   -10310.981    4925.0527    11371.451    3454.8308    4843.2188    76.151239 
   77200    563.47836   -119.45518   0.50984707   -118.94533   -4707.1963    4.2400751    4.2400751    4.2400751   -4707.1963    2109.3917   -11103.915   -5127.0653   -1027.2686    5704.4996   -1398.6025    76.229072 
   77300     699.3294   -119.57723   0.63276794   -118.94446    -2425.402    4.2355603    4.2355603    4.2355603    -2425.402    5757.8448    778.38339   -13812.434   -3161.0709    6712.7411   -1189.7259    75.985827 
   77400     374.0155   -119.28407   0.33841708   -118.94565    4671.0904    4.2372472    4.2372472    4.2372472    4671.0904    2983.0421    3770.6457    7259.5834    931.65751    82.612869    2064.3141    76.076653 
   77500    331.79396   -119.24729   0.30021415   -118.94707    1364.9548    4.2413865    4.2413865    4.2413865    1364.9548   -522.51705   -8351.6983     12969.08     7975.309   -7031.6138    2010.2353    76.299828 
   77600    725.06332   -119.60189   0.65605253   -118.94584    862.41467    4.2387451    4.2387451    4.2387451    862.41467    14568.656   -4916.3752   -7065.0364    2525.7612   -2527.6246   -49.117707    76.157363 
   77700    556.27267   -119.44791    0.5033272   -118.94459    4871.2969    4.2341368    4.2341368    4.2341368    4871.2969   -9632.7467    839.40908    23407.228   -6131.3062    2589.9201    -4924.454    75.909244 
   77800    364.03092   -119.27485   0.32938283   -118.94547   -17681.991     4.247977     4.247977     4.247977   -17681.991   -25889.691   -21583.847   -5572.4346   -1698.3866    -3404.174    2320.4599    76.656056 
   77900     445.6588    -119.3497   0.40324144   -118.94646    7872.8982    4.2297352    4.2297352    4.2297352    7872.8982     11654.84    8657.4402    3306.4142    8046.1269   -120.21788    6278.0293    75.672754 
   78000    618.44754   -119.50818   0.55958433   -118.94859    -10715.84    4.2397879    4.2397879    4.2397879    -10715.84   -18194.284   -9187.4838    -4765.752    7753.5611    259.45814    4251.6233    76.213586 
   78100    461.47689   -119.36185   0.41755398    -118.9443   -2005.5406    4.2419394    4.2419394    4.2419394   -2005.5406    318.40975   -10493.131    4158.0992   -2934.2468    7824.7706    -3460.456    76.329671 
   78200    533.56524   -119.42775   0.48278104   -118.94497    7792.7958    4.2307526    4.2307526    4.2307526    7792.7958    12919.029   -2956.5743    13415.933    739.65281     9466.744   -95.182129    75.727374 
   78300    458.62976   -119.36314   0.41497784   -118.94816    3219.6311    4.2421965    4.2421965    4.2421965    3219.6311   -4803.4699   -10486.463    24948.826    8759.0756    603.26363    4428.4703    76.343547 
   78400    367.77573   -119.28062   0.33277121   -118.94785    6142.1458    4.2376713    4.2376713    4.2376713    6142.1458    3252.6362    2282.7641    12891.037    4287.7917   -2883.1897    214.16828    76.099501 
   78500    491.21291   -119.38922   0.44445976   -118.94476   -4809.0067     4.237174     4.237174     4.237174   -4809.0067   -2376.8026   -12781.214    730.99679   -1549.0201    -229.4743   -960.93729    76.072713 
   78600    800.92369   -119.66963   0.72469258   -118.94493   -6714.1764    4.2397665    4.2397665    4.2397665   -6714.1764   -3189.9381   -15200.782   -1751.8086   -1915.2182   -3251.2468   -4497.1732    76.212429 
   78700      434.663   -119.34049   0.39329222    -118.9472   -9771.4313    4.2415879    4.2415879    4.2415879   -9771.4313   -21466.223     7268.942   -15117.013    3092.9302   -6564.2326    1284.2045    76.310698 
   78800     248.1316   -119.17164   0.22451468   -118.94712   -3472.1351    4.2351575    4.2351575    4.2351575   -3472.1351   -13185.238    809.24861    1959.5838    6660.7297   -7758.7325    8644.8582    75.964153 
   78900    603.69897   -119.49183   0.54623951   -118.94559   -1171.3487    4.2432121    4.2432121    4.2432121   -1171.3487   -2589.5903   -14933.092    14008.636    3398.7578   -6891.5317    1918.6671    76.398393 
   79000    826.67571   -119.69071   0.74799356   -118.94272     2034.468     4.236181     4.236181     4.236181     2034.468   -4126.0639    8611.2813    1618.1867   -1848.4891    3439.7694   -239.16916    76.019238 
   79100    340.62463   -119.25426   0.30820432   -118.94606    12021.519    4.2354805    4.2354805    4.2354805    12021.519    4626.5915    7006.8482    24431.117     8242.766   -112.29456    4361.5396    75.981536 
   79200    241.81635   -119.16684   0.21880051   -118.94804   -1376.6316    4.2436285    4.2436285    4.2436285   -1376.6316    -10213.39   -11272.544     17356.04     9289.213   -2670.9543    5057.5714    76.420889 
   79300    609.22287   -119.49755   0.55123766   -118.94631    6966.0281    4.2326279    4.2326279    4.2326279    6966.0281    15837.173    10017.493   -4956.5821    1940.0295   -1251.0676    1984.2464    75.828115 
   79400    668.71494   -119.54806   0.60506733   -118.94299    -7551.517    4.2418084    4.2418084    4.2418084    -7551.517   -15610.957   -1076.6055   -5966.9885     1515.736    1090.5129   -2380.6955    76.322595 
   79500    377.65672   -119.28672   0.34171174   -118.94501   -10010.736    4.2411329    4.2411329    4.2411329   -10010.736   -24593.799   -5538.2957    99.887029   -651.42151    1387.0464   -5378.0199    76.286139 
   79600    413.23429   -119.32108   0.37390307   -118.94718   -332.91732    4.2357102    4.2357102    4.2357102   -332.91732    -6604.795    12692.982    -7086.939    4258.9502   -6127.3218    3276.1539    75.993898 
   79700      539.381   -119.43625   0.48804327   -118.94821   -2334.0672    4.2401603    4.2401603    4.2401603   -2334.0672   -18664.951    8603.9893    3058.7601   -293.77453   -6514.0849    3071.4232    76.233669 
   79800     496.6824   -119.39404   0.44940867   -118.94463    -1464.325    4.2395935    4.2395935    4.2395935    -1464.325   -18769.794   -6069.0894    20445.908   -7428.8864   -371.65945   -3887.8638    76.203101 
   79900    606.88969   -119.49405   0.54912654   -118.94492    2631.1864    4.2356216    4.2356216    4.2356216    2631.1864    10178.461   -3768.2487    1483.3465    1415.9944   -85.856213   -1167.1312    75.989128 
   80000    551.88801   -119.44879   0.49935987   -118.94943    1898.2461    4.2361608    4.2361608    4.2361608    1898.2461   -3817.9166   -1978.6601    11491.315    7534.9003   -4174.6028   -243.91268    76.018155 
   80100    365.28363   -119.27925    0.3305163   -118.94874   -3727.7969    4.2404772    4.2404772    4.2404772   -3727.7969   -9733.1239   -1009.9802   -440.28643    5749.3455     -2877.78    9661.8782    76.250765 
   80200    354.44406   -119.26734   0.32070843   -118.94663   -686.25398    4.2356458    4.2356458    4.2356458   -686.25398   -7665.4972    10992.833   -5386.0974   -359.00775    1296.6505    1496.6504     75.99043 
   80300    740.05844   -119.61539   0.66962043   -118.94577   -1155.3103    4.2355463    4.2355463    4.2355463   -1155.3103    6236.5416   -5558.2611   -4144.2113    723.83629    3824.9684   -1580.7552    75.985076 
   80400    563.91121   -119.45661   0.51023871   -118.94637    -1608.639    4.2436003    4.2436003    4.2436003    -1608.639   -9733.8869    15341.806   -10433.837    7208.3624    3453.8712   -248.13033    76.419365 
   80500    270.77058   -119.19184   0.24499891   -118.94684    988.41162    4.2355381    4.2355381    4.2355381    988.41162   -14303.781    16205.193    1063.8225    5784.6895   -2465.0607    5340.1727    75.984635 
   80600    467.36822   -119.37033   0.42288459   -118.94745    2778.7054    4.2369433    4.2369433    4.2369433    2778.7054   -2920.9699   -4100.9874    15358.073    -6003.873   -1573.2092    3488.7275    76.060288 
   80700    635.92758   -119.52142   0.57540064   -118.94602   -1244.9609    4.2429388    4.2429388    4.2429388   -1244.9609    669.65037    -4226.861   -177.67211   -8196.6291     3508.902   -1629.3408    76.383629 
   80800    549.03376   -119.44017   0.49677729   -118.94339   -3823.2746    4.2369437    4.2369437    4.2369437   -3823.2746   -2915.8199   -7409.6569    -1144.347   -1478.7809   -4146.6155   -6556.7518    76.060307 
   80900    401.65979   -119.30884   0.36343022   -118.94541    3962.3392    4.2351894    4.2351894    4.2351894    3962.3392      10380.8   -7963.6534    9469.8706     270.4039   -6337.2211   -1541.1539    75.965871 
   81000    623.86134   -119.51095   0.56448285   -118.94646   -9053.5719     4.241844     4.241844     4.241844   -9053.5719   -6349.3229   -5385.3817   -15426.011   -2997.7432   -5830.7848    4763.3929    76.324521 
   81100    424.56118   -119.33097   0.38415187   -118.94682    1916.9504    4.2377198    4.2377198    4.2377198    1916.9504    4532.6105    10131.157   -8912.9162   -12341.514   -845.64314   -2541.0036    76.102113 
   81200    493.85847   -119.39124   0.44685353   -118.94439   -47.601681    4.2318803    4.2318803    4.2318803   -47.601681   -9133.3337   -3950.5951    12941.124   -5256.4905    4242.2134   -1962.2217    75.787941 
   81300    512.78261   -119.41054   0.46397648   -118.94657   -2194.0376    4.2448913    4.2448913    4.2448913   -2194.0376    2582.0311    2968.0969   -12132.241    8229.0149   -3448.9904   -3758.1621    76.489131 
   81400    558.00615   -119.45281   0.50489569   -118.94792    1749.8444    4.2355779    4.2355779    4.2355779    1749.8444   -2186.3629    7731.4228   -295.52681    3521.8208   -5504.4106    4381.6845    75.986777 
   81500    317.80465   -119.23491   0.28755633   -118.94735    2821.8304    4.2349112    4.2349112    4.2349112    2821.8304   -15782.797   -755.49996    25003.788   -3649.1727    3613.8799    1407.7272    75.950903 
   81600    513.82146   -119.41054   0.46491645   -118.94562   -8041.0004    4.2452406    4.2452406    4.2452406   -8041.0004    2278.7396   -17113.404   -9288.3372    1275.1234    3089.4305     -678.216    76.508016 
   81700    621.47814   -119.50694   0.56232649   -118.94461    -823.8019    4.2344731    4.2344731    4.2344731    -823.8019    9551.6307   -4304.4318   -7718.6046    6740.0307    1930.9036   -6947.7262    75.927331 
   81800    495.60475   -119.39397   0.44843359   -118.94553   -2846.4991    4.2355299    4.2355299    4.2355299   -2846.4991   -9774.5702    3184.4781   -1949.4053    11968.175    -2989.692    -2227.343    75.984194 
   81900    427.20936   -119.33213   0.38654801   -118.94558   -4427.0997    4.2428645    4.2428645    4.2428645   -4427.0997   -6865.4016    3414.7983   -9830.6957   -1124.4603   -5986.1513    2808.7347     76.37962 
   82000    523.90765   -119.42068   0.47404265   -118.94664   -207.46022    4.2357654    4.2357654    4.2357654   -207.46022    4118.6937    2961.8258   -7702.9002   -5721.8972    5156.4507   -4183.1461     75.99687 
   82100    620.94829   -119.50732   0.56184707   -118.94548    9013.2391    4.2313008    4.2313008    4.2313008    9013.2391    7757.0076    7982.5548    11300.155    415.30541    1887.1887   -1516.9956    75.756812 
   82200     430.5839   -119.33488   0.38960136   -118.94528    -5359.114    4.2486924    4.2486924    4.2486924    -5359.114     -8467.58    1855.9383   -9465.7002    7342.3728   -1491.0591   -301.85308    76.694794 
   82300    472.25448   -119.37345   0.42730578   -118.94614    2984.9436    4.2325752    4.2325752    4.2325752    2984.9436    5119.0378   -8885.9927    12721.786     766.9454   -2520.0493    4417.2718    75.825286 
   82400    505.77193   -119.40579   0.45763307   -118.94816    2435.0154    4.2349966    4.2349966    4.2349966    2435.0154    9965.2722   -3404.4824    744.25631   -4944.0529   -1424.8511    6730.8122    75.955493 
   82500     547.7171   -119.43951   0.49558594   -118.94392   -17083.792    4.2486701    4.2486701    4.2486701   -17083.792   -13434.556   -17659.491   -20157.327   -3525.5912    3215.9922    3015.7374    76.693582 
   82600    408.43969   -119.31238   0.36956482   -118.94282    1807.2761    4.2310143    4.2310143    4.2310143    1807.2761    6376.7549   -7563.7985    6608.8718    11083.303    5463.6099    -429.8866    75.741429 
   82700    490.96832   -119.39012   0.44423845   -118.94588   -3544.5612    4.2366399    4.2366399    4.2366399   -3544.5612    2071.8366   -117.35062    -12588.17    5330.0819   -10573.886    2899.2096    76.043946 
   82800    524.75567   -119.42055   0.47480995   -118.94574   -468.83641    4.2433347    4.2433347    4.2433347   -468.83641   -360.76404    14741.131   -15786.876   -3732.0296   -2643.3387    1585.2237    76.405014 
   82900    501.71415   -119.39909   0.45396151   -118.94513    6795.6572     4.234073     4.234073     4.234073    6795.6572    5325.2301    1384.8427    13676.899   -3081.8159    2228.3322    280.72401    75.905809 
   83000    479.16896   -119.37952   0.43356215   -118.94596    12272.752     4.232359     4.232359     4.232359    12272.752    20012.013     5632.111    11174.133    3204.0007    1864.3307   -4893.6209    75.813668 
   83100    518.22964   -119.41682   0.46890507   -118.94791   -2852.9364    4.2463337    4.2463337    4.2463337   -2852.9364    6249.7707    3814.2051   -18622.785    6115.1158   -1996.2054   -3851.2525     76.56713 
   83200    492.88346   -119.39261   0.44597131   -118.94663    2135.1597    4.2320741    4.2320741    4.2320741    2135.1597    -9524.034   -657.69671     16587.21    2580.0406   -7205.0193    323.82105    75.798355 
   83300    510.35728   -119.40803   0.46178199   -118.94624   -8295.4132    4.2377668    4.2377668    4.2377668   -8295.4132   -290.23646   -15071.495   -9524.5086   -4686.6436    -2440.516    6690.3673    76.104643 
   83400    551.41395   -119.44393   0.49893093     -118.945   -12715.027     4.243293     4.243293     4.243293   -12715.027   -4092.0881   -9942.0146   -24110.977    2144.6265    10077.236    764.71088    76.402765 
   83500     499.1322   -119.39725    0.4516253   -118.94563    149.58287    4.2330839    4.2330839    4.2330839    149.58287   -5958.7122    5593.9191    813.54169    11277.603   -2039.1323    4135.2234    75.852625 
   83600    354.65527   -119.26659   0.32089954   -118.94569   -2508.8294    4.2406921    4.2406921    4.2406921   -2508.8294    8589.2944   -4264.1357   -11851.647    3433.5297   -6418.4414    7136.7111    76.262355 
   83700    529.45307   -119.42374   0.47906027   -118.94468    4671.1326    4.2363085    4.2363085    4.2363085    4671.1326    8022.4569    11788.156   -5797.2151    741.79052   -847.55056    9087.4613    76.026104 
   83800    664.08025   -119.54535   0.60087376   -118.94447    5627.6069    4.2382084    4.2382084    4.2382084    5627.6069    8435.8031   -818.41154    9265.4292    2202.4298    3207.7494    5411.0617    76.128439 
   83900    483.61168   -119.38369   0.43758201   -118.94611    5011.7464    4.2366573    4.2366573    4.2366573    5011.7464    655.80265    11708.028    2671.4081    6386.7513     3777.987   -1769.7113    76.044887 
   84000    308.32927   -119.22598    0.2789828     -118.947   -1342.8579    4.2400552    4.2400552    4.2400552   -1342.8579    235.11624   -4474.9529    211.26301     8085.894   -5051.8137   -1451.5324       76.228 
   84100    545.95168   -119.44064   0.49398855   -118.94666   -2148.3816    4.2348888    4.2348888    4.2348888   -2148.3816    5033.5922     -3978.58    -7500.157   -425.17732   -5685.0888    1203.2866    75.949697 
   84200    691.10568    -119.5715   0.62532694   -118.94618   -9458.5177    4.2403124    4.2403124    4.2403124   -9458.5177   -9883.3291   -1334.5362   -17157.688   -1406.3182    2765.2214    1583.8185    76.241871 
   84300    462.91171   -119.36459   0.41885224   -118.94574    -6929.916    4.2383783    4.2383783    4.2383783    -6929.916   -1659.4956   -15683.734   -3446.5181    6616.8986   -4.5369884   -6814.7138    76.137597 
   84400    405.28516   -119.31451   0.36671053    -118.9478   -1294.6105    4.2344821    4.2344821    4.2344821   -1294.6105     10586.96   -3789.4761   -10681.315    4178.4959   -4228.9491   -1843.0679    75.927815 
   84500    465.52138   -119.37001   0.42121353    -118.9488   -452.73928    4.2400569    4.2400569    4.2400569   -452.73928    3867.9671    15758.404   -20984.589    928.38991    -6901.389    4472.2868    76.228094 
   84600    511.09438   -119.40936   0.46244894   -118.94691    7047.2543    4.2342076    4.2342076    4.2342076    7047.2543    9119.7897    11594.921    427.05171   -5039.7432   -2741.0595    10713.351    75.913048 
   84700      438.884   -119.34259   0.39711147   -118.94548    2988.9335    4.2397669    4.2397669    4.2397669    2988.9335   -1570.2598   -1453.6658    11990.726   -1139.9362    1784.6599    3304.9879    76.212452 
   84800    630.76832   -119.51742   0.57073243   -118.94669    7014.2023    4.2339644    4.2339644    4.2339644    7014.2023    5428.6366    22102.009   -6488.0389    7645.3244   -1030.3635     2122.711    75.899973 
   84900    435.49638   -119.34237   0.39404627   -118.94832   -1550.9054    4.2425092    4.2425092    4.2425092   -1550.9054   -7022.4518    1848.1131    521.62244    3409.9259   -1400.3649     4655.413    76.360431 
   85000    346.54578   -119.25929    0.3135619   -118.94572   -3353.2423    4.2368963    4.2368963    4.2368963   -3353.2423    5477.0076   -15727.208     190.4739    -1572.821    883.28171    5314.7899    76.057753 
   85100    604.28973   -119.49117   0.54677404    -118.9444   -5363.4701    4.2384816    4.2384816    4.2384816   -5363.4701   -265.06245   -207.76488   -15617.583   -375.19058   -1358.3723    1653.4582    76.143161 
   85200    682.22253   -119.56135   0.61728928   -118.94407   -8698.7637    4.2432036    4.2432036    4.2432036   -8698.7637   -15848.093   -3580.6883   -6667.5096    3650.5258   -420.39069    -7906.171    76.397935 
   85300    426.65221   -119.33018   0.38604389   -118.94414    1278.2603    4.2335908    4.2335908    4.2335908    1278.2603    5973.7081    -4115.373    1976.4458    3815.3504   -3237.6863   -2016.0631    75.879878 
   85400    297.55921   -119.21503   0.26923783    -118.9458    972.13798    4.2405807    4.2405807    4.2405807    972.13798     9566.803    4772.8128   -11423.202    -4049.573   -5977.3014    1100.9422    76.256347 
   85500    709.81725   -119.58678   0.64225757   -118.94453    424.33964     4.237991     4.237991     4.237991    424.33964   -552.58568    8960.3276    -7134.723   -6853.6943   -1691.3115    1016.8751    76.116727 
   85600    541.18661   -119.43403   0.48967702   -118.94435    6492.7936    4.2365918    4.2365918    4.2365918    6492.7936     1109.915    8636.6712    9731.7947     1440.013   -3415.7976   -6917.3645    76.041359 
   85700     414.6072    -119.3203   0.37514531   -118.94515    779.74566    4.2363566    4.2363566    4.2363566    779.74566    4477.1713    2162.1068   -4300.0411    4870.0531   -354.31467    693.55687    76.028693 
   85800     438.0846    -119.3442   0.39638816   -118.94781   -2310.6075    4.2417989    4.2417989    4.2417989   -2310.6075    3999.0693   -5423.1753   -5507.7165   -2062.9904    1875.2098    4339.6619    76.322084 
   85900    624.90581   -119.51234   0.56542791   -118.94691    152.92727    4.2335006    4.2335006    4.2335006    152.92727    -3632.599    9272.3067   -5180.9259   -7654.3091   -1903.8492    6165.9611    75.875032 
   86000    374.35188   -119.28598   0.33872145   -118.94726   -5201.0392    4.2387585    4.2387585    4.2387585   -5201.0392   -11273.968   -5082.9369    753.78718   -3898.1933    1300.5663    3162.9605    76.158088 
   86100    475.46241   -119.37712   0.43020838   -118.94691   -5186.2439    4.2409406    4.2409406    4.2409406   -5186.2439   -9768.5375   -3674.9133   -2115.2809    6155.0675    5315.9451    648.37452    76.275762 
   86200    607.60117   -119.49716    0.5497703   -118.94739    4892.0343    4.2329555    4.2329555    4.2329555    4892.0343   -2696.5494        20933   -3560.3477    4808.1952    582.27021    5017.9007    75.845728 
   86300    411.26417   -119.31856   0.37212046   -118.94644   -2898.3983     4.241669     4.241669     4.241669   -2898.3983   -1160.0746    1578.2379   -9113.3581   -5233.2544    231.89132    5431.5461    76.315073 
   86400    404.91217   -119.31076   0.36637304   -118.94438    5831.5664    4.2359659    4.2359659    4.2359659    5831.5664    9411.7651    5596.9047    2486.0293    -7914.085   -782.65637   -196.64305    76.007662 
   86500    615.32108   -119.50184   0.55675544   -118.94508   -440.64282    4.2371457    4.2371457    4.2371457   -440.64282   -5464.1836    246.14819    3896.1069    4738.4861    3336.3964   -5833.1095    76.071188 
   86600    584.19828   -119.47349   0.52859488    -118.9449    2481.7003    4.2385371    4.2385371    4.2385371    2481.7003    7499.8864    7061.5574   -7116.3428    9548.5391    2558.5778   -870.95099    76.146151 
   86700    349.72947   -119.26205   0.31644258   -118.94561   -7356.3896    4.2384608    4.2384608    4.2384608   -7356.3896   -4513.5264   -16964.514   -591.12872   -2411.0629    1843.4022   -2697.1711    76.142043 
   86800    564.91254   -119.45731   0.51114474   -118.94617   -1449.8138    4.2351281    4.2351281    4.2351281   -1449.8138   -2280.7787   -2426.1536    357.49101   -6074.8894     36.97305   -3517.0255    75.962569 
   86900    648.54816   -119.53366   0.58682001   -118.94684   -8015.9766    4.2425327    4.2425327    4.2425327   -8015.9766   -22751.572    9310.1232   -10606.481    1405.7584   -653.56874   -3286.3706    76.361699 
   87000    346.93876   -119.25991   0.31391748   -118.94599   -2607.0883    4.2362156    4.2362156    4.2362156   -2607.0883   -14205.063   -1468.8256    7852.6241    9819.0618    5865.5477   -3296.6724    76.021102 
   87100    485.66775   -119.38548   0.43944239   -118.94603    2373.0024    4.2364236    4.2364236    4.2364236    2373.0024    4741.6115    5514.7521   -3137.3565    9234.2752   -2765.3694    437.14612    76.032303 
   87200     613.2179   -119.50059   0.55485245   -118.94574   -1565.5501    4.2416275    4.2416275    4.2416275   -1565.5501   -4632.5622     9803.375   -9867.4631   -6500.9473   -4255.1603    1524.0107    76.312833 
   87300    462.71968   -119.36397   0.41867849   -118.94529    8282.9715    4.2319821    4.2319821    4.2319821    8282.9715     2334.595    13795.117    8719.2022   -5918.7971   -2438.2244    871.81397    75.793414 
   87400    305.99258   -119.22394   0.27686852   -118.94707    1975.4528    4.2387718    4.2387718    4.2387718    1975.4528     1265.526   -5584.8359    10245.668     6794.194    3289.1994    1694.3523    76.158801 
   87500    626.65569   -119.51435   0.56701124   -118.94734     367.4692    4.2379022    4.2379022    4.2379022     367.4692    6580.2531    3180.3312   -8658.1766    6484.9595    1567.5339    1333.4068    76.111937 
   87600    542.39274   -119.43734   0.49076835   -118.94657   -393.50224    4.2371866    4.2371866    4.2371866   -393.50224   -8455.7723    9834.1423   -2558.8767   -5094.1022    3321.0996    2973.5661    76.073389 
   87700    337.96531   -119.25189   0.30579811    -118.9461   -3788.7976    4.2362065    4.2362065    4.2362065   -3788.7976   -11026.402   -8428.3987    8088.4075   -11505.107    458.18074    4358.3825    76.020615 
   87800    594.08555   -119.48356   0.53754109   -118.94602   -9396.1607    4.2437708    4.2437708    4.2437708   -9396.1607   -13606.915   -3897.6972    -10683.87   -3861.4804    304.28184   -123.62233    76.428576 
   87900    619.94749   -119.50656   0.56094151   -118.94562    412.98037    4.2337563    4.2337563    4.2337563    412.98037   -11204.796    14959.752   -2516.0154    8460.4569     12407.17   -278.37956    75.888777 
   88000    387.49907   -119.29727    0.3506173   -118.94665   -1860.2911    4.2367243    4.2367243    4.2367243   -1860.2911    4496.0545   -9540.7276   -536.20021    793.79157    1362.3403    492.00932    76.048495 
   88100     404.5331   -119.31202   0.36603005   -118.94599   -501.19783    4.2435482    4.2435482    4.2435482   -501.19783    7505.9644   -3917.8257   -5091.7323   -11736.504   -4216.2332   -5093.6463    76.416549 
   88200    711.90152   -119.58915   0.64414346   -118.94501    6741.0147    4.2307027    4.2307027    4.2307027    6741.0147    289.22521    17665.225    2268.5944   -6099.3648   -2134.8106   -3306.0847    75.724693 
   88300    487.58939   -119.38576   0.44118112   -118.94458    1539.8502    4.2404689    4.2404689    4.2404689    1539.8502    -449.9689   -2125.1364    7194.6561    2154.6917      -1300.9    -5792.884    76.250314 
   88400    344.35657   -119.25679   0.31158106   -118.94521   -148.51225    4.2405983    4.2405983    4.2405983   -148.51225    3593.5809   -7419.4472    3380.3295     6049.626    2514.5481    -4464.056    76.257296 
   88500    571.22473    -119.4633   0.51685614   -118.94644   -719.81219     4.235473     4.235473     4.235473   -719.81219   -1328.9628    4407.9271   -5238.4009   -8372.0244   -3722.9864    1067.6283    75.981133 
   88600    448.26156   -119.35268   0.40559648   -118.94709    3231.9501    4.2356692    4.2356692    4.2356692    3231.9501   -9288.2305    3153.0053    15831.075   -13598.323    -5394.915   -1710.4744     75.99169 
   88700    437.49897   -119.34087   0.39585826   -118.94501   -14417.264    4.2446236    4.2446236    4.2446236   -14417.264   -19562.488    -16122.23   -7567.0757    5312.6274   -1147.1787   -509.48996    76.474662 
   88800    611.89031   -119.49935   0.55365121    -118.9457    2964.2763    4.2329109    4.2329109    4.2329109    2964.2763   -539.32805    11334.109   -1901.9525    6929.1347    4381.6422     5471.283    75.843326 
   88900    583.33455   -119.47718   0.52781336   -118.94937     221.6261    4.2345003    4.2345003    4.2345003     221.6261    6287.2817    466.36022   -6088.7636   -2835.8858     3035.294    3681.9541    75.928794 
   89000     248.5405   -119.17276   0.22488467   -118.94788   -5920.8682    4.2459604    4.2459604    4.2459604   -5920.8682   -2699.6643   -4971.0684   -10091.872   -6262.0716   -7462.1823    4286.5877    76.546938 
   89100    494.81821   -119.39219   0.44772192   -118.94447    11234.374    4.2290535    4.2290535    4.2290535    11234.374    12739.078    19035.696    1928.3487   -3227.4263   -8795.0715    2959.3777    75.636169 
   89200    870.68064   -119.73293   0.78781014   -118.94512   -5346.5423    4.2393892    4.2393892    4.2393892   -5346.5423   -1329.1695   -3534.0314   -11176.426    4684.2713    4820.1381    2474.8648    76.192085 
   89300    433.42273   -119.33776      0.39217   -118.94559    2325.7574    4.2412079    4.2412079    4.2412079    2325.7574    1143.3911    5344.2177    489.66342    5284.3192    2563.5799    5888.7605    76.290186 
   89400    216.89878   -119.14462   0.19625457   -118.94836   -3445.6458    4.2343624    4.2343624    4.2343624   -3445.6458   -4810.5496   -1990.7363   -3535.6516   -8741.7166   -7522.5955    808.00394    75.921374 
   89500    487.89887   -119.39119   0.44146115   -118.94973    1501.3756    4.2373804    4.2373804    4.2373804    1501.3756     1629.812     1865.128    1009.1868   -9212.2498   -2624.8698    2336.6638     76.08383 
   89600    688.79622    -119.5693   0.62323729   -118.94606   -5892.0886    4.2422567    4.2422567    4.2422567   -5892.0886   -6273.3518   -6866.1125   -4536.8016    3213.0541    1570.3064    2950.8419    76.346797 
   89700    502.54602   -119.39827    0.4547142   -118.94355   -3193.6092    4.2352425    4.2352425    4.2352425   -3193.6092    -4774.198   -6564.0018    1757.3723    -219.8087     1957.218    96.157576    75.968727 
   89800    411.02039   -119.32098   0.37189989   -118.94908     7246.971    4.2362752    4.2362752    4.2362752     7246.971    11066.014   -1151.6526    11826.552   -7481.5457   -4849.4846      663.135    76.024309 
   89900    520.02984   -119.42001   0.47053393   -118.94947   -6182.6026    4.2423247    4.2423247    4.2423247   -6182.6026   -3392.8453   -3165.9034   -11989.059   -6830.2224   -8072.4658    -2282.025    76.350473 
   90000     376.0728   -119.28666   0.34027857   -118.94638    8260.0571    4.2327583    4.2327583    4.2327583    8260.0571     4115.386    8185.8762    12478.909    306.67358   -5437.4273   -2353.2676    75.835124 
   90100    671.74555   -119.55178   0.60780949   -118.94397   -6255.3922    4.2387328    4.2387328    4.2387328   -6255.3922    995.21677   -13917.018   -5844.3748    3001.6906    2313.1992   -3186.1946    76.156703 
   90200    643.49246   -119.52862    0.5822455   -118.94638   -1099.6282    4.2404201    4.2404201    4.2404201   -1099.6282   -6985.6566    15501.901   -11815.129    -4407.496   -7797.7594   -4974.5275    76.247683 
   90300    372.56142   -119.28459    0.3371014   -118.94748   -221.56332    4.2353813    4.2353813    4.2353813   -221.56332    766.88102    1959.4671   -3391.0381   -9032.5028   -14408.412   -1443.5904    75.976194 
   90400    271.23141   -119.19301   0.24541588   -118.94759    -4337.994     4.239155     4.239155     4.239155    -4337.994   -4987.5095   -6350.0665   -1676.4061   -5246.6701    3009.6875    10.069178    76.179458 
   90500     679.6692   -119.56012   0.61497897   -118.94514   -3590.9181       4.2408       4.2408       4.2408   -3590.9181   -7381.7901     4488.372   -7879.3362   -820.22432    5581.0772    711.90996    76.268179 
   90600     638.0316   -119.52216    0.5773044   -118.94486   -289.00493    4.2348372    4.2348372    4.2348372   -289.00493   -5324.9315    1597.4025    2860.5142    2565.6868   -2717.9782    5811.8691    75.946917 
   90700    272.09873   -119.19214   0.24620065   -118.94594    1100.3081    4.2388829    4.2388829    4.2388829    1100.3081   -11972.457    -1400.185    16673.567   -10602.928   -1832.5787    5266.4834    76.164791 
   90800     455.7684   -119.35852   0.41238883   -118.94613    55.540936     4.240338     4.240338     4.240338    55.540936   -621.42232    -261.9642    1050.0093   -5631.7094   -1986.6497    5277.0651    76.243256 
   90900    648.19217   -119.53231    0.5864979   -118.94581    5919.8934    4.2342091    4.2342091    4.2342091    5919.8934    6478.3118    2315.1129    8966.2555    6103.9233    5876.2117    4621.8145    75.913129 
   91000    509.06382   -119.40415   0.46061164   -118.94354   -2614.2796    4.2408004    4.2408004    4.2408004   -2614.2796   -5809.3056   -11954.168    9920.6351     2767.959    547.13165    1554.7661    76.268201 
   91100    435.12515   -119.33743   0.39371038   -118.94372   -4754.7055    4.2399948    4.2399948    4.2399948   -4754.7055   -8005.4168   -1379.5258   -4879.1739   -1536.1605   -6648.8972    647.45582    76.224745 
   91200    621.58477   -119.50738   0.56242296   -118.94495    -446.4328    4.2358594    4.2358594    4.2358594    -446.4328    17.574026    4201.5687   -5558.4411   -5462.3291    -5594.412   -2679.7104    76.001926 
   91300    489.68637    -119.3892   0.44307852   -118.94612   -4990.6714    4.2395531    4.2395531    4.2395531   -4990.6714   -187.15274   -7323.2025   -7461.6588     342.0158    1804.6982   -4618.2757    76.200923 
   91400    324.05857   -119.23816     0.293215   -118.94495   -5232.2144    4.2411465    4.2411465    4.2411465   -5232.2144   -12007.523   -3491.2087   -197.91194    8989.8748    6371.1748   -3818.9668    76.286873 
   91500    623.93049    -119.5099   0.56454542   -118.94536    1745.3615    4.2339995    4.2339995    4.2339995    1745.3615   -7741.7923    11926.983    1050.8937    1266.2562   -4520.0818   -6214.0439    75.901859 
   91600    563.73835   -119.45724   0.51008231   -118.94716     3063.172    4.2373015    4.2373015    4.2373015     3063.172   -1007.5203    2866.6354     7330.401   -7181.7468   -3094.7447   -4322.9737    76.079577 
   91700    299.93589   -119.21685   0.27138829   -118.94547    1298.2281    4.2423635    4.2423635    4.2423635    1298.2281   -2923.9195    2100.1138      4718.49   -771.97292    1305.7326   -1924.0537    76.352565 
   91800    479.33082   -119.37902    0.4337086   -118.94532    6203.8567    4.2332883    4.2332883    4.2332883    6203.8567    2455.1804    5070.0017    11086.388    8560.2497    4547.7324   -4080.0571    75.863614 
   91900    657.69004   -119.54074   0.59509177   -118.94564    2508.5717     4.239081     4.239081     4.239081    2508.5717   -4792.4898    5356.6037    6961.6013    5553.1456    1274.9686   -1074.9967    76.175472 
   92000    514.34017   -119.40945   0.46538579   -118.94406   -7910.5312    4.2426198    4.2426198    4.2426198   -7910.5312   -8632.3577   -10500.533   -4598.7034   -4313.2231   -2525.8923    560.37322    76.366406 
   92100    370.38564   -119.27888   0.33513271   -118.94374   -3407.0948    4.2350558    4.2350558    4.2350558   -3407.0948   -4808.7659    -13194.58    7782.0616   -7129.6164   -726.31693    489.30508    75.958682 
   92200    683.16774   -119.56349   0.61814453   -118.94535   -6326.9067    4.2388286    4.2388286    4.2388286   -6326.9067   -6575.4281   -6683.3977   -5721.8942    4436.6515      3029.01    5514.9954    76.161864 
   92300    494.68043   -119.39298   0.44759725   -118.94538   -7972.0111    4.2427552    4.2427552    4.2427552   -7972.0111    -8941.512   -13966.057   -1008.4644    5195.9141    8530.2242    906.19153    76.373717 
   92400    373.13069   -119.28146   0.33761649   -118.94385    1182.9959    4.2356854    4.2356854    4.2356854    1182.9959   -8186.2803    890.06564    10845.202   -8513.2816   -1812.0479     3772.452    75.992564 
   92500    621.16085   -119.50708   0.56203939   -118.94504     3269.738    4.2377295    4.2377295    4.2377295     3269.738   -6004.8797    14814.454    999.63935   -8419.4375   -3636.0721    4842.6326    76.102638 
   92600    512.99417   -119.40968   0.46416791   -118.94551    4556.1644    4.2414743    4.2414743    4.2414743    4556.1644    2448.2175    7685.2982    3534.9776   -2406.4479    5619.6042    849.65477    76.304565 
   92700    355.02461   -119.26578   0.32123373   -118.94455    6083.9132    4.2354799    4.2354799    4.2354799    6083.9132    4135.4137     4001.259    10115.067    4725.2113    1461.6195   -1766.4304    75.981501 
   92800    427.47373   -119.33228   0.38678721   -118.94549     1214.911    4.2368967    4.2368967    4.2368967     1214.911   -8350.3326    472.80942    11522.256   -373.88466   -2178.2808    -6477.778    76.057778 
   92900    700.69532   -119.57977   0.63400385   -118.94577   -5045.8046    4.2402227    4.2402227    4.2402227   -5045.8046   -10061.385    2932.4496   -8008.4788   -8121.2174   -9463.7271   -1872.1383    76.237033 
   93000    459.93324   -119.36163   0.41615726   -118.94547   -7181.0753    4.2373092    4.2373092    4.2373092   -7181.0753   -162.87323   -17582.218   -3798.1347   -1795.9409   -6705.2352   -798.88197    76.079993 
   93100    411.30688   -119.31795   0.37215911   -118.94579   -8970.0286    4.2377693    4.2377693    4.2377693   -8970.0286   -1879.1307   -25081.609    50.654134    6018.4952    1206.6362   -9838.3583     76.10478 
   93200    601.31381   -119.49071   0.54408137   -118.94663    -4947.278    4.2394744    4.2394744    4.2394744    -4947.278   -13222.751   -7947.5004     6328.417     3682.416   -3880.2267   -3210.8412    76.196683 
   93300    524.40172   -119.41958    0.4744897    -118.9451   -2696.3774    4.2397504    4.2397504    4.2397504   -2696.3774   -4781.0371   -6819.5816    3511.4866   -3853.3003   -4915.7124   -667.13945    76.211564 
   93400    457.74863    -119.3578   0.41418058   -118.94362     6799.961    4.2370007    4.2370007    4.2370007     6799.961    2054.3777    5298.4775    13047.028    -2893.668   -3444.4858    787.83573    76.063378 
   93500    533.56108    -119.4282   0.48277728   -118.94542    8308.8671    4.2382499    4.2382499    4.2382499    8308.8671   -5511.5798    3466.6372    26971.544    4778.6809    4673.9493    93.156381    76.130673 
   93600     454.9264   -119.35711   0.41162697   -118.94548    5713.9136    4.2408418    4.2408418    4.2408418    5713.9136   -1330.1415     18614.62   -142.73717    6981.4048    2704.4334    2069.7816    76.270436 
   93700    382.47139   -119.28997   0.34606815   -118.94391    4729.7154    4.2354039    4.2354039    4.2354039    4729.7154    3368.5141    5116.2828    5704.3491   -1968.2643   -1706.3188    4291.5598     75.97741 
   93800    585.16943   -119.47372    0.5294736   -118.94425   -4705.8573    4.2379342    4.2379342    4.2379342   -4705.8573   -16217.046    982.02296    1117.4515   -3338.5079   -2172.6996    1348.1254    76.113662 
   93900    580.87052   -119.47042   0.52558385   -118.94484   -11487.212    4.2431451    4.2431451    4.2431451   -11487.212   -9015.2134   -6360.7835   -19085.638    1984.2837   -1295.5228   -3763.8344    76.394776 
   94000    352.36169   -119.26425   0.31882426   -118.94543   -6039.7005    4.2337051    4.2337051    4.2337051   -6039.7005     8597.771   -21747.358   -4969.5141    5889.5476    1315.2743   -10005.309    75.886025 
   94100    481.54919    -119.3822   0.43571583   -118.94648   -6218.6434    4.2388021    4.2388021    4.2388021   -6218.6434   -14821.067   -17369.219    13534.356    1463.8032   -6409.3116   -3939.9456    76.160438 
   94200     619.1919   -119.50614   0.56025785   -118.94589   -2280.7043    4.2422197    4.2422197    4.2422197   -2280.7043   -15785.943     8412.538    531.29215   -7625.0319   -6981.3271   -4779.0051    76.344803 
   94300    604.83641   -119.49182    0.5472687   -118.94455    7126.6438    4.2306562    4.2306562    4.2306562    7126.6438     9972.355     2441.558    8966.0184   -19.271591   -1295.4748   -1435.3712    75.722194 
   94400    388.08234   -119.29783   0.35114506   -118.94669    7606.4026    4.2399996    4.2399996    4.2399996    7606.4026   -6752.6612   -1824.7105     31396.58    1372.5344    2074.3989   -6027.7129    76.225004 
   94500    528.68996   -119.42556   0.47836979   -118.94719   -2375.0542    4.2396594    4.2396594    4.2396594   -2375.0542   -12396.355   -5224.9626    10496.155    426.80098    399.99367    -1448.746    76.206655 
   94600    471.43086   -119.37293   0.42656055   -118.94637    6781.5163    4.2329642    4.2329642    4.2329642    6781.5163    4779.8589    10019.615     5545.075   -3321.1136   -226.11114    4715.2685    75.846193 
   94700     492.3219   -119.39048    0.4454632   -118.94501   -10021.132    4.2417684    4.2417684    4.2417684   -10021.132   -19223.758   -8601.4571   -2238.1811   -5352.4069    745.17893    1528.8565    76.320438 
   94800    568.94005   -119.46043   0.51478891   -118.94564   -8692.3302    4.2399726    4.2399726    4.2399726   -8692.3302   -9632.6314   -17857.009    1412.6497    6901.4555     4936.097    830.03626    76.223546 
   94900     424.7783   -119.33095   0.38434833    -118.9466    2315.7974     4.233508     4.233508     4.233508    2315.7974     6936.674   -128.68895    139.40715    2889.1219    4508.9599   -411.50085    75.875426 
   95000    384.47354   -119.29469   0.34787974   -118.94681   -4203.3979    4.2414104    4.2414104    4.2414104   -4203.3979   -12356.985   -6673.6854    6420.4762   -262.01898   -4925.1255     240.0058    76.301117 
   95100    495.34689   -119.39427   0.44820027   -118.94607    4180.0934    4.2401285    4.2401285    4.2401285    4180.0934   -12671.967    10495.145    14717.102    1263.7613   -3817.3712    495.71341    76.231955 
   95200    661.71946   -119.54282   0.59873767   -118.94408    9350.4653    4.2299688    4.2299688    4.2299688    9350.4653    171.77629    13062.143    14817.477    4575.5163    3822.4003   -2223.7174    75.685294 
   95300    421.55415   -119.32597   0.38143105   -118.94454    -4861.409    4.2464416    4.2464416    4.2464416    -4861.409   -15685.729    4180.8357   -3079.3338    3231.6548   -767.63483   -3904.1906    76.572965 
   95400    452.59453   -119.35435   0.40951705   -118.94483   -45.344151    4.2357216    4.2357216    4.2357216   -45.344151   -3350.6643    2579.6076    635.02423   -1612.1777   -10421.764    3319.7127    75.994509 
   95500    589.47473   -119.47782   0.53336912   -118.94445   -1152.0187    4.2337841    4.2337841    4.2337841   -1152.0187   -15214.016    4910.7578    6847.2024   -1895.5647   -3827.6005     128.4983    75.890272 
   95600    513.72769   -119.40789   0.46483161   -118.94306   -11245.463    4.2469908    4.2469908    4.2469908   -11245.463   -29985.395    1755.5073   -5506.5018    723.77943    2701.3529    1084.6912    76.602682 
   95700    506.48339   -119.40112   0.45827681   -118.94285     -390.494     4.232563     4.232563     4.232563     -390.494    1268.9468   -5883.8833    3443.4545    3599.7718   -236.21634    659.83531    75.824627 
   95800    563.00115   -119.45513   0.50941527   -118.94571     393.8903    4.2367307    4.2367307    4.2367307     393.8903   -7072.0894   -8803.9635    17057.724   -3922.2858   -7178.8859    1692.6201    76.048837 
   95900    460.00556   -119.36305    0.4162227   -118.94683   -2795.7961    4.2437346    4.2437346    4.2437346   -2795.7961   -25084.374    4447.2116    12249.774    231.95981   -2528.7472    6369.4275    76.426616 
   96000     348.9286   -119.26215   0.31571793   -118.94643    4977.2569    4.2323591    4.2323591    4.2323591    4977.2569   -2937.4992    18758.131   -888.86156    73.604505    6840.8737     774.6295    75.813673 
   96100    559.26729   -119.45197    0.5060368   -118.94594    4837.0212    4.2352425    4.2352425    4.2352425    4837.0212   -2369.1203    12462.124      4418.06    1815.4446    7824.1025   -4726.6903    75.968726 
   96200    688.97257   -119.56866   0.62339686   -118.94526   -8776.0269    4.2448276    4.2448276    4.2448276   -8776.0269   -22526.507   -1561.1286    -2240.445   -1689.5574   -4744.9765    1336.8753    76.485685 
   96300    394.50123   -119.30293     0.356953   -118.94598    8104.9096    4.2294396    4.2294396    4.2294396    8104.9096    3848.5462    24024.828   -3558.6457   -1604.1217   -3321.3555   -2545.9851    75.656889 
   96400    358.24571   -119.27185   0.32414825    -118.9477   -6158.8683    4.2406284    4.2406284    4.2406284   -6158.8683   -18665.365   -2336.1476    2524.9082    2294.9984    12640.125   -1410.9275    76.258923 
   96500    574.55208   -119.46631    0.5198668   -118.94644   -3583.4859     4.242578     4.242578     4.242578   -3583.4859   -28803.619   -6880.2983    24933.459    639.00679    7553.3853   -3490.3158    76.364146 
   96600    700.71375   -119.57652   0.63402052    -118.9425    1347.6077      4.23172      4.23172      4.23172    1347.6077    -4257.442    1113.8362    7186.4288    3683.4019   -667.60455   -5779.9154    75.779333 
   96700    411.09161   -119.31736   0.37196433    -118.9454   -2826.9044    4.2415915    4.2415915    4.2415915   -2826.9044   -13769.853   -11004.467    16293.607   -4059.7625   -998.45129    2629.9867    76.310888 
   96800    417.88155    -119.3259   0.37810801   -118.94779   -3751.9057    4.2402086    4.2402086    4.2402086   -3751.9057   -24884.383    3451.5285    10177.137    1484.5183    10804.263    2288.3967    76.236273 
   96900    436.25213   -119.34288   0.39473009   -118.94815    3523.3208    4.2314383    4.2314383    4.2314383    3523.3208   -15702.269    25661.646    610.58585    1447.5706    5502.9154    -2055.503    75.764197 
   97000    556.92271    -119.4486   0.50391537   -118.94469   -4343.1117     4.241217     4.241217     4.241217   -4343.1117   -13005.273    3289.7437   -3313.8056   -2775.4813   -5234.4783    1393.9479    76.290681 
   97100    583.69821    -119.4738   0.52814241   -118.94566   -172.43316    4.2388181    4.2388181    4.2388181   -172.43316   -10301.453    7313.4878    2470.6656   -3025.6324   -3277.4995   -1430.9376      76.1613 
   97200    470.61614    -119.3729   0.42582337   -118.94708    7365.5458     4.231353     4.231353     4.231353    7365.5458   -4981.5284    10133.243    16944.923   -2062.8448    6956.2856    1769.1102    75.759617 
   97300    358.44402   -119.27298   0.32432768   -118.94865   -2530.3509    4.2414359    4.2414359    4.2414359   -2530.3509    -21934.18    8412.6079    5930.5199    1042.8888     8437.306    2544.9208     76.30249 
   97400    501.19596   -119.39944   0.45349264   -118.94595   -1053.2895    4.2380797    4.2380797    4.2380797   -1053.2895   -3126.4571   -12206.335    12172.924   -771.25822   -1888.3284   -2057.6505    76.121504 
   97500    690.26801   -119.56903   0.62456901   -118.94446   -3808.4007    4.2361773    4.2361773    4.2361773   -3808.4007   -11217.183   -14593.909     14385.89   -7175.6789   -1927.8113    600.03581    76.019043 
   97600    472.63449   -119.37427   0.42764962   -118.94662   -2978.1401    4.2384782    4.2384782    4.2384782   -2978.1401   -22391.187     3907.402    9549.3651   -4481.3994    11218.071    3033.8809     76.14298 
   97700    357.49059   -119.27045     0.323465   -118.94698   -3577.1358    4.2388631    4.2388631    4.2388631   -3577.1358   -16387.253      6342.28   -686.43459     1128.438    14970.552   -746.15883    76.163725 
   97800    452.42933   -119.35568   0.40936757   -118.94631    2691.9309     4.235996     4.235996     4.235996    2691.9309   -14540.654    9964.5823    12651.865   -2525.5449   -2597.6852    1666.3607    76.009282 
   97900     619.3266   -119.50548   0.56037972    -118.9451    1389.3656    4.2368364    4.2368364    4.2368364    1389.3656   -19161.654    10099.573    13230.177    910.31183   -6490.9894   -3222.8556    76.054529 
   98000    491.98945   -119.38966   0.44516239    -118.9445    108.65777    4.2403877    4.2403877    4.2403877    108.65777   -4369.1235    12812.745   -8117.6482   -160.33961    5392.4635   -1219.8345    76.245935 
   98100    475.17508    -119.3749   0.42994839   -118.94495    312.43498    4.2374948    4.2374948    4.2374948    312.43498    1699.9164   -4024.3142    3261.7028    4137.4059    6517.3523    3811.6501    76.089992 
   98200    474.01476   -119.37435   0.42889852   -118.94545   -377.03605    4.2368328    4.2368328    4.2368328   -377.03605   -12178.431    557.56693    10489.756    1009.0486   -5733.9606    2725.5825    76.054337 
   98300    450.50552   -119.35294   0.40762686   -118.94531    -3283.007    4.2406372    4.2406372    4.2406372    -3283.007   -576.38729   -4293.7446   -4978.8891   -2852.7788   -12686.726    2301.3774    76.259397 
   98400    574.48888   -119.46374   0.51980961   -118.94393   -3769.8656    4.2375809    4.2375809    4.2375809   -3769.8656   -243.29015   -11488.777    422.47066   -2041.4451   -1351.9551    3182.2826    76.094629 
   98500    570.32701   -119.46032   0.51604387   -118.94428    3208.4058    4.2350037    4.2350037    4.2350037    3208.4058    -11191.32    -3286.882     24103.42   -4598.4599    6777.9481    1438.5513    75.955875 
   98600    482.18188   -119.38263   0.43628829   -118.94634   -2131.2978    4.2413149    4.2413149    4.2413149   -2131.2978   -25918.225    7209.4572    12314.874   -1206.8315   -403.42476    3601.2869    76.295962 
   98700    332.85592   -119.24843   0.30117503   -118.94725    2394.3342    4.2354895    4.2354895    4.2354895    2394.3342   -9232.5821   -1035.1395    17450.724   -4148.3122   -9225.6773   -264.38272    75.982017 
   98800    524.89225    -119.4217   0.47493353   -118.94676    1277.2019    4.2335401    4.2335401    4.2335401    1277.2019   -1964.6119   -829.32121    6625.5387   -4202.1115   -2840.5493   -6409.1053    75.877155 
   98900    649.84226   -119.53314   0.58799093   -118.94515   -9799.5826    4.2427595    4.2427595    4.2427595   -9799.5826   -17887.274   -6274.1251   -5237.3482   -2105.3039     10059.77    566.37689    76.373951 
   99000     539.8493   -119.43438   0.48846699   -118.94591   -5037.2037    4.2343603    4.2343603    4.2343603   -5037.2037   -16575.675    11352.012   -9887.9475   -1213.5206   -2411.7368   -2374.4884    75.921262 
   99100    434.89106   -119.34214   0.39349857   -118.94864    2696.3111    4.2331911    4.2331911    4.2331911    2696.3111   -2647.3124    1082.4482    9653.7976   -1196.1272   -9351.7684   -2292.3207    75.858391 
   99200    382.18535   -119.29504   0.34580934   -118.94923    -4753.711    4.2445071    4.2445071    4.2445071    -4753.711   -12028.697     -16607.3    14374.865   -1521.6286   -4845.1434   -3129.2247    76.468364 
   99300    581.12336   -119.47205   0.52581263   -118.94624    7726.3233     4.232462     4.232462     4.232462    7726.3233   -6009.6479    4462.9992    24725.619   -2814.0673    2119.4094   -6200.2526    75.819201 
   99400    598.19959     -119.487   0.54126356   -118.94574    5731.5469    4.2348284    4.2348284    4.2348284    5731.5469   -4756.9674     1494.256    20457.352    130.23496   -731.07726    766.57609    75.946443 
   99500    525.73447   -119.42176   0.47569559   -118.94606   -5562.2429     4.244779     4.244779     4.244779   -5562.2429   -8653.6619    -10915.23    2882.1628    2676.1043   -9329.9468    917.83336    76.483059 
   99600     345.2073   -119.25918   0.31235082   -118.94683    4075.4765    4.2332655    4.2332655    4.2332655    4075.4765   -11278.501     15489.14    8015.7909   -2824.0228   -3745.9556   -7176.6549     75.86239 
   99700    483.52242   -119.38378   0.43750125   -118.94628   -5382.0115    4.2359695    4.2359695    4.2359695   -5382.0115   -7176.1912   -2384.6228   -6585.2205   -599.98631    1329.7538   -4462.4289    76.007856 
   99800    594.86844    -119.4823   0.53824947   -118.94405   -8479.1704    4.2454425    4.2454425    4.2454425   -8479.1704   -1407.6827   -14710.385   -9319.4433    1777.1342    2734.6928   -5060.7576    76.518929 
   99900    638.56122   -119.52089   0.57778361   -118.94311    3327.8591    4.2306248    4.2306248    4.2306248    3327.8591   -1252.4035    3163.9953    8071.9854    442.11104    -6724.471   -617.18302    75.720509 
  100000    446.30712   -119.34997   0.40382806   -118.94614   -2401.4859    4.2401129    4.2401129    4.2401129   -2401.4859   -24702.883    7685.0963    9813.3284    -2851.045   -4450.9908   -2660.5141    76.231111 
Loop time of 222.576 on 1 procs for 100000 steps with 8 atoms

Pair  time (%) = 74.9966 (33.6949)
Kspce time (%) = 56.2158 (25.257)
Neigh time (%) = 0 (0)
Comm  time (%) = 10.5876 (4.75683)
Outpt time (%) = 0.203252 (0.091318)
Other time (%) = 80.5724 (36.2)

Nlocal:    8 ave 8 max 8 min
Histogram: 1 0 0 0 0 0 0 0 0 0
Nghost:    2189 ave 2189 max 2189 min
Histogram: 1 0 0 0 0 0 0 0 0 0
Neighs:    2472 ave 2472 max 2472 min
Histogram: 1 0 0 0 0 0 0 0 0 0

Total # of neighbors = 2472
Ave neighs/atom = 309
Neighbor list builds = 0
Dangerous builds = 0
unfix 20
unfix 21
print "seeds:9060285"
seeds:9060285
