LAMMPS (10 Feb 2015)
# ---- initialize simulations
clear
units metal
dimension 3
boundary p p p
atom_style charge
atom_modify map array
# ---- create atoms
read_data /Users/eugeneragasa/pyflamestk_git/pypospack/tests/tests_integration/workflow/WorkflowLammpsThermalExpansion/param_3101/MgO_NaCl_unit.npt.T2000/lammps.structure
  triclinic box = (0 0 0) to (4.2565 4.2565 4.2565) with tilt (0 0 0)
  1 by 1 by 1 MPI processor grid
  reading atoms ...
  8 atoms
# ---- define interatomic potential
include potential.mod
mass 1 24.305
mass 2 15.999

group Mg type 1
4 atoms in group Mg
group O type 2
4 atoms in group O

set group Mg charge 1.61886676565
  4 settings made for charge
set group O charge -1.61886676565
  4 settings made for charge

variable R_cut equal 10.0

pair_style buck/coul/long ${R_cut}
pair_style buck/coul/long 10
pair_coeff 1 1 0.0 0.5 0.0 ${R_cut}
pair_coeff 1 1 0.0 0.5 0.0 10
pair_coeff 1 2 1642.32869573 0.278339228763 0.0 ${R_cut}
pair_coeff 1 2 1642.32869573 0.278339228763 0.0 10
pair_coeff 2 2 10249.6145692 0.172187509684 14.0611166933 ${R_cut}
pair_coeff 2 2 10249.6145692 0.172187509684 14.0611166933 10

kspace_style pppm 1.0e-5

neighbor 1.0 bin
neigh_modify every 1 delay 0 check yes
# ---- define settings
compute eng all pe/atom
compute eatoms all reduce sum c_eng
# ---- run minimization
reset_timestep 0
fix 1 all box/relax iso 0.0 vmax 0.001
thermo 10
thermo_style custom step pe lx ly lz xy xz yz press pxx pyy pzz pxy pxz pyz c_eatoms
min_style cg
minimize 1e-25 1e-25 5000 10000
PPPM initialization ...
  G vector (1/distance) = 0.352512
  grid = 8 8 8
  stencil order = 5
  estimated absolute RMS force accuracy = 3.81673e-05
  estimated relative force accuracy = 2.65057e-06
  using double precision FFTs
  3d grid and FFT values/proc = 3375 512
Neighbor list info ...
  1 neighbor list requests
  update every 1 steps, delay 0 steps, check yes
  master list distance cutoff = 11
Memory usage per processor = 4.06549 Mbytes
Step PotEng Lx Ly Lz Xy Xz Yz Press Pxx Pyy Pzz Pxy Pxz Pyz eatoms 
       0   -105.55076       4.2565       4.2565       4.2565            0            0            0    126453.59    126453.59    126453.59    126453.59 4.0363335e-11 4.044677e-11 1.0723156e-10   -105.55076 
      10   -105.69165     4.299065     4.299065     4.299065            0            0            0    68786.015    68786.015    68786.015    68786.015 -1.0242962e-10 -4.708445e-11 -3.569371e-11   -105.69165 
      20   -105.75532      4.34163      4.34163      4.34163            0            0            0    18126.479    18126.479    18126.479    18126.479 7.5197513e-11 1.703257e-11 -3.0007315e-11   -105.75532 
      27   -105.76066    4.3583247    4.3583247    4.3583247            0            0            0    1.3863117    1.3863117    1.3863117    1.3863117 -6.2572681e-11 -1.3142723e-10 -3.2118437e-11   -105.76066 
Loop time of 0.014493 on 1 procs for 27 steps with 8 atoms

Minimization stats:
  Stopping criterion = linesearch alpha is zero
  Energy initial, next-to-last, final = 
        -105.550764672     -105.760658065     -105.760658065
  Force two-norm initial, final = 18.26 0.000217628
  Force max component initial, final = 18.26 0.000209876
  Final line search alpha, max atom move = 0.25 5.24691e-05
  Iterations, force evaluations = 27 40

Pair  time (%) = 0.00390005 (26.9099)
Kspce time (%) = 0.00241709 (16.6776)
Neigh time (%) = 0 (0)
Comm  time (%) = 0.000454187 (3.13384)
Outpt time (%) = 3.38554e-05 (0.233599)
Other time (%) = 0.00768781 (53.045)

Nlocal:    8 ave 8 max 8 min
Histogram: 1 0 0 0 0 0 0 0 0 0
Nghost:    2189 ave 2189 max 2189 min
Histogram: 1 0 0 0 0 0 0 0 0 0
Neighs:    2344 ave 2344 max 2344 min
Histogram: 1 0 0 0 0 0 0 0 0 0

Total # of neighbors = 2344
Ave neighs/atom = 293
Neighbor list builds = 0
Dangerous builds = 0
unfix 1
# ---- define output variables ----
variable natoms equal "count(all)"
variable tot_energy equal "c_eatoms"
variable length_x equal "lx"
variable length_y equal "ly"
variable length_z equal "lz"
variable tilt_xy equal "xy"
variable tilt_xz equal "xz"
variable tilt_yz equal "yz"
variable tot_press equal "press"
variable press_xx equal "pxx"
variable press_yy equal "pyy"
variable press_zz equal "pzz"
variable press_xy equal "pxy"
variable press_xz equal "pxz"
variable press_yz equal "pyz"

# ---- output ----
print "pypospack:output_section:begin"
pypospack:output_section:begin
print "tot_energy = ${tot_energy}"
tot_energy = -105.760658064539
print "num_atoms = ${natoms}"
num_atoms = 8
print "xx = ${length_x}"
xx = 4.35832471527479
print "yy = ${length_y}"
yy = 4.35832471527479
print "zz = ${length_z}"
zz = 4.35832471527479
print "xy = ${tilt_xy}"
xy = 0
print "xz = ${tilt_xz}"
xz = 0
print "yz = ${tilt_yz}"
yz = 0
print "tot_press = ${tot_press}"
tot_press = 1.38631174704167
print "pxx = ${press_xx}"
pxx = 1.38631174709188
print "pyy = ${press_yy}"
pyy = 1.38631174731354
print "pzz = ${press_zz}"
pzz = 1.3863117467196
print "pxy = ${press_xy}"
pxy = -6.25726806975275e-11
print "pxz = ${press_xz}"
pxz = -1.31427228854923e-10
print "pyz = ${press_yz}"
pyz = -3.21184365171528e-11
print "pypospack:output_section:done"
pypospack:output_section:done
print "pypospack:lammps_sim:done"
pypospack:lammps_sim:done
#------------------------------------------------------------------------------
# RUN THERMOSTAT
# running using an NPT Nose-Hoover style thermostat
#------------------------------------------------------------------------------
variable tempdamp equal 0.1
variable pressdamp equal 1.0
# set initial velocities
velocity all create 2000 4180821 mom yes dist gaussian loop all
# fix for Nose-Hoover style thermostat
fix 20 all npt temp 2000 2000 0.1 aniso 0.0 0.0 1.0 drag 1.0 couple xyz
variable boxx equal lx
variable boxy equal ly
variable boxz equal lz
variable boxp equal press
variable boxt equal temp
# calculate averages every 10000 steps
reset_timestep 0
fix 21 all ave/time 10 10 100 v_boxx v_boxy v_boxz v_boxp v_boxt file lattice.out
thermo_style custom step temp pe ke etotal press lx ly lz press pxx pyy pzz pxy pxz pyz vol
thermo_modify flush yes
thermo 100
run 100000
PPPM initialization ...
  G vector (1/distance) = 0.351503
  grid = 8 8 8
  stencil order = 5
  estimated absolute RMS force accuracy = 3.99806e-05
  estimated relative force accuracy = 2.7765e-06
  using double precision FFTs
  3d grid and FFT values/proc = 3375 512
Memory usage per processor = 3.06549 Mbytes
Step Temp PotEng KinEng TotEng Press Lx Ly Lz Press Pxx Pyy Pzz Pxy Pxz Pyz Volume 
       0         2000   -105.76067     1.809642   -103.95103    23347.423    4.3583247    4.3583247    4.3583247    23347.423    18107.112    21323.846    30611.311     6829.982    21989.175    7312.0849    82.786353 
     100    407.71052   -104.09313   0.36890505   -103.72423    9586.4732    4.3862204    4.3862204    4.3862204    9586.4732    25427.582   -31664.689    34996.527   -6263.8498   -18176.173   -54481.691    84.386184 
     200     1603.576    -104.6735    1.4509493   -103.22255   -1204.6953    4.4269378    4.4269378    4.4269378   -1204.6953   -25592.639    -37475.75    59454.304    7741.9482    17480.041    2629.6114    86.758143 
     300    1383.5447   -104.05189    1.2518603   -102.80003   -36487.144    4.4445062    4.4445062    4.4445062   -36487.144    14079.152   -58264.693    -65275.89   -1326.5682   -6971.5154   -68296.464    87.795153 
     400    2332.9867   -104.52686    2.1109354   -102.41592   -6650.2602    4.4380291    4.4380291    4.4380291   -6650.2602   -21151.264   -20668.342    21868.825   -2836.4486    11051.282    9308.0205    87.411873 
     500    1247.6841    -103.3253    1.1289308   -102.19637   -1663.2218    4.4285743    4.4285743    4.4285743   -1663.2218    35736.516   -26582.681     -14143.5    10523.138   -779.34923   -82306.469    86.854395 
     600    2817.4886   -104.61068    2.5493229   -102.06136    22564.931    4.4414529    4.4414529    4.4414529    22564.931    44576.541     7076.656    16041.597    1445.0067    4410.8697    14178.772    87.614336 
     700    1467.9465   -103.36379    1.3282288   -102.03556   -54044.457    4.4546133    4.4546133    4.4546133   -54044.457   -20799.813   -111829.87   -29503.691   -1188.4726    3492.2959   -95759.174    88.395475 
     800    2444.6338    -104.1978     2.211956   -101.98584    35803.554    4.4372169    4.4372169    4.4372169    35803.554   -451.19143    1271.5301    106590.32   -11235.406    2520.3165    26884.838    87.363893 
     900    1440.2752   -103.32893    1.3031912   -102.02574   -755.82988    4.4287497    4.4287497    4.4287497   -755.82988    47925.505   -42956.345     -7236.65    4967.0891    1318.6619   -84825.102    86.864718 
    1000    2827.5229   -104.60081    2.5584021   -102.04241    25516.037    4.4361997    4.4361997    4.4361997    25516.037    17811.086   -26648.015     85385.04    -26970.63   -8736.1745    23043.396    87.303822 
    1100    1750.1398   -103.64508    1.5835632   -102.06151   -51382.294    4.4658077    4.4658077    4.4658077   -51382.294    21901.194   -116396.37   -59651.706   -5920.5121   -13112.434   -76256.858    89.063563 
    1200    2493.7239   -104.24661    2.2563738   -101.99024    7840.1233    4.4710923    4.4710923    4.4710923    7840.1233    30851.474   -52072.802    44741.698   -25335.395   -35589.421    26997.441    89.380113 
    1300    1062.7023   -102.93909   0.96155534   -101.97753    13230.103    4.4672811    4.4672811    4.4672811    13230.103    108102.29   -40945.922   -27466.061    12805.857   -30857.089    -18995.57    89.151741 
    1400    2220.1098   -103.96466     2.008802   -101.95586    24329.088    4.4621923    4.4621923    4.4621923    24329.088   -6181.0185    18808.821    60359.461   -325.41846   -29766.816    12474.413    88.847427 
    1500     1857.807   -103.67659    1.6809828    -101.9956    72.618256    4.4645266    4.4645266    4.4645266    72.618256    67770.384   -44883.858   -22668.671    8720.6753    -6019.545    -18147.87    88.986931 
    1600    2635.6736    -104.3612    2.3848129   -101.97639   -44074.641    4.4771766    4.4771766    4.4771766   -44074.641   -28225.715   -29602.148   -74396.058    24528.482   -5319.5163     196.3857    89.745496 
    1700    1675.4989   -103.49734    1.5160266   -101.98132   -9590.4035    4.4756517    4.4756517    4.4756517   -9590.4035    81124.853   -19903.469   -89992.594     -4344.92    433.97254   -8332.8118    89.653828 
    1800    2211.6719   -103.99404    2.0011672   -101.99288   -5193.6838    4.4485472    4.4485472    4.4485472   -5193.6838    50590.412   -30705.768   -35465.695    31637.984    2109.9089    12141.217    88.034849 
    1900    1033.3708   -102.95377   0.93501558   -102.01876    44707.895    4.4112256    4.4112256    4.4112256    44707.895    44720.757    54522.628    34880.301     13241.98    3832.3718   -22825.777    85.837645 
    2000    2844.5978   -104.63327    2.5738519   -102.05942    10854.383    4.4204377    4.4204377    4.4204377    10854.383    49179.764    10095.296   -26711.912   -7891.4849   -11908.564    17588.773    86.376544 
    2100    1783.4748   -103.70629    1.6137255   -102.09257   -65675.096    4.4693255    4.4693255    4.4693255   -65675.096    -25315.55   -77773.245   -93936.492    4382.0401   -20646.149   -29905.128    89.274196 
    2200    2821.0061   -104.55223    2.5525056   -101.99972     -43655.7    4.4776847    4.4776847    4.4776847     -43655.7   -33134.605   -39088.763   -58743.731   -6391.8286    -8493.197    43275.235    89.776056 
    2300    1152.3553   -103.01095    1.0426753   -101.96828     29652.19    4.4370879    4.4370879    4.4370879     29652.19    10361.716    38482.175    40112.677    25097.183   -6544.8724   -40236.348    87.356273 
    2400    2622.0322   -104.34223    2.3724698   -101.96976    22672.985    4.4145227    4.4145227    4.4145227    22672.985     16377.53    45325.012    6316.4114   -12212.532    1846.1158    15077.021    86.030268 
    2500    1963.9143   -103.84064    1.7769909   -102.06365   -20020.066    4.4254039    4.4254039    4.4254039   -20020.066   -3716.0512   -52214.861   -4129.2865    1473.1228   -18214.174   -68188.409    86.667992 
    2600    1892.1273   -103.79877    1.7120365   -102.08673    9183.2991    4.4547804    4.4547804    4.4547804    9183.2991   -12043.384    27177.586    12415.695     6659.862    -20476.99    19726.724    88.405421 
    2700    2040.2194   -103.91356    1.8460334   -102.06753   -29877.742    4.4539416    4.4539416    4.4539416   -29877.742    16938.088   -38543.508   -68027.808    2593.9326   -1535.6522   -60946.767    88.355493 
    2800    2008.2892   -103.85561    1.8171422   -102.03847    18352.745    4.4191401    4.4191401    4.4191401    18352.745   -37977.791    112948.65   -19912.628   -12917.547   -29073.321    14412.068    86.300499 
    2900    1987.1757   -103.84319    1.7980384   -102.04515    21268.912    4.4103413    4.4103413    4.4103413    21268.912    94511.628   -20467.212   -10237.681    6136.2127    2417.8343   -58531.972    85.786038 
    3000    2207.6665   -104.06038     1.997543   -102.06284    6631.2712    4.4341055    4.4341055    4.4341055    6631.2712   -34673.875    89857.401   -35289.713   -14512.183   -26056.395    2380.2975    87.180244 
    3100    1735.5821   -103.62704    1.5703911   -102.05665   -17565.907    4.4463613    4.4463613    4.4463613   -17565.907     56844.52   -41131.103   -68411.139    11835.599    6104.9501   -57555.693    87.905138 
    3200    2058.7178   -103.90401    1.8627711   -102.04124    31789.085    4.4440184    4.4440184    4.4440184    31789.085    71493.237    51261.289    -27387.27   -14027.889    -17131.11    19100.196    87.766248 
    3300     2054.024   -103.90809    1.8585241   -102.04957   -40721.893    4.4472204    4.4472204    4.4472204   -40721.893   -630.42916   -64338.938   -57196.311    5411.1989    -8211.447    -83401.79    87.956102 
    3400    2509.1013   -104.31118    2.2702876   -102.04089    4252.0471    4.4381549    4.4381549    4.4381549    4252.0471    49927.674   -24681.015   -12490.517     24043.25   -4516.8863    30988.259    87.419308 
    3500    1587.0633   -103.50632    1.4360082   -102.07031    11412.531    4.4392405    4.4392405    4.4392405    11412.531    11534.451    39732.519   -17029.376   -2615.2734   -6723.8884   -59215.374    87.483476 
    3600    2571.8578   -104.37449    2.3270709   -102.04742   -25214.609    4.4578838    4.4578838    4.4578838   -25214.609   -19838.838    -24070.51   -31734.479     -531.279   -18365.099    29943.621    88.590309 
    3700    1385.1335   -103.28233    1.2532979   -102.02904    3371.3565    4.4411065    4.4411065    4.4411065    3371.3565    36121.089    47038.744   -73045.763    6692.8889   -10828.746   -57660.419    87.593839 
    3800      2816.28   -104.55394    2.5482293   -102.00572   -4422.1459    4.4272914    4.4272914    4.4272914   -4422.1459   -18468.477    41923.731   -36721.692    10960.656    4284.7731    37403.287    86.778934 
    3900    1541.2755   -103.45461    1.3945784   -102.06003    -38862.51    4.4315858    4.4315858    4.4315858    -38862.51    21475.709   -41174.207   -96889.032    -4937.804   -13910.139   -99405.778    87.031706 
    4000    2529.2898   -104.33482    2.2885546   -102.04627    15592.871    4.4235045    4.4235045    4.4235045    15592.871    31885.707    45133.728   -30240.821   -13051.533   -7683.6897    21801.977    86.556449 
    4100    1679.8904   -103.59731    1.5200001   -102.07731   -35555.983    4.4310922    4.4310922    4.4310922   -35555.983    19307.083   -45319.143   -80655.891    9577.5356     7360.633   -69910.696    87.002628 
    4200    2263.6341   -104.09507    2.0481837   -102.04689    6481.3679    4.4280406    4.4280406    4.4280406    6481.3679    1576.1859    31667.464   -13799.546   -6149.0061   -1716.0594    12582.459       86.823 
    4300    1597.0454   -103.49105    1.4450403   -102.04601    9697.4242    4.4194009    4.4194009    4.4194009    9697.4242     48441.52   -26870.817     7521.569   -2820.5122   -8765.4297   -61709.594    86.315778 
    4400    2861.5659   -104.62878     2.589205   -102.03958   -5575.7658    4.4259239    4.4259239    4.4259239   -5575.7658   -38555.565    26826.056    -4997.789   -3839.7861    991.35347    24552.852     86.69855 
    4500    1178.3421   -103.13778    1.0661887   -102.07159    7076.5652    4.4229054    4.4229054    4.4229054    7076.5652    40895.436    6786.4987   -26452.239   -14231.956    7837.6512   -59953.367    86.521282 
    4600    2778.0681   -104.57031    2.5136544   -102.05666    2736.1934    4.4260845    4.4260845    4.4260845    2736.1934    20063.674   -1876.9519   -9978.1418    11388.659   -8003.9567    31575.504    86.707985 
    4700    1621.7983   -103.52694    1.4674372    -102.0595   -12696.124    4.4272469    4.4272469    4.4272469   -12696.124   -4994.8552   -24247.649   -8845.8666   -21765.854    15059.811   -67073.484     86.77632 
    4800    2511.1337   -104.30755    2.2721265   -102.03542   -1506.7549    4.4218301    4.4218301    4.4218301   -1506.7549     7302.802   -18983.535    7160.4685    -6215.727     4060.791    32546.549    86.458194 
    4900    1886.9961   -103.75426    1.7073937   -102.04687    6417.3965    4.4228141    4.4228141    4.4228141    6417.3965      21646.9   -25756.101    23361.391     -1242.54    4477.5131   -75283.464    86.515926 
    5000    2276.1061   -104.08843    2.0594686   -102.02896   -3494.7175    4.4309002    4.4309002    4.4309002   -3494.7175   -10482.119   -14759.786    14757.752   -7712.0472    7329.0085    35107.739    86.991317 
    5100    2011.3098   -103.85054    1.8198754   -102.03066     -12659.1    4.4314617    4.4314617    4.4314617     -12659.1   -1653.4961    -67434.88    31111.077    15374.318   -1554.8717   -67610.513    87.024394 
    5200    2300.7146   -104.09104    2.0817349    -102.0093    24038.107    4.4268781    4.4268781    4.4268781    24038.107    22238.046    12568.101    37308.173   -18839.997    11131.015    16665.278    86.754638 
    5300    1412.0955   -103.30384    1.2776937   -102.02614   -26100.868    4.4236283    4.4236283    4.4236283   -26100.868   -35785.539   -12115.799   -30401.266    24139.499   -5680.5759   -55666.368    86.563713 
    5400    2525.2705   -104.31428    2.2849179   -102.02936    14279.762    4.4208992    4.4208992    4.4208992    14279.762   -5047.8106   -23057.955    70945.052   -30696.224    89.873724    10868.342    86.403601 
    5500    1491.8399   -103.40716    1.3498481   -102.05731   -34300.423    4.4276488    4.4276488    4.4276488   -34300.423   -12601.291   -57024.037   -33275.941    24104.635   -2678.3833   -33690.101    86.799954 
    5600    2270.6994   -104.09148    2.0545765    -102.0369   -9150.0506    4.4287743    4.4287743    4.4287743   -9150.0506   -25954.589   -7792.4222    6296.8595   -9268.2445    1640.7028   -17026.954    86.866161 
    5700    1815.9674   -103.69932    1.6431255    -102.0562   -45162.849     4.427537     4.427537     4.427537   -45162.849   -42251.791   -74994.642   -18242.114    24532.862   -11865.812    24982.338    86.793381 
    5800    2500.7157   -104.30242    2.2627001   -102.03972    3531.0493    4.4317709    4.4317709    4.4317709    3531.0493   -12002.279   -5898.4717    28493.899   -14543.927    11764.243   -29903.163    87.042609 
    5900    1310.5908   -103.26094    1.1858501   -102.07509    -34550.55    4.4367835    4.4367835    4.4367835    -34550.55   -24625.874   -81248.857    2223.0813    24687.967   -1140.9652    29309.334    87.338298 
    6000    3048.4355   -104.79345    2.7582885   -102.03516   -961.78878    4.4396509    4.4396509    4.4396509   -961.78878   -5432.1515    14364.239   -11817.454   -23958.964   -7383.8001   -11345.828    87.507741 
    6100    959.52173   -102.91273   0.86819543   -102.04453    -37225.48    4.4405067    4.4405067    4.4405067    -37225.48   -88376.837   -98169.153     74869.55    1392.1225     2596.379    7609.6078    87.558354 
    6200    3033.9629   -104.74734    2.7451934   -102.00215     6908.565    4.4318846    4.4318846    4.4318846     6908.565   -16791.429    24705.831    12811.294    6557.0964     -2901.36   -36062.261     87.04931 
    6300    1270.1632   -103.18826    1.1492703   -102.03899   -21930.329    4.4149086    4.4149086    4.4149086   -21930.329   -7416.0121   -59280.709    905.73442   -19269.557   -2114.0909    18830.848     86.05283 
    6400    2306.4086   -104.12527    2.0868869   -102.03838    37258.833    4.4106241    4.4106241    4.4106241    37258.833    9352.2601    41176.306    61247.934   -8066.5385    -6749.431   -18687.022    85.802537 
    6500    1747.6526   -103.66415    1.5813128   -102.08284   -27463.527    4.4317963    4.4317963    4.4317963   -27463.527   -27594.477   -73704.018    18907.914   -14386.942    11452.087    17024.086    87.044106 
    6600    2358.0003   -104.18527    2.1335683    -102.0517    10167.909    4.4456942    4.4456942    4.4456942    10167.909    10934.166   -20944.506    40514.066    465.19628   -23459.553   -3970.4489    87.865577 
    6700    1219.2174   -103.15111    1.1031735   -102.04794   -15315.616    4.4357705    4.4357705    4.4357705   -15315.616    -5237.914   -5883.2085   -34825.727   -10673.091   -6955.1301   -10607.108    87.278486 
    6800    2850.2051   -104.60149    2.5789255   -102.02256    13257.156    4.4159892    4.4159892    4.4159892    13257.156    3854.9578    -2424.438    38340.948    5855.1805   -10211.425    19306.307    86.116032 
    6900    1274.8607   -103.21971    1.1535207   -102.06619   -6140.9088    4.4078706    4.4078706    4.4078706   -6140.9088    19424.874   -32739.721   -5107.8789   -20331.409   -13708.901   -40627.095    85.641945 
    7000    2123.1177    -103.9837    1.9210415   -102.06266    27391.447    4.4132884    4.4132884    4.4132884    27391.447   -12283.433    43582.831    50874.945    2430.7704    12537.218    37409.249    85.958125 
    7100    2021.1703   -103.91291    1.8287974   -102.08411   -29497.087    4.4278847    4.4278847    4.4278847   -29497.087   -30244.773   -48845.466   -9401.0226   -15656.773   -13140.573   -36651.873    86.813826 
    7200    1987.9293   -103.86769    1.7987202   -102.06897     13610.33     4.434944     4.434944     4.434944     13610.33   -26967.173    67525.413    272.74954    3881.0438    28479.102    4790.7223    87.229707 
    7300    1817.7031   -103.70103    1.6446959   -102.05633   -19880.154    4.4363701    4.4363701    4.4363701   -19880.154    5794.1593   -47805.783   -17628.838   -15592.423    11091.009   -14656.975    87.313887 
    7400    2121.9022   -103.96517    1.9199417   -102.04523    10894.661     4.434009     4.434009     4.434009    10894.661    9873.0115    1449.9439    21361.027   -36763.823     1838.274    -16436.19    87.174548 
    7500    1924.8667   -103.78961    1.7416599   -102.04795   -810.97476    4.4241676    4.4241676    4.4241676   -810.97476    20321.017    15782.991   -38536.932   -4038.9734     28054.94    5516.8207    86.595376 
    7600    1979.1936   -103.85911     1.790816   -102.06829    34621.585    4.4246472    4.4246472    4.4246472    34621.585    46179.713   -70.608957     57755.65   -22802.702   -218.91655   -16597.982    86.623543 
    7700    2019.5467   -103.88753    1.8273283    -102.0602   -28000.321    4.4485128    4.4485128    4.4485128   -28000.321   -3353.0927   -37998.686   -42649.183   -703.82944    14430.256    21268.842    88.032806 
    7800     1623.015   -103.50495    1.4685381   -102.03641   -2765.9003    4.4310739    4.4310739    4.4310739   -2765.9003    26704.789   -2748.1299    -32254.36   -32180.646    -5841.215   -7558.1755    87.001548 
    7900     2313.888   -104.12114    2.0936545   -102.02749    972.02091      4.41488      4.41488      4.41488    972.02091   -19857.431     14594.22    8179.2736    11369.373    1309.3973    6580.0744    86.051157 
    8000    2049.2864   -103.92072    1.8542374   -102.06648   -136.47886    4.4294374    4.4294374    4.4294374   -136.47886     27358.93   -12132.161   -15636.205   -23583.692    20141.259    927.22501     86.90519 
    8100    1957.0523    -103.8417     1.770782   -102.07092     3673.716    4.4430148    4.4430148    4.4430148     3673.716   -13794.514   -3844.8579     28660.52    21679.807   -10219.675   -9366.1974    87.706805 
    8200    1878.8768   -103.75235    1.7000472   -102.05231   -13709.589    4.4491635    4.4491635    4.4491635   -13709.589    38091.188    -18107.82   -61112.137   -8988.2805    14010.411   -1168.8687    88.071439 
    8300    2452.7944   -104.25192    2.2193399   -102.03258   -22737.463    4.4294094    4.4294094    4.4294094   -22737.463   -45708.428   -24727.654     2223.692    4651.2665   -41044.653    7293.1283    86.903538 
    8400    1929.4591   -103.78096    1.7458152   -102.03515   -9860.7447    4.4165103    4.4165103    4.4165103   -9860.7447   -4335.1887   -19305.255   -5941.7898    13975.036    20398.499    2800.2339    86.146521 
    8500    1909.0477   -103.78772    1.7273464   -102.06037    7991.8444    4.4277562    4.4277562    4.4277562    7991.8444    15987.155    34676.968    -26688.59   -1707.8202   -40226.736   -7534.6411    86.806271 
    8600     1824.886   -103.71371    1.6511952   -102.06251   -7796.1096     4.446064     4.446064     4.446064   -7796.1096    12056.639    -41832.66    6387.6916    22900.497   -25005.941    24796.794    87.887505 
    8700    1876.3576   -103.74045    1.6977678   -102.04268   -3814.4566    4.4533239    4.4533239    4.4533239   -3814.4566    16104.585    13860.862   -41408.817   -13599.715    -11807.19    -10831.28    88.318734 
    8800    1960.4501   -103.80479    1.7738564   -102.03093    -11419.74    4.4455377    4.4455377    4.4455377    -11419.74    5448.3836   -46970.898     7263.295    18934.845   -32142.852    7451.3466    87.856297 
    8900    1986.0799   -103.83295    1.7970468   -102.03591    7093.2466     4.433702     4.433702     4.433702    7093.2466    50255.558   -32025.273    3049.4542   -859.40076    13610.876    44214.441    87.156442 
    9000    1451.7739   -103.36341    1.3135955   -102.04981    39970.475    4.4320343    4.4320343    4.4320343    39970.475    22278.638    81082.991    16549.795     14383.79   -19873.164   -7053.2837    87.058131 
    9100    2285.5385   -104.10247    2.0680033   -102.03446    -11028.95    4.4496285    4.4496285    4.4496285    -11028.95    89735.053    -49764.94   -73056.963    20174.913    11513.895    26787.564    88.099055 
    9200    2050.7825   -103.87202    1.8555911   -102.01642    -6799.004    4.4471178    4.4471178    4.4471178    -6799.004   -40740.564    21100.357   -756.80513   -2228.6545   -26147.377    2742.4347    87.950014 
    9300    1671.7973   -103.52242    1.5126773   -102.00974     49236.13    4.4278868    4.4278868    4.4278868     49236.13    31646.261    82889.126    33173.003    20863.237    18413.842    23358.677    86.813953 
    9400    2443.9219   -104.24307    2.2113119   -102.03176    9558.3579    4.4226214    4.4226214    4.4226214    9558.3579    5082.3924    46058.394   -22465.712   -11393.107    132.12958   -886.16496    86.504619 
    9500    1730.6436   -103.65375    1.5659227   -102.08783    30199.362     4.434153     4.434153     4.434153    30199.362     13789.63    12824.181    63984.274    13573.964   -12609.581    32066.585    87.183041 
    9600    2014.1439   -103.89701    1.8224398   -102.07457   -14405.289    4.4622106    4.4622106    4.4622106   -14405.289   -20092.379    27326.443   -50449.932    20122.606    23460.405   -7202.7607    88.848517 
    9700    1679.1756   -103.56531    1.5193534   -102.04596    11101.846     4.447393     4.447393     4.447393    11101.846    7575.1375   -50047.771    75778.173     36442.99   -4893.8762    28668.038    87.966339 
    9800    1934.6763    -103.7928    1.7505358   -102.04227   -759.94663    4.4292013    4.4292013    4.4292013   -759.94663   -1779.5177     34680.93   -35181.253   -10589.859     41433.31    13660.852    86.891292 
    9900    2027.2232   -103.89135    1.8342741   -102.05707   -8652.5943    4.4319862    4.4319862    4.4319862   -8652.5943     32389.05   -74581.635    16234.802    19324.131   -24549.607     7416.524    87.055295 
   10000    1638.6354   -103.55415    1.4826717   -102.07148   -4488.0426    4.4405801    4.4405801    4.4405801   -4488.0426    7619.3822    15564.796   -36648.306    225.94366     46597.23    14437.201    87.562698 
   10100    2447.8615   -104.27571    2.2148765   -102.06083   -13040.679    4.4456489    4.4456489    4.4456489   -13040.679    -23569.07   -12430.601   -3122.3652    10016.816   -10673.858   -3130.4085    87.862889 
   10200    1337.6307   -103.26273    1.2103164   -102.05241   -10755.117    4.4527747    4.4527747    4.4527747   -10755.117    51318.024   -31484.478   -52098.897    1408.8717    30841.037    17318.742    88.286066 
   10300    2465.0694   -104.24456    2.2304466   -102.01412    16647.455    4.4454559    4.4454559    4.4454559    16647.455    24447.911    1225.2198    24269.235    3017.2609   -5926.7651    6043.3707    87.851447 
   10400     2036.977   -103.86797    1.8430996   -102.02487   -19504.172    4.4343744    4.4343744    4.4343744   -19504.172   -15690.108    -17384.52   -25437.886    7467.8204    14581.769    31550.857    87.196102 
   10500    2145.0507   -103.98035    1.9408869   -102.03946    18815.308     4.440828     4.440828     4.440828    18815.308    57611.574    1682.5566    -2848.206    6447.1206    13763.559   -13474.491     87.57736 
   10600    1990.1322    -103.8518    1.8007135   -102.05109   -23965.014     4.455028     4.455028     4.455028   -23965.014   -15397.705   -33789.251   -22708.086    365.87637     7129.371    28884.764    88.420164 
   10700    1918.5415   -103.77568    1.7359367   -102.03974    -8675.817    4.4548966    4.4548966    4.4548966    -8675.817    19849.063   -33658.483   -12218.031    18692.701    40547.416   -3559.8066    88.412339 
   10800    2107.2723   -103.93013    1.9067043   -102.02342   -9068.9255    4.4404025    4.4404025    4.4404025   -9068.9255    5704.7678   -8587.2786   -24324.266   -6484.7862   -13334.366    35824.998    87.552189 
   10900    2343.5388   -104.14686    2.1204832   -102.02638   -21022.049     4.434811     4.434811     4.434811   -21022.049    -15995.93   -46354.274   -715.94316     6612.801    28497.622   -26053.902     87.22186 
   11000    1982.0488   -103.84848    1.7933994   -102.05508   -20985.016    4.4561596    4.4561596    4.4561596   -20985.016    10060.797   -23744.771   -49271.074   -14323.983   -3248.9472    28700.497     88.48756 
   11100    1748.2574   -103.62893    1.5818601   -102.04707   -3647.0985    4.4468226    4.4468226    4.4468226   -3647.0985   -46660.514    72761.169   -37041.951    13749.479    23556.033    868.15297    87.932497 
   11200    2261.2721   -104.09261    2.0460466   -102.04656    4262.2508    4.4328664    4.4328664    4.4328664    4262.2508    22258.206   -6106.3847   -3365.0686   -23980.279    4998.4189   -31666.201    87.107175 
   11300    2130.2299   -103.99834    1.9274768   -102.07086   -2598.7038    4.4457808    4.4457808    4.4457808   -2598.7038   -12310.874     24861.38   -20346.617   -15264.908    8528.9478    13070.613    87.870712 
   11400    1691.7314     -103.602    1.5307141   -102.07128   -15708.267    4.4630696    4.4630696    4.4630696   -15708.267   -522.55133    42282.117   -88884.367   -7558.2869    -1204.111   -45307.947    88.899842 
   11500    2032.6577   -103.89646    1.8391914   -102.05727   -10593.953    4.4609829    4.4609829    4.4609829   -10593.953   -62333.152    64823.845   -34272.552    14114.949   -13758.299    18511.471    88.775202 
   11600    1638.2873   -103.53787    1.4823568   -102.05552    20137.279    4.4261107    4.4261107    4.4261107    20137.279    73706.764    47351.036   -60645.963    809.51451     5109.421   -44539.564    86.709524 
   11700    2733.1498   -104.53068    2.4730113   -102.05767    5694.7408    4.4211023    4.4211023    4.4211023    5694.7408   -39310.486    64018.026   -7623.3176   -12653.901   -34127.513    8441.9232    86.415509 
   11800    1569.0915   -103.50922    1.4197469   -102.08948   -12683.421    4.4469894    4.4469894    4.4469894   -12683.421    24712.702   -7318.3118   -55444.654   -1195.4586    12485.821   -60580.319    87.942396 
   11900      2323.64   -104.15718    2.1024783   -102.05471    11227.369    4.4623794    4.4623794    4.4623794    11227.369    -47827.09    91679.151   -10169.954   -8336.0756   -15510.837    19929.694    88.858601 
   12000    1899.8141   -103.76367    1.7189917   -102.04468    512.50171    4.4578687    4.4578687    4.4578687    512.50171    -12719.01    36713.396   -22456.881     -13227.9    706.96501   -73726.042    88.589414 
   12100     2751.901   -104.53518    2.4899778    -102.0452   -20898.777    4.4498417    4.4498417    4.4498417   -20898.777   -68699.674    19432.728   -13429.386    17446.324   -1767.9627    8698.2888    88.111721 
   12200    1945.7344   -103.82497    1.7605414   -102.06443    4269.8118    4.4460984    4.4460984    4.4460984    4269.8118   -26269.831    33896.262     5183.004    26917.014    3674.8474   -29026.851    87.889545 
   12300    1929.0407    -103.8348    1.7454366   -102.08937   -41391.258    4.4532026    4.4532026    4.4532026   -41391.258   -91448.418    17159.463   -49884.819   -3114.4725   -32419.018   -18735.601    88.311522 
   12400     1860.446   -103.76143    1.6833706   -102.07806    40501.264    4.4430298    4.4430298    4.4430298    40501.264   -37140.332    114208.57    44435.553    25976.894    6370.6229    3565.4439    87.707688 
   12500    1791.8042   -103.72037    1.6212621   -102.09911   -18421.395    4.4432356    4.4432356    4.4432356   -18421.395   -58712.457   -11722.926    15171.197   -14657.423   -36443.836    -39284.74    87.719877 
   12600    2526.0298   -104.35871    2.2856048    -102.0731   -2586.0051    4.4468835    4.4468835    4.4468835   -2586.0051   -36546.881    37298.026   -8509.1603    15774.219     533.3819    16948.263     87.93611 
   12700    1897.5841   -103.78481     1.716974   -102.06783    6311.9162    4.4445445    4.4445445    4.4445445    6311.9162   -18229.886    20405.179    16760.455   -15205.696    -15919.99   -38545.131    87.797422 
   12800    1738.6381   -103.62602    1.5731563   -102.05286    30141.495    4.4469502    4.4469502    4.4469502    30141.495   -24126.349    23826.945     90723.89    16098.751    9289.0626    16935.391    87.940067 
   12900    2369.4158   -104.17337    2.1438972   -102.02947   -5309.0985    4.4432187    4.4432187    4.4432187   -5309.0985   -32581.197   -7093.4098    23747.311   -11883.254   -22109.532    7005.5255    87.718876 
   13000     1515.051   -103.41697      1.37085   -102.04612    24269.839     4.446623     4.446623     4.446623    24269.839   -66066.592    73346.946    65529.162    24476.438    5695.4363   -4289.5989    87.920659 
   13100    2209.1604   -104.02892    1.9988947   -102.03003   -43832.895    4.4633596    4.4633596    4.4633596   -43832.895    -89849.15    187.39609   -41836.933    6400.1383   -24462.061    8140.2676     88.91717 
   13200    1425.6617   -103.31867    1.2899687    -102.0287     30231.99     4.443784     4.443784     4.443784     30231.99   -71995.736    101347.65    61344.052    15942.107   -10550.584   -19355.258    87.752363 
   13300    2026.7541   -103.86925    1.8338497    -102.0354     16296.44    4.4285458    4.4285458    4.4285458     16296.44    37266.159   -1523.5754    13146.736    13717.442   -12818.884    21940.509    86.852722 
   13400    2355.2875   -104.19296    2.1311136   -102.06184    -26307.15    4.4392952    4.4392952    4.4392952    -26307.15   -40817.261    19181.959   -57286.147   -8737.5944   -5396.6434    11698.258    87.486708 
   13500    1761.5773   -103.66128    1.5939122   -102.06737    15605.588    4.4551395    4.4551395    4.4551395    15605.588   -14516.226    56994.372    4338.6177    9044.7117    11924.979   -13958.896    88.426806 
   13600    2361.2763    -104.1587    2.1365325   -102.02217   -34456.075    4.4791023    4.4791023    4.4791023   -34456.075   -55914.235   -66347.227    18893.238   -641.25137   -21699.271     5886.255    89.861353 
   13700    2004.9353   -103.79795    1.8141076   -101.98384     8088.725    4.4684266    4.4684266    4.4684266     8088.725   -9473.6544    46989.353   -13249.524    21895.475   -3004.9476   -5246.6627    89.220345 
   13800    1644.8536   -103.48196    1.4882981   -101.99367    37965.149    4.4517074    4.4517074    4.4517074    37965.149   -24232.853    34772.846    103355.45   -16817.256   -33045.357    -3724.201    88.222596 
   13900    2371.9292   -104.16375    2.1461714   -102.01758   -4661.9739    4.4481358    4.4481358    4.4481358   -4661.9739   -30429.855   -16062.831    32506.764     4159.842    9898.0311   -12372.475    88.010425 
   14000    1508.7756   -103.39691    1.3651719   -102.03174    49872.631    4.4356291    4.4356291    4.4356291    49872.631    29497.399    21075.885    99044.609   -8663.9641   -24660.799    22670.803    87.270142 
   14100    1777.0255   -103.67235      1.60789   -102.06446   -19851.556     4.453131     4.453131     4.453131   -19851.556    -18632.61   -39837.956   -1084.1022    19362.937   -9596.7651   -17984.206     88.30726 
   14200    2532.7902   -104.33886    2.2917218   -102.04714   -20259.985    4.4636893    4.4636893    4.4636893   -20259.985   -43054.188    22589.965   -40315.731    613.74063    -9577.058    17942.466    88.936878 
   14300    1701.7803   -103.58728    1.5398066   -102.04748    6489.7854    4.4511681    4.4511681    4.4511681    6489.7854   -43112.771    59688.162    2893.9652      10978.3   -5472.0715   -24381.377     88.19054 
   14400     1733.469   -103.61806    1.5684791   -102.04958   -23321.528    4.4448121    4.4448121    4.4448121   -23321.528   -22928.112   -18539.247   -28497.225   -14084.343    9030.7214    8461.0055    87.813283 
   14500    2009.4821   -103.85906    1.8182217   -102.04083     51119.36     4.433276     4.433276     4.433276     51119.36    49006.496    22700.339    81651.244      14814.8    18392.737    6681.2312    87.131324 
   14600    1711.7065   -103.63538     1.548788   -102.08659    -10017.61    4.4473485    4.4473485    4.4473485    -10017.61    9112.3802   -56168.018    17002.809   -24697.441   -19964.008    -17165.33    87.963702 
   14700    1765.0801   -103.65611    1.5970816   -102.05903    22174.048    4.4537185    4.4537185    4.4537185    22174.048    53113.985   -4410.8876    17819.045    11762.734   -21709.844    5365.9033    88.342215 
   14800    2034.9807   -103.88367    1.8412933   -102.04238   -9075.7593    4.4436869    4.4436869    4.4436869   -9075.7593   -27857.995   -46672.561    47303.278   -8871.0227   -9823.2778   -12989.591    87.746611 
   14900    2066.9011   -103.89694    1.8701756   -102.02676    32682.635    4.4468803    4.4468803    4.4468803    32682.635    22324.684    4717.2678    71005.954    356.49034    12880.808    24316.734     87.93592 
   15000     1421.081   -103.32266     1.285824   -102.03684    531.67557    4.4544379    4.4544379    4.4544379    531.67557    11495.479   -34211.986    24311.533     -7786.25   -22499.747    1061.7605    88.385032 
   15100    2375.1555     -104.157    2.1490906   -102.00791    25178.381     4.461807     4.461807     4.461807    25178.381   -22087.583    30096.174    67526.552    13983.582   -8063.6237    17932.216    88.824414 
   15200    1133.9192    -103.0449    1.0259939    -102.0189   -43269.032    4.4722504    4.4722504    4.4722504   -43269.032   -63565.166   -109095.66     42853.73   -45572.911   -15312.729    2138.3923    89.449586 
   15300    2090.3172   -103.86605    1.8913629   -101.97469    47546.761    4.4481408    4.4481408    4.4481408    47546.761     25312.37    -32707.38    150035.29    2220.2942   -25339.715   -4765.9924    88.010719 
   15400    1377.3431    -103.2516     1.246249   -102.00535    60405.573    4.4266814    4.4266814    4.4266814    60405.573   -39513.144     59188.38    161541.48   -38440.932    8581.3837    7097.5301    86.743072 
   15500    2691.5555   -104.47493     2.435376   -102.03955   -7867.7459    4.4494006    4.4494006    4.4494006   -7867.7459   -51855.445    33384.876   -5132.6688   -3083.9688   -9189.7793   -5736.9997    88.085524 
   15600    1458.7206    -103.3265     1.319881   -102.00662   -56935.267    4.4616017    4.4616017    4.4616017   -56935.267   -90657.502   -96139.968    15991.669   -40532.495   -8471.8047   -10634.166     88.81215 
   15700    2921.7453   -104.59815    2.6436566   -101.95449    4077.1076    4.4482633    4.4482633    4.4482633    4077.1076   -20749.755    14322.277      18658.8     12965.13   -13025.852   -14713.475    88.017995 
   15800    1447.2028   -103.30209    1.3094595   -101.99263    -20842.32    4.4541409    4.4541409    4.4541409    -20842.32   -67946.236   -11265.661    16684.937   -16123.134   -10921.753    -1810.654    88.367353 
   15900     2425.766    -104.1697    2.1948841   -101.97482    18130.717    4.4382559    4.4382559    4.4382559    18130.717    40422.831    9046.2601    4923.0598    13411.886    438.58654   -14357.843    87.425279 
   16000    1836.0073   -103.66196     1.661258    -102.0007   -60.963228     4.434905     4.434905     4.434905   -60.963228   -14072.366    -7323.517    21212.994   -22000.753   -4713.7886    7588.8027    87.227404 
   16100    2407.6034   -104.18716    2.1784501   -102.00871   -3907.4056    4.4351496    4.4351496    4.4351496   -3907.4056    27365.533   -41807.066    2719.3162    45625.503    2441.1198    17850.496    87.241843 
   16200    1720.2556   -103.58932    1.5565234    -102.0328    37039.405    4.4222604    4.4222604    4.4222604    37039.405    6230.6413    38072.681    66814.893   -42596.263   -16437.566   -9865.4083    86.483434 
   16300    2189.9687    -104.0223    1.9815297   -102.04077    19671.224      4.42951      4.42951      4.42951    19671.224    24569.932   -4965.8676    39409.609    33256.848    19143.992    22629.842    86.909459 
   16400    2053.8594   -103.89137    1.8583751     -102.033   -24310.203    4.4428092    4.4428092    4.4428092   -24310.203    -26070.52   -26941.427   -19918.663   -48050.448   -3698.4421    -11203.12    87.694628 
   16500    2329.8356   -104.11555    2.1080842   -102.00747   -8387.8919    4.4498185    4.4498185    4.4498185   -8387.8919    17740.205   -25703.528   -17200.353      19213.6    8263.5657    19558.981    88.110344 
   16600    1392.5265   -103.27369    1.2599873    -102.0137   -38290.241    4.4488192    4.4488192    4.4488192   -38290.241   -61416.392   -59328.478    5874.1479   -59339.372   -2988.9746   -20795.419    88.050995 
   16700    2724.7701   -104.46975    2.4654293   -102.00432   -1877.1771    4.4234556    4.4234556    4.4234556   -1877.1771   -3873.9235    43087.079   -44844.686    21185.035    13369.029    31759.588    86.553574 
   16800    1695.9656   -103.57341    1.5345454   -102.03887   -47453.891    4.4216818    4.4216818    4.4216818   -47453.891   -49796.742   -56828.019   -35736.913   -48292.801   -5295.0219   -23814.962    86.449497 
   16900    2327.6334   -104.15634    2.1060916   -102.05024   -8886.2797    4.4272014    4.4272014    4.4272014   -8886.2797    -38985.24    40722.228   -28395.827    14924.256    5693.5723    2261.9011    86.773644 
   17000    2501.3659   -104.31795    2.2632885   -102.05467   -20826.659    4.4276457    4.4276457    4.4276457   -20826.659   -40767.278    -8892.698   -12820.001    -14994.59   -4644.9138    3178.4516    86.799769 
   17100    1833.6465   -103.72025    1.6591219   -102.06113   -35649.636    4.4401372    4.4401372    4.4401372   -35649.636   -36120.264   -7600.2547    -63228.39     3419.231    24361.246   -5350.4309    87.536496 
   17200    2145.4469   -103.96716    1.9412454   -102.02591    1452.9319    4.4513657    4.4513657    4.4513657    1452.9319   -1038.1273   -28100.906    33497.829   -221.80801   -24468.548    18791.318    88.202283 
   17300    2013.0612   -103.80749    1.8214601   -101.98603   -21410.672    4.4601373    4.4601373    4.4601373   -21410.672    15980.171   -53069.177   -27143.009   -2505.1222   -1326.6284   -9852.9555    88.724728 
   17400    1748.4316   -103.56621    1.5820176   -101.98419     11266.84    4.4342678    4.4342678    4.4342678     11266.84   -8769.6324   -4465.9009    47036.052    2705.6122   -33032.171    14786.991    87.189813 
   17500    2043.2826   -103.84464     1.848805   -101.99583    18808.917     4.407602     4.407602     4.407602    18808.917    -7227.238     19440.05    44213.939   -16439.349   -18561.322   -33126.566    85.626287 
   17600    2066.6506   -103.91131    1.8699489   -102.04137    9464.1292    4.4180707    4.4180707    4.4180707    9464.1292     11685.19   -34032.403    50739.601   -17094.789    -16274.13    26357.524    86.237865 
   17700    1383.3445   -103.32073    1.2516792   -102.06905    1366.6182    4.4385417    4.4385417    4.4385417    1366.6182    -51378.75    67812.426   -12333.821   -24649.856   -33476.456   -19734.439    87.442165 
   17800    2375.9419   -104.18475    2.1498021   -102.03495    28493.565    4.4317442    4.4317442    4.4317442    28493.565    472.89065     63724.99    21282.814   -15081.891    3180.9612    19234.051    87.041038 
   17900    1545.2053   -103.45604    1.3981343   -102.05791    2425.1658    4.4241695    4.4241695    4.4241695    2425.1658   -49019.729    29845.416    26449.811   -32351.565   -29363.034   -7725.6033    86.595492 
   18000    2382.9805   -104.19029    2.1561708   -102.03412     20153.47    4.4205837    4.4205837    4.4205837     20153.47    -11894.03     73199.26   -844.81933    8051.7306    14588.782   -15463.994    86.385105 
   18100    1664.2447   -103.57732    1.5058436   -102.07148   -22039.014    4.4090749    4.4090749    4.4090749   -22039.014   -9475.9133   -64598.508    7957.3799   -38936.479   -20096.884    10416.946    85.712157 
   18200      2809.69   -104.61316    2.5422666   -102.07089    7986.4726    4.4113929    4.4113929    4.4113929    7986.4726    -8825.713     50873.12   -18087.989    1096.8382    13431.849    -22594.55    85.847415 
   18300    972.14208   -102.97971   0.87961458   -102.10009   -10356.862    4.4189689    4.4189689    4.4189689   -10356.862    46005.164   -78052.288    976.53754   -42451.577   -4487.7054    18244.763    86.290471 
   18400    2725.0622   -104.54717    2.4656936   -102.08147   -6317.8048     4.423439     4.423439     4.423439   -6317.8048    12411.418   -33754.324     2389.491   -6878.0201   -12776.744   -1307.4584    86.552602 
   18500    1684.0306   -103.61306    1.5237462   -102.08931   -33435.131    4.4204856    4.4204856    4.4204856   -33435.131   -41798.881   -41564.153   -16942.359   -25931.709    16182.753    8211.0042    86.379349 
   18600    1848.7899   -103.74818    1.6728239   -102.07536    21615.878    4.3994923    4.3994923    4.3994923    21615.878     58379.21   -40739.744    47208.168   -10986.044   -12426.891    21577.069    85.154516 
   18700    2353.7325   -104.21086    2.1297067   -102.08115    98.702363    4.4028979    4.4028979    4.4028979    98.702363   -11121.199   -16340.975    27758.281   -5051.3213   -1745.0162   -7188.3917    85.352418 
   18800    1672.4082    -103.6028    1.5132301   -102.08957   -30901.299    4.4125904    4.4125904    4.4125904   -30901.299   -10852.327   -62672.559   -19179.011   -30967.883   -1294.6022    36981.649    85.917344 
   18900    2397.6994    -104.2478    2.1694888   -102.07832    8911.4618    4.4198771    4.4198771    4.4198771    8911.4618    5593.9834    19258.005     1882.397    19132.823   -19732.434    -21436.71    86.343686 
   19000     1428.098   -103.37827    1.2921731   -102.08609   -24981.809    4.4213715    4.4213715    4.4213715   -24981.809   -9004.2288   -86958.702    21017.504   -48933.895     1511.296    36764.156    86.431298 
   19100    2781.6193   -104.55822    2.5168676   -102.04136    3954.4213    4.4113687    4.4113687    4.4113687    3954.4213    10812.748   -3701.4463     4751.962    29928.004   -11281.015   -18136.482    85.846004 
   19200     1428.018   -103.35194    1.2921007   -102.05984   -15948.736     4.430155     4.430155     4.430155   -15948.736    10711.264   -79540.054    20982.583   -61650.492    4119.0275    28911.508    86.947433 
   19300    2593.5387   -104.36349    2.3466883   -102.01681   -14148.435    4.4369557    4.4369557    4.4369557   -14148.435    18368.373   -40440.599   -20373.078    21112.544   -14912.071   -32255.703    87.348464 
   19400    1500.8115   -103.38459    1.3579658   -102.02662   -20145.336    4.4184802    4.4184802    4.4184802   -20145.336     26378.61   -58122.777   -28691.841   -67268.294     6281.741    37328.663    86.261845 
   19500    2350.5145   -104.16351    2.1267949   -102.03672    11991.272    4.3941581    4.3941581    4.3941581    11991.272    42654.197    12222.134   -18902.514    16379.281   -7016.3032    13886.177    84.845154 
   19600    1710.0308   -103.61558    1.5472718   -102.06831    5086.8169    4.3987983    4.3987983    4.3987983    5086.8169    21000.895   -1047.9981    -4692.446   -52290.184   -11259.189    9499.9452    85.114223 
   19700    2050.0919   -103.94451    1.8549662   -102.08954   -27297.953    4.4289702    4.4289702    4.4289702   -27297.953    44177.456   -60012.572   -66058.744    12363.351   -2211.1328    47227.539    86.877692 
   19800    2242.6675   -104.08643    2.0292127   -102.05722   -18083.502    4.4290331    4.4290331    4.4290331   -18083.502   -29883.812    -19211.81   -5154.8827   -1737.6101   -4267.1407     -13120.8    86.881394 
   19900    1186.7787   -103.14638    1.0738223   -102.07255   -9133.4521    4.4160887    4.4160887    4.4160887   -9133.4521    96858.938   -82240.531   -42018.763   -24962.693    2510.4557    56011.997     86.12185 
   20000    3085.8779   -104.84992    2.7921672   -102.05776    32514.566    4.4117421    4.4117421    4.4117421    32514.566    37671.733    36871.894     23000.07    18084.853    11908.745   -9147.2481    85.867802 
   20100    1120.4672   -103.09802    1.0138222    -102.0842   -16153.473    4.4295516    4.4295516    4.4295516   -16153.473    74048.615   -74455.733   -48053.299   -25618.084   -4875.3768    53473.316     86.91191 
   20200      2913.72   -104.67254     2.636395   -102.03614   -28080.825    4.4443255    4.4443255    4.4443255   -28080.825   -13830.843    -44379.13   -26032.501    16950.651    7745.5295    -32183.24    87.784444 
   20300    1537.0363   -103.41928    1.3907428   -102.02853    2137.1404    4.4356711    4.4356711    4.4356711    2137.1404    7122.3721   -16945.786    16234.836     -15685.1    12388.718    59203.597    87.272622 
   20400    2308.8828   -104.09932    2.0891257    -102.0102    3294.1523    4.4274638    4.4274638    4.4274638    3294.1523    33468.547   -33404.113     9818.023    4245.3482   -851.47982    -48092.49    86.789074 
   20500    1543.4296   -103.43879    1.3965275   -102.04226   -5774.1367    4.4169943    4.4169943    4.4169943   -5774.1367    8621.7118   -52110.455    26166.333   -9286.8965   -6365.8104     69148.24    86.174846 
   20600    2694.9669   -104.49185    2.4384626   -102.05338   -19117.582    4.4249797    4.4249797    4.4249797   -19117.582   -25486.859   -21397.998   -10467.889   -4796.3416    4597.9729   -21518.732    86.643075 
   20700    1338.6117   -103.29253     1.211204   -102.08132   -26555.222    4.4353225    4.4353225    4.4353225   -26555.222   -7859.3099   -70307.461   -1498.8945   -10595.262   -10340.653    56075.414    87.252045 
   20800     2852.813   -104.62399    2.5812852    -102.0427    -7797.132    4.4297611    4.4297611    4.4297611    -7797.132    2902.1066   -3422.1486   -22871.354   -2644.2875   -22809.505   -8259.1841    86.924243 
   20900    1210.4108   -103.15421    1.0952051   -102.05901   -5376.5473    4.4378943    4.4378943    4.4378943   -5376.5473    56944.065   -82577.771    9504.0636   -4521.4461   -3725.7866    35348.643    87.403908 
   21000    2519.5845   -104.29955     2.279773   -102.01978     6768.422    4.4440354    4.4440354    4.4440354     6768.422    40121.496   -4471.5288   -15344.701   -4916.3434    -28455.28   -2752.8655    87.767255 
   21100      1315.45   -103.22657    1.1902468   -102.03632   -13944.893    4.4450988    4.4450988    4.4450988   -13944.893    82720.015   -53962.687   -70592.007    2715.6259    2695.6725    24783.547    87.830278 
   21200    2870.0996   -104.59978    2.5969264   -102.00285    7441.5099    4.4424383    4.4424383    4.4424383    7441.5099    24451.077    23346.827   -25473.375     5720.911    5678.2827   -10712.769    87.672668 
   21300     1346.598   -103.23268    1.2184302   -102.01425    -2241.902     4.432451     4.432451     4.432451    -2241.902    70157.175   -47008.469   -29874.411    -1091.555   -324.13057    24788.235    87.082686 
   21400    2429.4665   -104.20417    2.1982323   -102.00593    6052.2102    4.4434739    4.4434739    4.4434739    6052.2102   -5312.6096    11300.466    12168.774    3033.8482    27462.226    2168.1524    87.733996 
   21500    1199.4271   -103.10524    1.0852669   -102.01997   -41732.875     4.451222     4.451222     4.451222   -41732.875    33398.526   -67420.347   -91176.804    -8019.143    15189.062    29190.074    88.193742 
   21600    2479.6313   -104.22848    2.2436225   -101.98486    22956.703    4.4328508    4.4328508    4.4328508    22956.703   -1367.4609    32186.614    38050.957   -12579.312    16154.384     -4537.61    87.106256 
   21700    1311.0935   -103.22092     1.186305   -102.03462    24678.953    4.4397329    4.4397329    4.4397329    24678.953    70783.579    1782.9472    1470.3333    3246.4959    21076.891    38111.233    87.512586 
   21800    2171.9356   -103.95594     1.965213   -101.99073    17224.631    4.4558377    4.4558377    4.4558377    17224.631    21156.554   -3260.2416    33777.582   -379.14797    21987.282    1974.5838    88.468381 
   21900    1247.5456   -103.13192    1.1288055   -102.00312   -197.54284    4.4519507    4.4519507    4.4519507   -197.54284    3522.1716    1359.9186   -5474.7187   -13368.962    13365.013    22218.123    88.237059 
   22000     2814.545   -104.51345    2.5466594   -101.96679    1850.2047    4.4466143    4.4466143    4.4466143    1850.2047   -42410.354    45779.956    2181.0124   -2389.1681     19119.37   -11759.478    87.920141 
   22100    1204.9311   -103.10644     1.090247   -102.01619   -50717.753    4.4460795    4.4460795    4.4460795   -50717.753   -31292.539   -57723.845   -63136.874    2715.7304    17244.051    61861.615    87.888422 
   22200    3086.6898   -104.78286    2.7929018   -101.98996    3530.1227    4.4351103    4.4351103    4.4351103    3530.1227   -23032.238    33461.565    161.04175    1948.3065   -3239.3137   -16933.477     87.23952 
   22300    1341.7834   -103.25869    1.2140739   -102.04462   -40175.252    4.4310692    4.4310692    4.4310692   -40175.252    2277.2375   -32876.024   -89926.969   -12559.115    28117.708    56561.594    87.001273 
   22400    2616.9904   -104.39366    2.3679079   -102.02575    10134.335    4.4321068    4.4321068    4.4321068    10134.335   -11616.908    37318.509    4701.4029    4794.8942   -406.75496   -12849.042    87.062403 
   22500    1699.7857   -103.57512    1.5380018   -102.03711   -18669.809    4.4348268    4.4348268    4.4348268   -18669.809    8155.3531   -15408.728   -48756.053   -5975.8353    25687.238     42261.21    87.222795 
   22600    2312.6918   -104.10713    2.0925721   -102.01456    4481.5368    4.4456471    4.4456471    4.4456471    4481.5368   -4360.4432    22050.195   -4245.1413   -3465.4054      6945.07   -13155.955    87.862782 
   22700      1811.64   -103.66028    1.6392099   -102.02107   -33179.276    4.4398795    4.4398795    4.4398795   -33179.276    9781.1319   -49657.751    -59661.21   -2120.9443    18207.777    27958.819    87.521259 
   22800    2418.3898   -104.19536    2.1882099   -102.00715    3365.1607    4.4290205    4.4290205    4.4290205    3365.1607   -16431.537    18552.303     7974.716   -13946.744     3813.555   -18766.195    86.880652 
   22900    1651.3779   -103.53691    1.4942014   -102.04271   -9283.2807    4.4248473    4.4248473    4.4248473   -9283.2807     53583.07   -44774.988   -36657.925    11324.032    5228.8341    31886.507    86.635296 
   23000    2344.0343   -104.15278    2.1209315   -102.03185    2601.3913      4.42622      4.42622      4.42622    2601.3913    19097.582    9483.4032   -20776.811    2544.1558    13961.428   -13569.181    86.715949 
   23100    1582.4607   -103.47374    1.4318437   -102.04189   -47598.454    4.4393739    4.4393739    4.4393739   -47598.454    14375.002   -70215.528   -86954.837   -827.39419   -13222.084    47468.882     87.49136 
   23200    2761.8445   -104.50055     2.498975   -102.00157    3204.8767    4.4469565    4.4469565    4.4469565    3204.8767    14052.935    16404.659   -20842.965   -8040.1879    2709.4615   -6778.0167    87.940442 
   23300    844.25645    -102.7781   0.76390098    -102.0142   -17219.723    4.4380876    4.4380876    4.4380876   -17219.723    12545.642    34366.744   -98571.554     7929.205   -21869.429    25194.639    87.415334 
   23400     3477.527   -105.12814    3.1465395    -101.9816   -1042.7216    4.4299429    4.4299429    4.4299429   -1042.7216   -9078.7567    2257.6133    3692.9785   -13857.584   -4347.8972   -19002.478    86.934944 
   23500    1273.6304   -103.16739    1.1524075   -102.01499     -33683.8    4.4405697    4.4405697    4.4405697     -33683.8   -20859.662    20238.363    -100430.1    3536.2602   -9020.6442    34035.357    87.562083 
   23600    3042.3085   -104.74862    2.7527447   -101.99587    5379.4107    4.4447434    4.4447434    4.4447434    5379.4107    17031.242    16805.187   -17698.197    -11061.99   -13495.753   -11210.057    87.809212 
   23700    2009.1407   -103.82632    1.8179128    -102.0084   -67843.647    4.4635288    4.4635288    4.4635288   -67843.647   -34822.555   -54406.422   -114301.96   -11723.016   -9916.3476    49752.026    88.927285 
   23800    2771.6722    -104.4644    2.5078672   -101.95654   -6035.6086     4.461311     4.461311     4.461311   -6035.6086    22670.969   -34988.381   -5789.4133   -5523.4516     -15153.1   -14841.758    88.794794 
   23900     1682.657   -103.49563    1.5225034   -101.97313   -15150.852    4.4645362    4.4645362    4.4645362   -15150.852    37170.235   -43766.074   -38856.717   -2713.5041    15963.548    55656.268    88.987509 
   24000    2832.6328   -104.50921    2.5630257   -101.94619   -14028.575    4.4591537    4.4591537    4.4591537   -14028.575   -28490.599   -29345.565    15750.437   -7285.5369   -4700.2847   -10451.641    88.666043 
   24100    1535.0213   -103.39214    1.3889195   -102.00322    2822.7963    4.4184728    4.4184728    4.4184728    2822.7963   -15205.314    27644.049   -3970.3458    -8356.059    16704.422    45432.541    86.261414 
   24200    2191.0313   -104.00726    1.9824912   -102.02477    78146.883    4.4133708    4.4133708    4.4133708    78146.883    9148.0685    87855.297    137437.28    2535.7586    -11518.27   -3449.7484    85.962935 
   24300    1357.6512   -103.31154    1.2284313    -102.0831   -39996.944    4.4489847    4.4489847    4.4489847   -39996.944    11015.281   -46723.604   -84282.508   -12907.204     21467.84    58674.523    88.060822 
   24400    2855.7217    -104.6016     2.583917   -102.01768   -34540.492    4.4608319    4.4608319    4.4608319   -34540.492   -52215.098   -48895.199   -2511.1785    4960.1069    -23894.15   -9001.6998    88.766192 
   24500    1745.4311   -103.58169    1.5793027   -102.00238    -39725.47    4.4618898    4.4618898    4.4618898    -39725.47   -36153.622    2341.1297   -85363.918   -18853.949    13473.634     61000.27    88.829358 
   24600    2412.8523   -104.16347    2.1831995   -101.98027    817.27205    4.4543251    4.4543251    4.4543251    817.27205   -26494.412   -43123.853    72070.081   -6048.6265   -824.27969   -17317.471     88.37832 
   24700    1587.9384   -103.42626       1.4368   -101.98946   -12882.101    4.4303808    4.4303808    4.4303808   -12882.101   -21737.749   -9335.7461   -7572.8076    2141.7251     5805.046    33892.883    86.960731 
   24800    2583.4331    -104.3407    2.3375446   -102.00315    27870.948     4.415068     4.415068     4.415068    27870.948    -10476.67    31908.485    62181.027   -2066.6857    2866.7912    26192.158     86.06215 
   24900    1581.3205   -103.47663     1.430812   -102.04582    14324.226    4.4307292    4.4307292    4.4307292    14324.226    39758.725   -10581.316    13795.268    -5663.337   -680.82703    20358.852    86.981243 
   25000    1835.0863    -103.7139    1.6604247   -102.05348   -6335.1849    4.4450006    4.4450006    4.4450006   -6335.1849   -13361.342   -17817.339    12173.126   -4629.1377    14244.415    27168.903    87.824456 
   25100    2319.1704   -104.13865    2.0984341   -102.04022   -22304.261     4.440032     4.440032     4.440032   -22304.261   -44361.547   -62420.782    39869.548   -10778.772   -5167.7093   -1804.9089    87.530279 
   25200    1769.4616   -103.63916    1.6010461   -102.03812    10257.533    4.4173207    4.4173207    4.4173207    10257.533   -2623.5042    5589.8074    27806.295    11886.056    12033.503    40991.191    86.193953 
   25300    2087.0592   -103.93909     1.888415   -102.05068    12890.967    4.4159343    4.4159343    4.4159343    12890.967   -25400.543    21940.253    42133.192   -10100.332    1272.7466   -15214.202    86.112822 
   25400     2185.139   -104.04239    1.9771597   -102.06523   -9121.1408    4.4210096    4.4210096    4.4210096   -9121.1408    16076.659   -51810.278    8370.1966    7569.9804   -13964.783    25547.058    86.410073 
   25500    1344.3021   -103.30533    1.2163528   -102.08897    47624.809    4.4296129    4.4296129    4.4296129    47624.809   -16373.094    83333.669    75913.853    2583.0808   -3492.2959   -42493.865    86.915518 
   25600    2264.0781   -104.12149    2.0485854   -102.07291   -40875.536    4.4441153    4.4441153    4.4441153   -40875.536   -40839.737   -36961.435   -44825.435    10303.207   -13068.956   -8558.2937     87.77199 
   25700    1936.3776    -103.8087    1.7520752   -102.05663    393.31648    4.4217867    4.4217867    4.4217867    393.31648   -54506.738    7252.5897    48434.098    12145.387    4937.4492   -8816.7146    86.455648 
   25800    2120.0223   -103.98215    1.9182407   -102.06391    7207.4873    4.4102608    4.4102608    4.4102608    7207.4873    23612.823   -3523.4853    1533.1244   -4634.9973   -8569.1617   -54058.374     85.78134 
   25900    2113.8493   -103.98815    1.9126553   -102.07549   -18872.579    4.4250826    4.4250826    4.4250826   -18872.579   -54392.321    13421.269   -15646.684    20226.882   -2820.8917    4872.3338    86.649117 
   26000    1770.3335   -103.66746    1.6018349   -102.06562    1379.3612    4.4475725    4.4475725    4.4475725    1379.3612    30256.556   -32845.006     6726.533   -4335.6473    1274.3121   -48548.292    87.976994 
   26100    2103.4442    -103.9134    1.9032405   -102.01016   -15182.537    4.4540516    4.4540516    4.4540516   -15182.537   -37370.761     25884.75   -34061.601    9805.5921    9384.3759    24792.011    88.362042 
   26200     1869.773    -103.6808    1.6918099   -101.98899   -11714.164    4.4355527    4.4355527    4.4355527   -11714.164    37000.331   -52191.468   -19951.354   -9960.1718    6016.1131   -75597.395     87.26563 
   26300    3050.0489    -104.7237    2.7597483   -101.96395    149.43399    4.4244574    4.4244574    4.4244574    149.43399    27167.143   -28262.996    1544.1549    -6746.927    5089.2366    6721.1715    86.612396 
   26400    1140.0652   -103.06317     1.031555   -102.03162   -35149.709    4.4312716    4.4312716    4.4312716   -35149.709    23351.494   -32821.379   -95979.241   -8863.7852   -27591.603   -80134.286    87.013196 
   26500    2466.1392   -104.25296    2.2314146   -102.02155    22411.255    4.4310688    4.4310688    4.4310688    22411.255    107094.32   -24791.333   -15069.218    11102.186   -3747.0376    16630.878    87.001247 
   26600    1718.8313    -103.6198    1.5552347   -102.06457   -27847.646    4.4320722    4.4320722    4.4320722   -27847.646    65227.213   -61503.892    -87266.26    -13665.27   -25307.421   -61681.149    87.060364 
   26700    2490.0864    -104.2956    2.2530825   -102.04251   -8014.1192     4.427468     4.427468     4.427468   -8014.1192   -7991.0969    8711.3332   -24762.594    7495.2051   -15853.363    23443.185     86.78932 
   26800    1588.8566   -103.50156    1.4376308   -102.06393   -13457.147      4.43777      4.43777      4.43777   -13457.147    -24715.89   -7675.9061   -7979.6457    6489.2855   -5732.1599   -62161.852    87.396565 
   26900    2051.6619   -103.88485    1.8563868   -102.02846    10679.908    4.4539651    4.4539651    4.4539651    10679.908   -7319.4743    26107.616    13251.583   -10237.509   -40714.651    12082.186    88.356891 
   27000     1454.392   -103.30543    1.3159644   -101.98947   -356.10583     4.464405     4.464405     4.464405   -356.10583    18740.983   -57743.947    37934.647    3200.6346   -28453.404   -40664.189    88.979662 
   27100     1975.591   -103.74911    1.7875562   -101.96155    9454.5111    4.4568703    4.4568703    4.4568703    9454.5111    36871.731   -5039.6734    -3468.524   -10007.055   -22003.753    6997.4861    88.529901 
   27200      2071.73   -103.85232    1.8745449   -101.97778    22552.102    4.4344987    4.4344987    4.4344987    22552.102    39574.425    44003.987   -15922.104    6444.3823   -776.00665   -41901.091    87.203435 
   27300    1510.9976   -103.37513    1.3671824   -102.00795    40565.591    4.4279447    4.4279447    4.4279447    40565.591    77070.325    13816.049      30810.4   -8877.5166   -28821.878    17234.037    86.817357 
   27400    2310.9613   -104.13182    2.0910063   -102.04081    5450.9853    4.4459768    4.4459768    4.4459768    5450.9853    48078.665   -51312.213    19586.503    7648.7062   -9870.5875   -24808.328    87.882334 
   27500    1652.5345     -103.522    1.4952479   -102.02675   -16126.691    4.4634393    4.4634393    4.4634393   -16126.691   -21098.375    14799.665   -42081.362   -7605.5669   -11829.428    12089.165    88.921932 
   27600    1844.6507   -103.65846    1.6690787   -101.98938    46.408249    4.4564445    4.4564445    4.4564445    46.408249    15361.135    3539.4096    -18761.32     10414.47    1966.4665   -1752.8175    88.504534 
   27700    2237.1806   -104.00512     2.024248   -101.98087   -22672.482    4.4427588    4.4427588    4.4427588   -22672.482   -27735.938   -25388.341   -14893.167    17720.207   -21770.656    15234.058    87.691641 
   27800    2015.6504   -103.81897    1.8238028   -101.99517   -8639.2085    4.4243755    4.4243755    4.4243755   -8639.2085   -26798.553    -25705.61    26586.537    6937.0382     13365.38    11196.993    86.607589 
   27900    1687.6257   -103.55148    1.5269992   -102.02448    23998.842    4.4167052    4.4167052    4.4167052    23998.842   -54137.332    77290.178    48843.679    3782.4385   -27533.007   -2530.4917    86.157926 
   28000    2182.4691   -104.03197    1.9747439   -102.05723   -13706.248    4.4245028    4.4245028    4.4245028   -13706.248   -18369.337   -5922.9868   -16826.421   -1446.3827   -1498.2391    18908.238    86.615064 
   28100    1798.0069   -103.68722    1.6268745   -102.06034   -7176.1205    4.4317858    4.4317858    4.4317858   -7176.1205   -59595.103   -674.73406    38741.475    -13363.33   -21457.389   -13371.009    87.043491 
   28200     2268.112   -104.09865    2.0522354   -102.04641   -29159.588    4.4306869    4.4306869    4.4306869   -29159.588   -816.98304   -32811.753   -53850.028    6307.3906   -23687.603    34871.429    86.978752 
   28300    2122.3884   -103.95858    1.9203816   -102.03819    8237.5157     4.421276     4.421276     4.421276    8237.5157    2080.6534   -17350.848    39982.742   -29591.288    1605.6013    -15341.49    86.425695 
   28400    1854.7442    -103.7269    1.6782115   -102.04868   -12314.566    4.4216678    4.4216678    4.4216678   -12314.566    30365.413   -23266.772   -44042.338    12661.298    -37971.66    39576.437    86.448672 
   28500    2418.4427   -104.23815    2.1882578   -102.04989   -10861.758    4.4318231    4.4318231    4.4318231   -10861.758   -15118.926   -23573.654    6107.3058   -42210.056     20547.44    3620.5763    87.045687 
   28600    1879.4823     -103.748    1.7005951    -102.0474   -12457.106    4.4473814    4.4473814    4.4473814   -12457.106   -3666.6209   -33308.686    -396.0123    11696.708   -11666.929     14569.63    87.965652 
   28700    2317.8458   -104.12138    2.0972356   -102.02414   -29655.756    4.4506897    4.4506897    4.4506897   -29655.756   -18372.341   -54041.073   -16553.854   -33713.348    2626.4321    15845.046    88.162106 
   28800    1928.3322    -103.7667    1.7447955    -102.0219     17683.94    4.4167061    4.4167061    4.4167061     17683.94   -13879.101    6821.9556    60108.964    2394.8989   -12781.436   -13627.017    86.157981 
   28900    1774.7159   -103.63773    1.6058002   -102.03193    43165.669    4.4033423    4.4033423    4.4033423    43165.669   -3826.7134    51523.055    81800.665   -24274.958    8738.2131    31046.396    85.378268 
   29000    2102.7681   -103.97313    1.9026288    -102.0705     -10204.7    4.4330898    4.4330898    4.4330898     -10204.7   -16951.961   -31284.493    17622.355   -123.78365    9768.5665   -27175.123    87.120344 
   29100    1639.5526   -103.54505    1.4835016   -102.06155   -9814.8776    4.4520085    4.4520085    4.4520085   -9814.8776   -38088.847    12700.499   -4056.2845   -15653.326    2663.8573    8662.3037    88.240497 
   29200    1843.3548   -103.70595    1.6679061   -102.03805   -10580.156    4.4374294    4.4374294    4.4374294   -10580.156   -9685.2613   -40159.664    18104.456   -7391.7355    3466.8028   -26407.856    87.376445 
   29300    1898.8268   -103.74709    1.7180984     -102.029    22568.352    4.4074127    4.4074127    4.4074127    22568.352    5392.4519    24511.952    37800.653   -1771.9019   -24927.096   -21022.535    85.615255 
   29400    1896.2396   -103.77314    1.7157574   -102.05738    21786.053    4.4024032    4.4024032    4.4024032    21786.053    1683.2728   -19654.302    83329.187   -33965.828     24724.34    999.79055    85.323653 
   29500    1921.4964   -103.84275    1.7386103   -102.10414   -18199.952     4.430598     4.430598     4.430598   -18199.952   -18947.463   -47345.221    11692.828    4430.6034   -16835.109   -10751.753    86.973521 
   29600    1669.4895   -103.59087    1.5105892   -102.08028   -23841.559    4.4523913    4.4523913    4.4523913   -23841.559   -12183.597   -82680.889    23339.809   -23908.627   -11172.429    2814.2794    88.263262 
   29700    2405.3316   -104.21228    2.1763946   -102.03588   -100.72589    4.4398293    4.4398293    4.4398293   -100.72589    3531.0072    -21244.23    17411.046    13643.758    12667.004    12447.065    87.518291 
   29800    1303.4647   -103.22505    1.1794023   -102.04565    -8544.744    4.4251615    4.4251615    4.4251615    -8544.744   -52319.561   -24292.904    50978.232   -50499.916   -37127.873   -13029.181     86.65375 
   29900    2736.3093   -104.50892    2.4758701   -102.03305    25671.402     4.419237     4.419237     4.419237    25671.402   -1313.2887    63.834123     78263.66    21622.753    22295.466    26345.652    86.306176 
   30000    1877.9064   -103.77205    1.6991692   -102.07288    -41756.36    4.4334531    4.4334531    4.4334531    -41756.36   -70289.797   -47464.737   -7514.5456   -62691.582   -42951.963    1196.6211    87.141767 
   30100      2437.78   -104.25031    2.2057545   -102.04456    -12391.07    4.4482445    4.4482445    4.4482445    -12391.07    15223.503   -42720.207   -9676.5078    14674.018   -21028.865    16767.288    88.016874 
   30200    1781.2639   -103.63809     1.611725   -102.02637   -11106.255    4.4629513    4.4629513    4.4629513   -11106.255   -46122.648   -3927.1736    16731.056   -38764.844   -26911.885   -18580.317    88.892768 
   30300    2367.7946   -104.11085    2.1424304   -101.96842    9198.4764    4.4671043    4.4671043    4.4671043    9198.4764   -9481.4153    58641.615   -21564.771     8310.675   -6741.5598   -6468.8291    89.141157 
   30400    1343.7387   -103.18487     1.215843   -101.96903    10577.158    4.4468848    4.4468848    4.4468848    10577.158    52837.391   -41383.522    20277.605   -54112.676   -11948.399   -26969.755    87.936191 
   30500    2868.4835   -104.56319    2.5954642   -101.96772    4395.4921    4.4463737    4.4463737    4.4463737    4395.4921    27900.296   -24133.187    9419.3673   -2731.3513    6285.3444   -15080.936    87.905871 
   30600    1368.6472   -103.23924    1.2383807   -102.00086   -18547.132    4.4578805    4.4578805    4.4578805   -18547.132    26376.381   -54322.299   -27695.476   -60862.814   -1266.6236   -16261.266    88.590118 
   30700    2200.9247   -103.99498    1.9914429   -102.00354    14167.945    4.4516598    4.4516598    4.4516598    14167.945   -6121.3093   -4456.5521    53081.698    7133.2775   -8467.3092    -11140.93    88.219766 
   30800    2006.1899   -103.84966    1.8152428   -102.03442   -39507.786    4.4256423    4.4256423    4.4256423   -39507.786   -90342.034   -47431.419    19250.095    -57198.77    27128.901   -11025.655       86.682 
   30900    2510.2442   -104.29479    2.2713217   -102.02347    49947.152    4.4156105    4.4156105    4.4156105    49947.152    20748.813    46391.355    82701.289    17854.092   -7955.3153   -12273.531    86.093881 
   31000    965.14944   -102.94837   0.87328749   -102.07508   -51097.922    4.4589992    4.4589992    4.4589992   -51097.922   -88258.585   -50448.188   -14586.992     -51495.1    13805.599    3333.6518    88.656828 
   31100    3015.1017    -104.7283    2.7281274   -102.00017   -17852.138    4.4666056    4.4666056    4.4666056   -17852.138   -17755.629   -47480.419    11679.633    25591.099   -105.49662   -7154.3156    89.111307 
   31200    1554.4963   -103.40396    1.4065409   -101.99742   -49284.772    4.4520679    4.4520679    4.4520679   -49284.772   -43109.175    -85447.99   -19297.151   -62866.301    25833.341   -8088.4813    88.244032 
   31300    2736.3198   -104.45693    2.4758797   -101.98105   -1752.7587    4.4185048    4.4185048    4.4185048   -1752.7587    18489.904   -11992.286   -11755.894    22531.844    12641.651   -3535.1076    86.263286 
   31400    2102.1375   -103.91652    1.9020582   -102.01446    32386.211     4.408676     4.408676     4.408676    32386.211    44292.506   -10127.278    62993.404   -60003.836   -13226.706   -10993.665    85.688898 
   31500    1788.0232   -103.65832     1.617841   -102.04048   -17657.615    4.4352494    4.4352494    4.4352494   -17657.615   -8387.8128    26833.267   -71418.298    24174.675     22977.76    11613.669     87.24773 
   31600    1925.3521   -103.75923     1.742099   -102.01713   -10453.621    4.4396468    4.4396468    4.4396468   -10453.621    21444.711   -47339.317   -5466.2581   -72357.714   -21221.804     31.40058    87.507496 
   31700    2327.7483   -104.11336    2.1061956   -102.00717   -1653.1121    4.4313791    4.4313791    4.4313791   -1653.1121   -1296.6869    42509.376   -46172.026    11534.136    14121.955   -16357.985    87.019525 
   31800    1113.7754   -103.04239    1.0077673   -102.03462   -22046.192    4.4323316    4.4323316    4.4323316   -22046.192   -30117.098   -4062.8763     -31958.6    -88946.35   -7580.5362   -1733.2197    87.075651 
   31900    2690.7664   -104.45635     2.434662   -102.02169    13356.639     4.438955     4.438955     4.438955    13356.639    22392.155    61008.365   -43330.601    10774.569    14353.052    5728.8181    87.466594 
   32000    1130.6889   -103.05879    1.0230711   -102.03572   -36064.471    4.4513197    4.4513197    4.4513197   -36064.471   -73381.451   -246.47881   -34565.483   -78441.205    5514.6119    6398.4221    88.199549 
   32100    2755.7098   -104.49023    2.4934241   -101.99681   -6262.4735    4.4369376    4.4369376    4.4369376   -6262.4735   -7938.0065    30381.576    -41230.99    14424.668   -7634.1025   -20650.992    87.347396 
   32200    2233.8228   -104.04358    2.0212098   -102.02237   -20574.764    4.4155294    4.4155294    4.4155294   -20574.764   -31750.947   -33507.414    3534.0699   -53234.262    1526.8916   -67.879054    86.089137 
   32300    2539.4129   -104.35338    2.2977142   -102.05567   -3682.7907     4.416714     4.416714     4.416714   -3682.7907   -5750.3514    37606.005   -42904.026    17759.418   -20844.318   -13624.304    86.158439 
   32400    1968.3971   -103.85594    1.7810471   -102.07489   -14996.138    4.4351174    4.4351174    4.4351174   -14996.138   -46564.419    13718.982   -12142.979   -46057.767    2708.3248   -23400.381     87.23994 
   32500    2043.6367   -103.91002    1.8491254   -102.06089   -7857.4709    4.4513346    4.4513346    4.4513346   -7857.4709    49165.071   -21834.466   -50903.018   -9617.9839    6970.3212    12096.412    88.200433 
   32600    2045.4919   -103.87286     1.850804   -102.02206    -31543.53    4.4444209    4.4444209    4.4444209    -31543.53   -46827.901   -71850.291    24047.603   -34728.459    17630.596   -1997.0937    87.790097 
   32700    1787.8748   -103.60649    1.6177067   -101.98878    35898.579    4.4355333    4.4355333    4.4355333    35898.579    141960.57    -22155.95   -12108.882   -8180.2416    12855.952    5511.9697    87.264485 
   32800    1584.2514   -103.43313     1.433464   -101.99967   -28751.736    4.4326384    4.4326384    4.4326384   -28751.736       -45035   -47159.745    5939.5379   -86091.344    137.67805   -14653.258    87.093732 
   32900    2680.9976   -104.41676     2.425823   -101.99094     5393.069    4.4252408    4.4252408    4.4252408     5393.069    10225.702    44262.242   -38308.737     17550.53     14523.65    9746.5717    86.658412 
   33000    1089.2957   -103.02471   0.98561768   -102.03909    1983.8295    4.4437962    4.4437962    4.4437962    1983.8295   -20080.831    19232.463    6799.8567   -78200.004   -11414.684   -14505.284    87.753085 
   33100    2372.9793   -104.14392    2.1471215    -101.9968    16011.657    4.4519773    4.4519773    4.4519773    16011.657   -22075.602    50525.997    19584.577    9495.4196    5046.0104   -9824.8113    88.238644 
   33200    1123.2665   -103.02564    1.0163551   -102.00929   -225.06411    4.4338215    4.4338215    4.4338215   -225.06411    63947.798   -71928.119    7305.1287    -70013.43   -2415.3723   -20992.354    87.163489 
   33300    2819.4201   -104.54627    2.5510706    -101.9952    28142.486    4.4184656    4.4184656    4.4184656    28142.486    16498.025    46565.482    21363.951    21015.222    16668.088    1902.5915    86.260987 
   33400    1890.4325    -103.7711     1.710503    -102.0606   -2486.3413    4.4233673    4.4233673    4.4233673   -2486.3413    9475.3763   -58130.834    41196.433   -63959.678    8723.1069   -7720.9638    86.548395 
   33500    2119.2775   -103.96203    1.9175668   -102.04447    2990.8773     4.451887     4.451887     4.451887    2990.8773   -17415.934    9350.5399    17038.026    12715.442    4896.8756   -5396.7237    88.233275 
   33600    1573.6016   -103.43592    1.4238278   -102.01209   -25358.779    4.4578214    4.4578214    4.4578214   -25358.779   -97531.897   -52757.427    74212.987   -82141.513    11000.338    -727.2864    88.586594 
   33700     1980.279    -103.7615     1.791798    -101.9697   -7815.2116    4.4369653    4.4369653    4.4369653   -7815.2116   -35369.642     35936.18   -24012.173    15214.158   -11983.816   -2615.5501    87.349033 
   33800    2041.4899   -103.85014     1.847183   -102.00296   -8908.1077     4.411048     4.411048     4.411048   -8908.1077   -74916.314   -1955.2701    50147.261   -69576.383   -7218.0428   -6979.2996     85.82728 
   33900    2221.4259   -104.04808    2.0099928   -102.03808    30225.235    4.4054261    4.4054261    4.4054261    30225.235    31040.375    32311.387    27323.942    9229.7583   -2852.5856    5258.5923    85.499536 
   34000     1571.345   -103.52032     1.421786   -102.09854    16932.242     4.430534     4.430534     4.430534    16932.242   -33553.359    8948.9182    75401.166   -43882.307   -13417.792   -12700.349    86.969749 
   34100    2563.4887   -104.37516    2.3194985   -102.05567    -41057.66    4.4562665    4.4562665    4.4562665    -41057.66    -38368.47   -53464.931   -31339.577     4899.258    27840.732     7776.775    88.493927 
   34200    1860.3375   -103.70612    1.6832724   -102.02285    16920.705    4.4426682    4.4426682    4.4426682    16920.705   -16057.556    31134.947    35684.724   -23176.258   -8847.6445    2199.7355    87.686278 
   34300    1984.8779   -103.80188    1.7959592   -102.00592   -6579.3202    4.4284494    4.4284494    4.4284494   -6579.3202   -39443.029   -18227.152     37932.22     1735.794    32320.661    10130.685    86.847046 
   34400    1826.3316   -103.67049    1.6525033   -102.01799    21471.021    4.4209134    4.4209134    4.4209134    21471.021   -6114.6143   -2617.8175    73145.494   -37463.383   -23885.218   -1069.0463    86.404435 
   34500     2071.678   -103.91699    1.8744978   -102.04249    2843.4949     4.435795     4.435795     4.435795    2843.4949   -2120.6319    33101.862   -22450.745    12915.017    37342.031    24391.036    87.279935 
   34600     1977.014   -103.81883    1.7888438   -102.02999    -20601.64     4.470499     4.470499     4.470499    -20601.64    -58305.81   -44834.815    41335.705   -23175.719   -8325.8597   -13588.983    89.344537 
   34700    1898.0238   -103.71545    1.7173718   -101.99808   -11705.956    4.4590494    4.4590494    4.4590494   -11705.956   -34813.861    9184.1512   -9488.1586    28829.176     38163.52    20448.179    88.659819 
   34800    2700.8418   -104.40989    2.4437784   -101.96611    15502.947    4.4399322    4.4399322    4.4399322    15502.947      22541.4    3663.2406    20304.201   -14382.026    10920.643   -13429.743    87.524375 
   34900     1700.693   -103.54144    1.5388227   -102.00261   -26169.813    4.4261233    4.4261233    4.4261233   -26169.813   -75342.519   -54069.794    50902.873     7412.556    34558.488   -9620.6699    86.710267 
   35000     2873.359    -104.6243    2.5998756   -102.02442    2232.6655    4.4184504    4.4184504    4.4184504    2232.6655   -15691.661    24342.024    -1952.367   -23051.732    14679.661    14840.511    86.260098 
   35100    1108.9407   -103.07828    1.0033928   -102.07489   -6232.9808    4.4369949    4.4369949    4.4369949   -6232.9808   -49957.976   -24597.648    55856.683    17607.437     20305.66   -17792.619    87.350782 
   35200    2414.4069   -104.21822    2.1846061   -102.03361    6056.7185     4.446553     4.446553     4.446553    6056.7185    49013.361   -18823.788   -12019.417   -16821.057    18362.857    9784.4497    87.916503 
   35300    1799.1461   -103.64996    1.6279052   -102.02206   -19251.326     4.439319     4.439319     4.439319   -19251.326   -20155.271   -53095.152    15496.443    9322.1541   -27266.349   -1691.9857    87.488112 
   35400    2289.9315    -104.0766    2.0719782   -102.00462    45753.414    4.4205427    4.4205427    4.4205427    45753.414    80237.155   -2877.0429    59900.129   -11524.755    42239.214   -2439.3037    86.382697 
   35500    1516.6345   -103.41872    1.3722828   -102.04644   -7793.1441    4.4155267    4.4155267    4.4155267   -7793.1441   -46568.652    24993.879   -1804.6595    15879.159   -38230.949   -26685.662    86.088978 
   35600    2755.6438   -104.52939    2.4933644   -102.03603    15865.209    4.4194214    4.4194214    4.4194214    15865.209    1592.4089   -21652.595    67655.812   -16075.921    5471.6851    3961.5598    86.316982 
   35700    928.94248   -102.92648   0.84052668   -102.08596    13510.338    4.4351864    4.4351864    4.4351864    13510.338    36025.496    30863.892   -26358.375     5084.009   -21239.756   -20575.194    87.244014 
   35800    3000.8663   -104.74362    2.7152469   -102.02838   -22898.689    4.4497788    4.4497788    4.4497788   -22898.689    -38420.03   -26963.694   -3312.3438   -18791.079    5149.2111   -857.69779    88.107986 
   35900    1197.7334   -103.13688    1.0837343   -102.05315    -38899.69    4.4303686    4.4303686    4.4303686    -38899.69   -33032.662   -17075.731   -66590.678    26492.231   -38387.638   -24838.872    86.960013 
   36000     2502.423   -104.29932     2.264245   -102.03507    48282.767    4.4039167    4.4039167    4.4039167    48282.767   -13272.686    34986.635    123134.35   -10236.102   -8182.7846   -586.98159    85.411685 
   36100    1695.1562   -103.61575     1.533813   -102.08194   -15828.264    4.4108151    4.4108151    4.4108151   -15828.264   -16719.915   -40159.137    9394.2618    10897.565   -17788.056   -1038.7134    85.813686 
   36200    2057.5631   -103.94646    1.8617263   -102.08473    14301.257    4.4276321    4.4276321    4.4276321    14301.257   -29854.444    2632.5014    70125.712    5354.6014   -20377.359    5679.1015    86.798969 
   36300    1824.3988   -103.71984    1.6507544   -102.06909   -24698.425    4.4519635    4.4519635    4.4519635   -24698.425   -40313.292   -82351.273     48569.29    2292.4087   -13579.583    12433.701    88.237821 
   36400    1975.5518   -103.80097    1.7875208   -102.01345   -10852.805    4.4523476    4.4523476    4.4523476   -10852.805   -75330.997   -27452.861    70225.443    2989.1827   -42258.152   -5129.9575    88.260664 
   36500    1897.1053   -103.72635    1.7165408   -102.00981   -8087.8956    4.4088691    4.4088691    4.4088691   -8087.8956    13468.802   -41193.941    3461.4522   -13335.866    15117.066    48913.192    85.700159 
   36600    2483.3465   -104.25949    2.2469841    -102.0125    3495.6068    4.3855513    4.3855513    4.3855513    3495.6068   -27722.896    35933.311    2276.4052    3660.9152   -56876.522   -8955.6332    84.347574 
   36700    1716.8946   -103.62977    1.5534823   -102.07629    -291.6953    4.4137523    4.4137523    4.4137523    -291.6953   -5749.6687   -64640.742    69515.325   -27501.983   -4839.4392    18169.521    85.985234 
   36800    1847.3465   -103.74482     1.671518    -102.0733   -5476.2289    4.4481361    4.4481361    4.4481361   -5476.2289   -63344.618   -18900.498     65816.43    3885.0089   -28662.307   -9572.1303    88.010443 
   36900    1461.0474    -103.3691    1.3219864   -102.04711   -827.62882    4.4568473    4.4568473    4.4568473   -827.62882   -46752.932   -35745.833    80015.879   -32961.933   -23610.137   -6233.1448    88.528534 
   37000    2314.5186   -104.10628    2.0942251   -102.01205    4409.8682    4.4273859    4.4273859    4.4273859    4409.8682   -8391.1211   -12080.606    33701.331    661.78718   -2969.4574    4013.6255    86.784495 
   37100    1336.1854   -103.22594    1.2090086   -102.01693    26073.122    4.3977778    4.3977778    4.3977778    26073.122   -12573.848    32664.738    58128.475   -29170.103   -25923.767   -23176.851    85.055001 
   37200    2153.4259   -103.98651    1.9484651   -102.03805    29177.767    4.3986346    4.3986346    4.3986346    29177.767      39060.1    9170.2938    39302.906    3245.1893   -12423.858    8611.4584    85.104723 
   37300    2307.1968   -104.16488    2.0876001   -102.07728   -24278.382     4.422417     4.422417     4.422417   -24278.382   -75532.438    3707.7957   -1010.5034   -39097.025   -11642.738   -10209.237    86.492624 
   37400    1565.2128   -103.48288    1.4162374   -102.06664   -7451.4473    4.4440097    4.4440097    4.4440097   -7451.4473   -3878.1765    -20505.36     2029.194    16227.766   -13098.074    12347.721    87.765733 
   37500    2447.0923   -104.23942    2.2141805   -102.02524   -2899.9486     4.443435     4.443435     4.443435   -2899.9486   -37504.499   -21626.239    50430.892   -22323.597    19729.652    -1622.039    87.731689 
   37600    1421.5525   -103.33631    1.2862506   -102.05006   -24993.839    4.4271527    4.4271527    4.4271527   -24993.839   -78680.288   -43878.381    47577.153    48624.586    7909.8231   -5149.2131    86.770779 
   37700    2403.8517    -104.1916    2.1750556   -102.01654    47677.855    4.4053814    4.4053814    4.4053814    47677.855    26015.039    43416.269    73602.257   -24462.925    24735.835    9460.7865    85.496934 
   37800    1451.7657   -103.38585    1.3135881   -102.07226   -31899.332    4.4117195    4.4117195    4.4117195   -31899.332   -46416.109   -8292.6031   -40989.283    43770.403    28644.147   -5560.3621    85.866483 
   37900    2492.6796   -104.31107    2.2554289   -102.05564    30675.615    4.4179831    4.4179831    4.4179831    30675.615    14499.234   -6181.7749    83709.386   -21793.727     6031.823    13704.833    86.232732 
   38000    1551.9652   -103.47767    1.4042507   -102.07342    24098.799    4.4396645    4.4396645    4.4396645    24098.799    764.44786    52665.888    18866.061    12183.733    24006.007    5200.3132    87.508543 
   38100    2170.8276   -103.99295    1.9642105   -102.02874   -69285.802    4.4549403    4.4549403    4.4549403   -69285.802   -54109.397   -108390.33   -45357.681   -19541.526   -13516.461    20088.674     88.41494 
   38200    1683.7148   -103.56541    1.5234606   -102.04195    7087.6454    4.4101017    4.4101017    4.4101017    7087.6454   -16984.716    938.39715    37309.255   -26318.602    59538.694    11702.522    85.772056 
   38300    2621.5249    -104.3939    2.3720108   -102.02188    53273.241    4.3873511    4.3873511    4.3873511    53273.241    102759.98    11702.223     45357.52    9666.9553   -2385.6415   -180.50406    84.451461 
   38400    1266.1456   -103.24593    1.1456351   -102.10029   -14579.683    4.4096586    4.4096586    4.4096586   -14579.683   -29342.999    5942.7386   -20338.788     -46062.4    34563.507    15721.693    85.746201 
   38500     2722.688   -104.54059    2.4635453   -102.07705     15735.96    4.4484502    4.4484502    4.4484502     15735.96    43851.068    28210.164   -24853.353    23046.663   -12006.797   -3439.7808    88.029085 
   38600    1035.4166   -103.00505   0.93686666   -102.06818   -60538.166    4.4594048    4.4594048    4.4594048   -60538.166   -82229.157   -36568.958   -62816.383   -40930.654    66514.027    16404.594    88.681023 
   38700     2491.411   -104.27925     2.254281   -102.02497    22932.584     4.406378     4.406378     4.406378    22932.584   -23719.448    53265.937    39251.264    24522.833   -6817.6039   -7359.1649    85.554971 
   38800    1517.6288   -103.39206    1.3731825   -102.01887    52564.573    4.3785145    4.3785145    4.3785145    52564.573    32058.447    94124.251    31511.019   -17009.433    40983.493    7107.0312    83.942203 
   38900    2078.9745    -103.9441    1.8810999     -102.063    27427.883    4.4131304    4.4131304    4.4131304    27427.883    22076.316    32793.442    27413.891    18139.912   -6795.3109    16194.024    85.948894 
   39000    2008.5933   -103.87195    1.8174174   -102.05454    10226.944    4.4384512    4.4384512    4.4384512    10226.944   -26344.197    22679.314    34345.714    7316.1362    43726.099   -15128.624     87.43682 
   39100    1725.9003   -103.59598    1.5616309   -102.03435    6031.1899    4.4416745    4.4416745    4.4416745    6031.1899    37269.541   -16743.153   -2432.8181   -8912.9538    18724.757    24516.197    87.627452 
   39200    1937.7421   -103.79977    1.7533098   -102.04646   -1803.1682     4.417511     4.417511     4.417511   -1803.1682    2786.1222    25696.912   -33892.538     27528.07    33415.964   -22258.176    86.205093 
   39300    2165.7748   -104.00039    1.9596386   -102.04075    27176.384     4.375292     4.375292     4.375292    27176.384    43983.329    20397.193     17148.63   -6881.2069     18299.22    18979.037    83.757001 
   39400    1681.9151   -103.61258    1.5218321   -102.09075    24883.655    4.3879694    4.3879694    4.3879694    24883.655    52953.275    15486.409    6211.2833   -7807.5061    26112.917    15497.681    84.487169 
   39500    2096.2955   -103.98959    1.8967723   -102.09282   -41397.263    4.4265657    4.4265657    4.4265657   -41397.263   -41362.512   -33639.097    -49190.18    29474.956    23106.481   -1735.6915    86.736268 
   39600    2124.3937   -103.98285    1.9221961   -102.06065   -42302.761    4.4457535    4.4457535    4.4457535   -42302.761    10070.033   -81248.888   -55729.428   -14849.439   -10325.098    53348.059    87.869094 
   39700    2138.9777   -103.97828     1.935392   -102.04289   -45756.316    4.4339459    4.4339459    4.4339459   -45756.316   -35923.029   -40893.907   -60452.013    16200.277      30080.7   -32799.911    87.170826 
   39800    1591.8187   -103.49138     1.440311   -102.05107    9166.5134    4.3948141    4.3948141    4.3948141    9166.5134    74442.211   -27065.115   -19877.555   -5812.7602    -11773.02    68225.583    84.883156 
   39900    2315.4457   -104.15027    2.0950639   -102.05521    27661.058    4.3796091    4.3796091    4.3796091    27661.058      7731.59    57465.801    17785.783   -12895.997   -3644.6591   -22951.821    84.005175 
   40000    1793.2513   -103.71592    1.6225715   -102.09334   -11941.601    4.4081937    4.4081937    4.4081937   -11941.601    73240.604   -58975.599   -50089.808    7592.0836    15937.294    69347.857    85.660779 
   40100    2046.3313   -103.93271    1.8515635   -102.08115    -8698.508    4.4273991    4.4273991    4.4273991    -8698.508   -33144.277    10008.403   -2959.6498   -21697.767   -39440.782   -22810.711    86.785268 
   40200    1772.6792   -103.67258    1.6039574   -102.06862   -18334.971    4.4262996    4.4262996    4.4262996   -18334.971    42703.154   -31171.822   -66536.246   -10237.695      25376.7    45878.816    86.720632 
   40300    2365.8425   -104.19833     2.140664   -102.05767    14481.091     4.400096     4.400096     4.400096    14481.091    28.340935    53058.492   -9643.5607    4612.9113   -40839.029    1709.7677    85.189574 
   40400    1656.1735   -103.57296    1.4985406   -102.07442    30259.227    4.3994213    4.3994213    4.3994213    30259.227    68938.672    50675.479    -28836.47   -23588.048    8406.1339    31229.048    85.150392 
   40500    2448.3643   -104.30054    2.2153314   -102.08521   -7235.2648    4.4148572    4.4148572    4.4148572   -7235.2648   -11168.871    37624.624   -48161.547    16829.736   -15671.924    12060.058    86.049824 
   40600    1646.9315   -103.57279    1.4901782   -102.08261    30281.796    4.4166457    4.4166457    4.4166457    30281.796    89924.015    35249.846   -34328.475   -19742.364   -5037.4855    33159.222    86.154446 
   40700    1992.5634   -103.88287    1.8029133   -102.07996   -14065.697    4.4250359    4.4250359    4.4250359   -14065.697    862.77766    14557.777   -57617.646     16094.85   -9036.8912    1366.1945    86.646372 
   40800    2096.7469    -103.9553    1.8971807   -102.05812    2402.8026    4.4201569    4.4201569    4.4201569    2402.8026     29439.95    27590.351   -49821.894    4591.6702    -5308.533    44556.862    86.360087 
   40900    2169.0158   -104.02496    1.9625711   -102.06239     -9958.72    4.4159695    4.4159695    4.4159695     -9958.72     14042.19   -5335.7841   -38582.566    1754.6408    -3554.147    25516.768    86.114882 
   41000    1487.7837   -103.41745    1.3461779   -102.07128   -3575.5235    4.4216301    4.4216301    4.4216301   -3575.5235     18752.44     38250.45   -67729.461    24884.457    6181.9552    37800.205    86.446464 
   41100    2670.1784   -104.46722    2.4160335   -102.05119   -12834.383    4.4289466    4.4289466    4.4289466   -12834.383    20648.001   -21910.602   -37240.548    2642.3488   -15144.609    37008.008    86.876304 
   41200    1487.2206   -103.41572    1.3456684   -102.07005   -12044.981     4.440547     4.440547     4.440547   -12044.981   -9197.9003    8429.1702   -35366.213   -5875.4703    6699.2913    26389.419    87.560737 
   41300    1938.7835   -103.80888    1.7542521   -102.05463   -22073.649    4.4378651    4.4378651    4.4378651   -22073.649   -44945.727   -48517.061     27241.84    17588.696   -3934.4859     37075.15    87.402186 
   41400    2301.6892   -104.10314    2.0826167   -102.02052    20881.665     4.432874     4.432874     4.432874    20881.665     5802.926   -26300.692    83142.762    8688.0467     12549.28    26081.902    87.107622 
   41500     1629.697   -103.49104    1.4745841   -102.01645    1155.6233    4.4410641    4.4410641    4.4410641    1155.6233    -11135.93    24397.351   -9794.5512    15398.304   -5720.2454     23846.36    87.591331 
   41600     2163.926   -103.95228    1.9579657   -101.99432   -8388.4464    4.4407137    4.4407137    4.4407137   -8388.4464    14993.641   -23592.782   -16566.199   -17969.785    12162.312     26767.83    87.570599 
   41700    1638.8116   -103.48754    1.4828312   -102.00471     3327.765    4.4301659    4.4301659    4.4301659     3327.765    6844.8844   -26294.656    29433.067    36192.347    5777.0235    19979.804    86.948077 
   41800    2106.5694   -103.91541    1.9060683   -102.00935    6115.6271    4.4231016    4.4231016    4.4231016    6115.6271     8889.989    28283.636   -18826.744   -3583.3336   -6267.5874    23364.102    86.532796 
   41900    1988.0383   -103.82954    1.7988189   -102.03072   -13118.879    4.4148884    4.4148884    4.4148884   -13118.879   -8816.1764   -27363.096   -3177.3638    26980.292    14837.018    30730.616    86.051645 
   42000    1631.2422   -103.53604    1.4759822   -102.06006   -15930.533    4.4150101    4.4150101    4.4150101   -15930.533   -19146.196    6086.8079   -34732.212    9487.9272    3050.0741    10890.198    86.058763 
   42100    2042.0243    -103.9222    1.8476665   -102.07453    -2747.467    4.4075175    4.4075175    4.4075175    -2747.467    68966.988   -43225.522   -33983.868    4540.8999     1461.889    36841.242    85.621365 
   42200    1793.1895   -103.69662    1.6225155    -102.0741    18121.247    4.4105529    4.4105529    4.4105529    18121.247    37238.418    65265.713    -48140.39    21801.115    17137.993   -2684.9098    85.798386 
   42300    1690.3746   -103.61095    1.5294865   -102.08147    -33283.04    4.4148725    4.4148725    4.4148725    -33283.04    16720.655   -67683.827   -48885.947   -5946.6076   -11315.627    49707.458    86.050719 
   42400    2061.9973   -103.92847    1.8657385   -102.06274    42241.003    4.4098935    4.4098935    4.4098935    42241.003    51295.036    71960.397    3467.5754   -17750.537      9922.82   -21469.581    85.759906 
   42500    1703.3317   -103.62051    1.5412103    -102.0793   -50295.199    4.4219399    4.4219399    4.4219399   -50295.199   -8709.3336   -51038.726   -91137.537    945.57711   -5362.9601    62149.327    86.464634 
   42600    2098.6144   -103.95501    1.8988704   -102.05614    11006.181    4.4169219    4.4169219    4.4169219    11006.181   -16860.194    24606.588     25272.15   -37351.999   -733.27754   -29366.761     86.17061 
   42700    1976.2474   -103.84293    1.7881502   -102.05478   -13166.799    4.4095864    4.4095864    4.4095864   -13166.799    38241.392   -19648.471   -58093.318    19618.338    5308.4216    66097.815    85.741993 
   42800    1967.6486   -103.82741    1.7803698   -102.04704   -1469.6174    4.4117955    4.4117955    4.4117955   -1469.6174   -35591.721    4460.2233    26722.646   -66636.811   -5048.5766    -21638.75     85.87092 
   42900    1908.0705   -103.78428    1.7264623   -102.05782   -34198.356    4.4136836    4.4136836    4.4136836   -34198.356    7776.5656   -37812.388   -72559.246    18005.707     11384.94    68180.865    85.981218 
   43000    2408.1321   -104.23719    2.1789285   -102.05826    11905.026    4.4158154    4.4158154    4.4158154    11905.026    18786.163    21383.321   -4454.4045   -21833.698   -7817.9253   -25943.891    86.105862 
   43100    1378.5428   -103.31783    1.2473345   -102.07049   -35516.599    4.4184678    4.4184678    4.4184678   -35516.599    32854.745   -48233.284   -91171.258   -25758.061    5995.7004    67003.263    86.261116 
   43200    2577.0153   -104.38162    2.3317376   -102.04988    22351.229    4.4075126    4.4075126    4.4075126    22351.229    60803.841     21052.01   -14802.163    38013.805     8167.294   -31086.349    85.621076 
   43300    1918.6251   -103.80397    1.7360123   -102.06796   -874.48473    4.4081209    4.4081209    4.4081209   -874.48473    70686.042    5163.5053   -78473.001   -19587.679   -7741.3379    75230.567     85.65653 
   43400     1697.725   -103.61452    1.5361372   -102.07838    10169.543    4.4124597    4.4124597    4.4124597    10169.543     20542.56    27918.601   -17952.531    22391.839      14095.5   -33203.281    85.909709 
   43500    2320.3939   -104.17635    2.0995411   -102.07681   -16186.781    4.4153539    4.4153539    4.4153539   -16186.781    4201.7118   -24037.815    -28724.24    7220.9841   -15839.345      57466.7    86.078867 
   43600    1749.6488   -103.65736     1.583119   -102.07424   -24701.939    4.4254412    4.4254412    4.4254412   -24701.939   -6074.6918   -7803.2218   -60227.904    7146.3253    13609.596   -30428.596    86.670185 
   43700    1883.7935   -103.77272    1.7044959   -102.06822   -15136.109    4.4196419    4.4196419    4.4196419   -15136.109   -19440.549   -23636.853   -2330.9254    44491.979   -3467.3038    29458.879    86.329902 
   43800    2080.1271    -103.9321    1.8821427   -102.04996     10476.69     4.404854     4.404854     4.404854     10476.69    75311.237    20215.153    -64096.32    3056.2105     -471.565   -40914.724    85.466234 
   43900     1937.789   -103.81408    1.7533522   -102.06073   -172.46988    4.4103853    4.4103853    4.4103853   -172.46988   -28886.631    11927.639    16441.582    42125.298    4093.7379     16910.97    85.788605 
   44000    1910.3492   -103.78808    1.7285241   -102.05956    2364.9579    4.4114349    4.4114349    4.4114349    2364.9579    93049.675   -22681.035   -63273.767   -12567.869    10160.435   -69836.145    85.849866 
   44100    2329.6965   -104.16873    2.1079583   -102.06077    303.47144    4.4100191    4.4100191    4.4100191    303.47144   -8285.6932    20300.632   -11104.525    37419.068     12052.15    12275.488    85.767236 
   44200    1607.8415   -103.52741    1.4548087   -102.07261   -11886.093    4.4157706    4.4157706    4.4157706   -11886.093    46832.401   -52457.111   -30033.568   -711.31575   -16888.465   -51885.929    86.103245 
   44300    2637.9054   -104.43901    2.3868322   -102.05218    13411.793    4.4173753    4.4173753    4.4173753    13411.793    57433.891    30170.515   -47369.029    22100.868     12349.62    34044.064     86.19715 
   44400    1216.4625   -103.16689    1.1006808   -102.06621    -3558.124    4.4306615    4.4306615    4.4306615    -3558.124    110997.08   -39996.463   -81674.991    15992.385   -24775.816   -70704.143    86.977259 
   44500    2110.4115   -103.93907    1.9095447   -102.02953    12942.505    4.4290909    4.4290909    4.4290909    12942.505    50364.654    -11137.38   -399.76017    5795.0915     -1868.74    49641.003    86.884796 
   44600    2204.8475   -104.01923    1.9949924   -102.02424    -5826.665    4.4297284    4.4297284    4.4297284    -5826.665    14388.277   -5515.3304   -26352.941    17991.127   -18412.513    -44164.99    86.922315 
   44700    1749.0064   -103.61633    1.5825377    -102.0338   -5783.0886    4.4181062    4.4181062    4.4181062   -5783.0886    37293.526   -47104.411   -7538.3808   -8076.9706     1917.209      52150.6    86.239944 
   44800    2559.1147    -104.3458    2.3155408   -102.03026    27634.736    4.4136503    4.4136503    4.4136503    27634.736     3139.014    59125.645    20639.549   -20091.467   -12829.201   -27997.166    85.979271 
   44900    1503.6086   -103.40769    1.3604966   -102.04719   -19339.113    4.4365602    4.4365602    4.4365602   -19339.113    9545.1976   -18162.815   -49399.722    18981.301   -9860.0823    56559.372    87.325112 
   45000    2014.9063   -103.87366    1.8231296   -102.05053   -7618.8908    4.4335088    4.4335088    4.4335088   -7618.8908   -27147.339    8167.6061     -3876.94    -18480.76   -2177.2838   -10238.852    87.145048 
   45100    2208.6979   -104.04305    1.9984762   -102.04457    25370.626    4.4159724    4.4159724    4.4159724    25370.626    35064.599    46993.346   -5946.0687    6696.9068   -9109.1827    25764.567     86.11505 
   45200    1891.1875   -103.77388    1.7111862   -102.06269     -23367.6    4.4059792    4.4059792    4.4059792     -23367.6   -23565.235   -54755.985    8218.4206   -45764.459    14359.106    15044.018    85.531743 
   45300    2379.9621   -104.23191    2.1534397   -102.07847    10994.257    4.4129499    4.4129499    4.4129499    10994.257   -30299.219    61724.171    1557.8196    12716.804   -18817.913   -2964.5664    85.938345 
   45400    2172.8611   -104.03455    1.9660504    -102.0685   -21700.716    4.4359918    4.4359918    4.4359918   -21700.716    -44666.05   -13572.589   -6863.5079     -35995.4    15716.006    23017.301     87.29155 
   45500     1327.521   -103.25959    1.2011689   -102.05842    21369.218    4.4330429    4.4330429    4.4330429    21369.218   -10039.989    44355.039    29792.603    24782.369    6575.1615   -13271.917    87.117577 
   45600    2684.5789    -104.4788    2.4290634   -102.04974    16756.773    4.4098956    4.4098956    4.4098956    16756.773    22985.378    47715.895   -20430.955    1461.7779    16669.741    2360.1615    85.760027 
   45700    1270.1579   -103.23767    1.1492656    -102.0884    12304.339      4.38476      4.38476      4.38476    12304.339   -49323.378    30801.099    55435.295   -19332.828   -3657.5536    -5220.182    84.301925 
   45800    2440.5053    -104.3233    2.2082205   -102.11508    14115.758    4.3997191    4.3997191    4.3997191    14115.758    50168.538    9139.2877   -16960.553    27097.971   -13581.771   -22247.945    85.167688 
   45900    2304.1288   -104.18462    2.0848242    -102.0998   -41918.832    4.4297734    4.4297734    4.4297734   -41918.832   -83739.931   -23931.466     -18085.1   -20067.327   -619.88371    11179.865    86.924968 
   46000    1840.4168   -103.73932    1.6652478   -102.07407    -38162.89    4.4337048    4.4337048    4.4337048    -38162.89   -55483.161    -37228.59   -21776.918    24815.195    -8978.128   -26585.136    87.156608 
   46100    1929.5598   -103.80747    1.7459063   -102.06157    1631.6037    4.4149212    4.4149212    4.4149212    1631.6037    37319.718    -651.6136   -31773.293   -11693.331   -16638.305    29011.572    86.053567 
   46200    1750.5822   -103.64445    1.5839635   -102.06049    23621.312     4.393461     4.393461     4.393461    23621.312   -25979.933   -2595.5422    99439.412    40464.359   -15629.494   -13286.451    84.804779 
   46300    1965.0789   -103.85862    1.7780446   -102.08058    -6962.526    4.4021156    4.4021156    4.4021156    -6962.526   -540.83519   -6324.7408   -14022.002   -13962.494   -19611.863    49169.084    85.306934 
   46400    2606.1369    -104.4398    2.3580875   -102.08171   -23250.774    4.4204974    4.4204974    4.4204974   -23250.774   -60591.543   -39530.106    30369.326    25998.461    4026.3725    313.90337    86.380043 
   46500    1693.3479   -103.62183    1.5321768   -102.08966   -58120.377    4.4297394    4.4297394    4.4297394   -58120.377   -88944.912    -52917.58   -32498.638   -7181.5752   -19049.184     23437.99    86.922964 
   46600    2372.9746   -104.22294    2.1471172   -102.07583   -17349.776    4.4173375    4.4173375    4.4173375   -17349.776   -7207.8855   -5138.3495   -39703.093    2753.3836    14466.139     34535.67    86.194934 
   46700    2201.4786    -104.0533    1.9919441   -102.06136   -11483.423     4.415881     4.415881     4.415881   -11483.423    -66820.57    44372.388   -12002.087   -14068.611    -31278.17    1322.3623    86.109702 
   46800    1619.6535   -103.54406    1.4654965   -102.07856    -17312.97    4.4278146    4.4278146    4.4278146    -17312.97   -24702.117   -1301.5943   -25935.199   -4311.4526    12416.971    38249.419    86.809706 
   46900    2662.4098   -104.46305    2.4090044   -102.05405    9922.4126    4.4320467    4.4320467    4.4320467    9922.4126   -24368.541    39679.766    14456.013    3627.4731   -32095.637   -4379.5725     87.05886 
   47000    1272.2213   -103.22179    1.1511326   -102.07066   -1432.8072    4.4215689    4.4215689    4.4215689   -1432.8072   -30037.935    35213.389    -9473.875   -4983.6856    894.94503      33482.5    86.442874 
   47100    2361.6496   -104.17864    2.1368702   -102.04177    34974.711    4.4021075    4.4021075    4.4021075    34974.711    5410.6733    31459.237    68054.221    36429.008   -2903.1119   -918.18956    85.306461 
   47200    1996.6765   -103.87285    1.8066349   -102.06622    5494.5779    4.4141551    4.4141551    4.4141551    5494.5779   -10153.741    18188.486    8448.9886   -14048.552   -10071.593    13446.383    86.008773 
   47300      1360.58   -103.31782    1.2310814   -102.08674   -9975.4722    4.4282155    4.4282155    4.4282155   -9975.4722    -74939.89   -8464.4368     53477.91    41221.104    22960.082    13294.979    86.833287 
   47400    2991.3802   -104.74597    2.7066637   -102.03931    18142.903    4.4265219    4.4265219    4.4265219    18142.903   -4094.2502    2146.9876    56375.972   -9397.1306    -1816.838   -18308.709    86.733697 
   47500    883.95268   -102.87441   0.79981896   -102.07459   -5594.1342    4.4151987    4.4151987    4.4151987   -5594.1342   -64372.634   -14237.598    61827.829    54278.542    24140.893     29225.02    86.069796 
   47600    2933.7404   -104.69186    2.6545099   -102.03735    17728.492    4.4133649    4.4133649    4.4133649    17728.492   -13769.516    38260.561    28694.431    3062.4637    10463.483   -31040.468    85.962591 
   47700    1472.8013   -103.39197    1.3326216   -102.05935    4172.0003    4.4203308    4.4203308    4.4203308    4172.0003   -21289.173   -20815.261    54620.434    41399.587    12392.286    34506.242    86.370278 
   47800    2341.5185    -104.1746    2.1186551   -102.05595    -19213.57    4.4158828    4.4158828    4.4158828    -19213.57    -54398.99   -16202.227    12960.508    16072.431    8229.8508   -17338.713    86.109805 
   47900    2054.1709   -103.91838     1.858657   -102.05972    1312.4159    4.4060899    4.4060899    4.4060899    1312.4159   -26675.695   -18339.828     48952.77    25661.814   -9160.8225   -3422.8151    85.538191 
   48000    2141.1068   -104.01213    1.9373184   -102.07481    967.40902    4.4122946    4.4122946    4.4122946    967.40902   -44310.387   -16242.329    63454.943     19769.76    25910.948      12229.9    85.900065 
   48100    2110.6972   -103.97965    1.9098032   -102.06985   -17134.716    4.4354767    4.4354767    4.4354767   -17134.716    -32506.92    -2116.821   -16780.408    26592.939   -23766.682   -12582.908    87.261142 
   48200    1618.8007   -103.50793    1.4647249   -102.04321   -27581.181    4.4439053    4.4439053    4.4439053   -27581.181   -21774.057   -69016.693    8047.2066    22103.885    20430.915    32315.215     87.75955 
   48300    2264.6945   -104.08599    2.0491432   -102.03684    18730.384    4.4085017    4.4085017    4.4085017    18730.384    166.58775    38679.442    17345.123   -3194.9656   -20943.596   -9983.6399    85.678735 
   48400    2135.5653   -103.97845    1.9323043   -102.04615    20531.994    4.3789354    4.3789354    4.3789354    20531.994    9902.0042   -23783.459    75477.438    50639.187    3068.3737    39707.022    83.966415 
   48500    2111.0637   -103.99247    1.9101348   -102.08233    30654.112    4.3979197    4.3979197    4.3979197    30654.112    4902.4337    53125.608    33934.294   -49670.088   -2848.3841    2176.0655    85.063232 
   48600    1620.6484   -103.56048    1.4663967   -102.09409   -2231.8083    4.4255237    4.4255237    4.4255237   -2231.8083   -17314.183   -2247.1469    12865.905     61010.89   -7878.8845    7666.6042    86.675035 
   48700     2425.273    -104.2665     2.194438   -102.07207   -2594.6801    4.4409137    4.4409137    4.4409137   -2594.6801   -13977.881    57067.585   -50873.745   -7523.9441    7212.6026    26859.206    87.582433 
   48800     1537.412   -103.45491    1.3910827   -102.06383   -9734.3244    4.4255511    4.4255511    4.4255511   -9734.3244   -41700.313     17362.61   -4865.2698    70821.357    9663.9255   -9567.7502    86.676643 
   48900    1892.2706   -103.75923    1.7121662   -102.04707    12309.269    4.4121861    4.4121861    4.4121861    12309.269    67665.413   -31321.135    583.52707   -10322.748   -13915.215    22943.767     85.89373 
   49000    1897.2534   -103.77025    1.7166747   -102.05357   -3572.6444    4.4031059    4.4031059    4.4031059   -3572.6444    2244.0127   -10030.787   -2931.1591    37484.839   -7377.1301   -1998.7486    85.364516 
   49100    1932.5479    -103.8173    1.7486099   -102.06869    2581.1732    4.4014713    4.4014713    4.4014713    2581.1732    14838.377   -19876.612    12781.755     2195.176   -12195.374    22619.335    85.269481 
   49200    1937.6498   -103.83806    1.7532262   -102.08483   -17850.966     4.424072     4.424072     4.424072   -17850.966   -12761.964   -38298.377    -2492.556   -39911.681   -7203.2526   -1973.5316    86.589762 
   49300     2465.963    -104.2777    2.2312552   -102.04645   -10993.437    4.4366988    4.4366988    4.4366988   -10993.437    948.21539    2144.3219   -36072.849    13613.034   -335.73244    28616.079    87.333291 
   49400    1109.5383   -103.03872    1.0039336   -102.03479   -3295.3824    4.4302384    4.4302384    4.4302384   -3295.3824   -22576.055    12771.198    -81.28997   -62036.481    342.22198   -24041.193    86.952343 
   49500    2888.1747   -104.62888    2.6132812    -102.0156    10930.019     4.407566     4.407566     4.407566    10930.019    10285.706    40401.035   -17896.683    31830.572    4418.6119    22354.909    85.624191 
   49600    1511.1519   -103.42213     1.367322   -102.05481   -25973.992    4.3945143    4.3945143    4.3945143   -25973.992   -13538.806   -63804.473   -578.69585   -66578.072    3908.2493     13086.52    84.865787 
   49700    2359.4107   -104.20765    2.1348444    -102.0728    988.82997    4.3948284    4.3948284    4.3948284    988.82997    7691.0677   -5579.4613    854.88357     57025.05    7107.7404   -25966.349    84.883986 
   49800    1979.4917   -103.89173    1.7910857   -102.10064    3335.4147    4.4099942    4.4099942    4.4099942    3335.4147   -22838.933    39084.683   -6239.5062   -23470.584   -7471.7496    22605.717    85.765782 
   49900    1339.9061   -103.31539    1.2123752   -102.10302   -4038.1161    4.4087945    4.4087945    4.4087945   -4038.1161   -53212.426   -4749.7835    45847.861    38033.164    12515.792   -5038.4205    85.695807 
   50000    2338.4019   -104.21104    2.1158352    -102.0952    10260.446    4.3958898    4.3958898    4.3958898    10260.446    3367.3132    29506.168   -2092.1423    31612.519   -5362.5253   -8035.1895    84.945504 
   50100     2446.339   -104.30798     2.213499   -102.09448    -56.55944    4.4004694    4.4004694    4.4004694    -56.55944   -53120.862    41091.025    11860.158    36698.295   -3827.7423    5523.8324    85.211268 
   50200    1281.9261   -103.27949    1.1599137   -102.11958    6218.4119    4.4007484    4.4007484    4.4007484    6218.4119   -10249.758    16570.067    12334.927    34216.854   -3578.4933   -21298.094    85.227473 
   50300    1978.4405   -103.89273    1.7901345   -102.10259    14610.954    4.4088545    4.4088545    4.4088545    14610.954   -1068.7302    28764.643     16136.95    -2949.077   -3082.7872    8863.2735    85.699303 
   50400    2770.3691   -104.58542    2.5066882   -102.07873   -2158.5786    4.4105475    4.4105475    4.4105475   -2158.5786   -25754.302      29577.7   -10299.134    49229.954   -115.71362   -16098.068    85.798067 
   50500    980.81745   -102.99792   0.88746424   -102.11046   -31278.951    4.4085379    4.4085379    4.4085379   -31278.951    7311.6194    -58305.12   -42843.352   -40214.327   -9031.1172   -22399.048    85.680847 
   50600    3230.8614   -105.00516    2.9233513   -102.08181    29555.628    4.4021391    4.4021391    4.4021391    29555.628   -4361.8486    91845.835    1182.8969    19083.218   -8291.4879    13908.345    85.308298 
   50700    1213.4038   -103.21263    1.0979133   -102.11472   -38436.305    4.4174219    4.4174219    4.4174219   -38436.305    8012.5578   -86740.622   -36580.851   -21500.057     5249.337   -37809.627    86.199879 
   50800    2024.5419   -103.88891    1.8318481   -102.05706    8562.0851     4.429695     4.429695     4.429695    8562.0851   -30261.614    50893.081    5054.7879    12261.941   -2023.9629    18092.668    86.920351 
   50900    1997.7682   -103.85972    1.8076227    -102.0521   -7190.9408    4.4251936    4.4251936    4.4251936   -7190.9408    -15065.87   -5996.2426   -510.70963    23009.805   -4897.2705   -34829.771    86.655636 
   51000    1798.1618   -103.68156    1.6270146   -102.05455   -11655.515    4.4143603    4.4143603    4.4143603   -11655.515   -16795.875   -7746.3942   -10424.276    8859.7467    4862.7505   -6172.6944    86.020772 
   51100    1706.0604   -103.61197    1.5436793   -102.06829   -2991.4481    4.3991808    4.3991808    4.3991808   -2991.4481   -79191.796    25583.183    44634.269    56182.453   -8672.1848    19343.862    85.136428 
   51200    2308.2141   -104.16623    2.0885206   -102.07771    2078.6705    4.4002423    4.4002423    4.4002423    2078.6705   -20597.055    5242.3801    21590.687    17536.415    7142.8036   -39453.536    85.198071 
   51300    1568.4105   -103.51331    1.4191308   -102.09418   -24343.344    4.4164717    4.4164717    4.4164717   -24343.344   -71034.656   -25928.062    23932.687    30795.124   -21174.991    30833.852    86.144263 
   51400    1771.5478   -103.67803    1.6029337   -102.07509   -12366.084    4.4131813    4.4131813    4.4131813   -12366.084   -40404.655    3497.2191   -190.81738   -28698.725    13627.279   -12504.821    85.951863 
   51500     2578.769   -104.40211    2.3333244   -102.06879   -6249.0542    4.4061516    4.4061516    4.4061516   -6249.0542   -9064.4659   -2139.2591   -7543.4376    42253.005   -9550.0147   -19279.917    85.541787 
   51600     1098.406    -103.0994   0.99386084   -102.10554   -43613.535    4.4050559    4.4050559    4.4050559   -43613.535   -126805.31    17616.278   -21651.577   -74048.305   -5466.8074    10096.626    85.477987 
   51700    2548.7396   -104.39426    2.3061532    -102.0881    23119.296     4.395534     4.395534     4.395534    23119.296   -9526.8252    79983.931    -1099.218    18233.142    17317.652   -12964.359    84.924876 
   51800    1752.9765   -103.69391      1.58613   -102.10778   -15154.115    4.4016208    4.4016208    4.4016208   -15154.115   -66087.856   -18642.451    39267.963   -78547.018   -16223.662   -7153.7973    85.278172 
   51900    2352.6988   -104.20735    2.1287713   -102.07857   -24539.681    4.4171851    4.4171851    4.4171851   -24539.681   -53553.835    10948.841   -31014.049    12453.328    12626.161    2282.4774    86.186015 
   52000    1941.5706   -103.82038    1.7567739   -102.06361   -25384.161    4.4254519    4.4254519    4.4254519   -25384.161       -47252   -46623.994    17723.511   -39247.312   -14077.953   -20010.999    86.670814 
   52100    1822.7965   -103.69489    1.6493046   -102.04559     11265.71    4.4152035    4.4152035    4.4152035     11265.71   -45252.417   -5075.2171    84124.764   -16876.163    16263.937    8325.1252    86.070073 
   52200    2439.9446   -104.25083    2.2077131   -102.04311   -13560.017    4.4097294    4.4097294    4.4097294   -13560.017   -36718.611   -47360.068    43398.627    7232.9415   -10824.449   -10759.297    85.750332 
   52300    2118.6458   -103.98016    1.9169952   -102.06317   -4226.2595    4.4011651    4.4011651    4.4011651   -4226.2595   -26373.855   -19247.703    32942.779   -40369.715    29451.478     6075.317    85.251685 
   52400    2006.0444   -103.88499    1.8151111   -102.06988    9430.7774    4.4035402    4.4035402    4.4035402    9430.7774   -7033.6853   -24498.119    59824.137    47940.386   -11836.566    4827.1063    85.389783 
   52500    1811.8205   -103.70889    1.6393733   -102.06952   -13332.268    4.4175146    4.4175146    4.4175146   -13332.268   -59497.084    24211.531   -4711.2506   -32398.522    50203.775   -2489.1205    86.205301 
   52600      2290.46   -104.12133    2.0724563   -102.04888   -18075.411    4.4181744    4.4181744    4.4181744   -18075.411    -14930.45   -14110.225   -25185.557    12668.826    20911.702    8161.3557    86.243936 
   52700    1777.0083   -103.66056    1.6078745   -102.05268   -49866.415     4.420017     4.420017     4.420017   -49866.415   -92768.594   -23701.389   -33129.261   -22437.716    10707.736   -2125.2009    86.351882 
   52800    2093.0092    -103.9658    1.8937987     -102.072   -24568.607    4.4020239    4.4020239    4.4020239   -24568.607    -2360.473    3643.8047   -74989.154    7957.3342     60806.44     4070.841    85.301601 
   52900    2369.4017   -104.20418    2.1438845   -102.06029    7958.2199    4.3976594    4.3976594    4.3976594    7958.2199   -4882.9198     26132.59    2624.9894   -10845.815    13262.933   -5380.4051    85.048133 
   53000    1392.1863   -103.33895    1.2596794   -102.07927   -32235.934    4.4209744    4.4209744    4.4209744   -32235.934   -63046.414    29830.587   -63491.975    -14063.64    35301.113    12528.193     86.40801 
   53100    2534.1406   -104.34417    2.2929436   -102.05123   -7314.4019    4.4220843    4.4220843    4.4220843   -7314.4019      22525.8   -6460.6361    -38008.37    31034.176   -1715.0428    15271.166    86.473105 
   53200    1724.7134   -103.61583    1.5605569   -102.05527    19316.637    4.4036238    4.4036238    4.4036238    19316.637   -25557.841    81054.032    2453.7205   -24959.235    49451.769    4550.0946    85.394644 
   53300    2228.7931   -104.07921    2.0166588   -102.06256    1325.2926    4.3956683    4.3956683    4.3956683    1325.2926    14388.027   -24826.581    14414.432    20545.156    -19457.34    7760.4559    84.932664 
   53400    2041.0236   -103.92674     1.846761   -102.07998    5472.8842     4.403467     4.403467     4.403467    5472.8842    -32532.75    62503.364   -13551.962   -5889.3255    41137.837   -3509.8937    85.385519 
   53500    1901.4298   -103.80312    1.7204537   -102.08267    7806.1878    4.4155789    4.4155789    4.4155789    7806.1878   -7828.7403   -27649.169    58896.473   -32723.216   -3536.9262    313.16968    86.092028 
   53600    2368.1226   -104.21887    2.1427271   -102.07614    -26672.26    4.4205098    4.4205098    4.4205098    -26672.26   -16407.716   -44694.905    -18914.16    38798.477    16784.951   -1006.2987    86.380768 
   53700    1638.9212   -103.55582    1.4829304   -102.07289    14639.171    4.4049932    4.4049932    4.4049932    14639.171   -4290.1191   -24018.463    72226.094   -63227.641    19685.749   -22655.449    85.474336 
   53800    2670.6458   -104.47138    2.4164564   -102.05493    10626.477    4.4033092    4.4033092    4.4033092    10626.477    30596.674   -28387.231    29669.988    31213.331   -9450.5708    5637.1125    85.376344 
   53900    1147.1674   -103.13003    1.0379811   -102.09205   -36749.444    4.4110149    4.4110149    4.4110149   -36749.444   -76255.699   -49546.236    15553.602    -77291.97    21107.348   -12955.752     85.82535 
   54000    2929.9644   -104.71344    2.6510934   -102.06234    21071.052    4.4083049    4.4083049    4.4083049    21071.052    664.21378    39150.139    23398.804    30804.654   -19621.423   -10873.614    85.667257 
   54100    1521.7633   -103.46481    1.3769234   -102.08788   -37735.318    4.4175281    4.4175281    4.4175281   -37735.318   -84237.486   -52308.284    23339.814   -70988.614    8395.6744   -6036.6533    86.206093 
   54200    2156.1343   -104.00587    1.9509156   -102.05496    7624.8705    4.4125517    4.4125517    4.4125517    7624.8705   -15457.855     41863.39   -3530.9243    19747.181   -11598.474   -14112.922    85.915087 
   54300    2074.9746   -103.92457    1.8774806   -102.04709    11662.562    4.4089033    4.4089033    4.4089033    11662.562   -24500.703    21847.932    37640.456   -32275.659    1555.1596    13574.772     85.70215 
   54400    2025.3725    -103.8878    1.8325996    -102.0552   -24769.028    4.4133777    4.4133777    4.4133777   -24769.028   -19927.536    1931.5594   -56311.106    8503.3526   -6967.5695   -20972.013    85.963339 
   54500    1924.8852   -103.80218    1.7416766    -102.0605    11606.595    4.4026685    4.4026685    4.4026685    11606.595   -4463.4774     -20680.3    59963.561    19939.698   -7700.7668    19295.721    85.339083 
   54600    2092.4426   -103.97017    1.8932861   -102.07689   -8104.4517    4.4041731    4.4041731    4.4041731   -8104.4517   -27109.598    477.35908    2318.8844   -45111.757    29446.844    461.98777    85.426605 
   54700    2076.4761   -103.95908    1.8788392   -102.08024    5178.1183    4.4101988    4.4101988    4.4101988    5178.1183    8893.4661   -27001.312      33642.2    56250.265   -8777.7629    7595.5038    85.777719 
   54800    2039.2249   -103.91675    1.8451336   -102.07162   -32710.157    4.4224863    4.4224863    4.4224863   -32710.157   -63043.749    -11989.45   -23097.272   -31096.262    28916.311    13046.096    86.496689 
   54900    2148.5337   -104.00264    1.9440385    -102.0586    302.11154    4.4125447    4.4125447    4.4125447    302.11154    7534.7263   -9877.2898    3248.8982    41891.923    -384.2168   -11177.409    85.914676 
   55000    2117.7834    -103.9741    1.9162149   -102.05788   -2675.2944    4.4015986    4.4015986    4.4015986   -2675.2944   -9092.5978    17718.153   -16651.438    12087.453    14584.443    26939.532     85.27688 
   55100    1935.3753   -103.83539    1.7511683   -102.08422   -7418.8058    4.4014608    4.4014608    4.4014608   -7418.8058    18628.978    -9508.236   -31377.159    8860.5481    42694.923   -6889.4826    85.268873 
   55200    2134.5472   -104.03275    1.9313832   -102.10136   -4966.6574    4.4056467    4.4056467    4.4056467   -4966.6574    -10126.95   -14634.395     9861.373    47058.263   -16450.017    21135.784     85.51238 
   55300     1768.397   -103.69312    1.6000828   -102.09304    20928.268    4.4053698    4.4053698    4.4053698    20928.268    39807.207    41303.329   -18325.733   -17688.233    38216.986   -1708.4016    85.496257 
   55400    2070.4519   -103.95656    1.8733884   -102.08317    9529.3796    4.4050064    4.4050064    4.4050064    9529.3796    11431.128    5004.1832    12152.827    39156.376   -15766.431    8079.9442    85.475105 
   55500     2172.879   -104.03337    1.9660666   -102.06731    9174.6345    4.3996236    4.3996236    4.3996236    9174.6345    53412.761    38482.689   -64371.547   -16092.535    12705.289    31337.021    85.162141 
   55600    1644.0227   -103.56719    1.4875463   -102.07964    15751.633    4.3897174    4.3897174    4.3897174    15751.633   -8575.8232   -5465.2999    61296.023    44266.289    17795.957   -17603.485    84.588184 
   55700    2533.0674   -104.37012    2.2919726   -102.07815      44952.9    4.3908585    4.3908585    4.3908585      44952.9    74067.448    63012.908   -2221.6552   -19090.174   -31640.132    19781.953    84.654164 
   55800    1593.6107   -103.53784    1.4419325   -102.09591   -8780.4517    4.4052238    4.4052238    4.4052238   -8780.4517    16750.096   -30880.095   -12211.357    44526.962    17678.969   -15822.376    85.487758 
   55900    2416.2625   -104.25162    2.1862851   -102.06534   -4959.8293    4.4060078    4.4060078    4.4060078   -4959.8293   -27547.517    31742.847   -19074.818   -8516.9334   -27721.149   -16796.787    85.533409 
   56000    2159.1207   -104.01503    1.9536178   -102.06141    6070.3952     4.400836     4.400836     4.400836    6070.3952    23974.016   -5019.5693   -743.26105    27791.298    954.86863   -6597.2791    85.232565 
   56100    1598.9826   -103.53101    1.4467931   -102.08422   -34910.878    4.3995556    4.3995556    4.3995556   -34910.878   -42921.306    -42977.29   -18834.038    48815.246    1402.0296   -24515.346     85.15819 
   56200    2551.4705   -104.38048    2.3086241   -102.07186    19496.267    4.3907171    4.3907171    4.3907171    19496.267    34531.654    20856.891    3100.2561   -1963.3811   -33962.019   -1286.5672    84.645985 
   56300    1381.2817   -103.35227    1.2498127   -102.10246   -32156.267    4.4052066    4.4052066    4.4052066   -32156.267    -52036.26   -59866.402    15433.862    61981.113    32221.294   -21011.161    85.486759 
   56400    2625.1113   -104.43803    2.3752559   -102.06277    1245.4394    4.3991855    4.3991855    4.3991855    1245.4394    24073.019   -9317.9911   -11018.709   -13500.285   -13128.013   -19037.993    85.136702 
   56500    1727.2147   -103.65061    1.5628202   -102.08779   -14525.277    4.3880345    4.3880345    4.3880345   -14525.277   -25739.727    -46289.85    28453.746    72281.314    11739.988    5430.3549    84.490932 
   56600    1793.8927     -103.707    1.6231518   -102.08385   -9903.7712    4.3895941    4.3895941    4.3895941   -9903.7712   -14094.682    15826.535   -31443.166   -35865.424    45576.344   -26824.974    84.581056 
   56700    2574.7928   -104.40445    2.3297266   -102.07473    10955.095    4.3904148    4.3904148    4.3904148    10955.095    25883.066   -28762.355    35744.574    73146.802   -8498.8438    10380.775    84.628506 
   56800    1304.7074    -103.2753    1.1805267   -102.09478   -57012.842    4.4133303    4.4133303    4.4133303   -57012.842   -72251.064   -18094.975   -80692.487   -30690.476    30029.611   -32080.755     85.96057 
   56900    2326.4891   -104.18686    2.1050562   -102.08181   -6505.8807    4.4019873    4.4019873    4.4019873   -6505.8807   -2452.8526    -16972.24   -92.549657   -5629.8948    -14713.78    954.14007    85.299477 
   57000    2007.2319   -103.89929    1.8161856    -102.0831    29092.617    4.3821723    4.3821723    4.3821723    29092.617     32585.77    45680.194    9011.8874     10729.53    35431.708   -8387.2956    84.152756 
   57100    1611.9487   -103.55288     1.458525   -102.09436   -16633.097    4.3875749    4.3875749    4.3875749   -16633.097   -10915.108   -24058.495   -14925.688   -39465.171    -13049.63   -37422.424    84.464387 
   57200      2535.74   -104.37741    2.2943909   -102.08302    20170.173    4.3986078    4.3986078    4.3986078    20170.173    50220.444   -8746.3164    19036.392     25089.39    5851.2496    20663.181    85.103167 
   57300     1697.406   -103.63071    1.5358486   -102.09486   -40033.947    4.4175285    4.4175285    4.4175285   -40033.947   -8824.8506   -67414.126   -43862.866   -48469.723    7826.2471   -48845.711    86.206114 
   57400    1897.2441   -103.79046    1.7166663   -102.07379   -3685.6606    4.4033974    4.4033974    4.4033974   -3685.6606    23649.387   -70433.826    35727.457    40774.533    917.69951    36637.408    85.381471 
   57500    2272.9873   -104.12941    2.0566467   -102.07277    6437.8322    4.3778371    4.3778371    4.3778371    6437.8322    52813.655   -28907.844   -4592.3144   -15400.793    3853.9585   -55365.972     83.90325 
   57600     2229.476   -104.09715    2.0172768   -102.07987    36378.937    4.3716744    4.3716744    4.3716744    36378.937    40212.096    1201.3783    67723.338     16548.28       3839.5    24806.382     83.54942 
   57700    1283.7077   -103.27915    1.1615257   -102.11762    9594.6827    4.3891727    4.3891727    4.3891727    9594.6827    68851.823   -79021.369    38953.594    18188.645   -7423.1274   -58467.052    84.556698 
   57800    2869.0007   -104.68237    2.5959321   -102.08644   -1191.2087    4.4196828    4.4196828    4.4196828   -1191.2087   -16005.909   -16128.749    28561.033   -4543.2825    7010.2038    9060.4571    86.332298 
   57900    1538.5033   -103.47409    1.3920702   -102.08202   -5862.3638    4.4139881    4.4139881    4.4139881   -5862.3638    58793.537   -72088.452   -4292.1763    25433.942   -9089.7441   -71592.357    85.999013 
   58000    2129.2221   -103.96782    1.9265649   -102.04126     24029.94    4.3968669    4.3968669    4.3968669     24029.94     39855.89   -4989.1239    37223.055   -14038.579    20457.391    28450.895    85.002158 
   58100    1453.2869    -103.3757    1.3149645   -102.06073   -24970.034    4.3946288    4.3946288    4.3946288   -24970.034    35761.631   -58412.124    -52259.61   -1878.8593    10108.678   -73886.742    84.872422 
   58200    2401.7604   -104.23776    2.1731633   -102.06459    20861.275    4.3861674    4.3861674    4.3861674    20861.275     43215.85    13029.578    6338.3984    30415.512    1203.5641    -3566.059    84.383125 
   58300    1437.6624   -103.40411    1.3008272   -102.10328   -33538.616    4.4064303    4.4064303    4.4064303   -33538.616    17738.675   -47294.336   -71060.188   -39501.303    11320.426   -42007.013    85.558019 
   58400    2083.6131   -103.95624    1.8852969   -102.07094   -4615.2855    4.4138225    4.4138225    4.4138225   -4615.2855    28358.431   -4383.8187   -37820.468    40188.772   -2633.3472   -23273.385    85.989334 
   58500    2141.0745   -104.00893    1.9372892   -102.07164    10921.066    4.4034416    4.4034416    4.4034416    10921.066   -3022.8629    31391.138    4394.9214   -5039.8149    13664.484   -30623.238    85.384043 
   58600     1464.614     -103.412    1.3252135   -102.08679    2071.0141    4.3983054    4.3983054    4.3983054    2071.0141   -10055.166    23263.766   -6995.5578   -18827.995    10640.004   -39277.018    85.085617 
   58700    2431.3365   -104.26585    2.1999244   -102.06592    26305.163    4.3958547    4.3958547    4.3958547    26305.163    72362.825    6901.9065   -349.24325     27724.53    7480.5742    7060.4697    84.943466 
   58800    1400.4779    -103.3635    1.2671818   -102.09632   -37600.104    4.4095538    4.4095538    4.4095538   -37600.104   -40124.696   -77066.584    4390.9676   -47287.086    21168.675    -45296.56    85.740093 
   58900    2728.3721   -104.53832    2.4686885   -102.06963    1617.0709    4.4030509    4.4030509    4.4030509    1617.0709    33075.727   -27841.156   -383.35749   -2162.4618    2619.5958    18123.504    85.361318 
   59000    1320.2237   -103.29081    1.1945662   -102.09624   -18824.783    4.3933818    4.3933818    4.3933818   -18824.783    33682.506   -54006.621   -36150.233   -20336.865    14019.051   -60070.243    84.800194 
   59100    2281.9726   -104.14229    2.0647768   -102.07751    11214.249    4.3941656    4.3941656    4.3941656    11214.249   -8917.3582   -37279.207    79839.313   -15804.134    17877.155    16078.558    84.845587 
   59200    2052.9458   -103.94464    1.8575485   -102.08709   -10628.525    4.4018051    4.4018051    4.4018051   -10628.525    33154.275   -35496.188   -29543.663    7218.9604   -2468.2417   -36558.862    85.288884 
   59300    1777.2562   -103.70549    1.6080988   -102.09739   -11755.973    4.4131706    4.4131706    4.4131706   -11755.973   -46464.066   -30663.686    41859.833   -12153.472    25145.379    9128.6197    85.951243 
   59400    1927.0508   -103.83002    1.7436361   -102.08639   -6550.7473    4.4053142    4.4053142    4.4053142   -6550.7473   -13058.165   -61166.029    54571.952    36013.763   -1279.9859    -22275.33    85.493019 
   59500    1912.3809   -103.81479    1.7303625   -102.08443     6857.387    4.3970899    4.3970899    4.3970899     6857.387    35811.946   -33366.115     18126.33   -20072.087   -8153.5884    13999.331    85.015095 
   59600    1667.8304   -103.60089     1.509088    -102.0918    1693.9084      4.39965      4.39965      4.39965    1693.9084   -28977.189   -50832.584    84891.498    45339.412    12821.734   -5865.4668    85.163671 
   59700    2428.9396   -104.27105    2.1977556    -102.0733    16678.597    4.4098747    4.4098747    4.4098747    16678.597    85551.008   -31450.169   -4065.0493    -20972.16     -26965.2    1597.4839    85.758809 
   59800    976.13421   -102.97319   0.88322674   -102.08996   -18951.196    4.4158426    4.4158426    4.4158426   -18951.196   -62490.117   -14620.695    20257.223    44840.526    24937.247    13310.487    86.107453 
   59900    3182.3548   -104.91722    2.8794615   -102.03776    8263.0713    4.4179952    4.4179952    4.4179952    8263.0713   -8278.2985   -1192.8083    34260.321   -10372.714   -25725.874    2889.9738    86.233439 
   60000    1048.3365   -103.02787   0.94855693   -102.07932   -14690.208     4.404361     4.404361     4.404361   -14690.208   -58614.018   -21029.354    35572.747    41574.164    3861.2064    23796.851    85.437536 
   60100    2377.5306   -104.22015    2.1512397   -102.06892    28138.023     4.391104     4.391104     4.391104    28138.023    52340.711    9792.9222    22280.435   -9881.6841    7008.7102    6729.8197    84.668367 
   60200    2233.3832   -104.11316    2.0208121   -102.09235   -4631.8754    4.3981362    4.3981362    4.3981362   -4631.8754   -56928.107   -19582.562    62615.042    35458.724   -4580.8947   -1286.5414    85.075795 
   60300      1693.02   -103.63589    1.5318801   -102.10401   -6748.8422    4.4035234    4.4035234    4.4035234   -6748.8422    39972.503   -10649.269   -49569.761   -1444.9086    37790.047    21659.045    85.388803 
   60400    2237.6502   -104.10978    2.0246729   -102.08511   -4374.3647     4.412139     4.412139     4.412139   -4374.3647   -653.39071   -62510.408    50040.705    15808.739   -10748.526   -1248.8717    85.890983 
   60500     1823.782   -103.73492    1.6501963   -102.08472   -23690.899    4.4068915    4.4068915    4.4068915   -23690.899   -53592.676   -4570.5097    -12909.51    11923.263      60171.7    18487.451    85.584887 
   60600    2129.8393   -103.99123    1.9271234    -102.0641    19031.796    4.3846576    4.3846576    4.3846576    19031.796    57485.744   -33613.662    33223.305   -13364.742   -29245.456     9279.903    84.296018 
   60700    2073.5898   -103.95886    1.8762277   -102.08263   -16329.606    4.3922065    4.3922065    4.3922065   -16329.606    -59566.43    14895.735   -4318.1222    5972.9782    86263.986   -2059.7402    84.732154 
   60800    2302.1704   -104.16336    2.0830522   -102.08031    7337.0576    4.4019108    4.4019108    4.4019108    7337.0576    10362.802   -40991.432    52639.803   -27213.854    -11713.62    7511.6086    85.295028 
   60900    1353.5875    -103.3218    1.2247544   -102.09704   -22511.474    4.4162694    4.4162694    4.4162694   -22511.474   -8757.1537    22309.547   -81086.814    5764.7781    69621.798    342.01315    86.132426 
   61000    2243.3665   -104.08812    2.0298451   -102.05827   -9823.2365    4.4175153    4.4175153    4.4175153   -9823.2365   -58403.771    18213.128    10720.934   -6999.4459   -39846.571    2533.9462    86.205343 
   61100    1981.0707   -103.85295    1.7925144   -102.06044    3122.6412    4.3949301    4.3949301    4.3949301    3122.6412   -19760.338     22947.39    6180.8719    2480.2906    74613.705    233.51016    84.889877 
   61200    1690.8943   -103.60623    1.5299567   -102.07627   -4838.5126    4.3942711    4.3942711    4.3942711   -4838.5126   -41937.257    72218.601   -44796.881    8809.7686   -52477.923   -9498.7192    84.851701 
   61300     2238.241   -104.10785    2.0252075   -102.08264      9216.25    4.4055977    4.4055977    4.4055977      9216.25   -56783.494    19188.947    65243.297    2955.4347     8561.805     9660.529    85.509526 
   61400    2106.8948   -103.98873    1.9063627   -102.08237   -23384.788    4.4084628    4.4084628    4.4084628   -23384.788   -70574.321    10356.948   -9936.9891    6244.7241   -42896.548   -16559.693    85.676463 
   61500    1814.7396   -103.73307    1.6420145   -102.09106   -7622.6817    4.3977755    4.3977755    4.3977755   -7622.6817   -47364.895    8500.4523    15996.398   -7399.9642   -32592.775   -10225.341    85.054865 
   61600     2707.093   -104.51846    2.4494346   -102.06902     25864.95    4.3950408    4.3950408    4.3950408     25864.95   -27533.315    54062.014    51066.152    4312.0261   -39556.847   -14588.791    84.896293 
   61700    1344.7427   -103.29852    1.2167514   -102.08177   -11549.124     4.409413     4.409413     4.409413   -11549.124   -34431.153   -50016.561    49800.341   -2470.4379   -25985.045   -6743.9022    85.731879 
   61800    2341.5361   -104.18838    2.1186711    -102.0697    -39227.15    4.4145729    4.4145729    4.4145729    -39227.15   -41160.266   -36858.257   -39662.926     -1387.17    40822.955   -5575.7626      86.0332 
   61900    2556.2401   -104.37819    2.3129397   -102.06525    25278.269    4.3973755    4.3973755    4.3973755    25278.269   -30290.186   -14888.476    121013.47   -5182.7661   -8882.1145    5931.8596    85.031658 
   62000    1033.4482   -103.03525   0.93508565   -102.10017   -19584.135    4.3927261    4.3927261    4.3927261   -19584.135   -6987.3285   -19037.458    -32727.62   -10252.899    37868.119   -19516.692    84.762231 
   62100    2529.2867   -104.36587    2.2885517   -102.07731    6535.1009     4.398342     4.398342     4.398342    6535.1009   -51477.435    16012.426    55070.312    10284.423   -14070.201    15002.398    85.087738 
   62200    1770.6062   -103.69991    1.6020817   -102.09783   -11608.163    4.4087445    4.4087445    4.4087445   -11608.163   -54143.349   -54550.166    73869.027   -13677.022    17571.517    5241.0208    85.692893 
   62300    2423.2942   -104.26587    2.1926475   -102.07322    22163.826    4.4047307    4.4047307    4.4047307    22163.826   -31376.811    66496.465    31371.823    135.49146   -16251.292    18980.943    85.459054 
   62400    1189.3129   -103.18215    1.0761153   -102.10603   -46734.075    4.4121849    4.4121849    4.4121849   -46734.075    -102493.2   -48028.653    10319.631   -5517.1631   -23632.906   -4340.7431    85.893661 
   62500    2874.5042   -104.67666    2.6009118   -102.07575    10774.649     4.402483     4.402483     4.402483    10774.649    -2791.997      47065.5   -11949.554    8180.6718    27913.338    23384.956    85.328292 
   62600    1673.9158   -103.60074    1.5145942   -102.08615    37038.727    4.3828593    4.3828593    4.3828593    37038.727   -12262.965     33595.08    89784.066   -10167.625    -32937.93   -14662.534    84.192342 
   62700    1658.5649   -103.61012    1.5007044   -102.10942   -8962.5082    4.3997096    4.3997096    4.3997096   -8962.5082   -57687.579    51818.803   -21018.748    15643.227    71674.548    889.58539    85.167136 
   62800    2594.2259   -104.42538    2.3473101   -102.07807    2213.9303     4.411443     4.411443     4.411443    2213.9303   -20687.773   -13918.793    41248.357   -2811.0736      16188.7   -505.87682    85.850339 
   62900    1315.4321    -103.2831    1.1902306   -102.09287    6896.7246    4.4165291    4.4165291    4.4165291    6896.7246   -49814.729    32043.598    38461.305    3978.1151    70701.809   -6149.4888    86.147624 
   63000    2166.3663   -104.01345    1.9601737   -102.05327     5706.624    4.4262244    4.4262244    4.4262244     5706.624   -53370.498    17490.656    52999.714   -7796.2285   -14517.243   -6799.5806    86.716207 
   63100    1643.9903   -103.53265     1.487517   -102.04514   -20596.955    4.4181487    4.4181487    4.4181487   -20596.955   -68282.804   -20609.308    27101.245    5203.0681    65091.261   -405.01044     86.24243 
   63200    1949.5672   -103.79216    1.7640094   -102.02815   -10350.524    4.4005074    4.4005074    4.4005074   -10350.524   -50762.106    73393.997   -53683.463    12582.336   -36241.111   -2334.6588    85.213472 
   63300    2364.9859   -104.17256    2.1398889   -102.03267    13941.884    4.3961732    4.3961732    4.3961732    13941.884   -17889.816    23188.176    36527.291        11511    1522.3573   -2353.1619    84.961934 
   63400    1428.7314   -103.35937    1.2927462   -102.06662   -39032.414    4.4067752    4.4067752    4.4067752   -39032.414   -92956.669    32083.066   -56223.639    13462.772   -49671.832   -5567.8601    85.578107 
   63500    2593.0605   -104.40636    2.3462557   -102.06011    24170.358    4.4095835    4.4095835    4.4095835    24170.358   -36902.047    27095.468    82317.655    940.92381   -17149.225    6581.8457    85.741821 
   63600    1321.9476   -103.28211    1.1961259   -102.08599   -17981.596    4.4126759    4.4126759    4.4126759   -17981.596   -97759.151    60386.006   -16571.642    15800.344   -80198.635    7583.3256    85.922339 
   63700    2828.9087   -104.59748     2.559656   -102.03782    7294.0263     4.407465     4.407465     4.407465    7294.0263   -47064.672   -1463.1025    70409.853   -17009.505     30987.18   -7810.3436    85.618303 
   63800    1509.0769   -103.41865    1.3654445    -102.0532   -11598.534    4.4056079    4.4056079    4.4056079   -11598.534   -69637.554    48864.707   -14022.755   -2555.2366      -107249    6381.9624    85.510122 
   63900    2698.5867   -104.47601     2.441738   -102.03427    4501.6728    4.4077991    4.4077991    4.4077991    4501.6728   -26908.114    23407.659    17005.474   -12032.276    50839.733    -15966.33    85.637773 
   64000    1425.2593   -103.33681    1.2896045    -102.0472   -37436.421     4.423761     4.423761     4.423761   -37436.421   -88568.705        30659   -54399.558   -7115.2945   -100818.22   -8780.0979    86.571508 
   64100    2866.4868   -104.60501    2.5936575   -102.01135   -9981.0643    4.4205692    4.4205692    4.4205692   -9981.0643    4656.2028   -6368.7705   -28230.625    7348.1629    34632.785    3203.5897    86.384254 
   64200    1431.2599   -103.33369     1.295034   -102.03866   -27137.631    4.4105622    4.4105622    4.4105622   -27137.631   -68519.684    43220.444   -56113.653   -11510.323   -92660.893    5156.6509    85.798927 
   64300    2854.9785   -104.59364    2.5832445    -102.0104    43519.663    4.3946492    4.3946492    4.3946492    43519.663    32285.958    49597.267    48675.763    4346.4883    28478.324    573.77513    84.873601 
   64400    1101.8183   -103.06144   0.99694839   -102.06449   -12499.111    4.4062054    4.4062054    4.4062054   -12499.111   -62054.335     62187.47   -37630.468    550.07108   -89632.766     2039.113    85.544915 
   64500    3063.5316   -104.80482    2.7719478   -102.03288   -1837.6831    4.4218007    4.4218007    4.4218007   -1837.6831    14281.216   -9154.0001   -10640.265    726.82335    25275.326   -2033.7193    86.456468 
   64600    836.10499   -102.81907   0.75652537   -102.06255   -31870.943    4.4214528    4.4214528    4.4214528   -31870.943   -89628.323    51650.814   -57635.319    12238.498   -89490.646    3191.6189    86.436066 
   64700    2992.9058   -104.71876    2.7080441   -102.01072    19469.603    4.4026069    4.4026069    4.4026069    19469.603    13221.454   -13650.019    58837.374   -24675.299    33519.493   -9419.1941    85.335501 
   64800    910.28279   -102.88416     0.823643   -102.06052   -34426.585    4.4015134    4.4015134    4.4015134   -34426.585   -66367.445    37610.302   -74522.611    9656.1571   -117938.21    12453.444    85.271927 
   64900     3157.717   -104.88535    2.8571687   -102.02818    24084.002    4.4065425    4.4065425    4.4065425    24084.002    30487.819    32489.678    9274.5079    2380.3934    36685.764   -18291.577    85.564552 
   65000    899.19825   -102.89304   0.81361347   -102.07943   -38398.092    4.4216761    4.4216761    4.4216761   -38398.092   -63684.721    19848.006    -71357.56   -3388.6239   -98511.135    14306.964    86.449161 
   65100    3141.7041   -104.86366    2.8426799   -102.02098    16883.434    4.4136645    4.4136645    4.4136645    16883.434    54986.564   -3332.4192   -1003.8431    6656.3354    22810.656    492.93212    85.980104 
   65200    1029.7906   -102.98263   0.93177616   -102.05085    13857.397    4.3975671    4.3975671    4.3975671    13857.397   -10180.482    54095.674   -2343.0026   -5754.5378   -71555.046    2193.6592    85.042778 
   65300    2911.5112   -104.65694    2.6343966   -102.02254    20988.018    4.4010137    4.4010137    4.4010137    20988.018    53414.873    4140.6508    5408.5312   -8854.8875    12510.223     14635.83    85.242891 
   65400    1076.2476   -103.03543   0.97381144   -102.06161    6088.2835    4.4091443    4.4091443    4.4091443    6088.2835   -19302.799    34767.032    2800.6174    2300.4231   -76317.907    1965.2752    85.716207 
   65500    2555.0652    -104.3426    2.3118767   -102.03073   -6740.4532    4.4171237    4.4171237    4.4171237   -6740.4532   -532.46418   -16747.664   -2941.2315   -18637.872    6607.3046    4110.5692    86.182421 
   65600    1637.9334   -103.51633    1.4820366   -102.03429   -3321.5116    4.4073712    4.4073712    4.4073712   -3321.5116   -54123.345    64481.292   -20322.482    2670.3446   -85400.682   -9754.8286    85.612836 
   65700    1928.8252   -103.75961    1.7452416   -102.01437   -887.70729    4.4100962    4.4100962    4.4100962   -887.70729   -21481.923    65131.215   -46312.414   -15918.018    13375.765    2298.0465    85.771734 
   65800    1791.1391   -103.63686    1.6206603    -102.0162   -11959.947    4.4241831    4.4241831    4.4241831   -11959.947   -4211.1573    13417.908   -45086.592    -1710.955   -87086.492   -5920.6912    86.596287 
   65900     1770.524   -103.60556    1.6020073   -102.00355     14633.51    4.4217068    4.4217068    4.4217068     14633.51   -24428.749    16101.372    52227.906   -14146.881   -35003.844   -14498.376    86.450962 
   66000    2534.6405   -104.29399     2.293396    -102.0006    -26123.64    4.4286321    4.4286321    4.4286321    -26123.64   -54113.998     2732.228    -26989.15    2548.1554   -11351.029    4919.9929    86.857798 
   66100    1454.4812   -103.31219    1.3160452   -101.99615    -7680.388    4.4180706    4.4180706    4.4180706    -7680.388    -62721.67    19633.933    20046.573   -9349.9142   -86946.463   -15233.341    86.237856 
   66200    2710.7336   -104.42788    2.4527287   -101.97515    8782.1521    4.4096981    4.4096981    4.4096981    8782.1521    3720.3279    17138.137    5487.9915    8223.9585    25671.941     9252.828    85.748505 
   66300    1315.5591   -103.20891    1.1903455   -102.01856   -40518.925    4.4169794    4.4169794    4.4169794   -40518.925   -89342.415    18588.918   -50803.278    -411.3254    -104356.8   -12541.455    86.173976 
   66400    2678.7454   -104.43358    2.4237851    -102.0098    21305.235    4.4069046    4.4069046    4.4069046    21305.235    27920.653    27667.019    8328.0341   -12739.894    16499.223   -4287.1901    85.585651 
   66500    1130.5699    -103.0718    1.0229634   -102.04884   -36679.734    4.4162256    4.4162256    4.4162256   -36679.734   -56768.692    51525.852   -104796.36    17068.699   -117196.19    458.90011    86.129863 
   66600    2754.9439   -104.51237    2.4927311   -102.01964    784.21555    4.4137188    4.4137188    4.4137188    784.21555      47368.2   -63744.872    18729.319   -20168.902     23470.99   -32015.816    85.983273 
   66700    1263.9049   -103.18269    1.1436077   -102.03908    -26162.99    4.4092974    4.4092974    4.4092974    -26162.99   -69135.011    63176.291    -72530.25    3993.2648   -125470.39    -1064.746    85.725132 
   66800    2647.9524   -104.40206    2.3959229   -102.00614    16157.177    4.3970496    4.3970496    4.3970496    16157.177    18698.604   -3060.2266    32833.155    -9679.746    26177.805   -29295.324    85.012753 
   66900    1444.4945    -103.3464    1.3070089   -102.03939   -9051.6678    4.3957442    4.3957442    4.3957442   -9051.6678   -31134.231    46745.853   -42766.625   -2864.4414   -118258.35    9727.1317    84.937065 
   67000    2394.6676   -104.18775    2.1667456   -102.02101    24356.513    4.4060504    4.4060504    4.4060504    24356.513    24612.786    34964.542    13492.211    5883.5122    33154.127   -23993.681    85.535891 
   67100    1387.1193   -103.29922    1.2550947   -102.04413   -6151.6836    4.4133924    4.4133924    4.4133924   -6151.6836   -15102.233     26324.91   -29677.728   -4098.2189   -107660.41    5641.0832      85.9642 
   67200    2817.7686   -104.56714    2.5495763   -102.01756    10527.219    4.4168132    4.4168132    4.4168132    10527.219    34051.398    13084.515   -15554.255    820.58766    28849.569   -14513.353    86.164245 
   67300    1338.9126   -103.25904    1.2114763   -102.04756    9645.6697     4.409742     4.409742     4.409742    9645.6697   -16847.059    92317.579   -46533.511   -6470.3952   -82926.896    1496.0272    85.751072 
   67400    2624.9176   -104.40187    2.3750806   -102.02679   -5176.9422    4.4132176    4.4132176    4.4132176   -5176.9422    24939.817   -31782.575   -8688.0691   -8036.3268    30351.719    12779.381    85.953987 
   67500    1525.4825   -103.43531    1.3802887   -102.05502   -42149.792     4.410047     4.410047     4.410047   -42149.792   -49180.078    23590.673   -100859.97    5318.4793   -77618.942   -26582.269    85.768861 
   67600    2480.0687   -104.27408    2.2440182   -102.03006     16266.13    4.4053158    4.4053158    4.4053158     16266.13    86296.868   -37548.823     50.34646    5252.9596    8299.5001    48456.969    85.493117 
   67700    1647.7636   -103.53582    1.4909311   -102.04488   -19661.876    4.4120205    4.4120205    4.4120205   -19661.876   -20415.784     14494.29   -53064.135    5786.9711   -61850.554   -27355.966    85.884059 
   67800    2722.3615   -104.48639    2.4632499   -102.02314     6018.957    4.4051842    4.4051842    4.4051842     6018.957    35208.559   -22957.721    5806.0326   -7633.8102    12545.747    51697.405    85.485455 
   67900    1198.6462   -103.13313    1.0845603   -102.04857    14022.091    4.4084027    4.4084027    4.4084027    14022.091   -5968.5693    56455.109   -8420.2662   -2703.1603   -86847.426   -15587.507    85.672964 
   68000    2465.0677   -104.26266     2.230445   -102.03222   -21148.731    4.4262686    4.4262686    4.4262686   -21148.731    5420.6681    -74943.36    6076.4989    7231.1273    26080.126     46459.47    86.718806 
   68100    1336.3216   -103.25001    1.2091318   -102.04088     -28805.8    4.4219797    4.4219797    4.4219797     -28805.8   -40696.519    4700.7908   -50421.671    1712.1929   -91975.405     12929.95    86.466971 
   68200    2560.6933   -104.31306    2.3169691   -101.99609    41263.384    4.3976237    4.3976237    4.3976237    41263.384    35395.524    44544.116    43850.513   -5858.0847    35485.773    29098.605    85.046061 
   68300    1512.2368   -103.40434    1.3683037   -102.03603   -28776.935    4.4049042    4.4049042    4.4049042   -28776.935   -25304.966    17705.075   -78730.913    4620.5258   -96391.544    26794.718    85.469156 
   68400    3409.1523   -105.09821    3.0846726   -102.01354   -4895.6225    4.4218221    4.4218221    4.4218221   -4895.6225   -20740.755    3025.6618    3028.2254   -9519.1312    26708.033    1817.5338    86.457723 
   68500    1114.6208   -103.04617    1.0085323   -102.03764   -50371.058    4.4351955    4.4351955    4.4351955   -50371.058   -51077.956   -15321.861   -84713.358   -38.460341   -91782.335    43633.356    87.244547 
   68600    2935.1176   -104.64172    2.6557561   -101.98597   -870.95657    4.4331527    4.4331527    4.4331527   -870.95657    10525.263    17472.706   -30610.839   -6874.2247    9961.3068   -17580.792    87.124051 
   68700    1443.9092   -103.29999    1.3064794   -101.99351   -33825.595    4.4220175    4.4220175    4.4220175   -33825.595   -49489.782    38185.825   -90172.828      5832.07   -76937.912    21634.439    86.469187 
   68800    2806.8919   -104.51269    2.5397347   -101.97296     2809.789    4.4119643    4.4119643    4.4119643     2809.789   -34359.671    65946.021   -23156.983   -5957.4979   -17430.696   -18295.017    85.880779 
   68900    1854.8235   -103.69091    1.6782833   -102.01263   -27931.966    4.4095767    4.4095767    4.4095767   -27931.966   -63563.267    37087.157   -57319.788   -2989.3097   -54914.691   -1613.6092    85.741429 
   69000    1809.7045   -103.65878    1.6374586   -102.02132    44394.518    4.4056588    4.4056588    4.4056588    44394.518    10025.899    89207.754    33949.901   -383.88591   -62512.416   -1020.2925    85.513087 
   69100    2190.7695   -104.01571    1.9822543   -102.03345    11465.567    4.4243114    4.4243114    4.4243114    11465.567   -32553.844    68078.764   -1128.2183   -15031.178    10367.562   -31517.823    86.603821 
   69200    1287.4168   -103.19612    1.1648818   -102.03124   -5069.7585    4.4250641    4.4250641    4.4250641   -5069.7585   -90179.265    124438.52   -49468.529    1552.5023    -94425.82   -1545.4112     86.64803 
   69300    2997.1567   -104.68102    2.7118904   -101.96913     5113.761    4.4220925    4.4220925    4.4220925     5113.761    18737.152    22369.493   -25765.362   -11058.247    35375.179   -20048.944    86.473587 
   69400    1397.4511   -103.25905    1.2644431   -101.99461   -49002.761    4.4262652    4.4262652    4.4262652   -49002.761   -97772.887    67935.402    -117170.8    15230.444   -89420.017    1943.6327    86.718609 
   69500    3170.2689   -104.81544    2.8685259   -101.94692   -1007.3026    4.4226659    4.4226659    4.4226659   -1007.3026    27567.516    -15581.24   -15008.184    4088.2557    29528.993    25927.656    86.507229 
   69600    1488.1814   -103.32093    1.3465378    -101.9744   -46297.667    4.4400755    4.4400755    4.4400755   -46297.667   -88686.614    48052.621   -98259.007     4117.875   -60733.845   -2898.4106    87.532849 
   69700    2432.6562   -104.14044    2.2011184   -101.93933   -7928.0442    4.4431445    4.4431445    4.4431445   -7928.0442   -19800.061    13023.006   -17007.078    -13963.14    3079.7307    15209.071    87.714483 
   69800    2054.1545   -103.81839    1.8586422   -101.95975   -22235.581     4.432468     4.432468     4.432468   -22235.581   -24867.353    12758.148   -54597.537    538.49913   -59952.238   -1877.0621    87.083689 
   69900    1670.6701    -103.5008    1.5116574   -101.98914    23809.689    4.4038024    4.4038024    4.4038024    23809.689    27282.016    95325.974   -51178.922    6630.2935   -37037.921    18605.774    85.405036 
   70000    2321.5535   -104.12532    2.1005904   -102.02473    8106.7103    4.3936886    4.3936886    4.3936886    8106.7103   -18084.376     28206.49    14198.017   -11132.097   -34553.665    -8999.581    84.817959 
   70100    2250.1864   -104.08664    2.0360159   -102.05063   -23588.375    4.4104242    4.4104242    4.4104242   -23588.375   -51337.731    23989.806   -43417.199   -4049.2106   -54817.357    8280.5954    85.790874 
   70200     1882.417   -103.75208    1.7032505   -102.04883   -10766.708    4.4261035    4.4261035    4.4261035   -10766.708   -31205.893   -9.7947366   -1084.4375    6454.1319   -25968.481    16427.593    86.709104 
   70300    1854.0459    -103.7065    1.6775797   -102.02892   -33960.195    4.4321738    4.4321738    4.4321738   -33960.195    -67047.46    27312.837   -62145.962   -10539.079   -64330.322   -16264.912    87.066351 
   70400    2138.7147   -103.95351     1.935154   -102.01836   -622.24446    4.4147036    4.4147036    4.4147036   -622.24446    7579.6509   -4442.8284   -5003.5558   -4218.9323   -16294.521     25568.56    86.040843 
   70500    2087.4349    -103.9197     1.888755   -102.03094   -23661.898     4.397937     4.397937     4.397937   -23661.898   -57800.176    18122.067   -31307.586    8209.5996   -73748.461   -28210.201    85.064239 
   70600    2514.0284   -104.32234    2.2747457   -102.04759    15802.788    4.3999516    4.3999516    4.3999516    15802.788   -1646.0604    20182.923    28871.502   -21756.188    674.10201    6226.0222    85.181188 
   70700    1707.0825   -103.59546    1.5446041   -102.05085   -56111.814    4.4390269    4.4390269    4.4390269   -56111.814   -66037.039   -2834.2266   -99464.178     9281.531   -73545.637   -1668.3692    87.470848 
   70800    2732.8843   -104.46575    2.4727711   -101.99298   -19339.308    4.4395019    4.4395019    4.4395019   -19339.308   -41426.278    -14190.05   -2401.5947   -9077.1927    15859.735   -7981.8029    87.498928 
   70900    1303.9177   -103.19908    1.1798122   -102.01926   -13276.402    4.4037641    4.4037641    4.4037641   -13276.402   -37045.443    63013.098    -65796.86    3022.4377   -94445.201    12048.588    85.402805 
   71000    2998.9398   -104.70149    2.7135038   -101.98798     38644.11    4.3851732    4.3851732    4.3851732     38644.11    80962.278    16928.724     18041.33    4203.7022    22749.734    1923.8456    84.325758 
   71100    893.73559   -102.87818   0.80867074   -102.06951   -34908.662    4.4057539    4.4057539    4.4057539   -34908.662   -59982.436    36658.927   -81402.476   -712.69735   -98782.381    8584.9411    85.518623 
   71200    3060.9021   -104.79322    2.7695685   -102.02365    7009.9515     4.427216     4.427216     4.427216    7009.9515    52821.845   -9561.6346   -22230.356    10809.469    15573.158    10222.158    86.774505 
   71300    1094.0269   -103.03982   0.98989852   -102.04992   -40322.604    4.4273698    4.4273698    4.4273698   -40322.604   -99037.186    64823.583    -86754.21   -1898.8975   -102230.44    2600.2313    86.783546 
   71400    2793.9775   -104.52706    2.5280495   -101.99901    27091.425    4.4083062    4.4083062    4.4083062    27091.425    52197.438     10098.83    18978.008    7751.0343    38067.948     9566.903    85.667335 
   71500    1282.2021   -103.19187    1.1601634   -102.03171    -8043.715    4.3962923    4.3962923    4.3962923    -8043.715   -70541.061    78763.406   -32353.489   -3424.6999   -102601.02    -9498.924    84.968837 
   71600    2821.4318   -104.56376    2.5528908   -102.01087    17547.381    4.4032032    4.4032032    4.4032032    17547.381    36950.657    21448.925   -5757.4386   -1158.1544     49561.68    -860.0055    85.370175 
   71700    1124.5292   -103.06372    1.0174976   -102.04622   -18919.058     4.410969     4.410969     4.410969   -18919.058   -12093.954     49964.73   -94627.948    7455.6973   -115415.61   -11637.269    85.822667 
   71800    2861.1928   -104.59434    2.5888674   -102.00548   -15731.263    4.4195502    4.4195502    4.4195502   -15731.263   -29476.022   -4124.8858   -13592.882   -14675.738    42069.989   -2512.6242    86.324527 
   71900    1475.0678   -103.35837    1.3346724    -102.0237   -31463.697    4.4168028    4.4168028    4.4168028   -31463.697   -32918.448    21901.072   -83373.715    16392.305   -112513.74    7730.0829    86.163636 
   72000    2681.9942   -104.42296    2.4267247   -101.99624   -10955.633     4.404708     4.404708     4.404708   -10955.633   -36509.995   -6831.7876    10474.884   -27190.685    37900.624    -12278.15    85.457732 
   72100    1624.8949   -103.50273    1.4702391   -102.03249   -14845.305    4.4045779    4.4045779    4.4045779   -14845.305   -58569.061    53592.808   -39559.663     11237.98   -93611.567    1850.9804    85.450162 
   72200     2350.255   -104.15723    2.1265601   -102.03067    8038.1132    4.4132768    4.4132768    4.4132768    8038.1132   -53194.439    72012.317    5296.4617   -15403.135   -302.72468   -4572.7987    85.957448 
   72300     1520.465   -103.41382    1.3757487   -102.03807   -34894.363    4.4208769    4.4208769    4.4208769   -34894.363   -89470.563    20218.723   -35431.249    -16435.17   -49247.054   -5030.2709    86.402294 
   72400    2382.3188    -104.1738    2.1555721   -102.01823   -12682.139    4.4099733    4.4099733    4.4099733   -12682.139   -34956.198    1435.3676   -4525.5862     19328.24   -40050.242   -7848.1689    85.764562 
   72500    1865.9098   -103.72978    1.6883144   -102.04147    26443.331    4.4044021    4.4044021    4.4044021    26443.331   -30421.163    122879.58   -13128.426   -36451.727   -16868.897    10051.839     85.43993 
   72600    1903.2241   -103.76729    1.7220771   -102.04521   -11558.144    4.4032636    4.4032636    4.4032636   -11558.144   -53554.839     35500.55   -16620.144    25657.801   -55853.672    4442.3969    85.373692 
   72700    2060.9213   -103.92465    1.8647649   -102.05989    13270.349    4.4079152    4.4079152    4.4079152    13270.349   -40129.573      71229.7    8710.9195   -736.11939    6732.8323   -744.88133    85.644541 
   72800    1590.0502   -103.49604    1.4387109   -102.05733    1371.9052     4.407944     4.407944     4.407944    1371.9052   -65753.615    125888.99   -56019.655    305.85986   -78183.526    2869.4593     85.64622 
   72900    2940.5154   -104.67688    2.6606401   -102.01624   -3701.4267    4.4121285    4.4121285    4.4121285   -3701.4267   -34063.038    5817.0246    17141.733    35947.583    32019.502    5874.7335    85.890365 
   73000    1454.4069   -103.34443    1.3159779   -102.02845   -32462.325    4.4203849    4.4203849    4.4203849   -32462.325   -86939.798    95221.361   -105668.54    3774.9361   -110828.39   -1407.8836    86.373449 
   73100    2252.8327   -104.04338    2.0384104   -102.00496    7087.9064    4.4245383    4.4245383    4.4245383    7087.9064   -2.6044647    65577.633    -44311.31    31480.752   -15636.233    1867.3352    86.617145 
   73200    2135.8489   -103.93596     1.932561   -102.00339   -5701.7267    4.4424871    4.4424871    4.4424871   -5701.7267   -56013.325    114906.29   -75998.141   -3998.2765   -20814.761   -301.40213    87.675555 
   73300    1280.6358   -103.16662    1.1587462   -102.00787    17109.516    4.4222925    4.4222925    4.4222925    17109.516    3221.1977    106253.67   -58146.316    723.62029   -75192.781   -6278.0306    86.485322 
   73400     2817.541   -104.52373    2.5493703   -101.97436    28104.302    4.3999626    4.3999626    4.3999626    28104.302   -8666.6664    65501.937    27477.635    15354.874    19878.564    3948.1612    85.181828 
   73500    1172.8922   -103.08621    1.0612575   -102.02495     11088.16    4.4027701    4.4027701    4.4027701     11088.16   -15128.651    78730.407   -30337.275   -40008.751    -83777.08   -400.51993    85.344988 
   73600    2876.8846    -104.6383    2.6030656   -102.03523   -2505.6734    4.4191206    4.4191206    4.4191206   -2505.6734   -13925.553    12037.595    -5629.062     54032.78    28155.107    3080.5566    86.299356 
   73700    979.29147   -102.94968    0.8860835   -102.06359     1927.472    4.4386492    4.4386492    4.4386492     1927.472   -41501.332    93323.056   -46039.308    -3560.085   -70335.843   -6563.4863    87.448522 
   73800     2811.676   -104.54093    2.5440636   -101.99686   -8859.3762    4.4438621    4.4438621    4.4438621   -8859.3762   -45720.936    70112.756   -50969.948    14736.517    23726.332    6749.2026    87.756991 
   73900    1976.7493   -103.77894    1.7886043   -101.99034   -32757.307    4.4334902    4.4334902    4.4334902   -32757.307   -61879.666     3285.836   -39678.091    4822.6416   -69354.089   -6572.8141     87.14395 
   74000    1994.7942   -103.77648    1.8049317   -101.97155   -2399.7657     4.425355     4.425355     4.425355   -2399.7657   -51414.136    83484.182   -39269.343   -14021.289   -33253.774   -9865.6253    86.665122 
   74100    2358.9083   -104.11544    2.1343898   -101.98105    1762.7677    4.4279824    4.4279824    4.4279824    1762.7677    -33005.32    17059.238    21234.385    18343.482    -15883.52   -13071.772    86.819577 
   74200    1450.7031   -103.30565    1.3126266   -101.99303   -24100.257    4.4352422    4.4352422    4.4352422   -24100.257   -58360.702    31958.431     -45898.5   -28417.794   -75786.985   -1938.3696    87.247308 
   74300    2965.4355   -104.66079    2.6831884    -101.9776    6859.8924    4.4358326    4.4358326    4.4358326    6859.8924   -15029.646    23992.858    11616.465   -2250.7415    33603.622   -7168.7606    87.282149 
   74400     1205.085   -103.10308    1.0903863   -102.01269   -35319.372    4.4382913    4.4382913    4.4382913   -35319.372   -57619.853     35885.22   -84223.482   -9209.4398   -99908.423   -5679.6123    87.427368 
   74500    3307.3139   -104.96403    2.9925271    -101.9715   -8243.0556    4.4203001    4.4203001    4.4203001   -8243.0556   -5759.4545   -12910.941   -6058.7716    -13114.41    36901.808    4745.4978    86.368476 
   74600    1498.6079   -103.35896     1.355972   -102.00299   -20341.784     4.420873     4.420873     4.420873   -20341.784   -5472.4187    20980.071   -76533.006   -1155.5395    -89258.03    11974.536    86.402063 
   74700    2755.4654   -104.47094     2.493203   -101.97774   -20238.859    4.4399773    4.4399773    4.4399773   -20238.859   -39668.617    16068.138   -37116.099   -7622.8662   -8162.3385    4758.0943    87.527039 
   74800    2047.3017    -103.8227    1.8524416   -101.97026   -22983.217    4.4572832    4.4572832    4.4572832   -22983.217   -8332.1164   -11219.804   -49397.731    1701.2797    -48644.57    20707.472    88.554512 
   74900    1245.1332   -103.08433    1.1266227   -101.95771   -46665.996    4.4632472    4.4632472    4.4632472   -46665.996   -80161.809    52754.906   -112591.08    6028.6505    -63985.64    1941.3158    88.910453 
   75000    2613.5694    -104.2872    2.3648125   -101.92239    17107.492    4.4187051    4.4187051    4.4187051    17107.492    28536.801    53989.569   -31203.894   -4282.1649   -17513.571   -3603.5029    86.275019 
   75100    1079.9932   -102.94364   0.97720054   -101.96644    9143.3723    4.3887908    4.3887908    4.3887908    9143.3723   -81925.107    120380.52   -11025.294    19974.344   -90752.829    12396.557    84.534627 
   75200    2960.7983   -104.67962    2.6789925   -102.00063    27082.706    4.4136622    4.4136622    4.4136622    27082.706   -5370.1852    26157.772    60460.531    9400.9874    30222.266    15540.937    85.979966 
   75300    1000.4633   -102.97041   0.90524024   -102.06517    27255.535    4.4428169    4.4428169    4.4428169    27255.535    1960.0254    68224.591    11581.989    15170.343   -103584.55    7547.3379    87.695085 
   75400    3004.6965   -104.69339    2.7187126   -101.97468    -29555.37    4.4716828    4.4716828    4.4716828    -29555.37    25694.402   -62060.403   -52300.108    5785.7107    29441.486    7028.0604    89.415533 
   75500    1283.4813   -103.16478    1.1613208   -102.00346   -38420.551    4.4253973    4.4253973    4.4253973   -38420.551   -67646.003    34543.139   -82158.787   -2868.7967   -106159.23    4981.0143    86.667609 
   75600    2543.6776   -104.23068    2.3015729    -101.9291    63706.513    4.3721389    4.3721389    4.3721389    63706.513    81150.967    39856.939    70111.633    17468.693    2221.1211    1810.0363     83.57605 
   75700    2086.3464   -103.92026    1.8877701   -102.03249   -6461.9942    4.3906929    4.3906929    4.3906929   -6461.9942    2770.6494    53434.427   -75591.059   -8421.3508   -97540.252    4700.7659    84.644588 
   75800    2220.5083   -104.06421    2.0091626   -102.05504   -16850.074    4.4297103    4.4297103    4.4297103   -16850.074    1520.4888   -59174.412    7103.6996    27351.095    13359.828    7107.3251    86.921255 
   75900    2030.3503    -103.8617    1.8371037    -102.0246    -19612.33    4.4533014    4.4533014    4.4533014    -19612.33    13712.907    36441.472   -108991.37   -15873.897   -65175.571   -7825.5935    88.317399 
   76000    1639.7809   -103.48495    1.4837082   -102.00124   -51406.479    4.4506605    4.4506605    4.4506605   -51406.479   -67745.232   -33605.387   -52868.817     10469.82    18371.703   -12693.597    88.160368 
   76100    2230.0791   -104.02192    2.0178224    -102.0041    1013.5359    4.3955027    4.3955027    4.3955027    1013.5359   -31876.582    43893.233   -8976.0435    14081.895   -66754.943    3200.5197    84.923065 
   76200    1984.9952   -103.79852    1.7960654   -102.00246    23580.029    4.3703972    4.3703972    4.3703972    23580.029    23641.443    42423.148    4675.4958   -1582.2529    37963.109    -7573.183    83.476208 
   76300    1905.8545   -103.78797    1.7244572   -102.06351    12912.833     4.397314     4.397314     4.397314    12912.833    36773.848    10284.186   -8319.5357    30524.085   -68232.087    9286.9373    85.028091 
   76400    1673.7858   -103.58752    1.5144766   -102.07305   -6953.3394    4.4343137    4.4343137    4.4343137   -6953.3394    18853.465   -4095.0839   -35618.399   -9321.0903    40581.542    9145.7011     87.19252 
   76500    2350.0838   -104.14402    2.1264052   -102.01762   -29908.199    4.4536393    4.4536393    4.4536393   -29908.199     -21489.7   -13491.329   -54743.567    21576.264   -68219.467    7373.1663    88.337505 
   76600    1681.5016   -103.52413     1.521458   -102.00267   -44626.685    4.4363198    4.4363198    4.4363198   -44626.685   -54601.344   -25495.701   -53783.009    -11406.54    68222.699    14126.487    87.310916 
   76700     2618.801    -104.3648    2.3695461   -101.99526    4975.9006    4.3864304    4.3864304    4.3864304    4975.9006    5340.1515    14231.164   -4643.6133    20627.915   -50193.282   -905.07386    84.398305 
   76800    1459.8582   -103.35703    1.3209104   -102.03612    19164.561    4.3701838    4.3701838    4.3701838    19164.561    49046.368    25961.965    -17514.65   -19995.138    56718.905    25347.757    83.463981 
   76900    2441.6252   -104.30566    2.2092338   -102.09643   -5290.7538    4.4040659    4.4040659    4.4040659   -5290.7538   -16056.575   -6302.9106    6487.2244    9369.7273    28422.148   -12397.706    85.420366 
   77000    1663.6504   -103.58841    1.5053058    -102.0831   -47655.138    4.4492952    4.4492952    4.4492952   -47655.138   -34061.932   -51638.332   -57265.149   -19024.672    27875.548    42105.719    88.079263 
   77100    2196.0796   -104.00558    1.9870589   -102.01852   -53100.635     4.451721     4.451721     4.451721   -53100.635   -63274.999   -46184.052   -49842.854   -15415.452    40545.422    -15102.36    88.223405 
   77200    2253.4968   -104.06834    2.0390113   -102.02932   -6461.7691    4.3964482    4.3964482    4.3964482   -6461.7691    41244.531    -8800.855   -51828.984    14175.635   -6747.8941    57084.292     84.97788 
   77300    1773.8358   -103.63311    1.6050039   -102.02811     34104.89    4.3560988    4.3560988    4.3560988     34104.89    16933.979    58782.385    26598.307   -51779.113    53776.731   -3358.9546    82.659575 
   77400    2253.5808    -104.1205    2.0390873   -102.08141    14681.902    4.3767265    4.3767265    4.3767265    14681.902    66900.238   -8976.0095   -13878.523    1916.4458   -32578.686    21501.263    83.839413 
   77500    1868.6829   -103.79519    1.6908236   -102.10437   -22871.174    4.4297567    4.4297567    4.4297567   -22871.174   -50025.657    1055.8932   -19643.758   -15424.408    10116.043    11382.744    86.923982 
   77600    1895.2437    -103.7529    1.7148563   -102.03804    -46064.09    4.4486598    4.4486598    4.4486598    -46064.09    12114.172   -75241.596   -75064.844   -10526.202   -5134.9321   -8560.6351    88.041532 
   77700    1635.3556   -103.52247    1.4797041   -102.04277   -7125.1146    4.4114216    4.4114216    4.4114216   -7125.1146    58099.023   -45480.108   -33994.259    1390.0541   -11307.069    27217.359    85.849088 
   77800    2636.8209   -104.40099     2.385851   -102.01514    48674.238    4.3649837    4.3649837    4.3649837    48674.238    95867.217   -1771.2976    51926.795   -9902.0085    1841.1858   -12882.142    83.166396 
   77900    1287.1132   -103.24527    1.1646071   -102.08066     13009.32    4.3700085    4.3700085    4.3700085     13009.32     117904.1   -55701.169   -23174.967    12785.765   -16822.321     35528.28    83.453938 
   78000    2638.8856   -104.46182    2.3877192    -102.0741    3192.0375    4.4073141    4.4073141    4.4073141    3192.0375    12949.759   -23739.424    20365.777     1744.296    17528.672   -3840.2198    85.609508 
   78100    1510.0366   -103.44951    1.3663128    -102.0832   -42665.243    4.4277283    4.4277283    4.4277283   -42665.243     47090.71   -114448.29   -60638.147   -3405.3577   -24452.671    30540.971    86.804629 
   78200    2795.8314   -104.56452     2.529727   -102.03479   -6716.5072    4.4213992    4.4213992    4.4213992   -6716.5072    9151.0589   -17190.139   -12110.442    -6265.317    32203.505   -2941.1084    86.432917 
   78300     1025.949   -102.99368   0.92830024   -102.06538   -32782.423    4.3942634    4.3942634    4.3942634   -32782.423    42324.588   -79635.507    -61036.35   -11279.086    2682.1966    26142.753    84.851251 
   78400     2962.319   -104.72116    2.6803685   -102.04079      25026.6    4.3682029    4.3682029    4.3682029      25026.6    26492.547    12559.552    36027.703    -779.5018    2050.6422   -14268.202    83.350537 
   78500    1237.5629   -103.21907    1.1197729    -102.0993   -25587.029    4.3866888    4.3866888    4.3866888   -25587.029     48868.34   -49238.667   -76390.762    -2098.255    22868.881     33629.83     84.41322 
   78600    3136.0375   -104.90133    2.8375526   -102.06378    10311.057    4.4123962    4.4123962    4.4123962    10311.057    58801.136   -26424.186   -1443.7796   -9586.7803   -8878.7505   -9311.5117    85.906004 
   78700     745.6802    -102.7528   0.67470712   -102.07809   -33897.664    4.4318126    4.4318126    4.4318126   -33897.664    29069.282   -35999.187   -94763.087    13066.519    13365.329    39790.438    87.045066 
   78800    3242.5623   -104.95697    2.9339385   -102.02303      12700.6    4.4153279    4.4153279    4.4153279      12700.6    45457.712   -21450.389    14094.477    1944.2375    -15421.75   -15429.617    86.077351 
   78900    961.44085   -102.92899   0.86993188   -102.05906    32559.846    4.3705812    4.3705812    4.3705812    32559.846    110183.87    32866.111   -45370.442   -7551.7053    26371.102    40974.731    83.486755 
   79000     3137.199   -104.87842    2.8386036   -102.03982    32542.945     4.363599     4.363599     4.363599    32542.945    84816.569     1858.845    10953.421    9465.3776   -5637.7405   -14762.109    83.087273 
   79100    1282.1016    -103.2569    1.1600724   -102.09683    6576.0448    4.3895092    4.3895092    4.3895092    6576.0448    55538.587   -6220.4512   -29590.001   -9502.6535      18780.3   -1023.5158    84.576145 
   79200    2506.7177   -104.32332    2.2681308   -102.05519   -8001.5039    4.4309984    4.4309984    4.4309984   -8001.5039    25662.464   -42144.719   -7522.2565    14359.623    6921.9596    -11312.69      86.9971 
   79300    1649.1836   -103.52725     1.492216   -102.03504   -60600.487    4.4347335    4.4347335    4.4347335   -60600.487   -20860.574   -74772.348   -86168.538     -15865.2    20635.112   -42267.018    87.217288 
   79400     2163.984   -103.98681    1.9580182   -102.02879    25282.405    4.3782599    4.3782599    4.3782599    25282.405    31677.411     11786.06    32383.743    9319.9933    15231.553    15179.958    83.927561 
   79500    2155.7141    -103.9656    1.9505354   -102.01506    27899.846    4.3505629    4.3505629    4.3505629    27899.846    55721.628   -9416.3659    37394.277    4624.7186    5656.5953   -72885.003    82.344832 
   79600    2060.4693   -103.93165    1.8643559    -102.0673    5388.8729    4.3755458    4.3755458    4.3755458    5388.8729   -6186.8664    18696.045    3657.4405   -12738.927    30666.266    41152.135    83.771581 
   79700    2233.7683   -104.10335    2.0211605   -102.08219    526.85743    4.4182632    4.4182632    4.4182632    526.85743     31655.22   -57173.233    27098.586    24703.878    -6812.803   -48768.885    86.249135 
   79800    1252.2045   -103.19875     1.133021   -102.06573   -56820.836    4.4292125    4.4292125    4.4292125   -56820.836   -92992.188   -28208.957   -49261.362   -38871.529    32411.156    23618.454     86.89195 
   79900    3110.5196   -104.81971    2.8144635   -102.00525    859.96447    4.3935816    4.3935816    4.3935816    859.96447   -1043.6704   -23536.101    27159.664    42837.194    784.22424   -8380.7924    84.811764 
   80000    750.01252   -102.72728   0.67862709   -102.04865   -13075.951    4.3740198    4.3740198    4.3740198   -13075.951   -55733.563   -18437.801     34943.51   -76916.774    23746.646    9599.2204    83.683963 
   80100    2846.7792   -104.63408    2.5758256   -102.05825    14599.149    4.3768689    4.3768689    4.3768689    14599.149   -478.70229    26872.134    17404.014    10943.434    23581.283    14706.919    83.847598 
   80200    1442.0554   -103.40891     1.304802   -102.10411   -15969.415    4.4044883    4.4044883    4.4044883   -15969.415     -57853.3   -53546.762    63491.816    -35269.99    16373.524    -27290.13    85.444949 
   80300    2461.5667   -104.27825    2.2272772   -102.05097   -15588.536    4.4210462    4.4210462    4.4210462   -15588.536    7680.9215   -19134.342   -35312.187   -1302.1346    29042.723    16057.383     86.41222 
   80400    1659.1853   -103.56056    1.5012658   -102.05929    4141.6536    4.3957998    4.3957998    4.3957998    4141.6536    11807.376    -43949.18    44566.764    20632.153    -11066.05    -38615.54    84.940286 
   80500    2241.4259   -104.06808    2.0280893   -102.03999    39191.591    4.3729616    4.3729616    4.3729616    39191.591    60906.824    29710.358    26957.592    -28154.88    49954.992    14596.814     83.62324 
   80600    1861.6295   -103.75373    1.6844415   -102.06929   -9942.0991    4.3839197    4.3839197    4.3839197   -9942.0991    1228.5151   -52691.852    21637.039    63742.776   -21715.037   -3306.6653    84.253462 
   80700    2248.1498   -104.10627    2.0341732    -102.0721     949.2899    4.4005157    4.4005157    4.4005157     949.2899    10284.304    22032.197   -29468.631    -23488.14    51023.618    -13840.23    85.213957 
   80800    1430.1637   -103.36987    1.2940422   -102.07583   -26450.628    4.4095065    4.4095065    4.4095065   -26450.628    4697.9558   -66187.312   -17862.527    43013.877   -11031.102    59635.659    85.737332 
   80900    2370.8259   -104.19633    2.1451731   -102.05116   -6087.7955     4.401497     4.401497     4.401497   -6087.7955   -13220.503    16448.804   -21491.687    9572.1062    34732.081   -32826.151    85.270978 
   81000    1592.3976   -103.51142    1.4408348   -102.07058   -1878.7936    4.3817998    4.3817998    4.3817998   -1878.7936    1364.3987   -5099.3053   -1901.4742    27666.646    20271.517    55001.745    84.131297 
   81100    2250.4145   -104.11464    2.0362223   -102.07841    5625.9053    4.3831768    4.3831768    4.3831768    5625.9053    11594.839   -23166.321    28449.198    33201.306   -6227.3977   -9611.6763    84.210639 
   81200    1923.5271   -103.83201    1.7404477   -102.09156    7545.2483    4.3950947    4.3950947    4.3950947    7545.2483   -12289.965    8899.2451    26026.465    18209.562    31071.147    20389.675    84.899417 
   81300    1528.4158   -103.48818    1.3829427   -102.10524   -8030.1167    4.4104803    4.4104803    4.4104803   -8030.1167   -35484.866   -53257.665    64652.182    39163.892   -11039.233    39390.972    85.794148 
   81400    2588.8046    -104.4005    2.3424048    -102.0581    3354.0414    4.4090221    4.4090221    4.4090221    3354.0414    7436.8289   -28745.305    31370.601    23183.093    2291.0741   -11607.788    85.709078 
   81500    1408.0483   -103.32297    1.2740317   -102.04893    9229.6876    4.4000723    4.4000723    4.4000723    9229.6876    4183.9483     7503.021    16002.094     38970.91   -647.40139    48680.268    85.188197 
   81600    2773.3552   -104.52744      2.50939   -102.01805   -16177.454     4.400822     4.400822     4.400822   -16177.454    -38520.31      21499.2   -31511.252    18385.737   -34182.099   -29511.901    85.231753 
   81700    1277.0165   -103.21798    1.1554713   -102.06251   -4689.7335    4.3905886    4.3905886    4.3905886   -4689.7335    12736.113   -10631.804   -16173.509    58552.292    4036.7934    58998.978    84.638555 
   81800     2953.359   -104.72289    2.6722613   -102.05063     2842.909      4.39174      4.39174      4.39174     2842.909   -15062.236    49108.892   -25517.929   -19936.312   -28268.402    -28162.37     84.70516 
   81900    1263.5695   -103.23363    1.1433042   -102.09032   -21890.847    4.3939236    4.3939236    4.3939236   -21890.847   -30776.043   -29081.934   -5814.5631    76860.366   -2884.3693    51358.265    84.831567 
   82000    2746.8474   -104.55165    2.4854052   -102.06624    -3573.661    4.3982834    4.3982834    4.3982834    -3573.661    8939.9203    130.41987   -19791.323   -34616.052    -24036.54   -9353.5793    85.084339 
   82100    1235.0362   -103.18862    1.1174867   -102.07113   -36981.621    4.4065386    4.4065386    4.4065386   -36981.621   -52733.982   -56550.858    -1660.022    50676.677    -20427.65    35264.574    85.564325 
   82200    2567.0497     -104.374    2.3227205   -102.05128    493.11037    4.3927334    4.3927334    4.3927334    493.11037    54352.627   -23304.446    -29568.85   -9813.1209    7202.9898     15914.76    84.762652 
   82300    1630.2972   -103.53752    1.4751272   -102.06239    -8028.562    4.3855664    4.3855664    4.3855664    -8028.562   -53903.092      23349.4    6468.0052    22933.321    -41997.91    2052.3799    84.348446 
   82400    2801.1277   -104.58686    2.5345193   -102.05234    16927.519    4.3869302    4.3869302    4.3869302    16927.519    15059.701   -7400.9268    43123.784    10188.196    13645.569    3665.7576    84.427157 
   82500     813.9719   -102.84913   0.73649888   -102.11263   -16857.131    4.3893985    4.3893985    4.3893985   -16857.131    -49250.44    22524.869   -23845.824   -10584.924   -22132.474    -19753.79     84.56975 
   82600     3322.852   -105.07587    3.0065863   -102.06928    9744.9388    4.4020809    4.4020809    4.4020809    9744.9388    -3450.136    -20554.13    53239.083    6377.8786   -2166.8288    21633.848    85.304917 
   82700    1142.4813   -103.12507    1.0337411   -102.09133   -16258.845    4.4065418    4.4065418    4.4065418   -16258.845   -51644.453   -234.69498    3102.6126   -25846.459   -19578.523   -21339.126    85.564515 
   82800    2758.3767   -104.54758    2.4958372   -102.05174   -310.55059    4.3955161    4.3955161    4.3955161   -310.55059    1746.4014   -17462.873    14784.819   -2465.0385     15340.52    32529.438    84.923839 
   82900     1530.057   -103.44678    1.3844277   -102.06235     5181.943    4.3828166    4.3828166    4.3828166     5181.943    1477.9959   -4474.4897    18542.323   -21319.074   -34595.664    23692.394    84.189881 
   83000    2504.6501   -104.32468      2.26626   -102.05842   -7164.2043    4.3876362    4.3876362    4.3876362   -7164.2043   -15583.233   -1884.0979   -4025.2821   -10746.487   -2817.3077    8333.6291    84.467925 
   83100    1821.8906   -103.71585    1.6484849   -102.06737   -18446.331    4.3974821    4.3974821    4.3974821   -18446.331   -2577.1399   -57562.189    4800.3369    20726.035   -12644.041    38437.347    85.037845 
   83200    2335.8834   -104.16844    2.1135564   -102.05488    -15478.96    4.4096937    4.4096937    4.4096937    -15478.96   -22383.559    8148.3342   -32201.654   -26763.786   -27638.546   -15348.035    85.748253 
   83300    1558.1721   -103.46081    1.4098669   -102.05094   -28264.141    4.4108726    4.4108726    4.4108726   -28264.141    27101.276   -83153.421    -28740.28    53942.115    -5729.481    42482.914    85.817043 
   83400    2427.2475   -104.21945    2.1962246   -102.02323    18586.431    4.3974382    4.3974382    4.3974382    18586.431    14463.164    65024.979    -23728.85   -24420.734   -36098.264    -18621.99    85.035297 
   83500    1671.0007   -103.55955    1.5119565    -102.0476   -20544.008    4.3920696    4.3920696    4.3920696   -20544.008    44246.791   -69452.601   -36426.214    31152.911    1668.2239    31853.193    84.724233 
   83600    2075.2439   -103.92288    1.8777243   -102.04515    30138.112    4.3882012    4.3882012    4.3882012    30138.112    7141.9245    102384.06   -19111.642   -5826.9516   -55338.778   -4857.6773    84.500563 
   83700    1444.4195   -103.37938    1.3069412   -102.07244   -8788.1911    4.3995257    4.3995257    4.3995257   -8788.1911    34127.229    -34197.64   -26294.162   -13977.558    10638.307    21561.502    85.156454 
   83800    2691.5678   -104.47093    2.4353871   -102.03554     9646.261    4.4107571    4.4107571    4.4107571     9646.261   -3196.5623    41293.427   -9158.0821    11961.995    -35228.38   -5148.9377    85.810303 
   83900    1173.8713   -103.11799    1.0621434   -102.05584    1660.5803    4.4032799    4.4032799    4.4032799    1660.5803    10197.529    9717.8932   -14933.682   -34741.812   -6064.6439    20444.174     85.37464 
   84000    2582.6315   -104.36369    2.3368193   -102.02687      28741.7    4.3961206    4.3961206    4.3961206      28741.7    32229.958    60768.909   -6773.7664    21114.463    4751.1856   -6186.0185    84.958885 
   84100     1726.982   -103.60773    1.5626096   -102.04512    5356.7607    4.3924201    4.3924201    4.3924201    5356.7607    39313.551   -23501.276     258.0077    -14200.42   -12128.018    32167.736    84.744515 
   84200    2330.8638   -104.15132    2.1090145   -102.04231     4837.046    4.3999396    4.3999396    4.3999396     4837.046    27463.085    27785.208   -40737.154    8726.8843      17143.5   -7844.5713    85.180492 
   84300    1726.0534   -103.61213    1.5617694   -102.05036   -30297.853     4.407176     4.407176     4.407176   -30297.853   -17678.177   -76797.925    3582.5434     48091.09   -11636.037    14867.507    85.601461 
   84400    2435.9446   -104.23615    2.2040939   -102.03206    2353.8267    4.3997388    4.3997388    4.3997388    2353.8267    27427.253   -1640.7011   -18725.072   -13698.488    10100.927    7649.9429    85.168833 
   84500    1611.6688   -103.51162    1.4582718   -102.05334   -14768.161    4.3962946    4.3962946    4.3962946   -14768.161   -40166.255   -42138.622    38000.393    95169.661    7169.7401    4203.9904    84.968974 
   84600     2433.721   -104.23763    2.2020819   -102.03555    22055.726    4.3915303    4.3915303    4.3915303    22055.726    33896.036    2859.9633    29411.178    -56.68906   -15605.761    15355.744    84.693028 
   84700    1275.7999    -103.2336    1.1543706   -102.07923   -10202.826    4.3982293    4.3982293    4.3982293   -10202.826   -48356.233   -27884.784     45632.54    79621.431    11236.237   -7454.0238    85.081198 
   84800    2256.1043   -104.08229    2.0413705   -102.04092   -8747.9717     4.414412     4.414412     4.414412   -8747.9717   -24394.545    15271.426   -17120.797    6776.3809   -84.420949    16102.819    86.023792 
   84900    1861.6227    -103.7208    1.6844353   -102.03636   -32035.958    4.4140707    4.4140707    4.4140707   -32035.958   -39216.106   -61348.626    4456.8589     68421.66    8167.3437    16171.568    86.003843 
   85000    1922.4201   -103.77544    1.7394461     -102.036   -26579.511    4.4009452    4.4009452    4.4009452   -26579.511   -54345.186   -33757.122    8363.7757   -36673.911     20838.07   -9153.7318     85.23891 
   85100    2075.7365   -103.91957      1.87817    -102.0414    9916.0751    4.3775747    4.3775747    4.3775747    9916.0751   -404.36386   -32126.611      62279.2    78072.208   -10751.132    5929.3558    83.888168 
   85200    1716.4312   -103.61449     1.553063   -102.06143   -6084.4348    4.3825985    4.3825985    4.3825985   -6084.4348   -29924.333   -4414.6428    16085.672   -53461.222    14110.772   -719.03534    84.177315 
   85300    2647.8769    -104.4466    2.3958546   -102.05074   -4758.8852    4.4039169    4.4039169    4.4039169   -4758.8852   -16542.336   -69998.908    72264.589     37408.46   -7707.4228   -7424.9371    85.411698 
   85400    1338.7792   -103.27748    1.2113555   -102.06612   -41981.551    4.4161143    4.4161143    4.4161143   -41981.551   -98304.347   -15592.121   -12048.185   -49044.545   -28392.042   -10789.685    86.123348 
   85500    2709.3312    -104.4943    2.4514598   -102.04284    9802.1965    4.4074189    4.4074189    4.4074189    9802.1965   -24582.887   -23229.763     77219.24   -13084.716     14412.59   -2922.5591    85.615618 
   85600    1391.3439   -103.32366    1.2589172   -102.06475     9500.468     4.381519     4.381519     4.381519     9500.468   -73256.448    48395.929    53361.924   -18383.608   -51899.188   -804.86926    84.115127 
   85700    2220.0068    -104.0619    2.0087088   -102.05319    30783.997    4.3795444    4.3795444    4.3795444    30783.997    15147.147    28718.204    48486.642   -24318.853    44094.232   -4501.0152    84.001452 
   85800     1756.032   -103.65472    1.5888947   -102.06582   -14571.028    4.4013398    4.4013398    4.4013398   -14571.028   -82012.103   -31271.383    69570.402    47336.634   -32003.892   -6984.0419    85.261839 
   85900    2025.2269   -103.87163    1.8324679   -102.03916    15204.258    4.4117644    4.4117644    4.4117644    15204.258   -19108.221    30582.744    34138.251    -41809.05    14430.187    -10433.05    85.869104 
   86000    1871.7439    -103.7221    1.6935932   -102.02851   -554.02355    4.4102793    4.4102793    4.4102793   -554.02355   -56420.318   -8191.3017    62949.549     80643.14   -8897.5581   -14378.089    85.782415 
   86100    1887.2243   -103.73719    1.7076002   -102.02959    14146.642    4.3958353    4.3958353    4.3958353    14146.642   -15246.288    810.95327    56875.262   -47918.382   -27869.915   -7267.4851    84.942345 
   86200    1857.8372   -103.72418    1.6810102   -102.04317    21452.146    4.3825935    4.3825935    4.3825935    21452.146   -52655.801    27438.846    89573.394    97238.873    22899.182   -8390.9682    84.177025 
   86300    2449.1453   -104.25569    2.2160381   -102.03965    20521.229     4.393304     4.393304     4.393304    20521.229   -22744.337    49493.502    34814.521   -19013.312   -12380.262   -198.98098    84.795686 
   86400    1056.2287   -103.03597   0.95569793   -102.08027    -10589.13    4.4072992    4.4072992    4.4072992    -10589.13   -89588.573   -27789.838    85611.022     65051.53    10195.768   -7576.2994    85.608641 
   86500    2651.4656    -104.4398    2.3991018    -102.0407   -19724.569     4.413638     4.413638     4.413638   -19724.569   -62216.183    43796.483   -40754.006   -3905.8458    42074.849    4486.6435     85.97855 
   86600    1798.4235   -103.67156    1.6272514   -102.04431   -11201.418    4.4032862    4.4032862    4.4032862   -11201.418   -60579.319   -30943.282    57918.348    68120.945   -4552.8474   -7974.8158    85.375004 
   86700    2165.9709   -104.01019     1.959816   -102.05037    2682.7344    4.3799122    4.3799122    4.3799122    2682.7344   -57718.606    55725.125    10041.684   -42953.005    58462.568    14716.828    84.022621 
   86800    1995.9044   -103.87094    1.8059362   -102.06501    25064.168    4.3733309    4.3733309    4.3733309    25064.168   -8726.2258    22516.411     61402.32     65377.72   -23120.392   -7693.5515    83.644427 
   86900     2195.441   -104.07066    1.9864811   -102.08417   -8810.3183    4.3916002    4.3916002    4.3916002   -8810.3183   -45738.585    6895.9059    12411.724   -53703.286    50711.141    4940.0236    84.697068 
   87000    1707.7161    -103.6196    1.5451774   -102.07442     -17359.5    4.4098083    4.4098083    4.4098083     -17359.5   -56518.114    2378.3962    2061.2166     48745.62   -28017.406     6446.844    85.754937 
   87100     1949.447   -103.82817    1.7639006   -102.06427   -119.34567    4.4014362    4.4014362    4.4014362   -119.34567   -15034.839   -969.66129    15646.463   -60743.036     19244.95   -3974.0709    85.267444 
   87200    2322.9285   -104.16427    2.1018346   -102.06244   -5413.0177    4.3807112    4.3807112    4.3807112   -5413.0177   -49906.162    3915.2262    29751.883    53284.437   -26699.323    12900.581     84.06861 
   87300    1407.1471   -103.35992    1.2732162    -102.0867    1044.9367     4.373858     4.373858     4.373858    1044.9367   -13700.849   -12228.741      29064.4   -58440.679   -14624.929    1886.3309    83.674674 
   87400    2721.6286   -104.54297    2.4625867   -102.08038     17469.29    4.3831259    4.3831259    4.3831259     17469.29   -9515.8344    8414.4953     53509.21     21669.83    8113.0007    4770.8644    84.207706 
   87500    1377.4878   -103.34835    1.2463799   -102.10197   -10642.285    4.4025983    4.4025983    4.4025983   -10642.285   -38551.845   -19106.876    25731.865    11216.869   -42082.257    5415.3729    85.334998 
   87600    2609.9679   -104.41961    2.3615538   -102.05806   -404.58106    4.4094609    4.4094609    4.4094609   -404.58106   -9641.0888    9618.9289   -1191.5833   -9239.6009    47336.226    605.06457    85.734674 
   87700    1184.4512   -103.14793    1.0717163   -102.07622    -10037.45    4.3958066    4.3958066    4.3958066    -10037.45   -40824.838   -16883.104    27595.592    55095.409   -43257.211     10971.38    84.940679 
   87800    2794.6357   -104.57996    2.5286451   -102.05132    23102.957    4.3796141    4.3796141    4.3796141    23102.957    31142.056    26265.708    11901.106   -31600.498    29705.665    9805.0092    84.005463 
   87900    1269.4843   -103.23696     1.148656    -102.0883   -8560.6331    4.3776351    4.3776351    4.3776351   -8560.6331   -35796.542    3312.6245    6802.0187     62582.49     14012.84   -10698.416    83.891638 
   88000    2847.8765   -104.64278    2.5768185   -102.06596     11750.66    4.3887671    4.3887671    4.3887671     11750.66   -6352.0791    15669.542    25934.517   -51720.732   -6814.4926    16394.321    84.533258 
   88100    878.28802   -102.89721   0.79469346   -102.10252   -26225.406    4.4071687    4.4071687    4.4071687   -26225.406   -55832.038   -43979.406    21135.225     43170.85    37658.078   -8710.7823    85.601035 
   88200    3312.3607   -105.04488    2.9970935   -102.04778    2827.3949    4.4044584    4.4044584    4.4044584    2827.3949   -20676.627    31992.866   -2834.0539   -10589.615   -15738.335   -3337.7724    85.443205 
   88300    1060.5123   -103.03835   0.95957379   -102.07878   -25700.994    4.3876009    4.3876009    4.3876009   -25700.994   -74434.734   -15300.623    12632.375    22712.979    54693.541   -2801.5982    84.465887 
   88400    2559.4978   -104.36544    2.3158874   -102.04955    18893.171     4.377541     4.377541     4.377541    18893.171    -14878.08    77861.296   -6303.7025    13704.597    -53461.18   -16748.192    83.886228 
   88500    2276.1684   -104.12212     2.059525    -102.0626    6335.5784    4.3922672    4.3922672    4.3922672    6335.5784    -56247.47     47974.12    27280.085    18327.581    20317.997    -10550.62    84.735665 
   88600    1399.2334   -103.33047    1.2660557   -102.06441   -37307.174    4.4105515    4.4105515    4.4105515   -37307.174   -71803.594    16061.746   -56179.675    9204.1235   -75283.243   -10007.895    85.798303 
   88700    2965.4387   -104.72336    2.6831913   -102.04017   -3212.1453    4.4136181    4.4136181    4.4136181   -3212.1453   -46238.708   -10361.554    46963.826    4183.2575    1830.0575   -12227.739    85.977387 
   88800     1346.566   -103.29322    1.2184012   -102.07482   -33364.377    4.3912264    4.3912264    4.3912264   -33364.377   -96053.088    52758.091   -56798.135    26936.429   -122504.89    2634.0264    84.675447 
   88900    2330.7824   -104.14315    2.1089409   -102.03421    43307.487    4.3690132    4.3690132    4.3690132    43307.487    2103.6991    46517.312    81301.451   -15116.246    46524.584   -23005.333     83.39693 
   89000    1591.5432   -103.50889    1.4400618   -102.06882   -15990.234    4.3768447    4.3768447    4.3768447   -15990.234   -78491.566    90868.591   -60347.726   -12276.695   -103424.64   -17181.438    83.846208 
   89100    2428.0474   -104.26281    2.1969483   -102.06586    2234.5683     4.393298     4.393298     4.393298    2234.5683   -1992.5028   -9068.4538    17764.662    45944.595    30548.581    2480.0966    84.795339 
   89200    1489.9233   -103.41642    1.3481139   -102.06831   -44255.188     4.416537     4.416537     4.416537   -44255.188   -72366.285    19405.149   -79804.428   -50985.155   -59392.754   -17966.268    86.148086 
   89300    2315.4507   -104.15012    2.0950685   -102.05505   -11076.314    4.3932319    4.3932319    4.3932319   -11076.314   -34535.718    2219.1424   -912.36578    82754.195    5097.8313   -1753.7097    84.791511 
   89400    2012.8999   -103.86746    1.8213142   -102.04614    835.36181    4.3658002    4.3658002    4.3658002    835.36181   -17163.079    14486.288    5182.8761   -33355.638   -57207.621   -10261.422    83.213075 
   89500    1835.4955   -103.72708    1.6607949   -102.06628   -1317.2784    4.3718148    4.3718148    4.3718148   -1317.2784   -19336.885   -8726.8102     24111.86    41622.691    -10149.17    2416.2654    83.557466 
   89600    2192.8613   -104.04919     1.984147   -102.06504    21118.043    4.3900299    4.3900299    4.3900299    21118.043   -7095.7425    34156.668    36293.205     19939.93   -12124.485   -3824.8377    84.606246 
   89700    1709.5545   -103.61846    1.5468408   -102.07162   -18751.022    4.4087207    4.4087207    4.4087207   -18751.022   -58374.142   -37463.892    39584.966    -27492.43   -29816.666   -12271.383    85.691504 
   89800    2698.6601   -104.47973    2.4418044   -102.03792    2208.2319    4.4060807    4.4060807    4.4060807    2208.2319   -8754.0362    36458.542    -21079.81    26502.847   -1283.5194   -320.86063    85.537656 
   89900    933.70408   -102.91385   0.84483507   -102.06901   -28750.984    4.3865016    4.3865016    4.3865016   -28750.984   -88021.984    13048.747   -11279.715   -69623.374   -35759.083   -9856.5778    84.402417 
   90000    3053.1178   -104.80122    2.7625252   -102.03869    21597.112    4.3718785    4.3718785    4.3718785    21597.112    4683.2305    8952.7866     51155.32    19429.828    7336.9452    1521.3354    83.561119 
   90100     1410.811   -103.36528    1.2765315   -102.08875   -26183.709    4.3817714    4.3817714    4.3817714   -26183.709   -61806.543    42226.261   -58970.844   -41624.449   -33645.954   -9718.5545    84.129663 
   90200    2162.3098    -104.0211    1.9565033   -102.06459    3796.6792    4.4007988    4.4007988    4.4007988    3796.6792   -19111.006   -35223.202    65724.246    38892.826   -4083.7042    13871.807    85.230401 
   90300    1674.9793   -103.57021    1.5155565   -102.05465   -24416.422    4.4146916    4.4146916    4.4146916   -24416.422   -17461.266   -8872.7897   -46915.212   -431.53506   -13059.804   -22643.267    86.040143 
   90400    2987.6406   -104.73671      2.70328   -102.03343   -1355.1524    4.4000393    4.4000393    4.4000393   -1355.1524   -12393.259   -3865.3396    12193.141    7958.5279     10102.41    14567.738    85.186282 
   90500    1093.2108   -103.05789   0.98916015   -102.06873   -1204.0608    4.3724801    4.3724801    4.3724801   -1204.0608    36053.587   -14170.079    -25495.69    32024.701    -19541.73   -3801.4175    83.595621 
   90600    2645.8852   -104.45033    2.3940526   -102.05627    23324.939    4.3645198    4.3645198    4.3645198    23324.939    20598.592    4758.9581    44617.268   -85044.435    7345.5334    -5047.505    83.139881 
   90700     1801.316   -103.71749    1.6298686   -102.08762   -3602.4395    4.3892501    4.3892501    4.3892501   -3602.4395    39870.075    9550.4819   -60227.875    43533.245   -13826.472    28680.821    84.561169 
   90800    1896.0704   -103.79176    1.7156043   -102.07616   -20946.505    4.4044043    4.4044043    4.4044043   -20946.505   -19783.369   -59922.966    16866.818   -83675.464    -932.5845   -10052.859    85.440059 
   90900    2588.3358   -104.39882    2.3419807   -102.05684    19418.333    4.3956132    4.3956132    4.3956132    19418.333    59020.919    9424.8224   -10190.744    8677.3286   -7129.2343    17198.272    84.929471 
   91000    1114.6025   -103.08057    1.0085158   -102.07206   -9422.1795    4.3859162    4.3859162    4.3859162   -9422.1795   -25091.682   -49799.941    46625.084   -80362.761   -20339.491    505.83739     84.36863 
   91100    2935.8945   -104.70902     2.656459   -102.05256    29669.979    4.3832528    4.3832528    4.3832528    29669.979     61195.87    28644.423   -830.35397    960.19715    5098.7921   -3089.1513    84.215019 
   91200    1287.0048   -103.25301     1.164509    -102.0885   -9566.8944    4.3928261    4.3928261    4.3928261   -9566.8944   -48382.432   -40644.796    60326.545   -98864.528   -29790.352    6610.2768    84.768019 
   91300    2816.2173   -104.58658    2.5481726   -102.03841    252.59913    4.4087946    4.4087946    4.4087946    252.59913     16170.75   -20213.292    4800.3392    46701.849    602.78508   -10160.723    85.695813 
   91400    1061.9102   -103.00211   0.96083869   -102.04127   -35544.918    4.4145878    4.4145878    4.4145878   -35544.918   -61191.786   -53840.845    8397.8764   -121797.77   -3566.9747   -2908.4001    86.034072 
   91500    2850.8164   -104.59878    2.5794786    -102.0193    9315.0348    4.3932045    4.3932045    4.3932045    9315.0348    55397.287    12593.576   -40045.759    36186.905   -30227.863    1872.9231    84.789925 
   91600    1110.1375   -103.05592    1.0044757   -102.05144    29466.707    4.3704594    4.3704594    4.3704594    29466.707    30595.711   -6204.0495    64008.458    -112229.2    5015.6287   -8252.8909    83.479776 
   91700    2959.1513   -104.72435    2.6775023   -102.04685    21882.069    4.3819505    4.3819505    4.3819505    21882.069     34255.41    52502.351   -21111.555    39320.189    -28741.03    6906.5366     84.13998 
   91800    1293.2489   -103.23855    1.1701588   -102.06839   -25004.752    4.3985504    4.3985504    4.3985504   -25004.752   -37237.646     -64053.2    26276.588   -120732.67    2352.1867   -6842.7995    85.099837 
   91900    2841.3546   -104.61177    2.5709173   -102.04085    11511.515    4.3996299    4.3996299    4.3996299    11511.515    53953.288     24472.91   -43891.653    34136.534   -16217.507    7007.7574    85.162507 
   92000    815.06363   -102.81092    0.7374867   -102.07343   -52579.562    4.4014182    4.4014182    4.4014182   -52579.562   -127065.75   -86685.868    56012.929   -132943.52   -16740.285    4495.1594    85.266396 
   92100    3264.9897    -104.9536    2.9542313   -101.99937    47476.977    4.3870612    4.3870612    4.3870612    47476.977    51242.385    59944.838    31243.709    46322.669     5722.332    594.62022    84.434723 
   92200    828.76455   -102.80405   0.74988358   -102.05416   -42381.623    4.3987181    4.3987181    4.3987181   -42381.623   -95721.286   -58974.077    27550.493   -125164.09   -23603.733   -2596.0035    85.109572 
   92300    2842.0651   -104.58341    2.5715602   -102.01185    19820.333    4.3942061    4.3942061    4.3942061    19820.333    4709.8592    58362.286   -3611.1462    25290.867   -3569.4579   -13658.414    84.847931 
   92400     1203.025   -103.13057    1.0885223   -102.04205   -21928.377    4.3958821    4.3958821    4.3958821   -21928.377   -62120.651   -42457.772    38793.293   -95503.189   -26693.629    6818.5918    84.945057 
   92500    2596.4895   -104.35642    2.3493582   -102.00706   -4137.4694    4.4002864    4.4002864    4.4002864   -4137.4694   -21924.494    28266.636    -18754.55   -13046.849   -24672.239     9924.358    85.200636 
   92600    1630.5874   -103.50217    1.4753898   -102.02678   -3314.4832     4.394538     4.394538     4.394538   -3314.4832   -66817.838   -5272.8113      62147.2   -64911.233   -682.35102    -10040.66    84.867161 
   92700    2255.2041   -104.06497     2.040556   -102.02442   -2483.4464     4.390784     4.390784     4.390784   -2483.4464   -50086.994    -9.813969    42646.468   -19413.137   -26070.793   -323.95999    84.649858 
   92800    1931.5206   -103.78889    1.7476804   -102.04121    8982.3174    4.3899074    4.3899074    4.3899074    8982.3174   -23868.132    841.67098    49973.413   -62321.981     2966.557    2061.4349    84.599165 
   92900    1846.4734   -103.71656    1.6707279   -102.04583   -1889.7722    4.3916955    4.3916955    4.3916955   -1889.7722   -1241.0594   -38817.865    34389.608    886.18967   -16000.486    3775.6784    84.702586 
   93000    2388.8929   -104.19566    2.1615205   -102.03413   -12003.204    4.4036356    4.4036356    4.4036356   -12003.204   -34191.417   -45345.545    43527.348   -60967.449    8035.6811    -6825.405    85.395333 
   93100    1316.5104   -103.22903    1.1912063   -102.03782   -15084.146    4.4028676    4.4028676    4.4028676   -15084.146    6107.7325   -62591.896    11231.727    6758.8827    5698.5026   -6564.6902    85.350657 
   93200    2820.5733   -104.55208     2.552114   -101.99997    17451.628    4.3975004    4.3975004    4.3975004    17451.628    8591.4878    6432.9237    37330.472   -38484.571        -1860    6560.0071    85.038908 
   93300    1261.8643   -103.17579    1.1417614   -102.03403   -35566.425    4.3957391    4.3957391    4.3957391   -35566.425   -37201.176   -34916.412   -34581.688    13148.882    37415.911   -26551.731    84.936764 
   93400    3235.3925   -104.92465    2.9274511    -101.9972    32857.106    4.3883301    4.3883301    4.3883301    32857.106    17910.343    27694.354    52966.622   -27381.901   -11300.531    5758.3044    84.508008 
   93500    873.43273   -102.84818   0.79030029   -102.05788   -30005.861    4.3944584    4.3944584    4.3944584   -30005.861   -51067.049   -24012.679   -14937.856    39492.998    19127.756    -14703.16    84.862551 
   93600    2937.2929   -104.66882    2.6577243   -102.01109    4192.0332    4.4082459    4.4082459    4.4082459    4192.0332   -18084.095    11588.418    19071.776   -16512.012   -26807.782    4612.0025    85.663822 
   93700    1323.2135   -103.21215    1.1972713   -102.01487   -43893.032    4.4194538    4.4194538    4.4194538   -43893.032   -37089.038   -54043.912   -40546.145    31059.223    2031.8199    9060.5224    86.318879 
   93800    2153.2495    -103.9475    1.9483054    -101.9992    13767.597     4.391263     4.391263     4.391263    13767.597   -16629.597    7233.7501    50698.638   -31044.648   -39071.892   -18113.472    84.677563 
   93900    2053.2393   -103.87901     1.857814   -102.02119    9472.3975    4.3724033    4.3724033    4.3724033    9472.3975    19866.452    6311.1878    2239.5526    14041.425   -19978.274    24825.137    83.591217 
   94000    1621.4889   -103.50385    1.4671572    -102.0367    14116.396    4.3802077    4.3802077    4.3802077    14116.396    -7616.952    15214.551    34751.589    -28799.39   -2769.7828   -11166.851    84.039625 
   94100    2402.1931   -104.22391    2.1735548   -102.05036   -7008.3115    4.4101649    4.4101649    4.4101649   -7008.3115    11868.837   -18842.516   -14051.256   -9242.7549   -30131.768     15675.09    85.775744 
   94200     1266.469   -103.17283    1.1459278    -102.0269   -50116.284     4.427978     4.427978     4.427978   -50116.284   -108089.15   -18381.916   -23877.791    25146.356    12537.903    4844.3403    86.819317 
   94300    2825.4554   -104.53206    2.5565314   -101.97553    15811.013    4.4005815    4.4005815    4.4005815    15811.013    16076.062    10191.434    21165.543   -21110.758   -17690.221   -3876.0513    85.217777 
   94400    1112.9669   -103.01673    1.0070358   -102.00969   -25149.148    4.3759116    4.3759116    4.3759116   -25149.148   -74041.351   -50022.031    48615.938    53491.417     15611.54    8848.6062    83.792589 
   94500    2951.0615   -104.64923    2.6701825   -101.97905    58138.832    4.3738359    4.3738359    4.3738359    58138.832    41237.061    62801.497    70377.937   -4168.2564    4266.9498    1395.2073     83.67341 
   94600    1253.0466   -103.17595    1.1337829   -102.04217   -30066.752    4.4037114    4.4037114    4.4037114   -30066.752   -53261.664   -58504.128    21565.535    57910.716    15567.959    8560.3302    85.399737 
   94700    2610.4272   -104.35255    2.3619694   -101.99058   -6398.8577    4.4172006    4.4172006    4.4172006   -6398.8577   -37266.375   -5472.3016    23542.103    11018.238    13713.215   -12204.276    86.186919 
   94800    1759.4774   -103.59315    1.5920121   -102.00114   -11505.801    4.4028772    4.4028772    4.4028772   -11505.801    994.65791   -33342.153   -2169.9077    54022.652   -666.93727    18834.707    85.351215 
   94900    1663.9379   -103.50433    1.5055659   -101.99876   -7778.9785    4.3940171    4.3940171    4.3940171   -7778.9785   -66694.168   -42087.663    85444.895    69875.213    18436.216    741.80424    84.836984 
   95000    2564.7993   -104.31731    2.3206843   -101.99663   -3084.2062    4.3836161    4.3836161    4.3836161   -3084.2062   -17238.774   -12075.675    20061.831    31185.839   -19739.182    16242.687    84.235964 
   95100    1150.7014   -103.08269    1.0411788   -102.04152   -12227.488    4.3857999    4.3857999    4.3857999   -12227.488   -63363.694   -40927.864    67609.095    100924.69    15105.903   -6183.6284    84.361918 
   95200    3037.8233   -104.76943    2.7486864   -102.02075   -1446.9348    4.4061378    4.4061378    4.4061378   -1446.9348   -9250.6312   -434.03468    5343.8616   -24536.918   -26088.531    22068.865    85.540978 
   95300    1000.0316   -102.93929   0.90484959   -102.03444    1352.4801    4.4056433    4.4056433    4.4056433    1352.4801    189.75293   -18535.011    22402.698    118740.88    10429.921    1108.0442    85.512182 
   95400    3211.2443   -104.88775    2.9056013   -101.98215    20336.204    4.4078551    4.4078551    4.4078551    20336.204    32048.685    52418.559   -23458.632   -38394.632    -6457.329    8860.8282    85.641039 
   95500    776.99963   -102.72459   0.70304559   -102.02154   -50913.532    4.4030233    4.4030233    4.4030233   -50913.532   -94853.054   -123216.62    65329.076    117632.16   -9879.6835    1841.8018    85.359716 
   95600    3362.7378   -105.01677    3.0426759   -101.97409    34092.411    4.3915216    4.3915216    4.3915216    34092.411    76703.806    39199.101   -13625.674    -19384.02    6204.0481    2411.7528    84.692524 
   95700    861.89081   -102.82975   0.77985692    -102.0499   -59832.219    4.3965427    4.3965427    4.3965427   -59832.219    -114409.7   -106198.42    41111.463    129337.25   -14266.761    9807.8003    84.983361 
   95800    3149.7447   -104.86382    2.8499552   -102.01387    11878.061    4.3954702    4.3954702    4.3954702    11878.061    20324.766    15421.009   -111.59188   -28509.289    12999.966   -1658.1907    84.921181 
   95900    1304.9986   -103.22876    1.1807902   -102.04797   -59316.904    4.4163174    4.4163174    4.4163174   -59316.904    -99874.55   -76799.892    -1276.269    103179.66   -13075.876    15757.017    86.135233 
   96000      2097.85   -103.88731    1.8981788   -101.98913    29333.733      4.41274      4.41274      4.41274    29333.733    52878.748   -1618.3698    36740.821    37960.828   -14197.922    8775.7559    85.926083 
   96100     2362.612   -104.09684     2.137741    -101.9591   -20201.607     4.421793     4.421793     4.421793   -20201.607   -40901.958   -15920.334   -3782.5292    26227.508    11845.893    623.97055    86.456019 
   96200    1534.9296   -103.37834    1.3888366   -101.98951     -14309.7    4.4035476    4.4035476    4.4035476     -14309.7   -7190.1165   -86748.892    51009.908    71293.378   -9040.5757    12453.839    85.390209 
   96300    2678.4729   -104.41265    2.4235385   -101.98911    46391.845    4.3730263    4.3730263    4.3730263    46391.845    13925.627    41960.314    83289.594    7224.3413    22421.138    -21769.52    83.626955 
   96400    941.93085    -102.9068   0.85227883   -102.05452   -19463.086    4.3757469    4.3757469    4.3757469   -19463.086   -63421.117   -65200.051    70231.908    104939.85    7416.8291    16317.317    83.783132 
   96500    2865.0415   -104.65691    2.5923497   -102.06456    27146.559    4.3950488    4.3950488    4.3950488    27146.559   -12127.893    89771.999    3795.5714   -21612.251   -8269.2636    2396.4121    84.896761 
   96600    1413.9987   -103.34866    1.2794157   -102.06925   -48136.842    4.4168658    4.4168658    4.4168658   -48136.842   -97540.226    -91413.66     44543.36    128777.48    10096.467   -373.22644    86.167327 
   96700    2592.2373   -104.35782    2.3455108   -102.01231    1275.8024    4.4079131    4.4079131    4.4079131    1275.8024   -25352.806    48342.813     -19162.6   -35688.237    -20535.94    26204.635    85.644422 
   96800    1503.2766   -103.38631    1.3601962   -102.02611   -28098.738     4.393156     4.393156     4.393156   -28098.738   -75422.053   -60497.692    51623.531    123080.69    9036.0393   -9525.7636    84.787118 
   96900    2553.2562   -104.31733    2.3102398   -102.00709    32109.881    4.3765845    4.3765845    4.3765845    32109.881    32982.112    56003.444    7344.0862   -40134.623   -11050.355    27031.276    83.831253 
   97000    1349.9923   -103.28324    1.2215014   -102.06174   -20364.647    4.3896537    4.3896537    4.3896537   -20364.647   -63141.447   -71628.765    73676.272    106552.02    702.47833   -533.66194    84.584498 
   97100      3093.91   -104.82619    2.7994348   -102.02675    12330.338     4.393938     4.393938     4.393938    12330.338    15543.854    18025.045     3422.116   -33667.237   -5522.9168    7178.9929    84.832402 
   97200    952.09985   -102.92835   0.86147996   -102.06687    3060.0899    4.3891416    4.3891416    4.3891416    3060.0899    -4805.648   -43901.092    57887.009    92417.944   -4746.3202     11806.68    84.554902 
   97300    2443.3595   -104.23766     2.210803   -102.02686   -16848.478    4.3969715    4.3969715    4.3969715   -16848.478   -5902.3447   -9875.7478   -34767.341   -31207.322   -1480.6474   -34056.828    85.008227 
   97400    1832.1692   -103.69393    1.6577852   -102.03615   -9618.2622    4.3887101    4.3887101    4.3887101   -9618.2622   -48545.419   -3262.7481    22953.381    63525.978   -9273.8498    21527.518    84.529966 
   97500    1720.7767   -103.58632    1.5569949   -102.02933   -25702.805     4.391031     4.391031     4.391031   -25702.805    10772.301   -33985.374   -53895.343   -21653.327    4035.5526    -58045.22    84.664141 
   97600    2065.3369   -103.91156    1.8687602    -102.0428   -13917.285    4.3866243    4.3866243    4.3866243   -13917.285   -69555.639    25416.568    2387.2167    7719.3097     5982.613    12556.774    84.409497 
   97700    1464.2941   -103.37418    1.3249241   -102.04926    12275.817    4.3844464    4.3844464    4.3844464    12275.817    35630.474   -6317.8177    7514.7939    1757.5844   -2598.8768   -33783.574    84.283834 
   97800    2517.2709   -104.31686    2.2776796   -102.03918   -10412.399     4.398019     4.398019     4.398019   -10412.399   -36210.673    26644.738   -21671.262    -23062.39    14526.858   -6641.2299    85.068993 
   97900    1184.0816   -103.11774    1.0713819   -102.04636   -6157.8655    4.4022182    4.4022182    4.4022182   -6157.8655    -6480.864   -3128.8586   -8863.8739    11271.657   -5767.3409   -12570.145    85.312895 
   98000    2993.3896   -104.72554    2.7084818   -102.01706   -7581.9892    4.4005007    4.4005007    4.4005007   -7581.9892   -514.79931    4093.9943   -26325.163   -13876.271    17454.129   -20899.647    85.213085 
   98100    933.01908   -102.88962   0.84421527   -102.04541   -7976.0828    4.3917305    4.3917305    4.3917305   -7976.0828   -17911.893   -10111.577    4095.2216    21723.943    -12247.04   -1005.2531    84.704611 
   98200    3046.0285    -104.7656    2.7561106   -102.00949    9085.8896    4.3864533    4.3864533    4.3864533    9085.8896    20832.155    22908.271   -16482.757   -16656.178    15681.381   -33343.084    84.399627 
   98300    1279.9582   -103.20288    1.1581331   -102.04474   -6772.3706     4.385252     4.385252     4.385252   -6772.3706   -23699.219   -10113.851    13495.959    5270.7645   -11718.268     16806.94    84.330302 
   98400    3004.5061   -104.72361    2.7185403   -102.00507     15572.55    4.3931264    4.3931264    4.3931264     15572.55    15411.842    27683.907    3621.9013   -10831.117    20789.126   -24646.138    84.785405 
   98500    1097.0881   -103.03424   0.99266834   -102.04158   -31004.278    4.3960542    4.3960542    4.3960542   -31004.278   -65700.325   -34910.809     7598.299   -15885.211    4118.7548    19136.379    84.955035 
   98600    2959.2829   -104.68315    2.6776214   -102.00553    16957.963    4.3927234    4.3927234    4.3927234    16957.963    39448.294   -201.15244    11626.747    -14719.97    8778.0953    6034.8276    84.762073 
   98700    1174.2792   -103.11085    1.0625125   -102.04834   -14527.422    4.3895085    4.3895085    4.3895085   -14527.422   -52236.826    6523.6687    2130.8912   -32918.413    14832.643    3979.6426    84.576105 
   98800    2539.2161   -104.31992    2.2975361   -102.02239    24515.641    4.3871608    4.3871608    4.3871608    24515.641    36735.346   -6102.4639    42914.042   -27310.923    -16723.49    14374.575    84.440476 
   98900     1376.576   -103.29738    1.2455549   -102.05182   -17651.103    4.3926222    4.3926222    4.3926222   -17651.103   -43305.467   -50476.742    40828.902   -51243.692    18489.235    -8283.433    84.756214 
   99000    2755.9318   -104.51379     2.493625   -102.02017   -3174.9513    4.3966457    4.3966457    4.3966457   -3174.9513    13080.345   -38014.911    15409.712   -23508.309   -12082.882   -721.44828    84.989333 
   99100     1382.926   -103.30629    1.2513005   -102.05499   -21884.676    4.3887674    4.3887674    4.3887674   -21884.676   -36126.651   -48129.129    18601.751   -59914.389   -5761.0631    -6012.567    84.533272 
   99200    2356.5173   -104.15599    2.1322264   -102.02377    7443.9005    4.3863012    4.3863012    4.3863012    7443.9005    20484.547    -28349.79    30196.944    -26628.86   -6864.1059   -15125.277    84.390848 
   99300    1338.9666   -103.27204    1.2115251   -102.06051   -21670.594     4.394576     4.394576     4.394576   -21670.594   -68694.943   -10490.533    14173.694   -27557.608   -28740.562    4884.4542    84.869361 
   99400    2310.0955   -104.12837     2.090223   -102.03815    34019.187     4.390339     4.390339     4.390339    34019.187    34449.444   -13540.033    81148.149   -41546.793    24436.599   -6611.0228    84.624122 
   99500    1779.3891   -103.64997    1.6100286   -102.03994    -7913.062     4.395089     4.395089     4.395089    -7913.062   -10274.989   -26960.587     13496.39   -19431.425   -24159.585    5681.0024    84.899089 
   99600     2105.991   -103.93604    1.9055449   -102.03049   -5669.6562    4.3978965    4.3978965    4.3978965   -5669.6562    12375.344   -57469.941    28085.629   -57060.386    17198.804    9571.1556    85.061886 
   99700    2011.3604     -103.861    1.8199211   -102.04108    406.63753    4.3858705    4.3858705    4.3858705    406.63753   -47940.642   -13256.192    62416.746   -25984.999    5681.0232   -311.12836    84.365989 
   99800    1535.2944   -103.42753    1.3891667   -102.03836    36093.824    4.3838055    4.3838055    4.3838055    36093.824    24605.592   -13785.592    97461.471   -75457.217     10510.31    6378.0777    84.246883 
   99900    2499.9754   -104.27346    2.2620303   -102.01143    4699.7226     4.405763     4.405763     4.405763    4699.7226   -37314.962    14308.314    37105.816    22266.132    25431.879   -7471.0766    85.519154 
  100000    1222.1733   -103.11617    1.1058481   -102.01032   -20166.426    4.4079914    4.4079914    4.4079914   -20166.426   -40053.124   -68342.147    47895.994   -105115.35   -2666.8828    9774.6893    85.648985 
Loop time of 21.8933 on 1 procs for 100000 steps with 8 atoms

Pair  time (%) = 6.50667 (29.7199)
Kspce time (%) = 5.39324 (24.6342)
Neigh time (%) = 0.255765 (1.16824)
Comm  time (%) = 0.90958 (4.15461)
Outpt time (%) = 0.0285563 (0.130434)
Other time (%) = 8.79948 (40.1926)

Nlocal:    8 ave 8 max 8 min
Histogram: 1 0 0 0 0 0 0 0 0 0
Nghost:    1720 ave 1720 max 1720 min
Histogram: 1 0 0 0 0 0 0 0 0 0
Neighs:    2065 ave 2065 max 2065 min
Histogram: 1 0 0 0 0 0 0 0 0 0

Total # of neighbors = 2065
Ave neighs/atom = 258.125
Neighbor list builds = 3415
Dangerous builds = 0
unfix 20
unfix 21
print "seeds:4180821"
seeds:4180821
