LAMMPS (10 Feb 2015)
# ---- initialize simulations
clear
units metal
dimension 3
boundary p p p
atom_style charge
atom_modify map array
# ---- create atoms
read_data /Users/eugeneragasa/pyflamestk_git/pypospack/tests/tests_integration/workflow/WorkflowLammpsThermalExpansion/param_2856/MgO_NaCl_unit.npt.T600/lammps.structure
  triclinic box = (0 0 0) to (4.2565 4.2565 4.2565) with tilt (0 0 0)
  1 by 1 by 1 MPI processor grid
  reading atoms ...
  8 atoms
# ---- define interatomic potential
include potential.mod
mass 1 24.305
mass 2 15.999

group Mg type 1
4 atoms in group Mg
group O type 2
4 atoms in group O

set group Mg charge 1.71287520642
  4 settings made for charge
set group O charge -1.71287520642
  4 settings made for charge

variable R_cut equal 10.0

pair_style buck/coul/long ${R_cut}
pair_style buck/coul/long 10
pair_coeff 1 1 0.0 0.5 0.0 ${R_cut}
pair_coeff 1 1 0.0 0.5 0.0 10
pair_coeff 1 2 1268.25800143 0.292150986054 0.0 ${R_cut}
pair_coeff 1 2 1268.25800143 0.292150986054 0.0 10
pair_coeff 2 2 34972.2762623 0.190168709461 15.9037418312 ${R_cut}
pair_coeff 2 2 34972.2762623 0.190168709461 15.9037418312 10

kspace_style pppm 1.0e-5

neighbor 1.0 bin
neigh_modify every 1 delay 0 check yes
# ---- define settings
compute eng all pe/atom
compute eatoms all reduce sum c_eng
# ---- run minimization
reset_timestep 0
fix 1 all box/relax iso 0.0 vmax 0.001
thermo 10
thermo_style custom step pe lx ly lz xy xz yz press pxx pyy pzz pxy pxz pyz c_eatoms
min_style cg
minimize 1e-25 1e-25 5000 10000
PPPM initialization ...
  G vector (1/distance) = 0.353245
  grid = 8 8 8
  stencil order = 5
  estimated absolute RMS force accuracy = 4.15075e-05
  estimated relative force accuracy = 2.88254e-06
  using double precision FFTs
  3d grid and FFT values/proc = 3375 512
Neighbor list info ...
  1 neighbor list requests
  update every 1 steps, delay 0 steps, check yes
  master list distance cutoff = 11
Memory usage per processor = 4.06549 Mbytes
Step PotEng Lx Ly Lz Xy Xz Yz Press Pxx Pyy Pzz Pxy Pxz Pyz eatoms 
       0    -118.2398       4.2565       4.2565       4.2565            0            0            0    92099.563    92099.563    92099.563    92099.563 -2.6648665e-10 1.3518399e-10 2.2028947e-10    -118.2398 
      10   -118.33067     4.299065     4.299065     4.299065            0            0            0    34673.493    34673.493    34673.493    34673.493 -1.1760899e-11 -1.3745134e-10 -5.0678772e-11   -118.33067 
      18   -118.34767    4.3277342    4.3277342    4.3277342            0            0            0    -4.391814    -4.391814    -4.391814    -4.391814 -1.1240186e-10 -1.6034703e-10 -8.891662e-11   -118.34767 
Loop time of 0.012135 on 1 procs for 18 steps with 8 atoms

Minimization stats:
  Stopping criterion = linesearch alpha is zero
  Energy initial, next-to-last, final = 
        -118.239795936     -118.347671294     -118.347671294
  Force two-norm initial, final = 13.2992 0.00175014
  Force max component initial, final = 13.2992 0.000655584
  Final line search alpha, max atom move = 0.00390625 2.56088e-06
  Iterations, force evaluations = 18 35

Pair  time (%) = 0.00328088 (27.0364)
Kspce time (%) = 0.00192833 (15.8906)
Neigh time (%) = 0 (0)
Comm  time (%) = 0.000396252 (3.26535)
Outpt time (%) = 1.3113e-05 (0.108059)
Other time (%) = 0.00651646 (53.6996)

Nlocal:    8 ave 8 max 8 min
Histogram: 1 0 0 0 0 0 0 0 0 0
Nghost:    2189 ave 2189 max 2189 min
Histogram: 1 0 0 0 0 0 0 0 0 0
Neighs:    2344 ave 2344 max 2344 min
Histogram: 1 0 0 0 0 0 0 0 0 0

Total # of neighbors = 2344
Ave neighs/atom = 293
Neighbor list builds = 0
Dangerous builds = 0
unfix 1
# ---- define output variables ----
variable natoms equal "count(all)"
variable tot_energy equal "c_eatoms"
variable length_x equal "lx"
variable length_y equal "ly"
variable length_z equal "lz"
variable tilt_xy equal "xy"
variable tilt_xz equal "xz"
variable tilt_yz equal "yz"
variable tot_press equal "press"
variable press_xx equal "pxx"
variable press_yy equal "pyy"
variable press_zz equal "pzz"
variable press_xy equal "pxy"
variable press_xz equal "pxz"
variable press_yz equal "pyz"

# ---- output ----
print "pypospack:output_section:begin"
pypospack:output_section:begin
print "tot_energy = ${tot_energy}"
tot_energy = -118.347671293792
print "num_atoms = ${natoms}"
num_atoms = 8
print "xx = ${length_x}"
xx = 4.32773421076983
print "yy = ${length_y}"
yy = 4.32773421076983
print "zz = ${length_z}"
zz = 4.32773421076983
print "xy = ${tilt_xy}"
xy = 0
print "xz = ${tilt_xz}"
xz = 0
print "yz = ${tilt_yz}"
yz = 0
print "tot_press = ${tot_press}"
tot_press = -4.39181402043263
print "pxx = ${press_xx}"
pxx = -4.39181402021402
print "pyy = ${press_yy}"
pyy = -4.39181402042068
print "pzz = ${press_zz}"
pzz = -4.39181402066319
print "pxy = ${press_xy}"
pxy = -1.12401857084108e-10
print "pxz = ${press_xz}"
pxz = -1.60347032595802e-10
print "pyz = ${press_yz}"
pyz = -8.89166196817966e-11
print "pypospack:output_section:done"
pypospack:output_section:done
print "pypospack:lammps_sim:done"
pypospack:lammps_sim:done
#------------------------------------------------------------------------------
# RUN THERMOSTAT
# running using an NPT Nose-Hoover style thermostat
#------------------------------------------------------------------------------
variable tempdamp equal 0.1
variable pressdamp equal 1.0
# set initial velocities
velocity all create 600 6254068 mom yes dist gaussian loop all
# fix for Nose-Hoover style thermostat
fix 20 all npt temp 600 600 0.1 aniso 0.0 0.0 1.0 drag 1.0 couple xyz
variable boxx equal lx
variable boxy equal ly
variable boxz equal lz
variable boxp equal press
variable boxt equal temp
# calculate averages every 10000 steps
reset_timestep 0
fix 21 all ave/time 10 10 100 v_boxx v_boxy v_boxz v_boxp v_boxt file lattice.out
thermo_style custom step temp pe ke etotal press lx ly lz press pxx pyy pzz pxy pxz pyz vol
thermo_modify flush yes
thermo 100
run 100000
PPPM initialization ...
  G vector (1/distance) = 0.352508
  grid = 8 8 8
  stencil order = 5
  estimated absolute RMS force accuracy = 4.29555e-05
  estimated relative force accuracy = 2.9831e-06
  using double precision FFTs
  3d grid and FFT values/proc = 3375 512
Memory usage per processor = 3.06549 Mbytes
Step Temp PotEng KinEng TotEng Press Lx Ly Lz Press Pxx Pyy Pzz Pxy Pxz Pyz Volume 
       0          600   -118.34768   0.54289261   -117.80479    7147.6489    4.3277342    4.3277342    4.3277342    7147.6489    9428.8519    7309.2683    4704.8264    4310.8456   -3071.2822   -1944.7542    81.055361 
     100    198.44247   -117.90873   0.17955492   -117.72917    477.06036    4.3514391    4.3514391    4.3514391    477.06036    15513.857   -3046.1342   -11036.542   -824.64191    5396.0534    1594.9227    82.394597 
     200    461.39204   -118.00202   0.41747721   -117.58454   -7750.0608    4.3485567    4.3485567    4.3485567   -7750.0608   -5261.1091   -12524.212   -5464.8612   -9575.4185   -3039.3387    3507.8456    82.230968 
     300    549.65045   -117.94961   0.49733528   -117.45228    13066.097    4.3462463    4.3462463    4.3462463    13066.097    33288.269    18530.122   -12620.102   -4003.2785    1423.3288    1573.8356    82.099973 
     400    638.49994   -117.93289   0.57772816   -117.35516   -899.51367     4.359573     4.359573     4.359573   -899.51367    7507.9561   -2151.9282   -8054.5689    2285.5734    5645.1305    659.78375     82.85751 
     500    527.15594   -117.76659   0.47698178   -117.28961    1360.2275    4.3525835    4.3525835    4.3525835    1360.2275    11914.721     521.2303   -8355.2684   -4541.1051   -5853.7568    1888.2714    82.459623 
     600    623.33287   -117.82545   0.56400468   -117.26144   -5768.6164    4.3595093    4.3595093    4.3595093   -5768.6164     14955.66   -7462.5555   -24798.954   -7260.2772    4741.2511     1213.741    82.853876 
     700    796.52873   -117.97085   0.72071593   -117.25013    9985.4004    4.3484435    4.3484435    4.3484435    9985.4004    19316.081    3566.7176    7073.4025     572.3788   -7387.2721   -3883.4023    82.224546 
     800    648.85983   -117.84355   0.58710201   -117.25645   -15198.232     4.362626     4.362626     4.362626   -15198.232    8609.4325   -23089.643   -31114.486   -3014.5907   -1095.0943    9507.7527    83.031703 
     900    472.49958   -117.68683   0.42752755    -117.2593    -17812.94    4.3573869    4.3573869    4.3573869    -17812.94   -2064.6546   -33790.783   -17583.383   -12527.464   -828.16681    7546.3993    82.732924 
    1000    758.27462   -117.94189   0.68610281   -117.25579    10960.649    4.3418865    4.3418865    4.3418865    10960.649    12668.217    21740.219   -1526.4878   -4591.1456   -441.88321   -4650.4608    81.853151 
    1100    693.70639    -117.8813   0.62768012   -117.25362   -25726.813    4.3786412    4.3786412    4.3786412   -25726.813    1216.5983   -36763.372   -41633.666    1421.5748    206.40532    4886.9301     83.94949 
    1200    448.03308   -117.66515   0.40538974   -117.25976    7211.4694    4.3379587    4.3379587    4.3379587    7211.4694    23689.462   -528.27674   -1526.7773   -11239.417   -756.96131    4516.9839     81.63121 
    1300    674.91993   -117.87608   0.61068174    -117.2654   -1928.5759    4.3495924    4.3495924    4.3495924   -1928.5759    14672.687   -9615.4681   -10842.947   -6477.5939   -9371.1208    3237.3028    82.289737 
    1400    570.05294   -117.77013   0.51579588   -117.25434   -9523.6905    4.3753311    4.3753311    4.3753311   -9523.6905    10438.256   -4120.0055   -34889.322    11050.416   -472.82079     1804.736    83.759245 
    1500    657.60376   -117.84394    0.5950137   -117.24893    26348.599    4.3285218    4.3285218    4.3285218    26348.599    45699.729    25991.078    7354.9905   -2826.1682   -977.28119    891.04779    81.099621 
    1600     569.6225   -117.77811   0.51540641    -117.2627   -34405.858    4.3754809    4.3754809    4.3754809   -34405.858   -28425.237   -41083.241   -33709.096   -10394.695    2160.4346    4223.4668    83.767851 
    1700    661.37112   -117.85289   0.59842249   -117.25447    -7570.371    4.3527414    4.3527414    4.3527414    -7570.371   -1129.7359   -12562.641   -9018.7363   -12097.739   -3566.8774   -1799.5142    82.468593 
    1800    646.69845   -117.83681   0.58514635   -117.25167    17371.303    4.3388623    4.3388623    4.3388623    17371.303    28460.882    18836.299    4816.7288    12095.651     1632.275    438.13506    81.682233 
    1900    470.40058   -117.67657   0.42562833   -117.25094   -29475.825    4.3796002    4.3796002    4.3796002   -29475.825   -12067.056    -37541.37   -38819.049   -4039.4226    654.52969    4253.8411    84.004666 
    2000    444.55859   -117.64919   0.40224595   -117.24694    17012.505    4.3371041    4.3371041    4.3371041    17012.505    17132.318    24158.395    9746.8033   -4418.5769   -5420.9876    -4432.235    81.582977 
    2100    439.26703   -117.65726   0.39745804   -117.25981     2174.069    4.3631952    4.3631952    4.3631952     2174.069   -2999.7011    19061.371   -9539.4633    9725.8299    5418.1064   -593.65531    83.064205 
    2200    687.32223   -117.87487    0.6219036   -117.25297   -7521.2264    4.3608399    4.3608399    4.3608399   -7521.2264   -3762.3789    4881.2091   -23682.509    2818.5842    1416.9241   -4161.7991    82.929766 
    2300    472.60159   -117.67889   0.42761985   -117.25127    4904.9877    4.3475125    4.3475125    4.3475125    4904.9877   -5674.3474    10022.612    10366.698   -7661.7943    398.36371    309.30292    82.171747 
    2400    657.95075   -117.84542   0.59532766   -117.25009   -25689.995    4.3724943    4.3724943    4.3724943   -25689.995   -23082.836   -37971.601   -16015.548   -9677.5717    1018.8336   -1855.4137    83.596434 
    2500    787.81151   -117.95883   0.71282841     -117.246    15054.434    4.3405142    4.3405142    4.3405142    15054.434    21491.152    20654.206    3017.9426    801.61874   -4901.9246    2795.4247    81.775563 
    2600    472.80335   -117.68465   0.42780241   -117.25685   -4568.1157    4.3618708    4.3618708    4.3618708   -4568.1157   -3842.3129   -3199.7682   -6662.2661   -1463.3814   -532.02382    5490.9592    82.988591 
    2700    532.16256   -117.73606   0.48151186   -117.25455   -11965.247    4.3649688    4.3649688    4.3649688   -11965.247   -20590.991   -5184.2187   -10120.532   -7118.7592   -4550.7711    1403.9835    83.165543 
    2800     366.6925   -117.58114   0.33179108   -117.24935    37737.707    4.3431859    4.3431859    4.3431859    37737.707    52299.977    52633.257    8279.8887    10476.055    -324.4896     7799.773    81.926659 
    2900    547.71209   -117.74706   0.49558141   -117.25148   -6653.5977    4.3698908    4.3698908    4.3698908   -6653.5977   -7929.3533    7518.8094   -19550.249    8800.8629   -3745.3343    4965.9209    83.447198 
    3000    285.30095      -117.51   0.25814629   -117.25185    17018.922    4.3505793    4.3505793    4.3505793    17018.922    18616.909     13070.03    19369.828    1437.4752   -7936.1091    6242.2559    82.345765 
    3100    543.79283   -117.74888   0.49203518   -117.25684    3863.7264    4.3560482    4.3560482    4.3560482    3863.7264    4700.1444   -4137.1875    11028.222   -4218.8466    286.07689    2003.6346    82.656692 
    3200    606.05779   -117.79847   0.54837383   -117.25009    169.08426     4.364332     4.364332     4.364332    169.08426    10773.287   -21486.016    11219.982    1170.5334   -5372.2241    5032.5986     83.12915 
    3300    549.33279   -117.74915   0.49704785   -117.25211     6977.809    4.3475137    4.3475137    4.3475137     6977.809   -827.63708     2822.778    18938.286   -1963.4555    876.54504   -2645.8402    82.171817 
    3400    644.28032   -117.83951   0.58295837   -117.25655   -23828.835    4.3629801    4.3629801    4.3629801   -23828.835   -35968.626   -34876.437   -641.44118   -13476.972     1538.322    -1617.553    83.051925 
    3500    625.39704   -117.81767   0.56587238   -117.25179    4146.1217    4.3554773    4.3554773    4.3554773    4146.1217   -7300.9784    12755.864    6983.4794    112.52869    6073.4094    3667.1563    82.624197 
    3600    843.88089   -118.01498   0.76356116   -117.25142   -14371.177    4.3588953    4.3588953    4.3588953   -14371.177   -8658.1944   -13995.287   -20460.048    1297.4947    3930.2332   -7721.2493    82.818871 
    3700    471.48598   -117.68095   0.42661042   -117.25434   -10230.125    4.3570767    4.3570767    4.3570767   -10230.125   -13590.952     1207.526   -18306.948   -6933.5068   -596.88764   -696.45062    82.715257 
    3800    712.42821   -117.89939   0.64462002   -117.25477   -7184.8339    4.3550605    4.3550605    4.3550605   -7184.8339   -15663.169    2182.2598   -8073.5925   -5047.1926    5602.9334   -5609.7284    82.600483 
    3900    680.41529   -117.86731   0.61565405   -117.25165   -1439.4738     4.361035     4.361035     4.361035   -1439.4738    10110.281    2656.1618   -17084.864    7354.1784    -2640.317    8038.9831    82.940895 
    4000    590.51514   -117.78441   0.53431051    -117.2501     8542.529    4.3447946    4.3447946    4.3447946     8542.529    947.73319    24655.655    24.198392   -2387.8161   -8633.1993    5145.1149    82.017731 
    4100    477.53727   -117.69042   0.43208576   -117.25833   -18357.814    4.3673844    4.3673844    4.3673844   -18357.814   -27223.563   -31544.399    3694.5206   -11751.477   -30.315955   -1094.4484    83.303694 
    4200    632.77876   -117.82759   0.57255152   -117.25504    7043.1669     4.346762     4.346762     4.346762    7043.1669    -7729.446    21328.374    7530.5728   -1810.1519   -3701.8696    2624.7521    82.129199 
    4300    697.85153   -117.88829   0.63143073   -117.25686    12105.807    4.3460305    4.3460305    4.3460305    12105.807    12962.492   -609.73419    23964.664    1475.4896   -7198.8239    4017.4667    82.087742 
    4400    338.25958   -117.56551   0.30606438   -117.25945   -18779.956     4.373696     4.373696     4.373696   -18779.956   -42784.096   -4365.1321   -9190.6385   -7799.4914   -3043.3727    832.89853    83.665377 
    4500    658.06281   -117.84698   0.59542906   -117.25155    21710.874    4.3291802    4.3291802    4.3291802    21710.874    15848.118    22073.624    27210.879   -6381.0217    3806.4114     -11550.6    81.136636 
    4600    753.14277   -117.94535   0.68145941   -117.26389   -9394.9945    4.3640581    4.3640581    4.3640581   -9394.9945   -25977.494    3291.2316   -5498.7214    1283.1176    1436.4219    4707.3063    83.113501 
    4700    530.41396   -117.73841    0.4799297   -117.25848   -3312.2494    4.3592771    4.3592771    4.3592771   -3312.2494   -7896.8586     722.1426   -2762.0323    184.89021   -6754.1957    2043.5651    82.840636 
    4800    619.65817   -117.80961   0.56067973   -117.24893    13435.227    4.3328835    4.3328835    4.3328835    13435.227    2256.9016    31994.578     6054.202   -4967.2881    7842.4303    1941.5362    81.345033 
    4900    696.51283   -117.87996   0.63021944   -117.24974   -20330.773    4.3712775    4.3712775    4.3712775   -20330.773   -18025.224   -12686.744   -30280.352   -202.21248    6504.6842   -6052.4999    83.526662 
    5000    763.67146    -117.9414   0.69098599   -117.25042    8084.9486     4.342505     4.342505     4.342505    8084.9486    5124.2319    22947.987   -3817.3733    453.58916   -6432.2326    4504.8507    81.888133 
    5100    603.27106   -117.80559   0.54585233   -117.25974   -2896.8564    4.3512868    4.3512868    4.3512868   -2896.8564    5593.9082    -1304.419   -12980.058   -7093.7685   -2262.1988   -1262.4921    82.385945 
    5200    535.96251   -117.74307   0.48495014   -117.25812   -12308.312    4.3653885    4.3653885    4.3653885   -12308.312   -7888.3477   -15227.219    -13809.37   -2625.4329     391.6428   -10514.649    83.189533 
    5300    650.50633   -117.83736   0.58859179   -117.24877    24729.427    4.3361778    4.3361778    4.3361778    24729.427     27347.91    11809.644    35030.728   -4616.3684   -4656.4505   -6008.8897    81.530712 
    5400     624.0724   -117.82071   0.56467382   -117.25603   -2710.8214    4.3647147    4.3647147    4.3647147   -2710.8214   -10569.678    5227.9141   -2790.7006   -598.98022   -3799.8775    740.79958    83.151018 
    5500    505.00033   -117.71141   0.45693491   -117.25447    7249.3367    4.3550419    4.3550419    4.3550419    7249.3367    11385.993   -12035.351    22397.368   -513.55611    723.23962     -2581.51    82.599421 
    5600    783.06264   -117.95859   0.70853154   -117.25006    8431.0039    4.3415806    4.3415806    4.3415806    8431.0039    13953.229     8704.667    2635.1161    2071.3201    405.33468   -11325.999    81.835852 
    5700    649.11652   -117.84119   0.58733427   -117.25385   -8650.5431    4.3682581    4.3682581    4.3682581   -8650.5431   -12730.265    2741.2233   -15962.588    3505.4815    373.83751    5878.1424    83.353696 
    5800    904.91969   -118.07003   0.81879035   -117.25124   -6564.7049    4.3457316    4.3457316    4.3457316   -6564.7049    -10126.29   -4276.6578   -5291.1672   -9979.1014    1692.0401    2505.1251    82.070804 
    5900    560.64223   -117.76585   0.50728087   -117.25857    5267.2615    4.3497285    4.3497285    4.3497285    5267.2615    10457.848    12171.588   -6827.6519   -2947.1575    7526.3303   -6916.4332    82.297464 
    6000    705.66688   -117.89287   0.63850223   -117.25436   -19643.597    4.3711991    4.3711991    4.3711991   -19643.597   -16960.595    -13540.34   -28429.858    595.98815   -2401.2221   -9184.7201    83.522167 
    6100    585.03799   -117.78036   0.52935466     -117.251     20646.56    4.3417598    4.3417598    4.3417598     20646.56     13433.49   -63.355963    48569.545   -3767.4083   -9898.2609    1434.7693    81.845986 
    6200    507.58653   -117.71713   0.45927496   -117.25786    12431.545    4.3532604    4.3532604    4.3532604    12431.545    18780.768    -2308.301    20822.169    -4432.778   -1026.2542   -6842.5681    82.498096 
    6300    436.63495   -117.64674   0.39507648   -117.25166    3528.8398    4.3708432    4.3708432    4.3708432    3528.8398    7342.8589   -20092.941    23336.601   -143.38192   -10501.031   -16400.908    83.501772 
    6400     648.0888   -117.83142   0.58640437   -117.24502    15981.766    4.3438144    4.3438144    4.3438144    15981.766    32633.916    773.94134    14537.439    -3858.543   -8905.9879    636.78937    81.962234 
    6500    628.42004   -117.82147   0.56860766   -117.25286   -33.804262    4.3523926    4.3523926    4.3523926   -33.804262    6421.9925   -14520.366    7996.9603   -10412.716   -2606.1123   -1072.8291    82.448773 
    6600    541.56191   -117.74273    0.4900166   -117.25271     417.7468    4.3639587    4.3639587    4.3639587     417.7468    6179.3107   -714.06309   -4212.0073   -871.85245    6973.7734   -10470.005    83.107819 
    6700    830.17731   -117.99951   0.75116188   -117.24835   -3461.2674    4.3503456    4.3503456    4.3503456   -3461.2674   -3146.1813   -10147.094    2909.4733   -3061.9552    7456.9553     2253.868    82.332495 
    6800    485.32756   -117.69408   0.43913458   -117.25494    814.37886    4.3503858    4.3503858    4.3503858    814.37886   -10645.138   -12328.168    25416.442   -4023.3277   -5811.7446    3055.9484    82.334777 
    6900    576.00261   -117.77773   0.52117926   -117.25655   -9194.2548    4.3568958    4.3568958    4.3568958   -9194.2548   -13210.715   -13521.097   -850.95213   -2148.2659   -1495.2904   -4452.3628    82.704951 
    7000    606.51411   -117.80323   0.54878672   -117.25444     10043.48    4.3489067    4.3489067    4.3489067     10043.48    16614.145   -3221.0125    16737.308    3895.0295   -4358.7057   -6874.3681    82.250824 
    7100    605.43188   -117.80386   0.54780748   -117.25605    1990.5552    4.3508318    4.3508318    4.3508318    1990.5552    13381.749    -21024.91    13614.827   -1546.7046   -3565.6627      3459.99    82.360103 
    7200    350.68059   -117.57608   0.31730317   -117.25877    1088.7957    4.3590166    4.3590166    4.3590166    1088.7957    24739.739   -16847.716   -4625.6351   -4720.7705   -12270.103   -1214.2539    82.825785 
    7300    670.75103   -117.86165   0.60690963   -117.25474    6702.4594    4.3488521    4.3488521    4.3488521    6702.4594     21851.47   -9496.8432    7752.7511    6140.6288   -3774.5892   -7956.6958    82.247729 
    7400     788.8762    -117.9684   0.71379176   -117.25461   -54.271714    4.3487914    4.3487914    4.3487914   -54.271714    5533.3213   -7178.8234     1482.687   -6294.6993    9346.4602    1593.9249    82.244283 
    7500    415.95735   -117.63422   0.37636695   -117.25785   -2112.0144    4.3564975    4.3564975    4.3564975   -2112.0144    3406.5505   -10585.716    843.12196   -8506.5004   -3208.7009    506.33157    82.682276 
    7600    712.05871   -117.89776   0.64428569   -117.25347   -9767.1445    4.3521372    4.3521372    4.3521372   -9767.1445   -10550.914    -19855.88    1105.3605   -2554.6344    5058.7707   -4593.0294    82.434258 
    7700     731.5412   -117.91286   0.66191385   -117.25095    792.15546      4.35215      4.35215      4.35215    792.15546    13644.815   -14325.703    3057.3549   -1129.2819     379.0838   -2700.5904    82.434985 
    7800    493.96746   -117.70181   0.44695214   -117.25485    7426.6753    4.3502161    4.3502161    4.3502161    7426.6753    27514.338   -4619.8816   -614.43016   -6097.3477    289.39234    353.26089    82.325141 
    7900    442.02026   -117.65754   0.39994922   -117.25759    1026.9446    4.3552141    4.3552141    4.3552141    1026.9446    18799.037   -28870.582    13152.378    2233.8144   -4342.8486   -3975.7844    82.609221 
    8000    676.73584   -117.86667   0.61232481   -117.25434   -2909.9315    4.3529857    4.3529857    4.3529857   -2909.9315    18414.926   -9621.5473   -17523.173    6887.6083   -3876.9559   -5724.6172    82.482479 
    8100    697.39829   -117.88668   0.63102063   -117.25566   -1085.0484    4.3502763    4.3502763    4.3502763   -1085.0484   -8048.2779   -9356.5351    14149.668   -2291.0921   -1429.1285    4020.6507    82.328562 
    8200    525.23743   -117.73174   0.47524586    -117.2565   -12644.553    4.3622704    4.3622704    4.3622704   -12644.553   -8683.0345   -25361.623   -3889.0022   -945.56143   -4037.7818   -1488.6383    83.011404 
    8300    703.99225   -117.88849   0.63698699    -117.2515   -738.17134    4.3474458    4.3474458    4.3474458   -738.17134    7661.5448   -10205.793    329.73469    1200.7622   -1789.8089   -6414.1773    82.167965 
    8400    546.71999   -117.74929   0.49468374   -117.25461    5805.9323    4.3544191    4.3544191    4.3544191    5805.9323    23633.461   -11908.572    5692.9069   -1046.1205    9339.9153    4263.1136    82.563991 
    8500    365.11277   -117.58354   0.33036171   -117.25318   -3435.4438    4.3647546    4.3647546    4.3647546   -3435.4438    37270.211   -32225.065   -15351.477   -13162.689    5751.5195      2290.33    83.153303 
    8600    519.44762   -117.72237   0.47000713   -117.25236     9020.473    4.3411384    4.3411384    4.3411384     9020.473     23589.19   -3910.9007    7383.1299   -3610.1108    301.28802   -3528.2286    81.810849 
    8700    697.73612   -117.88857    0.6313263   -117.25724   -6513.9901    4.3575978    4.3575978    4.3575978   -6513.9901   -11153.495   -5807.0052   -2581.4703   -350.69478    8662.8977    4015.4038    82.744939 
    8800    545.16237    -117.7492   0.49327437   -117.25593   -7281.3826    4.3641904    4.3641904    4.3641904   -7281.3826    1371.4894   -15043.017   -8172.6204   -3377.3789    2151.2762     5276.921    83.121057 
    8900    589.35041    -117.7851   0.53325664   -117.25184    16061.441    4.3355329    4.3355329    4.3355329    16061.441     21751.48    3892.0463    22540.797    3185.4878   -7301.3553   -3030.7761    81.494342 
    9000    404.15321   -117.62694   0.36568632   -117.26125    2988.7133    4.3641393    4.3641393    4.3641393    2988.7133    29585.086   -7818.1984   -12800.747    8461.0094   -3488.0247    2695.8481    83.118141 
    9100    598.76682   -117.79915    0.5417768   -117.25737   -5701.4951    4.3587246    4.3587246    4.3587246   -5701.4951    4234.6643   -8229.1866   -13109.963    5654.3676    7164.8214     7127.037    82.809141 
    9200    515.73527   -117.71676   0.46664811   -117.25011     27643.48    4.3316158    4.3316158    4.3316158     27643.48    40879.351    33814.811    8236.2775    2231.6666    4673.5584    833.62227    81.273656 
    9300    695.31005   -117.88298   0.62913114   -117.25385   -26754.078    4.3700404    4.3700404    4.3700404   -26754.078   -35861.101   -18990.352   -25410.782   -79.595529   -1914.8645   -2707.6365    83.455767 
    9400    512.78635   -117.71751   0.46397987   -117.25353    867.71016    4.3493063    4.3493063    4.3493063    867.71016   -367.24703    14140.551   -11170.174   -2863.1295    15813.113    1281.5812    82.273504 
    9500    583.31039   -117.77986    0.5277915   -117.25207    7498.2947    4.3429212    4.3429212    4.3429212    7498.2947    26561.037    11834.645   -15900.799   -8890.3229    9768.5527    1389.6446    81.911684 
    9600    604.03065   -117.79932   0.54653963   -117.25278   -5745.6837    4.3628679    4.3628679    4.3628679   -5745.6837    18326.735   -18267.197   -17296.589   -10424.591   -8219.2345   -2670.7172    83.045517 
    9700    512.25332   -117.71621   0.46349756   -117.25271    6009.0352    4.3470429    4.3470429    4.3470429    6009.0352     12288.42    938.10711    4800.5788    1932.0881    790.12468   -1032.0423    82.145121 
    9800    552.25635   -117.75512   0.49969315   -117.25542   -9622.2561      4.35311      4.35311      4.35311   -9622.2561    196.85462   -5313.0666   -23750.556    1823.5954    13549.285    4459.7394    82.489551 
    9900    772.17677    -117.9534   0.69868177   -117.25471   -5221.5908    4.3501362    4.3501362    4.3501362   -5221.5908    6270.5342   -14179.386   -7755.9203     1735.641   -1328.6297   -2483.6639    82.320604 
   10000    597.80035   -117.79912   0.54090232   -117.25821   -2648.8951    4.3548802    4.3548802    4.3548802   -2648.8951    6719.7175   -10769.649   -3896.7538    3913.3509    1870.4445   -4958.7042    82.590225 
   10100    515.09321   -117.72386   0.46606716   -117.25779   -18146.971    4.3590432    4.3590432    4.3590432   -18146.971    4668.0237   -23168.316   -35940.619     4063.965    13193.241    7549.1914    82.827301 
   10200     474.0405   -117.68336   0.42892181   -117.25443    14098.633    4.3402664    4.3402664    4.3402664    14098.633    52128.743    -1750.871   -8081.9718    2723.3412    12079.716    5690.6636    81.761559 
   10300    854.48869   -118.02848   0.77315932   -117.25532    -14769.29    4.3596999    4.3596999    4.3596999    -14769.29   -3808.2748   -23303.755   -17195.841    -15115.23   -66.085184   -2845.8636    82.864741 
   10400    549.90026   -117.75581   0.49756131   -117.25825   -15979.128    4.3577943    4.3577943    4.3577943   -15979.128   -8695.6876   -12091.409   -27150.288   -3349.7076    13922.935    3281.1111    82.756133 
   10500     599.0501   -117.79681   0.54203312   -117.25478    11375.372     4.333097     4.333097     4.333097    11375.372    23584.565    18187.694   -7646.1418    1277.5687    15465.895    11522.528     81.35706 
   10600    714.40855   -117.90378   0.64641187   -117.25736   -13787.223    4.3709223    4.3709223    4.3709223   -13787.223   -4169.2328   -12443.709   -24748.728    2847.8864   -6807.6399   -919.54419    83.506302 
   10700    576.67066    -117.7791   0.52178374   -117.25732    5528.6728     4.349149     4.349149     4.349149    5528.6728    25565.654    1393.9301   -10373.566    151.85435   -1863.9099   -475.96627    82.264573 
   10800    348.95589   -117.57079   0.31574263   -117.25505    21939.637    4.3333227    4.3333227    4.3333227    21939.637    39484.149    30829.405   -4494.6436    5923.1042    10266.765    11417.188    81.369773 
   10900    608.87288   -117.80349   0.55092098   -117.25257   -21567.647    4.3733929    4.3733929    4.3733929   -21567.647   -10544.432   -16169.838   -37988.671    9507.9742    3291.6806    6540.0672    83.647985 
   11000     648.6848   -117.83667   0.58694364   -117.24973    12785.059    4.3418415    4.3418415    4.3418415    12785.059    13564.825    11639.422     13150.93   -2991.6176   -8864.3615   -869.34896    81.850604 
   11100    607.93386   -117.80611   0.55007133   -117.25604   -2368.0515    4.3434402    4.3434402    4.3434402   -2368.0515   -9162.8906    5002.2354   -2943.4992   -4560.9669    9964.8277    4971.8618    81.941052 
   11200    477.17536   -117.68745   0.43175829   -117.25569   -13536.267    4.3658804    4.3658804    4.3658804   -13536.267   -6118.9728   -17805.398    -16684.43   -2620.7091    12017.782    12082.597    83.217659 
   11300    658.85124   -117.84914   0.59614245     -117.253    11574.272    4.3440675    4.3440675    4.3440675    11574.272    34897.341   -4243.8992    4069.3742    -3963.096   -3552.2599    1774.1014     81.97656 
   11400    702.44322    -117.8909   0.63558538   -117.25532    10936.913    4.3434692    4.3434692    4.3434692    10936.913    26962.091    1919.2574    3929.3908   -8135.7944    1932.6811   -3518.8723    81.942694 
   11500    465.39293   -117.68094    0.4210973   -117.25984    -4368.305    4.3619376    4.3619376    4.3619376    -4368.305    14323.683   -21630.927   -5797.6709   -420.60412    7728.8714    9208.9546    82.992403 
   11600    726.22303   -117.91322   0.65710186   -117.25612   -5029.5263    4.3477387    4.3477387    4.3477387   -5029.5263    2312.0722   -8344.2941   -9056.3572    2598.3309    3259.2421    8686.4999    82.184572 
   11700    779.72749   -117.96035   0.70551381   -117.25483    16659.906    4.3382211    4.3382211    4.3382211    16659.906    30221.185    4221.6243     15536.91    2614.7488   -11057.855   -4319.1534    81.646023 
   11800    627.74016   -117.82469   0.56799248    -117.2567   -15785.424    4.3661623    4.3661623    4.3661623   -15785.424   -9737.4996   -26035.797   -11582.974     2014.532    1577.3416    5470.3817    83.233782 
   11900    412.92414   -117.63314   0.37362244   -117.25952    1927.2826    4.3450625    4.3450625    4.3450625    1927.2826    36293.845   -9125.5918   -21386.406    8228.4155    12149.154    11134.037    82.032903 
   12000    619.46576   -117.81658   0.56050564   -117.25608    9435.3376     4.342731     4.342731     4.342731    9435.3376     27303.36   -2130.9609    3133.6136    6840.4225   -1014.4576   -2022.8955    81.900923 
   12100    763.49081   -117.94315   0.69082253   -117.25233   -16671.498    4.3623732    4.3623732    4.3623732   -16671.498   -4020.3155   -23613.434   -22380.743   -5056.3693   -1923.9578    -2697.702    83.017271 
   12200    347.87314   -117.57227   0.31476293   -117.25751    2984.4561    4.3412191    4.3412191    4.3412191    2984.4561    16098.356   -5264.2651   -1880.7223    6881.9098    7247.0375    15219.517    81.815413 
   12300    546.17843   -117.75312   0.49419372   -117.25893   -6167.7331    4.3460249    4.3460249    4.3460249   -6167.7331    6181.0523   -11251.119   -13433.133   -665.41768     15391.27    6582.4894    82.087423 
   12400    857.74824   -118.02984   0.77610863   -117.25373   -12655.446    4.3590083    4.3590083    4.3590083   -12655.446   -8929.0937   -20157.621   -8879.6215   -2262.8605   -6159.6172    -6350.205    82.825313 
   12500    608.99515   -117.80665   0.55103161   -117.25562    2548.3486    4.3451664    4.3451664    4.3451664    2548.3486    5483.5124   -3936.2394    6097.7728   -2674.9935   -3066.3409    9950.6161    82.038786 
   12600    364.49305   -117.58865   0.32980097   -117.25885   -2358.9648    4.3475706    4.3475706    4.3475706   -2358.9648    15629.372   -18406.347   -4299.9194    102.07548    10846.129    10709.714     82.17504 
   12700    705.19339   -117.89508    0.6380738     -117.257   -8748.3082    4.3551618    4.3551618    4.3551618   -8748.3082    7193.7426   -18491.496   -14947.172    6647.6487    -5644.503   -1699.4696    82.606243 
   12800    762.12218   -117.94339   0.68958417    -117.2538    1963.2996    4.3499571    4.3499571    4.3499571    1963.2996    20441.671   -2136.9615    -12414.81   -2573.6863    1842.6884    2937.3381    82.310441 
   12900    486.17542   -117.70026   0.43990173   -117.26036    7820.4252    4.3424739    4.3424739    4.3424739    7820.4252    25790.154   -7044.6706    4715.7925    5106.9661    6564.5229    12046.463    81.886374 
   13000    400.20407   -117.62524   0.36211306   -117.26313   -3060.3152    4.3561359    4.3561359    4.3561359   -3060.3152    2927.2809   -9594.8118   -2513.4147    3792.9175    12513.093     300.3447    82.661687 
   13100    661.92775   -117.85403   0.59892613    -117.2551    2561.9192     4.354977     4.354977     4.354977    2561.9192   -3230.4465   -3321.0907    14237.295    2706.8324    3906.5584   -8383.2762     82.59573 
   13200    747.46131   -117.92944    0.6763187   -117.25312    12235.795    4.3394541    4.3394541    4.3394541    12235.795    9522.4041   -172.96497    27357.946    1383.7475   -1919.2771    3912.8642    81.715662 
   13300    352.93088   -117.58173   0.31933928   -117.26239   -4331.7162    4.3551702    4.3551702    4.3551702   -4331.7162   -10344.511   -5413.7934    2763.1561   -2265.8709     10771.44    7857.0451    82.606726 
   13400    572.75823    -117.7796   0.51824369   -117.26135   -8671.8834    4.3487408    4.3487408    4.3487408   -8671.8834   -1619.1134    -11155.96   -13240.577    4971.1655   -1758.9648   -3711.6397    82.241414 
   13500    869.29971   -118.04458   0.78656065   -117.25802    3091.8685     4.347341     4.347341     4.347341    3091.8685    16290.351   -4392.3017   -2622.4439   -4985.1643    -3769.309   -4834.1079    82.162023 
   13600    626.89391   -117.82502   0.56722678   -117.25779   -4498.1196    4.3585083    4.3585083    4.3585083   -4498.1196   -11196.561   -7108.5799     4810.782   -1980.3477    7215.2377    9777.0773    82.796817 
   13700    434.76898   -117.64971   0.39338811   -117.25632    6620.2437    4.3417972    4.3417972    4.3417972    6620.2437     14549.36   -6260.7056    11572.077     6472.974     13228.01    3963.9129      81.8481 
   13800    525.54784   -117.73606   0.47552673   -117.26053   -153.79292    4.3519937    4.3519937    4.3519937   -153.79292    9295.0877   -20018.127    10261.661   -2657.6228    669.65428   -4987.9243    82.426107 
   13900    745.82877   -117.93012   0.67484154   -117.25528    10625.507    4.3473315    4.3473315    4.3473315    10625.507    4857.9318    2077.2898      24941.3    1050.2383   -4314.9165   -2712.2803    82.161483 
   14000    657.03832   -117.85299   0.59450208   -117.25849   -5981.8372    4.3511612    4.3511612    4.3511612   -5981.8372    2325.4328   -16339.794   -3931.1506    509.87144    13090.922    2082.9959    82.378814 
   14100    407.05396    -117.6277   0.36831097   -117.25939   -8719.8597    4.3507964    4.3507964    4.3507964   -8719.8597   -454.72873   -11227.034   -14477.817    4070.5994    4658.8672   -176.81375    82.358093 
   14200    799.03355   -117.97843   0.72298235   -117.25545    1045.3199    4.3415142    4.3415142    4.3415142    1045.3199    1434.5995   -5668.9947    7370.3548    7098.8505   -4723.0011    -9178.765    81.832099 
   14300    625.97617   -117.82233    0.5663964   -117.25593   -2810.9019    4.3571535    4.3571535    4.3571535   -2810.9019   -16653.811   -7932.7796    16153.885   -3711.6441    3013.0444    9937.3206    82.719628 
   14400     640.2582   -117.83525   0.57931908   -117.25593    7641.3923    4.3369826    4.3369826    4.3369826    7641.3923    -2816.814    1902.5914      23838.4    7628.2587    4482.9448    5009.6867    81.576121 
   14500    452.95745     -117.673   0.40984542   -117.26316   -10827.376    4.3570007    4.3570007    4.3570007   -10827.376   -16794.691   -23269.755    7582.3191   -215.98772   -61.370161   -7152.1666    82.710928 
   14600    666.93451   -117.86124   0.60345636   -117.25779   -4475.8222    4.3487434    4.3487434    4.3487434   -4475.8222   -14126.036   -11160.593    11859.162    -10429.44   -9346.1343   -1294.0788    82.241563 
   14700    810.50965   -117.98581   0.73336616   -117.25245    8979.0168    4.3367141    4.3367141    4.3367141    8979.0168   -1567.0698    12665.179    15838.941    3243.6639    14297.816    1599.0361    81.560969 
   14800    573.02637   -117.77365    0.5184863   -117.25517   -20231.313    4.3625017    4.3625017    4.3625017   -20231.313   -25427.459   -28235.052   -7031.4267    -198.2737    6317.9507    943.08706    83.024609 
   14900    466.70878   -117.67889   0.42228791   -117.25661    5021.9373    4.3363487    4.3363487    4.3363487    5021.9373   -1296.2673   -1158.9844    17521.064   -5133.5844   -14571.832   -8784.7883    81.540353 
   15000    622.00428   -117.82278   0.56280254   -117.25998     2962.105    4.3469521    4.3469521    4.3469521     2962.105   -6980.0344   -7076.9587    22943.308   -3704.5679   -7200.7777   -7011.8888    82.139972 
   15100    800.76894   -117.98034   0.72455257   -117.25578   -4820.3071    4.3556457    4.3556457    4.3556457   -4820.3071   -15259.586    -949.8353    1748.5004   -64.027696    3538.6782    2526.5042    82.633783 
   15200    547.51535   -117.75355    0.4954034   -117.25815    1345.5668    4.3397411    4.3397411    4.3397411    1345.5668    7020.9118   -10339.334    7355.1227    -274.7542    -824.1856   -5244.8705    81.731877 
   15300    439.90192   -117.65955    0.3980325   -117.26152   -11846.517      4.35141      4.35141      4.35141   -11846.517   -1202.9098   -15136.536   -19200.105   -6753.5998   -13622.485    639.25427    82.392945 
   15400    712.36257    -117.9022   0.64456062   -117.25764    6864.9182    4.3478491    4.3478491    4.3478491    6864.9182   -2264.9707    4418.3019    18441.423      2251.48    4926.4268    5847.1254    82.190831 
   15500    819.99607   -117.99791   0.74194968   -117.25596    5599.5118    4.3446764    4.3446764    4.3446764    5599.5118   -1828.7742   -5217.5182    23844.828    310.18378    7635.9119   -2430.5441    82.011036 
   15600    410.60835   -117.63574   0.37152706   -117.26421    685.41869     4.347749     4.347749     4.347749    685.41869   -228.13108   -594.21332    2878.6005   -4770.9289    -10818.11   -5653.1124    82.185157 
   15700    415.80809   -117.63951    0.3762319   -117.26328   -459.10398     4.353343     4.353343     4.353343   -459.10398   -10623.108   -14279.478    23525.274   -3500.7785   -8043.2055    -1386.256    82.502795 
   15800    1013.6845   -118.17237   0.91720308   -117.25516    5117.4849    4.3403265    4.3403265    4.3403265    5117.4849   -2153.0207    3065.2608    14440.215   -1146.5897   -748.35805   -980.50792    81.764956 
   15900    678.72244   -117.87741   0.61412233   -117.26329     4178.892    4.3484286    4.3484286    4.3484286     4178.892   -5269.5778   -403.57839    18209.832    3222.0898   -2251.2573   -2217.2361    82.223703 
   16000    362.13909   -117.59025   0.32767106   -117.26258   -15974.092    4.3575109    4.3575109    4.3575109   -15974.092   -23401.373   -24214.094   -306.80777   -6457.0198   -18734.938    -8177.095    82.739989 
   16100    637.69904   -117.83441   0.57700349   -117.25741    11991.799    4.3349628    4.3349628    4.3349628    11991.799    5853.3077   -1769.0992    31891.188   -1756.5947   -3099.5568    4915.9522    81.462199 
   16200    798.31923   -117.97988   0.72233602   -117.25755   -836.83213     4.355916     4.355916     4.355916   -836.83213   -16810.136   -6067.3249    20366.964    3259.1388    6626.1163    2497.3459    82.649166 
   16300     652.5133   -117.85121   0.59040775    -117.2608   -13472.646    4.3499416    4.3499416    4.3499416   -13472.646    -14943.99    -17163.32   -8310.6261    -5109.234   -5970.8186   -6774.1524    82.309558 
   16400    325.13627   -117.55602   0.29419013   -117.26183     12196.87    4.3345673    4.3345673    4.3345673     12196.87    22206.042   -711.86567    15096.434   -6691.1672   -7750.1387   -1662.7362    81.439901 
   16500    794.70275   -117.97551   0.71906375   -117.25645   -19029.524     4.365231     4.365231     4.365231   -19029.524   -24035.729   -27280.262   -5772.5821     461.7446   -2994.8012   -196.89865    83.180533 
   16600    642.47778   -117.83595    0.5813274   -117.25463    8794.9081    4.3450753    4.3450753    4.3450753    8794.9081    1612.7508   -7366.8813    32138.855   -214.35426   -1623.3918   -3225.6201    82.033627 
   16700    356.19812   -117.57945   0.32229554   -117.25716    12442.287    4.3377287    4.3377287    4.3377287    12442.287      12001.7   -3735.3777    29060.539   -9049.8318     -16855.2   -6451.1239    81.618229 
   16800    522.36008   -117.73135   0.47264238   -117.25871    -16184.17    4.3601484    4.3601484    4.3601484    -16184.17    -14443.31   -23427.902   -10681.297   -2339.8082   -7972.5224    1022.8979    82.890322 
   16900    662.60107   -117.85448   0.59953538   -117.25494    7807.7338    4.3414083    4.3414083    4.3414083    7807.7338    10850.189   -4902.1957    17475.208    7209.8849    9094.3007    4752.5076    81.826108 
   17000    689.98116   -117.88201   0.62430946    -117.2577   -8149.0474    4.3490523    4.3490523    4.3490523   -8149.0474   -8921.5496   -6171.5055   -9354.0872   -792.05175   -5077.6406   -2205.3214    82.259089 
   17100    505.84039   -117.71558   0.45769501   -117.25788   -4753.4755    4.3528436    4.3528436    4.3528436   -4753.4755    525.55708   -11256.843   -3529.1406   -3661.7295   -6203.7504   -3666.1033    82.474402 
   17200    635.22287   -117.83021     0.574763   -117.25545   -5051.4651    4.3466646    4.3466646    4.3466646   -5051.4651   -9500.4457   -9724.1244    4070.1748    6275.9223    2466.3471    6038.7921    82.123679 
   17300    647.52793   -117.84372   0.58589688   -117.25782   -5804.2793    4.3481942    4.3481942    4.3481942   -5804.2793   -17629.158   -12980.647    13196.967     9169.059    8870.3616    4546.3827    82.210408 
   17400    546.36807   -117.75347   0.49436531    -117.2591    7677.3657    4.3479824    4.3479824    4.3479824    7677.3657    10798.821    3716.4401    8516.8358    906.46609   -11809.575   -2344.9092    82.198396 
   17500    663.79293   -117.85806    0.6006138   -117.25744   -12972.654    4.3546446    4.3546446    4.3546446   -12972.654   -1252.0399    -24677.74   -12988.182    1564.1076   -12196.036    6666.0761     82.57682 
   17600    411.05191   -117.62833   0.37192841    -117.2564    6960.5924    4.3424289    4.3424289    4.3424289    6960.5924    13563.687   -9850.7976    17168.888    12070.658     8182.616    2770.3719    81.883828 
   17700    722.76654   -117.91054   0.65397436   -117.25656    -8416.432    4.3490103    4.3490103    4.3490103    -8416.432   -5035.9347   -3693.1971   -16520.164    2181.1701   -4229.3019    462.34906    82.256705 
   17800    587.78046   -117.78956   0.53183612   -117.25772    4495.6195    4.3507053    4.3507053    4.3507053    4495.6195    14835.807    849.79465   -2198.7431   -6452.5506   -1589.9653   -1728.5945    82.352922 
   17900    680.81985   -117.87283    0.6160201   -117.25681    965.35785    4.3387414    4.3387414    4.3387414    965.35785    6214.9676   -10549.499    7230.6054    10101.568   -642.70979    1282.6468    81.675407 
   18000    517.25101   -117.72858   0.46801958   -117.26056   -7303.5349    4.3553549    4.3553549    4.3553549   -7303.5349   -13665.027   -2401.5082   -5844.0694    9060.7456    10069.502    5011.9722    82.617232 
   18100    710.49816   -117.89818   0.64287367   -117.25531    3612.7043    4.3479325    4.3479325    4.3479325    3612.7043    23534.687    42.108089   -12738.682   -1879.8012    3365.8972   -6324.6283    82.195562 
   18200    673.84987    -117.8627   0.60971353   -117.25298    13388.007    4.3389443    4.3389443    4.3389443    13388.007    28101.234    37.520043    12025.268    2036.7509   -11159.171    1669.6358    81.686866 
   18300    495.42546   -117.70791   0.44827137   -117.25964   -4591.9486    4.3528193    4.3528193    4.3528193   -4591.9486    14690.316    -15748.29   -12717.871    10717.293    3911.0522    2244.4953    82.473023 
   18400    535.83162   -117.74531   0.48483171   -117.26048    134.70217    4.3449144    4.3449144    4.3449144    134.70217   -2622.6933    8139.5006   -5112.7007    7954.2751    7689.9656    178.37316    82.024516 
   18500    737.06085   -117.92458   0.66690815   -117.25767    5331.2595    4.3385159    4.3385159    4.3385159    5331.2595    14179.398    5489.3963   -3675.0161   -6375.1452   -4510.3694    3236.6851    81.662672 
   18600    590.62194   -117.79219   0.53440714   -117.25778   -11979.484    4.3592364    4.3592364    4.3592364   -11979.484   -11000.283   -12621.513   -12316.656    4919.5647   -5296.2709   -259.77727    82.838318 
   18700    631.71088   -117.82723   0.57158528   -117.25564   -5250.4767    4.3431228    4.3431228    4.3431228   -5250.4767   -3510.5063   -4609.0576   -7631.8661    9170.0721    16534.581    5670.2646     81.92309 
   18800    512.75033   -117.71997   0.46394728   -117.25602    11498.702      4.33827      4.33827      4.33827    11498.702        28821    11568.042    -5892.935   -5604.9883    8062.0576   -3815.7945    81.648786 
   18900    668.80895   -117.86212   0.60515239   -117.25697   -16429.316    4.3608968    4.3608968    4.3608968   -16429.316   -2850.6432   -18673.862   -27763.443    1721.0886   -9323.4974   -1890.3126    82.933008 
   19000     631.0691   -117.82451   0.57100458    -117.2535    14365.516    4.3382508    4.3382508    4.3382508    14365.516    22471.895    9786.0792    10838.573    4325.2993    2150.1939    3734.5165      81.6477 
   19100    717.42144   -117.90569   0.64913799   -117.25655   -4554.7963    4.3468355    4.3468355    4.3468355   -4554.7963    677.08468   -2067.2238    -12274.25    4789.0264    13219.308   -3954.0804    82.133364 
   19200    605.08186   -117.80401   0.54749078   -117.25652   -9800.0935    4.3553774    4.3553774    4.3553774   -9800.0935    -428.2161   -8094.9336   -20877.131   -2152.5927   -4786.5611    2063.5133    82.618516 
   19300    630.67543   -117.82534   0.57064838   -117.25469    12544.786    4.3410225    4.3410225    4.3410225    12544.786    27085.593    11612.552    -1063.786    -3269.673   -18872.147   -3373.5381    81.804296 
   19400    811.30415   -117.98954   0.73408505   -117.25546   -5311.3021     4.350133     4.350133     4.350133   -5311.3021    11360.313   -14106.838   -13187.382    7585.0439      14714.6   -866.39358    82.320425 
   19500     495.9105   -117.70748   0.44871024   -117.25877    7695.6851    4.3455321    4.3455321    4.3455321    7695.6851    24504.805    10341.287   -11759.036   -17.493618    12215.942    2451.8104    82.059506 
   19600    701.00809   -117.89286   0.63428685   -117.25857   -8519.9711    4.3482339    4.3482339    4.3482339   -8519.9711   -10248.297    3816.0584   -19127.675   -2976.3997   -14226.766   -5346.4377    82.212661 
   19700    760.46724   -117.94337   0.68808674   -117.25529   -1693.8375    4.3500978    4.3500978    4.3500978   -1693.8375    6503.2896   -5508.2095   -6076.5927   -913.01954   -2299.5961    2409.5623    82.318425 
   19800    747.66794   -117.93283   0.67650566   -117.25632    339.12987    4.3438017    4.3438017    4.3438017    339.12987    6628.2402   -171.14725   -5439.7034    683.87924    13206.428   -2081.6414    81.961514 
   19900    457.00511   -117.67372   0.41350783   -117.26021    6096.8338    4.3458894    4.3458894    4.3458894    6096.8338    16998.103    12547.201   -11254.803    3428.0432   -4168.9029   -753.06307    82.079747 
   20000    598.98581   -117.80017   0.54197495    -117.2582   -1390.6925     4.354113     4.354113     4.354113   -1390.6925    28020.932   -18440.295   -13752.714   -5855.3457   -21320.785    1262.2313    82.546582 
   20100    762.27218   -117.94372   0.68971989     -117.254    7066.1493    4.3439053    4.3439053    4.3439053    7066.1493    11175.563   -1944.4893    11967.374   -1068.4846    6389.0592   -2116.2907     81.96738 
   20200    658.65985   -117.85389   0.59596928   -117.25792   -2547.7887    4.3433748    4.3433748    4.3433748   -2547.7887    1402.5675     4312.895   -13358.829    2661.2446    12150.055    5226.1358    81.937352 
   20300    520.55848   -117.73166   0.47101225   -117.26065   -8201.9774    4.3523364    4.3523364    4.3523364   -8201.9774   -1746.1744   -6624.3193   -16235.438   -6892.9367   -11184.952   -2361.1218    82.445579 
   20400    674.11005    -117.8679   0.60994894   -117.25795    2362.3269     4.346998     4.346998     4.346998    2362.3269    27810.545   -17220.374   -3503.1894   -3305.0398   -4882.5962   -2283.6365    82.142577 
   20500     738.9878   -117.92398   0.66865169   -117.25533    9872.9603    4.3412332    4.3412332    4.3412332    9872.9603    27418.108    6483.4751   -4282.7022    1107.5995    14761.715    2084.5373     81.81621 
   20600    631.66139   -117.83196    0.5715405   -117.26042   -17913.282    4.3557372    4.3557372    4.3557372   -17913.282    -3537.131   -13516.213   -36686.503    903.49398   -5138.3422   -5501.7215    82.638994 
   20700    526.84812   -117.73472   0.47670325   -117.25801   -749.85941    4.3463231    4.3463231    4.3463231   -749.85941     7238.782   -3721.9332    -5766.427   -5228.1799    -21376.43   -612.99593    82.104323 
   20800    890.90446   -118.06019   0.80610908   -117.25409     1052.482    4.3428254    4.3428254    4.3428254     1052.482    12282.467   -7212.2675   -1912.7533   -5598.2811    1283.8625   -1056.2441    81.906263 
   20900    674.03212    -117.8675   0.60987843   -117.25762   -4056.9824    4.3545479    4.3545479    4.3545479   -4056.9824    18085.782   -11391.983   -18864.746    461.72737    9670.6277   -881.19195    82.571315 
   21000    417.68825   -117.63722   0.37793311   -117.25929    6729.6853    4.3440944    4.3440944    4.3440944    6729.6853    32420.182     -2419.27   -9811.8563   -3679.2924   -8360.0683    644.19504    81.978082 
   21100    557.22334   -117.76343   0.50418739   -117.25924   -1938.6358    4.3501367    4.3501367    4.3501367   -1938.6358    2451.1252   -11281.521     3014.489   -11927.593   -10359.893   -2457.0827    82.320635 
   21200    811.21213   -117.98871   0.73400179    -117.2547   -2253.0036     4.347076     4.347076     4.347076   -2253.0036    1178.8291   -9872.2449    1934.4051   -338.68374    12490.087    2090.9711    82.146999 
   21300    599.39549   -117.79967   0.54234564   -117.25733   -6768.5877    4.3482508    4.3482508    4.3482508   -6768.5877   -7538.4254    455.16418   -13222.502    65.247693   -10824.808    648.66271    82.213619 
   21400    324.14256   -117.55455     0.293291   -117.26126    206.12259    4.3506139    4.3506139    4.3506139    206.12259     18411.14   -592.83898   -17199.934   -5904.6373   -22923.146    1258.6665    82.347729 
   21500    596.90787   -117.79722   0.54009478   -117.25712    10428.583    4.3441091    4.3441091    4.3441091    10428.583    27740.991    -7272.848    10817.605    3704.9762    1111.9311    3491.4736    81.978918 
   21600    686.23937   -117.87622   0.62092381   -117.25529    -4375.323    4.3547227    4.3547227    4.3547227    -4375.323    10874.154   -9331.4071   -14668.716    5254.5416    -8358.191    1302.6282    82.581262 
   21700    386.74673   -117.60778   0.34993657   -117.25784    -351.1294    4.3505713    4.3505713    4.3505713    -351.1294    4071.2633    9121.0106   -14245.662   -9.4738949   -19509.763    2395.6775    82.345311 
   21800    635.70406   -117.83005   0.57519839   -117.25485   -2112.9276    4.3430545    4.3430545    4.3430545   -2112.9276   -8383.6365     849.1768    1195.6771   -5009.6116   -2124.2653    986.49289    81.919228 
   21900    580.42126   -117.78099   0.52517736   -117.25581   -1822.7475    4.3561766    4.3561766    4.3561766   -1822.7475    9883.8424   -16379.462    1027.3771    2032.7731    8172.2214    4956.4403    82.664003 
   22000    451.17511   -117.66337   0.40823272   -117.25514    6549.3075    4.3485511    4.3485511    4.3485511    6549.3075    31875.163    4480.4046   -16707.645    -1599.677   -6723.1129    2041.8164    82.230651 
   22100     408.5623   -117.62671   0.36967575   -117.25703    5363.0181     4.343234     4.343234     4.343234    5363.0181    18834.371    8417.4238    -11162.74   -8853.2779   -11941.345   -1349.9244    81.929383 
   22200    610.78342   -117.80773   0.55264967   -117.25508    -12498.33    4.3536163    4.3536163    4.3536163    -12498.33     -13529.7   -12452.174   -11513.115    167.87425    4313.8767    3088.8935    82.518335 
   22300    602.19627   -117.80063   0.54487984   -117.25575   -2491.3136    4.3454379    4.3454379    4.3454379   -2491.3136   -8328.9243   -752.13728    1607.1209    4693.6538   -4770.1931    193.38601    82.054168 
   22400    553.21684   -117.75887   0.50056222   -117.25831    5109.2557     4.340129     4.340129     4.340129    5109.2557     16684.31    12122.026   -13478.569    5403.3139   -21789.936   -2615.5571    81.753792 
   22500    507.51447   -117.71761   0.45920976    -117.2584   -3546.0009    4.3545801    4.3545801    4.3545801   -3546.0009    6775.4602   -7870.5332   -9542.9298   -552.80746   -2511.3705    -3233.791    82.573151 
   22600    502.43818   -117.71044   0.45461662   -117.25582   -2294.5813    4.3490131    4.3490131    4.3490131   -2294.5813    11347.835   -12812.333   -5419.2459    11363.222    5668.0593    2801.6274    82.256866 
   22700    522.35203   -117.72683   0.47263509   -117.25419    13952.913    4.3362082    4.3362082    4.3362082    13952.913    22849.782    8642.1063    10366.851    8131.3164    -14311.11   -503.13348     81.53243 
   22800    668.36053   -117.85946   0.60474665   -117.25471   -11984.886    4.3572683    4.3572683    4.3572683   -11984.886    -5560.514   -7373.6484   -23020.497   -6233.0665   -2315.4047   -6904.1984    82.726169 
   22900    549.15932   -117.75415   0.49689089   -117.25726   -4369.6719    4.3443042    4.3443042    4.3443042   -4369.6719   -10280.915   -11617.613     8789.512    6883.7543    6683.6762    1481.8756    81.989962 
   23000    643.41309   -117.83979   0.58217369   -117.25762    1656.3448    4.3370589    4.3370589    4.3370589    1656.3448    2854.7183   -5471.8028    7586.1188    1181.2729   -1791.2181    2536.1936    81.580425 
   23100    413.72844   -117.63055   0.37435018    -117.2562   -3031.4538    4.3619408    4.3619408    4.3619408   -3031.4538    12129.011   -14395.605   -6827.7671   -684.92892   -10603.009   -4914.9876    82.992588 
   23200    650.96793    -117.8417   0.58900946   -117.25269    5223.2669    4.3377049    4.3377049    4.3377049    5223.2669    19903.321   -3771.9532   -461.56706    356.90992    -9420.625   -6442.0857    81.616884 
   23300    531.08742   -117.73761   0.48053906   -117.25707     632.6303    4.3435412    4.3435412    4.3435412     632.6303   -1684.8627   -8609.7583    12192.512    9907.2035    10662.645    3531.5406    81.946769 
   23400    502.03347   -117.70953   0.45425043   -117.25528   -7778.4817    4.3572556    4.3572556    4.3572556   -7778.4817    116.32268   -16449.095   -7002.6723    8775.2215   -11147.113    1354.9332    82.725443 
   23500    631.55184   -117.82438   0.57144138   -117.25294    6402.9712    4.3377177    4.3377177    4.3377177    6402.9712    9337.2033    4561.3388    5310.3715   -3246.1251   -9102.4132   -12447.016    81.617607 
   23600    615.98002    -117.8137   0.55735167   -117.25635   -3741.6052    4.3478075    4.3478075    4.3478075   -3741.6052   -6880.4549   -5019.9832    675.62236    5778.8834    8689.6508   -1123.0341    82.188473 
   23700    562.82263   -117.76423   0.50925374   -117.25497   -4800.3874    4.3531524    4.3531524    4.3531524   -4800.3874   -6067.8953   -10352.752    2019.4855    5340.0158   -3463.8161    5036.8699     82.49196 
   23800    463.58386   -117.67566   0.41946042    -117.2562    7343.7781    4.3408277    4.3408277    4.3408277    7343.7781     38523.17   -3936.4079   -12555.427    -4564.697   -763.46338     -8177.96    81.793286 
   23900    537.66306   -117.74371   0.48648884   -117.25723    5055.8045    4.3446264    4.3446264    4.3446264    5055.8045    17519.622    2618.3878   -4970.5963   -3030.2747   -5182.5662   -7626.2712    82.008205 
   24000    696.41246    -117.8855   0.63012863   -117.25537   -9758.8907    4.3534515    4.3534515    4.3534515   -9758.8907     -8095.12   -12124.685   -9056.8668    7395.6215    5721.6785    850.52761    82.508964 
   24100    486.60011   -117.69939     0.440286   -117.25911    626.82646    4.3412442    4.3412442    4.3412442    626.82646    12844.453   -10491.467   -472.50587    4701.4437   -5668.0451   -5719.5729    81.816831 
   24200    535.59578   -117.74419   0.48461832   -117.25957   -4269.4561    4.3415534    4.3415534    4.3415534   -4269.4561     11223.05    -11048.32   -12983.099   -2504.5661   -11923.446   -15435.293    81.834312 
   24300    621.52228   -117.81868   0.56236642   -117.25632   -10853.108    4.3587503    4.3587503    4.3587503   -10853.108   -8840.1605   -20770.013   -2949.1519    5540.1098     7263.655   -2843.0475    82.810606 
   24400    694.43067   -117.88199   0.62833546   -117.25365   -167.68543    4.3404536    4.3404536    4.3404536   -167.68543    2652.1678   -12573.697    9418.4731    12640.135   -1832.7874     2698.481    81.772137 
   24500    252.12947    -117.4872   0.22813204   -117.25907     11157.86     4.339734     4.339734     4.339734     11157.86    47150.442   -11842.119   -1834.7437   -1667.3947   -1561.1795   -13850.612    81.731473 
   24600    589.49765   -117.79148   0.53338986   -117.25809   -20375.624    4.3596281    4.3596281    4.3596281   -20375.624   -7123.5964   -31840.282   -22162.995   -6195.8029   -5153.9539   -4191.4232    82.860648 
   24700    734.42166   -117.91582   0.66452015    -117.2513    9982.4589    4.3400841    4.3400841    4.3400841    9982.4589    6162.4821    143.47274    23641.422    9028.9375    3165.4173    6568.0587    81.751255 
   24800    607.43197   -117.80578   0.54961721   -117.25617   -1900.5454    4.3427865    4.3427865    4.3427865   -1900.5454     8348.523   -12705.418    -1344.741   -845.12765   -1566.9027   -11894.275    81.904061 
   24900    339.76966   -117.56685   0.30743073   -117.25941   -13811.452    4.3552076    4.3552076    4.3552076   -13811.452   -1966.1639   -24295.263   -15172.929   -5221.9692   -10911.653   -5841.1431    82.608854 
   25000    701.23378   -117.89036   0.63449106   -117.25587    1703.4314     4.341461     4.341461     4.341461    1703.4314    1548.2756   -4855.3315    8417.3502    969.51733   -1907.6111    2217.4322    81.829087 
   25100    772.37378   -117.95461   0.69886003   -117.25575    9720.5337    4.3435579    4.3435579    4.3435579    9720.5337    6172.2497    3802.9629    19186.388    3170.8374   -688.05193   -4321.8052    81.947715 
   25200    347.38978   -117.57567   0.31432558   -117.26135    681.40738     4.350771     4.350771     4.350771    681.40738    25127.806   -17618.238   -5465.3452     1431.563   -1575.9426   -10463.894    82.356649 
   25300    362.88587   -117.58826   0.32834676   -117.25991   -3519.1116    4.3476909    4.3476909    4.3476909   -3519.1116     9344.382   -16880.098   -3021.6186   -8757.6957    -6999.381   -663.87258    82.181863 
   25400    827.19743   -118.00165   0.74846562   -117.25319    10082.005    4.3387088    4.3387088    4.3387088    10082.005     13722.89   -1302.1555     17825.28    4702.2433    3561.0145    8586.4587    81.673565 
   25500    652.34901   -117.85011   0.59025909   -117.25985    2296.9722    4.3499206    4.3499206    4.3499206    2296.9722    552.31038   -429.24923    6767.8556    734.29746     2936.773   -11773.151    82.308369 
   25600    307.17846   -117.54396   0.27794152   -117.26602   -9324.7092    4.3460538    4.3460538    4.3460538   -9324.7092    8460.8054    -22774.26   -13660.673   -7096.2541   -9945.4668   -8684.6661     82.08906 
   25700    589.45461   -117.79351   0.53335092   -117.26016    3699.3133    4.3353114    4.3353114    4.3353114    3699.3133    1196.6465    2341.0666    7560.2268   -2161.3465   -4149.9897    7353.6601     81.48185 
   25800     801.3119   -117.97951   0.72504385   -117.25446   -10492.926    4.3596237    4.3596237    4.3596237   -10492.926   -16690.382   -20530.067     5741.671   -4547.0858    252.69792   -3385.8756    82.860397 
   25900    546.41774   -117.75258   0.49441025   -117.25817    1646.4424    4.3380032    4.3380032    4.3380032    1646.4424    4531.7241    -625.9877    1033.5908      1703.14    5376.9284   -10522.989    81.633725 
   26000    328.63345     -117.558   0.29735445   -117.26065    4645.5339     4.336664     4.336664     4.336664    4645.5339    14891.325   -7480.9909    6526.2675   -8378.5778   -7254.0417    772.40331    81.558142 
   26100    734.91516   -117.91967   0.66496668    -117.2547   -20622.814    4.3607278    4.3607278    4.3607278   -20622.814   -15830.696   -28100.266    -17937.48   -3608.9458   -1510.7594    5683.3149    82.923368 
   26200    645.03473   -117.83558   0.58364098   -117.25194    15910.885    4.3357861    4.3357861    4.3357861    15910.885    14281.492    2279.6213    31171.542    6777.0274    9930.9366   -5795.6542    81.508619 
   26300    512.48877   -117.72109   0.46371061   -117.25738   -1328.3042    4.3410722    4.3410722    4.3410722   -1328.3042    7901.9724    -2158.037   -9728.8482   -6698.0048   -10415.505   -4521.5888    81.807103 
   26400    361.32731   -117.58586   0.32693654   -117.25892   -4421.4717    4.3539073    4.3539073    4.3539073   -4421.4717    3704.1006   -26178.745    9210.2291   -3480.0554   -5770.2428    6848.2315     82.53488 
   26500    760.35499   -117.94232   0.68798517   -117.25433    3837.2757    4.3383115    4.3383115    4.3383115    3837.2757    1372.7446   -6029.2001    16168.283    1993.0948    2252.8531   -463.00268     81.65113 
   26600    604.18231   -117.80433   0.54667685   -117.25766    5922.5992     4.343812     4.343812     4.343812    5922.5992    3277.1754   -8645.0527    23135.675    1669.5978     3852.344    -6355.091    81.962098 
   26700    504.44781   -117.71501   0.45643498   -117.25857   -11935.869    4.3511489    4.3511489    4.3511489   -11935.869   -5517.5179   -16888.594   -13401.496   -3945.3252   -6334.5309    790.29598    82.378113 
   26800    499.95679    -117.7098   0.45237141   -117.25743   -1373.6857    4.3397693    4.3397693    4.3397693   -1373.6857   -3444.3009   -14803.498    14126.742   -7161.7922   -3776.0172    7227.0792    81.733468 
   26900    690.20404   -117.88092   0.62451112   -117.25641   -667.38906    4.3432019    4.3432019    4.3432019   -667.38906   -8398.7746   -9774.5644    16171.172    7513.3123    15335.295   -2508.6476    81.927568 
   27000    644.36658   -117.83972   0.58303642   -117.25669   -8454.4969    4.3512991    4.3512991    4.3512991   -8454.4969   -2797.3063   -21752.068   -814.11679   -5608.5174   -6887.3156     214.0247    82.386645 
   27100    388.01309   -117.60994    0.3510824   -117.25885    4010.4996    4.3405426    4.3405426    4.3405426    4010.4996    8936.7468   -10004.435    13099.187   -9512.8219   -11096.858    6292.3329    81.777169 
   27200    622.71992   -117.82053   0.56345007   -117.25708    -4804.179    4.3449011    4.3449011    4.3449011    -4804.179    3992.3624   -22386.799    3981.8996    11886.607    2188.7011   -465.41992     82.02376 
   27300    570.59856    -117.7725   0.51628957   -117.25621    3793.2003    4.3499505    4.3499505    4.3499505    3793.2003    12511.101     -15787.2    14655.699    3264.9186    1888.6339    1899.6884    82.310067 
   27400    649.14988   -117.84308   0.58736446   -117.25572   -1802.1518    4.3416999    4.3416999    4.3416999   -1802.1518     8700.798    -13894.96   -212.29307    -5600.221   -2792.3025    714.16402      81.8426 
   27500    369.95341    -117.5937   0.33474162   -117.25895    -447.9086    4.3462813    4.3462813    4.3462813    -447.9086    3639.8044   -13445.747    8462.2167    6292.3808   -5517.9845    5570.6461    82.101954 
   27600    734.02238   -117.91988   0.66415887   -117.25572   -10757.814    4.3476044    4.3476044    4.3476044   -10757.814   -6374.5586   -21554.199   -4344.6835    12217.773    12667.338    56.567483    82.176956 
   27700    612.73788     -117.809   0.55441811   -117.25458    183.18532     4.347684     4.347684     4.347684    183.18532   -6121.6994    -4636.302    11307.557   -1055.8762   -718.29382   -3391.2933    82.181472 
   27800    578.41787   -117.77896   0.52336465   -117.25559   -8149.3012    4.3448751    4.3448751    4.3448751   -8149.3012   -5331.1474   -13758.531   -5358.2251   -5276.4703   -15877.136    6287.5006    82.022289 
   27900    312.42175   -117.54158   0.28268576   -117.25889    4354.0309    4.3487664    4.3487664    4.3487664    4354.0309    20078.277   -19223.185        12207    10025.078    1912.0423   -2258.4457    82.242868 
   28000    640.90568   -117.83542   0.57990493   -117.25551   -1712.8473    4.3476941    4.3476941    4.3476941   -1712.8473    15475.295   -15758.778   -4855.0587    5468.5872   -4466.1554   -2016.3347    82.182043 
   28100    460.17386   -117.67267   0.41637498    -117.2563    18552.454    4.3414075    4.3414075    4.3414075    18552.454    34632.689   -100.33561    21125.009   -10053.068   -14361.961   -473.79605    81.826061 
   28200    478.39079   -117.69184   0.43285804   -117.25898   -16327.899    4.3553086    4.3553086    4.3553086   -16327.899    -5935.495   -35271.785   -7776.4177    7728.7755   -4874.9756   -968.03219    82.614597 
   28300    431.46663   -117.64784   0.39040007   -117.25744    7009.7116     4.338276     4.338276     4.338276    7009.7116    3586.5741   -7988.7483    25431.309    15541.964    1439.6704   -2911.6307    81.649123 
   28400    799.32607   -117.98045   0.72324703   -117.25721   -4891.6334    4.3476005    4.3476005    4.3476005   -4891.6334    2711.7765   -11374.159   -6012.5183   -1380.0552    5833.1511   -5956.8294    82.176739 
   28500    525.35297   -117.73327   0.47535041   -117.25792   -3900.0495    4.3535308    4.3535308    4.3535308   -3900.0495     1459.033   -17757.438    4598.2569    4215.4982   -7469.0178    3076.0117    82.513473 
   28600    464.08615    -117.6762    0.4199149   -117.25629    9619.0176    4.3336396    4.3336396    4.3336396    9619.0176    29524.771   -14972.545    14304.827    18426.245     858.8181    286.52903    81.387624 
   28700    559.37427   -117.76336   0.50613359   -117.25723   -7198.9806    4.3574555    4.3574555    4.3574555   -7198.9806     16243.37   -26751.831    -11088.48    5365.4104     3424.426   -1945.8935    82.736829 
   28800    752.54169   -117.93579   0.68091554   -117.25488    4250.0146    4.3410324    4.3410324    4.3410324    4250.0146    18681.369   -1864.7832   -4066.5417   -1848.0399   -13839.376    2962.7809    81.804854 
   28900    524.28428   -117.73484   0.47438344   -117.26046   -3559.4199    4.3416895    4.3416895    4.3416895   -3559.4199   -7168.0426   -12037.375    8527.1575    12217.196   -9100.5172    2573.3137    81.842007 
   29000    548.42753   -117.75496   0.49622875   -117.25873   -20466.889    4.3560433    4.3560433    4.3560433   -20466.889   -20085.729   -40838.075   -476.86402    9314.4539   -2648.7699     4056.535    82.656418 
   29100    658.09707     -117.851   0.59546006   -117.25554    7962.3013    4.3409729    4.3409729    4.3409729    7962.3013    17501.826   -4916.7798    11301.858    -13950.24    4546.7973   -3038.2367    81.801493 
   29200    565.75222   -117.76819    0.5119045   -117.25628    1154.7067    4.3507705    4.3507705    4.3507705    1154.7067    10740.356   -18420.797    11144.561   -180.22107    751.64015    2824.8744    82.356619 
   29300    419.62679   -117.63696   0.37968714   -117.25727    5247.7691    4.3495282    4.3495282    4.3495282    5247.7691    26831.937   -27162.089     16073.46    15021.868    1857.2866    1459.7152    82.286095 
   29400    471.32303   -117.68343   0.42646298   -117.25697     656.8984    4.3483397    4.3483397    4.3483397     656.8984     16365.54   -33177.244    18782.399   -6442.8945    10846.419   -3941.0813    82.218657 
   29500    704.81709   -117.89249   0.63773331   -117.25476    5246.8733    4.3443585    4.3443585    4.3443585    5246.8733    9775.6222   -10652.063     16617.06   -7083.7029    -1438.801   -913.33457    81.993035 
   29600    727.33452   -117.91438   0.65810756   -117.25627   -11784.879    4.3552203    4.3552203    4.3552203   -11784.879   -15061.224   -22759.069    2465.6555    12134.601   -7543.1955    955.74676    82.609572 
   29700    604.74984   -117.80451   0.54719037   -117.25732   -7630.2214    4.3430778    4.3430778    4.3430778   -7630.2214   -8148.1352   -20303.666    5561.1371    2612.5624    -5681.542   -1764.0382    81.920545 
   29800    632.46808    -117.8322   0.57227041   -117.25993   -4277.6446    4.3457723    4.3457723    4.3457723   -4277.6446    14248.517   -27838.703    757.25212   -12058.055   -1314.5303   -5616.2721    82.073114 
   29900    766.59798   -117.95261   0.69363397   -117.25897   -5119.4552    4.3542109    4.3542109    4.3542109   -5119.4552    6440.9518   -16066.973   -5732.3447    -5353.975   -5591.0794    714.70368    82.552151 
   30000    791.74512   -117.97193   0.71638762   -117.25554    17442.876    4.3316554    4.3316554    4.3316554    17442.876    31773.416    9733.3897    10821.823    4118.4999   -8117.2549    832.61287    81.275886 
   30100    399.58988   -117.62608   0.36155733   -117.26452   -7926.9905    4.3568523    4.3568523    4.3568523   -7926.9905   -5331.5684   -33537.904    15088.501   -12296.939    8083.3224   -345.71016    82.702477 
   30200    602.42128   -117.80512   0.54508344   -117.26003    49.111304    4.3435682    4.3435682    4.3435682    49.111304   -3723.4354   -21536.277    25407.046   -13951.593    1248.7764   -4849.3805    81.948299 
   30300    755.78741   -117.93923   0.68385233   -117.25538    21484.589     4.334187     4.334187     4.334187    21484.589    8722.0283    17053.334    38678.403    7194.1115   -2549.1494    2819.7821    81.418468 
   30400    703.85318   -117.89454   0.63686115   -117.25768   -22224.486    4.3616106    4.3616106    4.3616106   -22224.486   -31549.555    -31247.26   -3876.6418   -7405.8299   -8418.1398     3146.225    82.973742 
   30500    441.97306    -117.6602   0.39990651   -117.26029    5443.0799    4.3319652    4.3319652    4.3319652    5443.0799    1813.5027   -9494.3038    24010.041   -14624.083   -1783.1973   -3137.8112    81.293322 
   30600     624.6128   -117.83044   0.56516278   -117.26527   -3312.4413    4.3440706    4.3440706    4.3440706   -3312.4413    8945.7782   -17717.565    -1165.537    3159.1527    2106.2847   -453.71716    81.976735 
   30700    836.35186   -118.01466   0.75674874   -117.25791   -12900.148    4.3551647    4.3551647    4.3551647   -12900.148   -6856.7525   -13710.599   -18133.092    3933.6199   -15280.934   -2934.9178    82.606409 
   30800    692.00832   -117.88147   0.62614367   -117.25533    13365.969    4.3301894    4.3301894    4.3301894    13365.969    15178.492    5253.4145    19665.999   -7886.5981    4975.5331   -1092.7278    81.193391 
   30900    480.14406    -117.6973   0.43444444   -117.26285   -5912.9037    4.3527939    4.3527939    4.3527939   -5912.9037    9197.8322   -30011.213    3074.6698   -8061.7751    1519.7834    80.927391    82.471579 
   31000    572.06834   -117.77661   0.51761945   -117.25899    1158.0853    4.3484073    4.3484073    4.3484073    1158.0853    9104.6356   -18799.304    13168.924    3622.0998   -555.57973    1257.9388    82.222497 
   31100    777.62961   -117.95839   0.70361562   -117.25477    16210.304    4.3325346    4.3325346    4.3325346    16210.304    18242.404    13276.858     17111.65   -357.40108   -3408.5408    944.41797    81.325386 
   31200     826.0192   -118.00488   0.74739953   -117.25748   -9143.5008    4.3534522    4.3534522    4.3534522   -9143.5008   -12134.601   -27523.214    12227.312   -9361.5163   -5388.2314    -2945.599    82.509005 
   31300    452.96215   -117.67061   0.40984968   -117.26076   -771.39189    4.3463039    4.3463039    4.3463039   -771.39189    12166.712   -20037.705     5556.817    -277.1573    1958.3715    3189.1516    82.103238 
   31400    573.56522   -117.77929   0.51897386   -117.26032    31.625742    4.3378914    4.3378914    4.3378914    31.625742    13657.551   -9590.8724   -3971.8011    6203.8393    -15615.31    5244.8192    81.627412 
   31500    856.04712   -118.03119   0.77456943   -117.25662    -5515.787    4.3508442    4.3508442    4.3508442    -5515.787   -2223.8054   -14914.277    590.72178   -4117.0033   -3196.1072   -371.17854    82.360809 
   31600    730.82046   -117.92012   0.66126171   -117.25886    505.84733    4.3442653    4.3442653    4.3442653    505.84733    18688.317   -19863.041    2692.2656   -738.31511    7755.2119     2745.458    81.987761 
   31700    384.81573   -117.61258   0.34818936   -117.26439    3016.5887    4.3400335    4.3400335    4.3400335    3016.5887    18357.747   -17002.213    7694.2324    8847.8629   -3276.8025    2067.1872    81.748394 
   31800    398.08178   -117.62467   0.36019276   -117.26447    452.78907    4.3523905    4.3523905    4.3523905    452.78907    6700.2072   -20636.659    15294.819    6865.8697   -3358.5605   -2435.5178    82.448651 
   31900    839.10652   -118.01598   0.75924121   -117.25674    8038.7007    4.3415747    4.3415747    4.3415747    8038.7007    9456.9887   -7231.9084    21891.022   -226.63978    -376.5719    1279.5991    81.835519 
   32000    618.03392    -117.8194   0.55921008   -117.26019    689.67905     4.345388     4.345388     4.345388    689.67905    5153.0062    -20331.62    17247.651    1252.3351    11331.489   -1260.7542    82.051339 
   32100    396.91753   -117.62188   0.35913932   -117.26274   -12913.327    4.3493907    4.3493907    4.3493907   -12913.327   -8921.2704   -24128.413   -5690.2989    13224.933     -10032.8   -3678.8105    82.278289 
   32200    639.50002   -117.83782   0.57863306   -117.25919   -904.17372    4.3410082    4.3410082    4.3410082   -904.17372    1350.3701    2412.7361   -6475.6274    1890.1809   -11803.603   -1026.7105    81.803489 
   32300    866.99709   -118.03951   0.78447719   -117.25503   -10837.191     4.350892     4.350892     4.350892   -10837.191   -6883.4143   -14410.113   -11218.044   -3471.6111    7980.2951    -1043.766    82.363521 
   32400     627.8378   -117.82644   0.56808083   -117.25836   -7270.6589    4.3434513    4.3434513    4.3434513   -7270.6589    360.93216   -23834.841     1661.932    7513.6014   -3551.2222    4266.1258    81.941679 
   32500     333.3707   -117.56491   0.30164081   -117.26327    1635.5677    4.3415249    4.3415249    4.3415249    1635.5677    12550.552   -16448.565    8804.7159     2578.825   -6075.1817    2016.6785    81.832701 
   32600    503.29379   -117.71977    0.4553908   -117.26438    1385.4941    4.3491592    4.3491592    4.3491592    1385.4941   -6516.8576   -9237.5605    19910.901   -5495.1463   -4533.0154   -1137.1087    82.265156 
   32700    727.99246   -117.91782   0.65870288   -117.25912    14421.285    4.3388809    4.3388809    4.3388809    14421.285    17859.348   -8685.8765    34090.385    107.32259    11842.671    6096.3795    81.683281 
   32800    520.37247   -117.73384   0.47084394     -117.263   -3596.1605    4.3507247    4.3507247    4.3507247   -3596.1605    7275.0581   -29807.644    11744.105    7961.0927    -338.6931    424.77455    82.354018 
   32900    394.67989     -117.618   0.35711466   -117.26089    -9012.741    4.3474831    4.3474831    4.3474831    -9012.741   -10277.588   -21537.884    4777.2489   -4023.2009   -10528.879   -3122.4949     82.17008 
   33000    654.21092   -117.84916   0.59194379   -117.25721    5644.5023    4.3345308    4.3345308    4.3345308    5644.5023    4736.3997    6166.7545    6030.3526   -8394.9668   -550.66122   -594.20851    81.437846 
   33100    819.19982   -117.99763   0.74122922    -117.2564   -14967.174    4.3560079    4.3560079    4.3560079   -14967.174   -8074.9673   -27109.493   -9717.0627     7927.354    3191.5388    -2997.851    82.654399 
   33200    632.86891    -117.8321   0.57263309   -117.25947   -7422.6559    4.3426225    4.3426225    4.3426225   -7422.6559   -11533.911   -18132.322    7398.2658    4956.8678   -7336.0231    840.79533    81.894785 
   33300    384.74069      -117.61   0.34812146   -117.26187    4410.2352    4.3402376    4.3402376    4.3402376    4410.2352    6538.5054   -10422.721    17114.921   -9189.9505   -9233.0351   -5494.4287    81.759928 
   33400     663.5877   -117.85918    0.6004281   -117.25875   -10899.001    4.3551149    4.3551149    4.3551149   -10899.001   -13464.005   -19395.258    162.26169   -2320.7195     5845.952   -4381.9216    82.603575 
   33500     661.7574   -117.85547     0.598772    -117.2567    19480.662    4.3339515    4.3339515    4.3339515    19480.662    11096.787    8200.1395    39145.061    7816.0341    9378.0773    4048.7147    81.405196 
   33600    571.71231   -117.77946   0.51729731   -117.26216   -4127.6896    4.3480763    4.3480763    4.3480763   -4127.6896   -2586.5465   -23450.917    13654.395   -725.92313   -2110.2911   -2354.4396    82.203721 
   33700    351.13268   -117.57981   0.31771223    -117.2621   -407.65772    4.3488894    4.3488894    4.3488894   -407.65772   -2283.8604    -2818.517    3879.4042   -10300.073   -3274.0294   -760.09351    82.249843 
   33800    619.40841   -117.81748   0.56045375   -117.25703    8001.5767    4.3377781    4.3377781    4.3377781    8001.5767    7492.1852    11239.742    5272.8031    -420.8839    10403.039   -1384.9701    81.621016 
   33900    709.65262   -117.89821    0.6421086    -117.2561   -8475.1651    4.3516147    4.3516147    4.3516147   -8475.1651   -10648.243   -19476.744    4699.4921    6870.0753    5725.9542   -208.43634    82.404569 
   34000     613.2208    -117.8136   0.55485507   -117.25875    3462.2464    4.3378474    4.3378474    4.3378474    3462.2464    6317.9619   -8149.4102    12218.188   -6735.0535    -9979.412   -1488.5739     81.62493 
   34100    445.80552   -117.66671   0.40337421   -117.26333   -2664.1796    4.3458332    4.3458332    4.3458332   -2664.1796   -2147.2847    -10524.46    4679.2063   -6138.4285    3985.7296   -6254.6911    82.076563 
   34200    559.38068   -117.76879   0.50613939   -117.26265   -4329.4385    4.3478102    4.3478102    4.3478102   -4329.4385   -15182.897    -20676.07    22870.652    7974.7295    3284.8073    3071.8086    82.188628 
   34300    747.71693   -117.93418   0.67654999   -117.25763    9596.5238    4.3374109    4.3374109    4.3374109    9596.5238    3167.6985    -10007.18    35629.053    4418.7858    3076.2503   -1335.7506     81.60029 
   34400    652.62224    -117.8492   0.59050632   -117.25869   -7938.0464    4.3527602    4.3527602    4.3527602   -7938.0464    -14574.64   -31549.243    22309.744   -9029.8528    534.40134   -4686.9835    82.469667 
   34500     570.6187   -117.77662   0.51630779   -117.26031   -272.30358    4.3377964    4.3377964    4.3377964   -272.30358   -253.47376   -5155.3782    4591.9412   -484.32861    1190.9705    2887.0968    81.622049 
   34600    544.68991   -117.75528   0.49284687   -117.26244    1709.8814    4.3407866    4.3407866    4.3407866    1709.8814    5051.1044   -15572.636    15651.175    7017.1127    12616.567    4656.5857    81.790962 
   34700    759.17819   -117.94381   0.68692038   -117.25689   -12465.111    4.3556639    4.3556639    4.3556639   -12465.111   -17757.219   -33017.479    13379.366   -8071.0002   -3521.7438    245.69446    82.634817 
   34800    702.98294   -117.89161   0.63607374   -117.25554    10537.967     4.334783     4.334783     4.334783    10537.967    12586.246   -11686.568    30714.223   -8168.9427   -1226.5545    2466.0044    81.452065 
   34900    396.26422   -117.62009   0.35854819   -117.26154    1683.3413    4.3440759    4.3440759    4.3440759    1683.3413    2303.0708   -9315.1533    12062.106    4347.6289    3592.6749   -658.49492    81.977039 
   35000    517.38354    -117.7301    0.4681395   -117.26196   -12139.915    4.3506853    4.3506853    4.3506853   -12139.915   -17638.461   -21648.347    2867.0646   -3197.7476     417.2623   -247.26636    82.351783 
   35100    736.59338   -117.92417   0.66648517   -117.25768    11749.199    4.3362423    4.3362423    4.3362423    11749.199     6781.225   -11721.704    40188.075   -12832.205    485.73678    714.97586    81.534353 
   35200    859.83013   -118.03684   0.77799237   -117.25884   -1270.6892    4.3431046    4.3431046    4.3431046   -1270.6892   -4521.4172     -11135.8    11845.149   -47.797571    1868.2091   -2560.5866    81.922063 
   35300    392.04113   -117.61966   0.35472705   -117.26494   -5727.7638    4.3490683    4.3490683    4.3490683   -5727.7638   -24748.688   -4636.7971    12202.194    1278.3734    16113.942    9013.9659    82.259996 
   35400    465.15693   -117.68588   0.42088376     -117.265   -2037.3968    4.3407268    4.3407268    4.3407268   -2037.3968   -15295.801   -16158.873    25342.484   -10010.015    2154.7085   -2277.3522    81.787579 
   35500    850.07395   -118.02954   0.76916477   -117.26037    5416.9538    4.3392015    4.3392015    4.3392015    5416.9538   -2092.5571   -12031.081    30374.499   -3798.1208   -2870.6852    -1388.251    81.701393 
   35600    742.05073   -117.93308    0.6714231   -117.26166    -7267.668    4.3504979    4.3504979    4.3504979    -7267.668   -16316.468   -10911.377    5424.8411    5797.7364    4402.7397      4179.73    82.341144 
   35700    365.73589   -117.59697   0.33092552   -117.26604   -5582.2956     4.340325     4.340325     4.340325   -5582.2956   -15097.819    -6124.315    4475.2473    -4353.443    7288.8707    -2098.239    81.764869 
   35800    499.05808   -117.71682   0.45155824   -117.26526    5386.1215    4.3394265    4.3394265    4.3394265    5386.1215    13201.816   -14911.346    17867.894   -10988.683   -2486.3705    2380.7173    81.714103 
   35900    823.96119   -118.00359    0.7455374   -117.25805   -1937.7755    4.3521199    4.3521199    4.3521199   -1937.7755   -5139.9457   -19575.819    18902.438    3369.2266    572.81692   -5801.3135    82.433278 
   36000    655.95195   -117.85296   0.59351911   -117.25944    18581.211    4.3319203    4.3319203    4.3319203    18581.211    7079.4067    3338.9451    45325.282    3796.3165    10989.189   -511.75345    81.290795 
   36100    359.69146   -117.59213   0.32545639   -117.26667    -1810.241    4.3491055    4.3491055    4.3491055    -1810.241    -12632.12   -15255.584     22456.98   -10222.671   -1746.6855    3063.0204    82.262107 
   36200    562.59378   -117.77006   0.50904668   -117.26102   -1087.2531    4.3462353    4.3462353    4.3462353   -1087.2531   -1594.7193   -19670.235    18003.195    -4294.937   -2095.6412    -5594.837    82.099346 
   36300    829.03827     -118.005   0.75013125   -117.25487    14674.446    4.3324941    4.3324941    4.3324941    14674.446    14799.741    712.86405    28510.732    2645.1976   -2305.1795   -1222.6018    81.323102 
   36400    671.79379   -117.86525   0.60785314   -117.25739   -19878.447    4.3566163    4.3566163    4.3566163   -19878.447   -27332.489   -27981.178   -4321.6753   -6977.8613    1328.4822    881.10485     82.68904 
   36500    382.30809   -117.60538   0.34592039   -117.25946    6486.4877     4.334173     4.334173     4.334173    6486.4877   -6176.1489     2367.993    23267.619    -8924.108    14.548253   -3063.0931    81.417682 
   36600    571.02983    -117.7785   0.51667979   -117.26182   -284.89612    4.3421507    4.3421507    4.3421507   -284.89612    19696.728   -17987.433   -2563.9836     2553.235   -7191.9971   -2439.6814    81.868091 
   36700      749.709   -117.93465   0.67835246    -117.2563   -9753.3296    4.3520763    4.3520763    4.3520763   -9753.3296   -12405.194   -24251.361    7396.5654    75.432614     8931.395     1377.863      82.4308 
   36800    575.13603   -117.77725   0.52039517   -117.25686    6736.1319    4.3353768    4.3353768    4.3353768    6736.1319   -3345.4421   -4648.1749    28202.013   -14651.008    1993.8218   -263.07286    81.485539 
   36900    385.19574   -117.60991    0.3485332   -117.26138   -5595.0713    4.3479089    4.3479089    4.3479089   -5595.0713    16320.425   -22679.923   -10425.715   -3744.9108    761.14948   -3995.5777    82.194223 
   37000    570.61464   -117.77556   0.51630412   -117.25926    5043.1747    4.3421987    4.3421987    4.3421987    5043.1747    17087.538   -14739.724    12781.711    5119.4713   -848.61978   -4938.4969    81.870807 
   37100      732.031   -117.91982   0.66235703   -117.25746    1150.5681    4.3437526    4.3437526    4.3437526    1150.5681    139.27277   -12561.814    15874.245   -8558.9289    -2295.965    1325.7853    81.958735 
   37200    606.90668   -117.80862   0.54914192   -117.25948    4961.1657    4.3414667    4.3414667    4.3414667    4961.1657   -700.35353   -18585.806    34169.656   -10515.094    1121.0078   -714.48761    81.829411 
   37300    438.92941   -117.65893   0.39715256   -117.26178    -554.6381    4.3442678    4.3442678    4.3442678    -554.6381     9094.396   -14358.967    3600.6562   -1000.5548   -10350.112     -11807.7    81.987903 
   37400    541.68372   -117.75135   0.49012682   -117.26122   -6973.4744    4.3447739    4.3447739    4.3447739   -6973.4744   -4553.8295   -21102.509     4735.915   -2078.7435   -2984.3878    601.33357    82.016557 
   37500    719.74984    -117.9091   0.65124478   -117.25786    1446.2265    4.3394588    4.3394588    4.3394588    1446.2265   -15173.946   -12321.315    31833.941   -13349.822    707.27577    3797.6091    81.715928 
   37600    699.53242   -117.89102   0.63295163   -117.25807   -11293.083    4.3491378    4.3491378    4.3491378   -11293.083   -12072.613   -24171.169    2364.5335   -1563.1549   -3353.1917   -5912.8733    82.263938 
   37700    445.86262   -117.66423   0.40342587   -117.26081    24.594126     4.338697     4.338697     4.338697    24.594126    9023.8373   -8456.3933    -493.6616    2503.5277   -653.13413   -1110.9578    81.672899 
   37800    583.66864   -117.78879   0.52811565   -117.26067    -7766.233    4.3422911    4.3422911    4.3422911    -7766.233    -11873.46   -22074.829    10649.591   -13588.454   -3331.2309     2266.003    81.876037 
   37900    738.62282    -117.9264   0.66832145   -117.25808   -1205.5445    4.3482584    4.3482584    4.3482584   -1205.5445   -17537.609   -13336.771    27257.746   -5370.0234    6406.9956    1073.9518    82.214048 
   38000    726.42481    -117.9141   0.65728444   -117.25682    10881.243    4.3358133    4.3358133    4.3358133    10881.243    13069.976   -5714.6547    25288.409    4751.6273   -4818.0326   -2245.4888    81.510156 
   38100    362.72706   -117.59036   0.32820307   -117.26216   -2311.3215    4.3489747    4.3489747    4.3489747   -2311.3215   -1041.4867   -21063.732    15171.254   -1975.2809   -5685.1621    3349.2027    82.254683 
   38200    552.52797   -117.76035   0.49993892   -117.26042   -3122.7326    4.3425782    4.3425782    4.3425782   -3122.7326   -2248.1503   -15422.568    8302.5209   -6125.0244    5286.9132    4449.1552    81.892275 
   38300    685.80528   -117.87863   0.62053103    -117.2581    12177.919    4.3373741    4.3373741    4.3373741    12177.919    -102.8945    8751.8366    27884.816    1035.3391    2295.5204   -2183.5289    81.598214 
   38400    732.07359   -117.92152   0.66239557   -117.25912   -10403.804     4.349296     4.349296     4.349296   -10403.804    5187.9031   -24003.147   -12396.168    3482.2823   -505.35144   -1642.1331    82.272919 
   38500    359.35543   -117.58826   0.32515235    -117.2631    6830.9102    4.3356446    4.3356446    4.3356446    6830.9102    19414.516    5123.3959   -4045.1809   -8237.0366   -3633.0791    6400.6766    81.500641 
   38600    512.76737   -117.72771   0.46396269   -117.26375   -8722.8298     4.347486     4.347486     4.347486   -8722.8298   -20706.218   -8928.1663    3465.8946   -1881.9005    9737.4053    2079.2231    82.170242 
   38700    757.73723   -117.94229   0.68561657   -117.25668   -673.01154    4.3458352    4.3458352    4.3458352   -673.01154   -10926.667   -3627.6631    12535.295    6325.8257    7423.1236   -5318.5113    82.076677 
   38800    700.71327   -117.89046   0.63402009   -117.25644    13066.659    4.3332217    4.3332217    4.3332217    13066.659    17614.712    6812.1507    14773.114   -4189.9574   -8539.1004     8403.183    81.364083 
   38900    401.98607   -117.62683   0.36372544    -117.2631   -11440.318    4.3506549    4.3506549    4.3506549   -11440.318   -23961.611   -10709.845    350.50266   -7881.8569    3591.0641    2531.0385    82.350056 
   39000    458.80653   -117.67754   0.41513779    -117.2624    3783.6033     4.341269     4.341269     4.341269    3783.6033    -14782.15    1146.9214    24986.039    2570.3627    10026.969    1165.6452    81.818232 
   39100    911.55872   -118.08109   0.82479749    -117.2563    5414.0791    4.3404992    4.3404992    4.3404992    5414.0791   -4155.8558    9878.4171    10519.676    5661.2779   -1049.0673    796.98296    81.774714 
   39200     641.1323    -117.8389   0.58010997   -117.25879   -3406.0574      4.34864      4.34864      4.34864   -3406.0574   -6521.6981   -15460.808    11764.334   -5073.9155   -6079.5014    557.91306    82.235696 
   39300    295.22397   -117.53036   0.26712485   -117.26323   -1641.9543    4.3369716    4.3369716    4.3369716   -1641.9543   -13374.475    7886.2284    562.38413   -5153.5647    10841.579    6993.2476    81.575496 
   39400    525.47072   -117.74055   0.47545695   -117.26509   -5247.2414    4.3440124    4.3440124    4.3440124   -5247.2414   -15615.343    -6668.154    6541.7731    7032.6202    10856.628   -8482.1745    81.973444 
   39500    842.58031   -118.01988   0.76238437    -117.2575   -3211.6803    4.3487909    4.3487909    4.3487909   -3211.6803    -8741.307   -10002.431    9108.6967   -1243.8465   -1866.5511   -2887.8193    82.244257 
   39600     557.5039   -117.76554   0.50444125    -117.2611    4837.2395     4.336863     4.336863     4.336863    4837.2395    2582.0933   -2237.3934    14167.018   -9008.3809    5001.5669    6596.0936     81.56937 
   39700    306.49141    -117.5414   0.27731987   -117.26408   -4961.4767    4.3451452    4.3451452    4.3451452   -4961.4767   -19040.881   -4517.5713    8674.0219     4080.146    10724.046    -3452.875    82.037587 
   39800     661.1899   -117.85707   0.59825852   -117.25881   -9278.4912    4.3494946    4.3494946    4.3494946   -9278.4912   -12262.306   -17679.723    2106.5547    1520.8282    5024.0656   -2668.5231    82.284188 
   39900    844.60748   -118.01977    0.7642186   -117.25555    10003.447    4.3349126    4.3349126    4.3349126    10003.447    601.41377    3831.0744    25577.853   -9075.7881    -7362.813   -1294.9325    81.459369 
   40000    622.82788   -117.82518   0.56354775   -117.26163   -807.67165    4.3452906    4.3452906    4.3452906   -807.67165   -8097.2782   -6547.7008    12221.964   -2280.4414    11309.344    4937.4054    82.045822 
   40100      412.247   -117.63631   0.37300975    -117.2633   -7921.4099    4.3495546    4.3495546    4.3495546   -7921.4099   -16510.432    -12715.13    5461.3323    6465.4726    9400.5027   -1219.1925    82.287593 
   40200    660.78798     -117.856   0.59789485    -117.2581    3878.3123     4.335219     4.335219     4.335219    3878.3123    7895.6255   -9263.5744    13002.886    453.45007   -7132.0886   -10345.703    81.476644 
   40300    703.18462   -117.89462   0.63625622   -117.25836    3933.6363    4.3478346    4.3478346    4.3478346    3933.6363    3766.7067   -5712.9062    13747.108   -8436.2541    7818.0117   -435.69423     82.19001 
   40400    596.66127   -117.79899   0.53987165   -117.25912   -6138.4027    4.3493913    4.3493913    4.3493913   -6138.4027   -10358.342   -13384.792    5327.9263    3843.2932    7300.8764   -530.13881    82.278325 
   40500     391.9883   -117.61433   0.35467925   -117.25965    5721.8114    4.3310346    4.3310346    4.3310346    5721.8114    17871.136    292.95004   -998.65195    7060.4855       3826.8   -8061.8593    81.240946 
   40600    561.74299   -117.77136   0.50827686   -117.26308   -7325.1688    4.3487667    4.3487667    4.3487667   -7325.1688    2157.7077   -14165.969   -9967.2456   -5691.2218   -4865.7825   -3322.0741    82.242885 
   40700    816.96783   -117.99623   0.73920966   -117.25702   -390.83078    4.3475881    4.3475881    4.3475881   -390.83078   -4256.6687   -917.31205    4001.4884    1503.4142   -2621.0856    2138.2195    82.176033 
   40800    607.43849   -117.80835   0.54962312   -117.25873    11616.919    4.3327933    4.3327933    4.3327933    11616.919    11549.499    8982.6615    14318.596    5390.8745    10579.966    -7970.431    81.339951 
   40900    403.32333   -117.62888   0.36493542   -117.26395   -11436.444    4.3500293    4.3500293    4.3500293   -11436.444   -5882.9602   -23224.451   -5201.9197    254.80324   -4275.1877   -7170.4137    82.314541 
   41000    662.59457   -117.85987   0.59952949   -117.26034   -4120.1598    4.3448198    4.3448198    4.3448198   -4120.1598   -8123.7359   -13086.273    8849.5292   -6715.9705   -2605.0726    2459.1661    82.019157 
   41100    798.00513   -117.97889   0.72205181   -117.25684    12500.458    4.3356388    4.3356388    4.3356388    12500.458    3063.0296    6822.7156    27615.629     1669.976   -35.988422    1224.7386    81.500316 
   41200    647.16413   -117.84571    0.5855677   -117.26014   -9926.9726    4.3488992    4.3488992    4.3488992   -9926.9726   -12162.455   -20667.316    3048.8538    9575.9384    1405.4368   -12496.112      82.2504 
   41300    395.75383   -117.62154   0.35808638   -117.26345   -7971.9146    4.3442105    4.3442105    4.3442105   -7971.9146     587.0385   -13600.077   -10902.705   -7147.0181    2034.7361   -8297.4031    81.984659 
   41400    590.34209   -117.79565   0.53415393    -117.2615    2356.5323     4.339334     4.339334     4.339334    2356.5323   -7744.9658    16509.841   -1695.2786   -179.41585   -12853.786    10088.234    81.708873 
   41500    809.37531   -117.99088   0.73233979   -117.25854   -1328.1898    4.3460428    4.3460428    4.3460428   -1328.1898   -3588.4381   -5212.7753     4816.644    9302.6166    1083.1435   -1740.0242    82.088438 
   41600    537.40713   -117.74729   0.48625726   -117.26103    4583.6556    4.3434265    4.3434265    4.3434265    4583.6556    5704.1936    1655.9516    6390.8218      3348.18     3875.379   -3801.2087    81.940277 
   41700    461.55976   -117.67975   0.41762897   -117.26212    -5862.511    4.3430032    4.3430032    4.3430032    -5862.511   -7061.5911   -1865.6641    -8660.278   -241.13873   -12179.647    3762.5029     81.91632 
   41800     528.0483   -117.73985    0.4777892   -117.26206    5658.1164     4.343211     4.343211     4.343211    5658.1164   -4289.9334     7761.549    13502.734    3212.6309   -5612.6986    2912.3139    81.928082 
   41900    861.11554    -118.0357   0.77915544   -117.25655    6884.7567    4.3431829    4.3431829    4.3431829    6884.7567    -753.5418     2657.618    18750.194    7015.0429    1036.6968    1060.2563    81.926491 
   42000    726.99896   -117.91857   0.65780394   -117.26077   -1706.0961    4.3430576    4.3430576    4.3430576   -1706.0961    -8345.499     595.9392    2631.2715     -6117.36   -1951.8413   -6510.9042      81.9194 
   42100     347.6732   -117.58007   0.31458201   -117.26548     1351.281     4.338814     4.338814     4.338814     1351.281   -3918.3443    12443.248   -4471.0609   -1757.2125   -10694.465    327.51365    81.679504 
   42200    584.78037   -117.79363   0.52912157    -117.2645   -5935.1284    4.3471854    4.3471854    4.3471854   -5935.1284   -14972.514    4934.8483   -7767.7194    9388.4533   -2650.0201    1439.8566    82.153201 
   42300    903.55298   -118.07506   0.81755373    -117.2575     696.3396    4.3439936    4.3439936    4.3439936     696.3396   -7583.3105    654.12253    9018.2067    2773.7299    8338.7348   -4482.9468    81.972376 
   42400    623.14931   -117.82328   0.56383859   -117.25944    1206.9996    4.3390154    4.3390154    4.3390154    1206.9996   -6338.9722    7663.1651    2296.8058   -6323.5719   -10724.031    4297.9025    81.690878 
   42500    296.47786   -117.53287    0.2682594   -117.26461   -10978.815    4.3489207    4.3489207    4.3489207   -10978.815   -17335.587   -1161.3622   -14439.496    3020.1288   -7989.4526    4287.3015     82.25162 
   42600    587.67464   -117.79379   0.53174036   -117.26205    3909.2223    4.3397298    4.3397298    4.3397298    3909.2223    -3502.821   -1995.5429    17226.031    12009.875     6197.787    5429.0675    81.731234 
   42700    815.99955   -117.99633   0.73833354     -117.258     12164.16    4.3382328    4.3382328    4.3382328     12164.16    5018.5486     8045.737    23428.194    -1312.734   -3470.4266    46.107989    81.646684 
   42800    604.67006   -117.80917   0.54711818   -117.26205   -8060.8835    4.3513898    4.3513898    4.3513898   -8060.8835   -7887.6978   -15245.195   -1049.7577     101.7254   -10816.182   -1904.0477    82.391796 
   42900    298.88494   -117.53322   0.27043737   -117.26278    1363.3788    4.3409921    4.3409921    4.3409921    1363.3788   -5479.9333      901.379    8668.6906    13048.947    1906.2497    8275.5391    81.802577 
   43000    716.34318   -117.90687   0.64816237    -117.2587     3156.731    4.3372344    4.3372344    4.3372344     3156.731    11983.943   -8687.5646    6173.8147    1332.3525    6215.7341   -4719.2159    81.590327 
   43100    841.73521   -118.01705    0.7616197   -117.25543   -8240.2136    4.3528469    4.3528469    4.3528469   -8240.2136   -8752.3611   -9703.6659   -6264.6139   -7785.8374   -2427.4493   -2705.6863     82.47459 
   43200    645.20528   -117.84433    0.5837953   -117.26053   -4710.5593    4.3377591    4.3377591    4.3377591   -4710.5593   -11337.946   -9861.2755    7067.5431    4930.0337   -1576.9425     5335.324    81.619942 
   43300    361.71314   -117.59339   0.32728565   -117.26611    180.41958    4.3390451    4.3390451    4.3390451    180.41958   -5700.0508    512.98254     5728.327    12742.616    4805.1942   -1361.1321    81.692559 
   43400    660.90315   -117.85786   0.59799906   -117.25986   -11709.954    4.3561516    4.3561516    4.3561516   -11709.954   -9594.3145   -25135.852   -399.69507   -4823.9905    7345.9401   -1519.9799    82.662581 
   43500    796.81879   -117.97452   0.72097838   -117.25354     11684.39    4.3356572    4.3356572    4.3356572     11684.39   -1110.8185   -2280.7599    38444.748   -4266.2727   -6239.3189    -98.98665    81.501354 
   43600    532.87371   -117.74175   0.48215533   -117.25959   -2281.3855    4.3436092    4.3436092    4.3436092   -2281.3855   -8725.7714   -14031.581    15913.196    14289.434   -2061.7406     4753.647    81.950619 
   43700    369.94056    -117.5967      0.33473   -117.26197   -4315.8745    4.3502855    4.3502855    4.3502855   -4315.8745    3101.7309   -17085.764    1036.4096    5104.1584    5017.2054   -1560.1777    82.329082 
   43800    755.98793   -117.94101   0.68403377   -117.25697    8581.8859    4.3362791    4.3362791    4.3362791    8581.8859     12154.85   -3427.7553    17018.563    -2633.961    -2489.114   -4194.0047    81.536428 
   43900    789.36025    -117.9714   0.71422975   -117.25717      934.665    4.3467817    4.3467817    4.3467817      934.665    4426.2535    -10441.64    8819.3815    9672.6028    2396.1879    2219.3853    82.130317 
   44000    581.99085   -117.78678   0.52659755   -117.26018   -4592.0268     4.347867     4.347867     4.347867   -4592.0268    2663.0439   -19815.575    3376.4509       9665.5    4880.1019     193.1107    82.191848 
   44100    465.79835   -117.68184   0.42146414   -117.26037    7895.9916     4.338639     4.338639     4.338639    7895.9916    5313.5939    2254.0695    16120.311   -4260.9896    14322.857   -9692.5022    81.669622 
   44200    646.33356   -117.84405   0.58481619   -117.25924    2847.9082    4.3425079    4.3425079    4.3425079    2847.9082    5870.5428   -9962.1724    12635.354    2819.7942    3183.6175   -2381.3668      81.8883 
   44300    728.53269   -117.91667   0.65919169   -117.25748   -6144.4123    4.3495901    4.3495901    4.3495901   -6144.4123   -18792.119   -20555.546    20914.428    16274.953   -6301.7416    714.38624    82.289611 
   44400    603.78533   -117.80357   0.54631765   -117.25725   -3061.9527    4.3429185    4.3429185    4.3429185   -3061.9527   -5646.5487   -6788.9133     3249.604   -911.48272    10246.045   -4395.3225    81.911531 
   44500    581.67588   -117.78435   0.52631256   -117.25804    771.32426    4.3359446    4.3359446    4.3359446    771.32426     6537.918    188.29833   -4412.2435   -2990.4816    2626.2479   -132.93042     81.51756 
   44600    621.18322   -117.82137   0.56205963   -117.25931   -15076.161    4.3535346    4.3535346    4.3535346   -15076.161   -27916.877   -22498.134    5186.5264    12740.425   -7017.6502   -2433.1618    82.513691 
   44700    765.16645    -117.9503   0.69233869   -117.25796    1742.2482    4.3375522    4.3375522    4.3375522    1742.2482   -8180.2473    604.36564    12802.626    6619.3857   -6237.1239    7043.6328    81.608266 
   44800    706.69226   -117.89779   0.63943001   -117.25836    14753.849     4.334844     4.334844     4.334844    14753.849    14417.668    1849.1542    27994.724   -2138.1816     9276.214     -3601.99    81.455504 
   44900    444.40772   -117.66274   0.40210944   -117.26063   -12710.193    4.3584379    4.3584379    4.3584379   -12710.193   -19880.575   -21800.798    3550.7947    5668.9136    3303.6766   -6714.4119    82.792805 
   45000    514.06844   -117.72389   0.46513993   -117.25875    8561.0859    4.3322742    4.3322742    4.3322742    8561.0859    19.826926    5034.6764    20628.754    12183.288   -14255.899      2135.09    81.310719 
   45100    789.27096   -117.97301   0.71414895   -117.25887    7457.4119    4.3397617    4.3397617    4.3397617    7457.4119    7059.4989   -3941.3371    19254.074   -683.73483    2860.3155   -8178.9013    81.733038 
   45200    658.92426   -117.85257   0.59620852   -117.25636   -11016.909     4.357337     4.357337     4.357337   -11016.909   -10215.168   -17167.675   -5667.8829    6.1566433    5605.4165   -4424.0615    82.730079 
   45300    335.90309   -117.56267   0.30393217   -117.25874    1708.7291    4.3312703    4.3312703    4.3312703    1708.7291      1361.74    1656.3556    2108.0916      18392.9   -11891.109   -1061.3237    81.254206 
   45400    585.01304     -117.793   0.52933209   -117.26367   -8794.4285    4.3428634    4.3428634    4.3428634   -8794.4285   -15089.508    -9757.436   -1536.3411    9330.1989   -17997.364    4510.9211    81.908414 
   45500    821.59741    -118.0025    0.7433986    -117.2591    2007.2777    4.3491859    4.3491859    4.3491859    2007.2777    -5074.156    -10476.71    21572.699   -1705.1487    2818.5609    1856.5331    82.266671 
   45600    584.94062   -117.79149   0.52926656   -117.26222    15464.593    4.3322188    4.3322188    4.3322188    15464.593    950.12677    9061.5857    36382.067    7922.5748   -2396.6914   -2393.0518      81.3076 
   45700    167.17789   -117.41824   0.15126607   -117.26697   -7688.4365    4.3558095    4.3558095    4.3558095   -7688.4365   -34290.304   -12422.608    23647.602    12668.706   -18559.955    5063.6041    82.643107 
   45800    750.51841   -117.93458   0.67908483    -117.2555     3720.374    4.3428432    4.3428432    4.3428432     3720.374   -3816.4206    23.425381    14954.117    818.43438   -1944.5939    5405.3295    81.907268 
   45900    903.04662   -118.06848   0.81709556   -117.25138     10280.04    4.3358838    4.3358838    4.3358838     10280.04    1585.9851     6558.672    22695.462    1986.4007    3431.0452    80.843103    81.514129 
   46000    395.61347   -117.62122   0.35795938   -117.26326   -14467.844    4.3514115    4.3514115    4.3514115   -14467.844   -29698.145   -12795.793   -909.59454    12844.066   -9831.7945   -5495.7396    82.393029 
   46100    365.44561   -117.59422   0.33066286   -117.26356    4171.3853    4.3374781    4.3374781    4.3374781    4171.3853     1408.352    4674.4306    6431.3733    3379.8286    -14133.45    858.83488    81.604081 
   46200    726.15413   -117.91457   0.65703952   -117.25753   -1649.8312    4.3505116    4.3505116    4.3505116   -1649.8312   -8729.6036   -12748.875    16528.985   -6676.1537    8942.6525   -3711.1339    82.341921 
   46300    668.01008   -117.86071   0.60442956   -117.25628    325.52633    4.3426021    4.3426021    4.3426021    325.52633   -11545.895   -9906.3151    22428.789    7203.8218   -1730.0397   -5181.9459    81.893627 
   46400    334.16737   -117.56276   0.30236166    -117.2604   -1429.6782    4.3420351    4.3420351    4.3420351   -1429.6782   -4165.5235   -8029.7627    7906.2516     9752.163   -20272.837   -244.17569    81.861554 
   46500    554.02405   -117.75917    0.5012926   -117.25788   -8168.6155    4.3481041    4.3481041    4.3481041   -8168.6155   -7997.7738    -12460.23   -4047.8427   -2515.7659   -452.87217    634.81878    82.205297 
   46600    781.40249   -117.96124    0.7070294   -117.25421    5650.9138    4.3367323    4.3367323    4.3367323    5650.9138    9752.9778    -11237.41    18437.174    615.96378    3901.7277    8267.0093    81.561994 
   46700    580.97226   -117.78337   0.52567591   -117.25769   -9857.4924    4.3497707    4.3497707    4.3497707   -9857.4924   -10163.501   -20513.714    1104.7381       9378.5   -10125.974   -762.78825     82.29986 
   46800     566.0798   -117.76953    0.5122009   -117.25733    71.643724    4.3400343    4.3400343    4.3400343    71.643724   -3821.7893   -2415.5283    6452.2488     3790.724   -13098.851    4518.0535    81.748445 
   46900    524.78272   -117.73293   0.47483443   -117.25809    1519.3353    4.3418541    4.3418541    4.3418541    1519.3353    7266.3942   -15124.409    12416.021   -3037.2774    6915.3348    3403.1598    81.851319 
   47000    556.77598   -117.76247   0.50378261   -117.25868   -4030.8679    4.3443774    4.3443774    4.3443774   -4030.8679   -1746.9468   -14385.203    4039.5459    6902.5658    10966.928   -260.18221    81.994107 
   47100    558.67794   -117.76354   0.50550354   -117.25804    5189.2983     4.342374     4.342374     4.342374    5189.2983   -9810.8392     1162.867    24215.867    8194.0678   -7803.6823   -1525.9964    81.880727 
   47200    573.85005   -117.77665   0.51923159   -117.25742   -5442.7759    4.3454539    4.3454539    4.3454539   -5442.7759   -2094.1893   -10654.992   -3579.1462   -491.56261   -3940.1716   -4134.8083    82.055073 
   47300    349.31122   -117.57568   0.31606413   -117.25961     8372.024     4.335348     4.335348     4.335348     8372.024    14112.522    5370.1446    5633.4057    713.02337     11039.24    1625.4688    81.483914 
   47400    554.45621   -117.76258   0.50168363   -117.26089   -13063.327    4.3534075    4.3534075    4.3534075   -13063.327   -22746.509   -20480.326    4036.8555    11109.354    2413.1156   -1831.0593    82.506461 
   47500    777.20093    -117.9613   0.70322774   -117.25807    10919.975    4.3337477    4.3337477    4.3337477    10919.975    12397.072    3349.4677    17013.385    4637.6434   -9557.1174    2183.3597    81.393713 
   47600    481.64168   -117.70003   0.43579951   -117.26423    13538.057    4.3359193    4.3359193    4.3359193    13538.057    14007.772    2333.3244    24273.073   -5000.3105    4284.7285     4754.731    81.516136 
   47700    329.76484   -117.56116   0.29837816   -117.26278   -23694.392    4.3591858    4.3591858    4.3591858   -23694.392     -22037.5   -40730.087   -8315.5879    5990.6641    12128.735    1421.7504    82.835432 
   47800    616.34547   -117.81333   0.55768233   -117.25564    22375.953    4.3218544    4.3218544    4.3218544    22375.953    21675.914    3791.5854     41660.36    6582.4235     3700.688    857.19633    80.725437 
   47900    845.88944   -118.02673   0.76537854   -117.26135   -5685.0906    4.3493004    4.3493004    4.3493004   -5685.0906   -8843.0023   -23622.081    15409.812   -5397.1582   -549.40046    1295.5164    82.273167 
   48000    386.27913   -117.61325   0.34951348   -117.26374   -13807.585    4.3507662    4.3507662    4.3507662   -13807.585   -11152.366   -27835.206   -2435.1833   -4727.6669    10330.924    1527.4262     82.35638 
   48100    389.82481   -117.60895   0.35272168   -117.25623    5737.9771    4.3232823    4.3232823    4.3232823    5737.9771    13274.927   -3973.9978     7913.002    9381.6153    13141.232    -4689.052    80.805476 
   48200    741.23216   -117.92716   0.67068243   -117.25647   -20326.381    4.3551171    4.3551171    4.3551171   -20326.381   -23468.548    -34677.49   -2833.1042    505.22047   -6685.1183   -389.81672    82.603699 
   48300    668.45879   -117.86398   0.60483556   -117.25915    7252.9905      4.33772      4.33772      4.33772    7252.9905    9950.1117   -9180.9824    20989.842   -9113.9792   -2132.1468   -701.71542    81.617735 
   48400    430.22841   -117.65134   0.38927971   -117.26206    6183.7747    4.3340453    4.3340453    4.3340453    6183.7747    10438.502    128.22827    7984.5936     5437.349    17207.976    3313.5579    81.410484 
   48500     372.0294   -117.59771   0.33662002   -117.26109   -8910.3029    4.3548112    4.3548112    4.3548112   -8910.3029   -16694.428   -22312.587    12276.106    9273.3305   -893.13515    774.97095    82.586299 
   48600    648.57291   -117.84095    0.5868424   -117.25411    9024.6852    4.3393264    4.3393264    4.3393264    9024.6852    6120.2493   -6793.1122    27746.919   -5350.5204   -11728.915    508.53109    81.708448 
   48700    699.36387   -117.88686   0.63279913   -117.25406    6379.3386    4.3361537    4.3361537    4.3361537    6379.3386   -1531.0339    267.21799    20401.832   -1964.4509    1707.4763    6309.6745    81.529356 
   48800    498.25901   -117.71129   0.45083522   -117.26045   -3088.9692    4.3452112    4.3452112    4.3452112   -3088.9692   -15888.255    681.41021    5939.9371    7629.2007    17627.269   -1983.3749    82.041323 
   48900    454.74573   -117.67363   0.41146349   -117.26217   -13031.534    4.3467951    4.3467951    4.3467951   -13031.534   -15925.475   -9380.9148   -13788.211   -2194.0844   -7090.8598    1288.2412    82.131073 
   49000    609.91563   -117.81095   0.55186448   -117.25909    5821.8826    4.3355078    4.3355078    4.3355078    5821.8826    892.02071    1613.4154    14960.212   -8241.7559   -15867.632   -1691.2733    81.492925 
   49100    783.01222   -117.96574   0.70848591   -117.25725   -3039.8085    4.3453938    4.3453938    4.3453938   -3039.8085   -14317.291   -7070.5527    12268.419   -2.1694674     16190.52   -3593.5871    82.051672 
   49200    351.64637   -117.57884   0.31817703   -117.26067   -3083.3308    4.3470347    4.3470347    4.3470347   -3083.3308   -11033.413    267.33874    1516.0813    4184.7408   -2887.3607   -486.96259    82.144657 
   49300    308.74318   -117.54025   0.27935732   -117.26089    2750.2068    4.3346824    4.3346824    4.3346824    2750.2068   -5579.1171    2093.2498    11736.488   -5676.1151   -20366.079   -5115.2056    81.446394 
   49400    618.61555   -117.81875   0.55973635   -117.25901    1155.3425    4.3446139    4.3446139    4.3446139    1155.3425    1170.1228   -12852.986    15148.891   -7205.3335   -4368.6404   -2433.6751    82.007495 
   49500    706.59385   -117.89509   0.63934096   -117.25575   -81.403137    4.3472495    4.3472495    4.3472495   -81.403137   -2677.1032   -6566.3519    8999.2457    2204.6798    1480.5171   -1540.2117    82.156836 
   49600    354.10137   -117.58126   0.32039836   -117.26086   -1048.6428     4.338385     4.338385     4.338385   -1048.6428   -10556.126    9791.4396    -2381.242   -3998.0493   -10917.232   -2918.7126    81.655278 
   49700    353.19212   -117.58105   0.31957566   -117.26148   -4887.2865    4.3441254    4.3441254    4.3441254   -4887.2865    3502.2283   -12359.608   -5804.4801   -8386.3319   -12243.448    1571.0259     81.97984 
   49800    761.03071   -117.94469   0.68859658   -117.25609   -4528.9988    4.3484282    4.3484282    4.3484282   -4528.9988     1175.931    -16366.46    1603.5328    935.58505    8456.0894    4754.7075    82.223679 
   49900    743.27368   -117.92899   0.67252964   -117.25646    7941.7196    4.3343266    4.3343266    4.3343266    7941.7196   -8224.8316    9662.9376    22387.053    945.25094    174.73619    855.00795    81.426338 
   50000    374.34081   -117.60386   0.33871143   -117.26515   -2058.0158    4.3424668    4.3424668    4.3424668   -2058.0158   -8170.4769   -8701.9443    10698.374   -4510.1698   -14459.144    1285.3001    81.885974 
   50100    349.57272   -117.58151   0.31630074   -117.26521   -10202.346    4.3510414    4.3510414    4.3510414   -10202.346      5482.97   -35964.719    -125.2885   -2394.1861   -891.08297     2684.992    82.372006 
   50200    833.28799   -118.01051   0.75397648   -117.25653    10734.854    4.3303025    4.3303025    4.3303025    10734.854    11429.979   -5888.3958    26662.979     5681.661   -165.21528    2054.7641    81.199751 
   50300    726.39716   -117.91718   0.65725942   -117.25992    -3698.299    4.3484918    4.3484918    4.3484918    -3698.299   -7146.2617   -9322.6764     5374.041    801.00785   -8951.7095   -1454.8252     82.22729 
   50400    372.42738   -117.59947   0.33698012   -117.26249   -17026.964    4.3498807    4.3498807    4.3498807   -17026.964   -6721.0553   -27556.406   -16803.432   -5171.7546   -11705.161   -1699.1199    82.306102 
   50500     477.4344   -117.69106   0.43199268   -117.25906    7163.5938      4.32653      4.32653      4.32653    7163.5938    25187.184   -8911.1786    5214.7762   -444.26652    932.71192    2092.1726    80.987718 
   50600    773.12341   -117.95873    0.6995383   -117.25919   -6084.4305    4.3516472    4.3516472    4.3516472   -6084.4305   -1351.2758   -19654.089    2752.0735     695.2687    5186.3812   -1992.1658    82.406417 
   50700    722.03987   -117.91268   0.65331685   -117.25936     4686.234    4.3419242    4.3419242    4.3419242     4686.234   -2287.6106    1344.9807    15001.332   -1054.0915   -7833.0549    1496.8413    81.855282 
   50800    312.79596   -117.54516   0.28302436   -117.26214    7964.3528    4.3340277    4.3340277    4.3340277    7964.3528    16573.019   -4065.0073    11385.046   -6609.1425   -1718.6036     6204.537    81.409493 
   50900    386.68874   -117.61249    0.3498841   -117.26261   -7803.1887    4.3503613    4.3503613    4.3503613   -7803.1887    8481.0753   -21828.031   -10062.611   -3039.0399    7814.9127   -1633.6707    82.333385 
   51000     802.0255   -117.98042   0.72568952   -117.25473    5756.3894    4.3402716    4.3402716    4.3402716    5756.3894   -2435.5766    5374.6249     14330.12   -1484.4898    9911.6044    2384.8149    81.761853 
   51100    688.50012   -117.88029   0.62296938   -117.25732    7667.4598    4.3371146    4.3371146    4.3371146    7667.4598    4455.8473    4623.0998    13923.432   -7520.2736   -6383.6855    4975.3337    81.583568 
   51200    404.71797   -117.63078   0.36619732   -117.26458   -1028.3535    4.3401405    4.3401405    4.3401405   -1028.3535    17487.542   -18660.202   -1912.4002   -2459.8097   -972.64039    849.11498    81.754441 
   51300    430.20276   -117.65384    0.3892565   -117.26458   -10310.254    4.3488419    4.3488419    4.3488419   -10310.254   -14130.663   -12774.338   -4025.7623    2034.1959    14783.698   -5983.7856    82.247149 
   51400    835.86558   -118.01521   0.75630874    -117.2589    2414.2493    4.3356142    4.3356142    4.3356142    2414.2493   -8329.7625    1284.1902     14288.32    4241.0081    3195.2078   -5698.3071    81.498928 
   51500    770.55443   -117.95757   0.69721384   -117.26036    8543.5928    4.3360569    4.3360569    4.3360569    8543.5928    5669.9975   -6522.7378    26483.519   -2568.9511   -5380.5898    3901.1661    81.523895 
   51600    446.34522   -117.66665   0.40386254   -117.26278   -24972.953    4.3551021    4.3551021    4.3551021   -24972.953   -21965.018   -30235.221   -22718.619   -2351.8756    11505.704   -2227.8156    82.602847 
   51700    434.01556   -117.65452    0.3927064   -117.26181    917.67117    4.3289402    4.3289402    4.3289402    917.67117   -8930.7751    8033.8415    3649.9471     8303.996     17663.14   -4647.5936    81.123139 
   51800    836.44473   -118.01814   0.75683277   -117.26131    -3851.754    4.3414859    4.3414859    4.3414859    -3851.754    -18136.68   -4716.9636    11298.382    2840.5848   -2316.3204    2986.0769    81.830494 
   51900    729.05528   -117.91867   0.65966453     -117.259   -10819.107       4.3513       4.3513       4.3513   -10819.107   -14154.949   -9483.2243   -8819.1493   -1949.4834   -1677.1661   -787.18191    82.386692 
   52000    401.58467   -117.62329   0.36336225   -117.25993    8462.0807    4.3268695    4.3268695    4.3268695    8462.0807    9856.3232    17450.727   -1920.8077   -2906.9919    20906.474   -5654.3029    81.006785 
   52100    472.60679   -117.69151   0.42762455   -117.26389   -9087.2524    4.3490739    4.3490739    4.3490739   -9087.2524   -12464.965   -2897.0595   -11899.732     3797.138    3446.3167   -1074.1965    82.260316 
   52200    681.09434   -117.87356   0.61626847   -117.25729    4664.0614    4.3461232    4.3461232    4.3461232    4664.0614   -8891.3106    13599.345    9284.1501   -1951.9881   -13549.774    1806.2257    82.092997 
   52300    671.73285   -117.86244     0.607798   -117.25464    15989.402    4.3311395    4.3311395    4.3311395    15989.402    17941.174    19059.363    10967.669   -8986.3222    7566.4681   -3232.4635    81.246847 
   52400    451.96575   -117.66869   0.40894811   -117.25974    -3569.881    4.3483025    4.3483025    4.3483025    -3569.881   -7026.2758   -1266.4308   -2416.9365    2539.4557    9150.1997   -5451.3629    82.216552 
   52500    506.53367   -117.71799   0.45832231   -117.25967   -1361.3624    4.3428405    4.3428405    4.3428405   -1361.3624   -17496.635    5577.1789    7835.3691    7115.2839   -12880.063    1526.0446    81.907117 
   52600    737.58529   -117.92444   0.66738267   -117.25706    6371.7576    4.3357813    4.3357813    4.3357813    6371.7576   -4626.8319    6359.8287    17382.276    2231.3201   -11214.368    2389.8019    81.508351 
   52700    808.31857   -117.98812   0.73138363   -117.25674   -6733.0682    4.3460827    4.3460827    4.3460827   -6733.0682   -13941.367   -11156.416    4898.5779   -6364.9864    9185.0445   -3325.8826    82.090701 
   52800    546.44431   -117.75446    0.4944343   -117.26003   -12272.303    4.3441451    4.3441451    4.3441451   -12272.303   -22669.596   -7299.5934   -6847.7192      9695.98    -524.1827   -1163.8747    81.980955 
   52900     523.1204   -117.73409   0.47333033   -117.26076   -8488.6418    4.3366968    4.3366968    4.3366968   -8488.6418   -24998.589    5462.4054   -5929.7417    9413.8442   -19429.029   -35.077498    81.559994 
   53000    758.94585   -117.94597   0.68671015   -117.25926   -3466.4304    4.3458448    4.3458448    4.3458448   -3466.4304   -15408.525    612.79644    4396.4371   -9241.8321    261.07735    2657.0317    82.077217 
   53100    818.38357   -117.99792   0.74049065   -117.25743   -4920.3876    4.3423546    4.3423546    4.3423546   -4920.3876    -10633.96   -289.13386   -3838.0693   -1030.8751     5079.769   -3253.7968     81.87963 
   53200    357.69576    -117.5857   0.32365064   -117.26205    4475.8906    4.3360428    4.3360428    4.3360428    4475.8906   -3711.6716    17147.963   -8.6199429     5610.535   -18223.899   -2426.6472    81.523099 
   53300    447.28821   -117.66784   0.40471578   -117.26312   -6166.8467    4.3492557    4.3492557    4.3492557   -6166.8467   -22808.405    1732.6772    2575.1877   -1725.3106   -12294.363    2214.7324    82.270631 
   53400    771.52606   -117.95649   0.69809299    -117.2584    15754.315    4.3349116    4.3349116    4.3349116    15754.315    4138.4896    16527.137    26597.318   -15163.655    2550.5768   -4275.0525     81.45931 
   53500    684.68711   -117.88008   0.61951928   -117.26056    8517.5547    4.3393557    4.3393557    4.3393557    8517.5547    6788.1123    5958.6057    12805.946   -1255.1449   -9274.3447   -4583.8293    81.710101 
   53600    391.15411   -117.61656   0.35392446   -117.26263   -11064.645    4.3503442    4.3503442    4.3503442   -11064.645   -26525.099   -2541.9155   -4126.9198    8960.9181   -20026.323    944.42253    82.332417 
   53700    569.57842   -117.77379   0.51536653   -117.25843    11978.677    4.3294545    4.3294545    4.3294545    11978.677    3430.2933     11305.35    21200.388   -4721.3707   -902.28556    2277.1319    81.152057 
   53800    820.86519   -117.99931   0.74273607   -117.25658   -3875.3337    4.3457595    4.3457595    4.3457595   -3875.3337   -12047.364    65.103161     356.2595   -6183.5475    7079.9104   -475.56964    82.072384 
   53900    713.59168    -117.9045   0.64567274   -117.25883   -6429.5087    4.3425389    4.3425389    4.3425389   -6429.5087   -12431.431    4108.3513   -10965.446    4260.8195   -13933.605   -566.60609    81.890054 
   54000    507.07156   -117.72015   0.45880901   -117.26134    3019.0895    4.3314504    4.3314504    4.3314504    3019.0895   -3344.7144    8362.9244    4039.0585     8800.112   -8805.4857    4780.0504    81.264346 
   54100    608.18214   -117.81039   0.55029598    -117.2601   -12431.415    4.3495907    4.3495907    4.3495907   -12431.415   -30276.339   -519.70385   -6498.2034    -7324.437    9824.9909     2340.927    82.289641 
   54200    726.00289   -117.91363   0.65690267   -117.25673    5376.3462    4.3380311    4.3380311    4.3380311    5376.3462    146.47916    17452.494   -1469.9349   -6787.7258    3469.8567   -5149.6374      81.6353 
   54300    686.68211   -117.87805    0.6213244   -117.25672    2515.0643    4.3363677    4.3363677    4.3363677    2515.0643    2968.4987    6528.0068   -1951.3127    6830.7698   -11734.806   -4705.6637    81.541425 
   54400    465.77834   -117.68159   0.42144603   -117.26015   -2714.9253    4.3445407    4.3445407    4.3445407   -2714.9253   -19539.203   -786.77285      12181.2   -5778.0659   -3984.7579    1949.9829    82.003351 
   54500    482.34182   -117.69779   0.43643302   -117.26135    3220.7351    4.3384212    4.3384212    4.3384212    3220.7351   -9188.9699    9017.2224    9833.9527   -10733.366    14698.904   -736.99238    81.657321 
   54600    697.82617   -117.88977   0.63140779   -117.25836    1392.7568    4.3384831    4.3384831    4.3384831    1392.7568   -1633.9839    7850.9013   -2038.6469    646.56089    880.46444   -7614.9771    81.660821 
   54700    680.59996   -117.87409   0.61582115   -117.25827   -94.942709    4.3423113    4.3423113    4.3423113   -94.942709   -5041.4734   -4309.8156    9066.4608    1686.0408   -10691.838   -2828.3443    81.877178 
   54800    465.63338    -117.6835   0.42131487   -117.26219   -9362.8025    4.3407463    4.3407463    4.3407463   -9362.8025   -23140.924   -6252.0852    1304.6016   -5776.5512     10643.22    5846.7392     81.78868 
   54900    446.99456   -117.66775   0.40445007    -117.2633   -3596.9735    4.3357019    4.3357019    4.3357019   -3596.9735   -16394.947    15021.478   -9417.4514   -7298.8167    21569.324   -1595.3196    81.503871 
   55000    835.71675   -118.01456   0.75617408   -117.25839   -8557.2398    4.3456549    4.3456549    4.3456549   -8557.2398   -8925.6704    607.94785   -17353.997    4410.1456    71.705953   -7721.6142     82.06646 
   55100    703.59113   -117.89508   0.63662404   -117.25846   -1275.6201    4.3406342    4.3406342    4.3406342   -1275.6201   -13706.011    4096.5241    5782.6265    1482.3037   -2265.1099   -582.20026    81.782345 
   55200    324.79024   -117.55658   0.29387703    -117.2627    1240.9257    4.3341882    4.3341882    4.3341882    1240.9257   -20025.479    15461.864    8286.3922   -8170.5363    21118.148    1429.4977    81.418536 
   55300    436.94381   -117.65903   0.39535594   -117.26368   -5731.1699    4.3467885    4.3467885    4.3467885   -5731.1699   -19120.507    12271.907   -10344.909   -2144.5145    13231.461   -6676.2077    82.130702 
   55400    839.41218   -118.01654   0.75951778   -117.25703    8978.8217    4.3363924    4.3363924    4.3363924    8978.8217    7472.5406    12179.389    7284.5358   -837.35468   -9376.5908   -7541.9337    81.542819 
   55500    541.88588   -117.75248   0.49030973   -117.26217    7970.0089    4.3388242    4.3388242    4.3388242    7970.0089   -9285.2182    13757.713    19437.532   -3307.1254    8169.3616    2215.6945    81.680081 
   55600    284.78564   -117.52216   0.25768003   -117.26448   -9790.1083    4.3456474    4.3456474    4.3456474   -9790.1083   -26174.471    8718.7574   -11914.612   -7337.6339    17658.182   -1498.0013    82.066035 
   55700    555.47158   -117.76231   0.50260236    -117.2597    5154.9745    4.3341907    4.3341907    4.3341907    5154.9745    4266.7575     14663.11   -3464.9435    238.03938   -1785.9047   -9188.1925    81.418676 
   55800    827.63444   -118.00508   0.74886104   -117.25622   -5803.5779    4.3446848    4.3446848    4.3446848   -5803.5779   -3405.2362   -2828.7435   -11176.754     759.6467   -2983.0149   -3272.1274     82.01151 
   55900    502.43413    -117.7147   0.45461296   -117.26008    2887.9497    4.3383036    4.3383036    4.3383036    2887.9497   -11125.747    14608.981     5180.616   -10472.857    16896.551    2542.8062    81.650681 
   56000    424.23647   -117.64528   0.38385807   -117.26143    -6304.246    4.3380907    4.3380907    4.3380907    -6304.246   -13948.913   -4355.6926   -608.13231   -1767.3698    13701.219   -5892.6255    81.638663 
   56100    536.92512   -117.74576   0.48582113   -117.25994   -8769.4542    4.3452841    4.3452841    4.3452841   -8769.4542   -5461.8304   -9991.1993   -10855.333    3126.9053    -12601.81   -16724.176    82.045453 
   56200    744.84969   -117.93084   0.67395565   -117.25689    5198.6421    4.3326352    4.3326352    4.3326352    5198.6421    1691.9293    8510.5259    5393.4712   -2137.2131    882.07172    783.96071    81.331046 
   56300    480.06116   -117.69511   0.43436942   -117.26074   -3000.6915    4.3444323    4.3444323    4.3444323   -3000.6915   -14053.757   -4877.7243    9929.4067   -10447.831    16989.407    3349.9929    81.997213 
   56400    454.82958   -117.67337   0.41153936   -117.26183   -10373.982    4.3395285    4.3395285    4.3395285   -10373.982   -6262.5468   -9030.5446   -15828.854   -3594.1919    -4303.969   -15997.566    81.719864 
   56500    509.63686   -117.72149   0.46113014   -117.26036    3612.6395     4.335568     4.335568     4.335568    3612.6395    9830.8496    15671.353   -14664.284    5533.4851   -13411.355   -8927.4096     81.49632 
   56600    738.24746   -117.92489   0.66798181   -117.25691   -7403.5237    4.3465054    4.3465054    4.3465054   -7403.5237   -11488.921   -5012.2853   -5709.3643   -7204.6188    3365.6638    2687.3802    82.114654 
   56700    510.98545   -117.72262   0.46235037   -117.26027    11829.692    4.3318739    4.3318739    4.3318739    11829.692    11728.722    17085.397    6674.9585   -7951.7697    13931.775    -4927.308    81.288182 
   56800    410.22114   -117.63424   0.37117671   -117.26306   -6680.9867    4.3432488    4.3432488    4.3432488   -6680.9867    1376.4236    -2550.868   -18868.516    2366.6225   -7614.5291    -15527.49    81.930222 
   56900    568.99045   -117.77348   0.51483452   -117.25864    617.07884    4.3434384    4.3434384    4.3434384    617.07884    -112.1447    994.10698    969.27423    4074.9276   -11571.193   -2491.3086    81.940949 
   57000    733.24882   -117.91921   0.66345894   -117.25575    13405.384    4.3315506    4.3315506    4.3315506    13405.384     8700.155    13304.468     18211.53   -2645.4803    12346.615    6320.4604    81.269983 
   57100     480.4105   -117.69444   0.43468551   -117.25976   -5148.3891    4.3456406    4.3456406    4.3456406   -5148.3891   -3385.2366   -9227.0763   -2832.8543   -10615.571    2839.5261   -13631.705     82.06565 
   57200    466.11592   -117.68306   0.42175148   -117.26131    -4909.229    4.3387256    4.3387256    4.3387256    -4909.229   -2405.3719   -3969.9775   -8352.3376    4426.8189   -14330.479    -11284.16    81.674514 
   57300    711.50495   -117.90283   0.64378463   -117.25905   -101.13753    4.3375159    4.3375159    4.3375159   -101.13753     -4420.26    9517.1336   -5400.2862    6068.7352   -9254.6784    5559.8756    81.606215 
   57400     691.2839    -117.8835    0.6254882   -117.25801   -5145.6137    4.3437451    4.3437451    4.3437451   -5145.6137   -8050.9701    -9025.953     1640.082   -12065.042    6653.6188   -1681.0234     81.95831 
   57500    474.69645   -117.68999   0.42951532   -117.26047   -3417.2221    4.3373823    4.3373823    4.3373823   -3417.2221    670.58425   -1227.4792   -9694.7714   -4766.0597    419.62407   -12846.912    81.598673 
   57600     533.4404   -117.74241   0.48266808   -117.25974   -6721.2728    4.3423282    4.3423282    4.3423282   -6721.2728   -5998.8415    711.03658   -14876.014    7713.5483   -16464.171    -6983.467    81.878136 
   57700    663.26081    -117.8568   0.60013232   -117.25667     1719.476    4.3405578    4.3405578    4.3405578     1719.476   -4116.9163   -355.46298    9630.8072    729.00813    699.90872    9111.4174    81.778028 
   57800    601.03282   -117.80151   0.54382713   -117.25768    2998.7343    4.3379474    4.3379474    4.3379474    2998.7343    7307.1326   -2170.2794    3859.3498   -12699.409     8061.864   -4498.9551    81.630576 
   57900    472.14865   -117.68755   0.42721002   -117.26034   -1898.2114    4.3415914    4.3415914    4.3415914   -1898.2114    1814.5746   -2476.3094   -5032.8995   -3190.6967   -4144.7327   -12419.767     81.83646 
   58000     559.2759   -117.76563   0.50604459   -117.25959     2590.992    4.3395001    4.3395001    4.3395001     2590.992   -1404.9864     4246.206    4931.7565     12236.82   -8529.1243    5806.2796    81.718259 
   58100    702.25433   -117.89279   0.63541447   -117.25738    -1913.133    4.3415495    4.3415495    4.3415495    -1913.133   -6068.6494   -4293.8016     4623.052   -6760.0792    -1663.386   -812.81001    81.834093 
   58200    629.59438   -117.82738   0.56967023   -117.25771    3520.7662    4.3382409    4.3382409    4.3382409    3520.7662    5051.7757   -1077.4035    6587.9264   -12750.964    4866.4879    -11408.44    81.647143 
   58300    620.84019   -117.82051   0.56174925   -117.25876   -6493.0997     4.340328     4.340328     4.340328   -6493.0997   -10472.262   -4105.1624   -4901.8747    9469.2362   -9955.5011   -3170.8237    81.765039 
   58400    545.45856   -117.75326   0.49354237   -117.25972   -3841.3668    4.3431144    4.3431144    4.3431144   -3841.3668   -15454.515    1402.1148    2528.3003    7684.3157   -11653.353    3351.5487    81.922614 
   58500    785.55412   -117.96717   0.71078588   -117.25639    2011.9217    4.3363187    4.3363187    4.3363187    2011.9217   -1491.6295   -5444.9966    12972.391   -11221.624    3142.5652    3413.8837    81.538665 
   58600      693.248   -117.88482   0.62726536   -117.25756   -484.66077    4.3413945    4.3413945    4.3413945   -484.66077   -5561.6291   -2766.8916    6874.5383   -2596.1492    1830.4503   -8839.6674     81.82533 
   58700    461.86598   -117.67933   0.41790604   -117.26143   -7275.3259    4.3427333    4.3427333    4.3427333   -7275.3259   -17313.729   -4886.9688    374.72032    14325.035   -7479.9698    734.58773     81.90105 
   58800    478.11081   -117.69479   0.43260471   -117.26218    3139.3337    4.3380909    4.3380909    4.3380909    3139.3337   -3340.2165    4279.2627     8478.955    40.343803   -7433.2608    11712.809    81.638672 
   58900     878.8456   -118.05255   0.79519797   -117.25736    1052.6326    4.3392377    4.3392377    4.3392377    1052.6326    2275.2596   -8484.4593    9367.0977   -12532.089    5873.2224   -1110.7876    81.703435 
   59000    612.34527   -117.81438   0.55406287   -117.26031   -808.83038    4.3422962    4.3422962    4.3422962   -808.83038   -11906.061    13100.358   -3620.7874    5943.1015    3109.2194    19.712531    81.876326 
   59100    399.09124   -117.62486   0.36110614   -117.26376   -9817.7105    4.3411409    4.3411409    4.3411409   -9817.7105   -20611.704     349.9189   -9191.3458    13508.604   -10792.065    2206.4502    81.810988 
   59200    667.25946   -117.86487   0.60375039   -117.26112    4566.0059    4.3368832    4.3368832    4.3368832    4566.0059    1136.8405    3990.7806    8570.3965    -4144.089   -4300.6422    7437.8621    81.570508 
   59300    972.89259   -118.13716   0.88029366   -117.25686   -405.30795    4.3425396    4.3425396    4.3425396   -405.30795    -6594.568    4510.1574    868.48678   -3963.5264    5772.4677    2871.0801    81.890091 
   59400    575.76541   -117.78534   0.52096464   -117.26437   -550.27146    4.3386068    4.3386068    4.3386068   -550.27146   -19372.305    11405.986     6315.505    11857.654   -7635.9827   -2568.0561    81.667807 
   59500    419.81065    -117.6453   0.37985349   -117.26545   -896.77243    4.3397923    4.3397923    4.3397923   -896.77243   -12310.229   -3621.8535    13241.766     9772.016   -11741.968    12764.163    81.734766 
   59600    808.94098   -117.99119    0.7319468   -117.25925    2128.3116    4.3436426    4.3436426    4.3436426    2128.3116   -190.52458    993.04324    5582.4161   -4198.7242    2373.8013    1978.4594    81.952507 
   59700    857.42171   -118.03387   0.77581318   -117.25805    8174.7107    4.3344202    4.3344202    4.3344202    8174.7107   -2644.2762    6748.0932    20420.315    3603.8832    -986.1491    -5632.549    81.431612 
   59800    486.69769   -117.70485    0.4403743   -117.26448   -1937.3257    4.3405339    4.3405339    4.3405339   -1937.3257   -16770.375    732.15437    10226.244    10858.591   -7604.2345    5994.8476    81.776676 
   59900    511.62254   -117.72641   0.46292682   -117.26348   -4499.7504    4.3442938    4.3442938    4.3442938   -4499.7504    -1888.726   -2544.9805   -9065.5448    1048.9184   -5794.5325    7166.1453    81.989373 
   60000    847.21364   -118.02321    0.7665767   -117.25664    5746.1989    4.3363326    4.3363326    4.3363326    5746.1989    11787.562   -1389.9704    6841.0054   -4290.3636    3051.4777   -1628.0992    81.539446 
   60100    703.82181   -117.89452   0.63683276   -117.25769    312.21572    4.3408153    4.3408153    4.3408153    312.21572   -7622.9288    1029.0722    7530.5038    6821.5447   -1988.2083    -7959.971     81.79258 
   60200    578.72038   -117.78392   0.52363836   -117.26029   -4289.5689    4.3407465    4.3407465    4.3407465   -4289.5689   -13836.236    1602.7746   -635.24541    9799.1944   -13550.309    10214.488    81.788695 
   60300    561.69752    -117.7697   0.50823572   -117.26146    4985.0712    4.3380471    4.3380471    4.3380471    4985.0712    7602.7481    4476.9328    2875.5327   -3611.2819     2550.835    5081.6671      81.6362 
   60400    770.36937   -117.95609   0.69704639   -117.25904    3907.6629     4.338235     4.338235     4.338235    3907.6629    9655.6029   -6207.2121    8274.5978    395.51359    64.243408   -14224.121    81.646811 
   60500    714.98206   -117.90584   0.64693079   -117.25891    2915.4542    4.3418256    4.3418256    4.3418256    2915.4542   -11933.819    11907.144    8773.0375      7891.58   -10180.943    279.90133    81.849704 
   60600    621.57117   -117.82182   0.56241066   -117.25941   -2182.0259    4.3405271    4.3405271    4.3405271   -2182.0259   -9723.9664   -635.74263    3813.6312    4606.2011   -1215.8751    10958.452    81.776295 
   60700    539.57963   -117.74839   0.48822299   -117.26017    4500.0872    4.3348549    4.3348549    4.3348549    4500.0872    17685.866   -507.08015   -3678.5244   -304.99189   -602.48472   -5400.4717    81.456113 
   60800    710.59563   -117.90246   0.64296186    -117.2595   -7570.2374    4.3445491    4.3445491    4.3445491   -7570.2374   -4918.9996   -14698.086   -3093.6262    2876.7967     3979.498   -16115.507    82.003828 
   60900    823.38008   -118.00261    0.7450116    -117.2576    1127.8004    4.3372321    4.3372321    4.3372321    1127.8004   -8700.7835   -1660.6819    13744.866    10663.842   -3178.4878    4229.2267    81.590199 
   61000    620.98316   -117.82359   0.56187861   -117.26171   -1041.2897    4.3361013    4.3361013    4.3361013   -1041.2897    4239.6905   -6754.0475    -609.5121    105.37367   -3933.3816    2039.8485    81.526396 
   61100    420.89076   -117.64471   0.38083081   -117.26388   -10542.908    4.3459675    4.3459675    4.3459675   -10542.908    7916.1303   -28033.363   -11511.492   -2712.4801    7952.3216   -19725.231     82.08417 
   61200    763.23161   -117.95081     0.690588   -117.26022    3443.1181    4.3340582    4.3340582    4.3340582    3443.1181     1110.978   -9587.6713    18806.047    8593.1048   -2787.5226   -7314.7665    81.411209 
   61300    893.01983   -118.06594   0.80802311   -117.25792     3813.562    4.3389215    4.3389215    4.3389215     3813.562    -4665.723   -7605.6148    23712.024    4792.6313   -1937.7828    5093.6165    81.685575 
   61400    476.53743   -117.69453   0.43118108   -117.26335   -10407.033    4.3465131    4.3465131    4.3465131   -10407.033    3411.8033   -25518.713   -9114.1892   -2081.6456    1774.2064   -14464.246    82.115093 
   61500    408.69181   -117.63352   0.36979294   -117.26373    1105.7191    4.3321083    4.3321083    4.3321083    1105.7191    17333.885   -17053.828    3037.1003    1963.0993    414.75056   -14456.374    81.301378 
   61600    892.74707   -118.06652   0.80777631   -117.25874   -1699.7667    4.3403007    4.3403007    4.3403007   -1699.7667   -10601.344   -5928.0907    11430.135    6941.6848    5522.3453    7289.6363    81.763497 
   61700    801.93069   -117.98486   0.72560374   -117.25926   -5896.4609    4.3454422    4.3454422    4.3454422   -5896.4609   -3495.4777   -20430.408    6236.5032    -25.17855    -3008.467   -11837.814    82.054413 
   61800    374.24845   -117.60256   0.33862786   -117.26393    2995.7299    4.3321952    4.3321952    4.3321952    2995.7299    18971.689   -12885.133    2900.6331   -1342.4694    2585.2997   -16531.096    81.306272 
   61900    537.43306   -117.74946   0.48628073   -117.26318   -3704.1419    4.3420498    4.3420498    4.3420498   -3704.1419    60.449201   -15703.184    4530.3089    5029.3255    6686.3099    5681.6082    81.862386 
   62000      819.417   -117.99937   0.74142572   -117.25795    1224.4356    4.3424626    4.3424626    4.3424626    1224.4356   -12145.765   -4093.8526    19912.925    1399.6307   -4724.6469    1446.9681    81.885734 
   62100    666.78106   -117.86299   0.60331752   -117.25967    5605.4244    4.3337658    4.3337658    4.3337658    5605.4244    13661.873   -4298.1297    7452.5294   -3608.3699   -1676.9263   -9932.3539    81.394735 
   62200    459.21671   -117.67784   0.41550893   -117.26233   -3110.3102    4.3436577    4.3436577    4.3436577   -3110.3102    5344.4847   -12291.065   -2384.3501   -1252.5606    3646.0936   -3888.8268    81.953365 
   62300    606.60713   -117.80873   0.54887088   -117.25986    1116.4541    4.3401012    4.3401012    4.3401012    1116.4541   -580.21236   -5391.4547    9321.0293    3379.3995    1316.8308    11755.798    81.752221 
   62400    700.40671   -117.89112   0.63374271   -117.25738    6400.0975    4.3354824    4.3354824    4.3354824    6400.0975   -5941.9542    10943.092    14199.155   -217.43099   -4795.1463   -5521.7446    81.491495 
   62500    586.90051   -117.79008   0.53103991   -117.25904    1429.1792    4.3428317    4.3428317    4.3428317    1429.1792    2131.6896   -10777.997    12933.846   -2729.4065   -4734.1894   -14005.415    81.906616 
   62600    563.14616   -117.76941   0.50954648   -117.25986   -2356.9447     4.339981     4.339981     4.339981   -2356.9447    2406.1938   -10398.303    921.27498    3117.7928    6677.6576    8461.7688    81.745432 
   62700    515.49874   -117.72664   0.46643409    -117.2602    4358.8851    4.3345984    4.3345984    4.3345984    4358.8851    -6937.548    14190.613    5823.5906    490.01097   -6889.6713     5564.706    81.441657 
   62800    704.78604   -117.89564   0.63770522   -117.25794   -8399.7165    4.3450254    4.3450254    4.3450254   -8399.7165   -22409.842   -5771.4453    2982.1383   -2476.5413   -13166.585   -4673.4972    82.030804 
   62900    670.28675   -117.86359   0.60648954    -117.2571    513.74806    4.3399685    4.3399685    4.3399685    513.74806    5678.5335   -10111.961    5974.6716    1114.9115    6213.9931    1461.0326    81.744723 
   63000    516.87426   -117.72706   0.46767869   -117.25939    4371.2373     4.333192     4.333192     4.333192    4371.2373    3073.1312    2100.0967    7940.4839     4265.119   -3800.4702     10044.77    81.362407 
   63100    480.85004   -117.69622   0.43508323   -117.26114   -7925.6887    4.3456874    4.3456874    4.3456874   -7925.6887   -25325.234   -5969.8655    7518.0334   -3116.5772   -12926.634    2829.8627    82.068302 
   63200    734.52545   -117.92253   0.66461407   -117.25791    1975.6182    4.3365106    4.3365106    4.3365106    1975.6182   -4196.6429   -2475.4396    12598.937   -5662.5475   -2486.6767   -6382.4173    81.549488 
   63300    691.25445   -117.88414   0.62546156   -117.25867    3015.8463     4.338295     4.338295     4.338295    3015.8463    4934.9178   -8945.0513    13057.673     6509.884    455.00971    7625.9992    81.650195 
   63400    467.41059    -117.6842   0.42292292   -117.26128   -9254.3424    4.3443151    4.3443151    4.3443151   -9254.3424   -9850.1576   -12056.487   -5856.3823    1987.6901   -7448.6126    8977.9589    81.990582 
   63500     529.2731   -117.73911   0.47889742   -117.26021    2949.8666    4.3342942    4.3342942    4.3342942    2949.8666   -5418.9188    10888.143    3380.3753   -5223.4455   -14743.372   -3223.6664    81.424512 
   63600    792.22108   -117.97464   0.71681828   -117.25782   -1547.2646    4.3419406    4.3419406    4.3419406   -1547.2646   -5411.0618   -10493.088    11262.356   -536.95542    2630.0118    6413.4852    81.856209 
   63700    642.63722   -117.84105   0.58147167   -117.25958   -524.18215    4.3410333    4.3410333    4.3410333   -524.18215    1211.8002   -6967.1983    4182.8517    6538.5916    719.55387    13315.071    81.804907 
   63800    370.66995   -117.59724   0.33538996   -117.26185     2485.241    4.3371133    4.3371133    4.3371133     2485.241   -3349.1387     9962.029    842.83254   -632.69486   -15021.335    2185.6754    81.583497 
   63900    653.76281   -117.85058   0.59153833   -117.25905   -6207.0661    4.3421693    4.3421693    4.3421693   -6207.0661   -21971.453   -75.402685    3425.6577   -8524.3189   -62.051581   -3864.9752    81.869144 
   64000    716.19467   -117.90409   0.64802799   -117.25607    3455.6059    4.3409623    4.3409623    4.3409623    3455.6059    4798.6014   -4134.5898    9702.8062    8371.3567    2229.1208    3272.4725    81.800894 
   64100    557.27742   -117.76439   0.50423632   -117.26016   -2819.3818    4.3387179    4.3387179    4.3387179   -2819.3818   -12046.554     3624.955   -36.546377    7770.7322   -10647.257    9743.2469    81.674078 
   64200    490.95574   -117.70565   0.44422707   -117.26143    2100.6813    4.3360712    4.3360712    4.3360712    2100.6813   -7576.8476    11139.943    2738.9484   -4521.3359   -12856.491   -934.04419    81.524698 
   64300    689.55433   -117.88213   0.62392325   -117.25821   -6051.3554    4.3458091    4.3458091    4.3458091   -6051.3554   -13170.153   -4649.9198   -333.99361    2090.1637    2612.2867   -3931.3198    82.075196 
   64400    631.39764   -117.82926   0.57130186   -117.25796    240.85969    4.3386594    4.3386594    4.3386594    240.85969   -3142.2052   -4460.9928    8325.7771     14479.49    3670.9321    6439.1724    81.670776 
   64500    549.73753   -117.75599   0.49741407   -117.25858    4773.7152    4.3350903    4.3350903    4.3350903    4773.7152   -7148.2614    11978.936    9490.4706    7083.4207   -15373.642    2972.5344    81.469389 
   64600     624.3373    -117.8228   0.56491351   -117.25788   -8562.2034    4.3464204    4.3464204    4.3464204   -8562.2034   -13101.026    1115.1914   -13700.776   -8721.4557   -4150.2993   -3379.2322    82.109839 
   64700    644.93591   -117.84056   0.58355156   -117.25701    2603.1744    4.3339452    4.3339452    4.3339452    2603.1744   -4646.2472   -1264.0381    13719.809    8582.8713    9883.7579   -7085.6144    81.404843 
   64800    559.46196    -117.7661   0.50621294   -117.25988   -4758.3774    4.3409325    4.3409325    4.3409325   -4758.3774   -18021.108    156.69758    3589.2777    16831.154   -8691.1678    1033.9355    81.799207 
   64900    615.75341   -117.81534   0.55714663   -117.25819   -3436.7799    4.3425242    4.3425242    4.3425242   -3436.7799   -9034.4709    7882.9254   -9158.7941   -5425.8183   -15086.892    5554.5919    81.889219 
   65000    671.29174   -117.86323   0.60739887   -117.25583    575.73861    4.3348568    4.3348568    4.3348568    575.73861   -3997.0802    5510.4874    213.80861     4052.597    2203.7151   -4652.9625    81.456224 
   65100    482.18506   -117.69586   0.43629117   -117.25957   -5995.3847    4.3425696    4.3425696    4.3425696   -5995.3847   -11420.239   -13030.271    6464.3567    18114.325    4710.1835   -3730.5207    81.891789 
   65200    584.54538   -117.78746   0.52890895   -117.25855   -2262.4128    4.3393403    4.3393403    4.3393403   -2262.4128   -9734.8553    7192.5515   -4244.9346    8011.6394   -13568.841    6327.7907    81.709231 
   65300    634.03331   -117.83135   0.57368667   -117.25767    4222.8938    4.3379142    4.3379142    4.3379142    4222.8938    7308.8817    12357.046    -6997.246   -768.58503   -11038.301    4189.1097    81.628699 
   65400    615.45567   -117.81635   0.55687722   -117.25948   -3231.9799    4.3391745    4.3391745    4.3391745   -3231.9799   -5410.8096   -6896.3917    2611.2617    6149.6483    9870.4924   -7854.9451    81.699869 
   65500      444.363   -117.66256   0.40206898   -117.26049   -3561.8305    4.3423789    4.3423789    4.3423789   -3561.8305   -6732.5886   -3085.4666   -867.43637     16063.06   -1544.3504   -6169.7139    81.881005 
   65600    670.20956   -117.86397   0.60641969   -117.25755    -2992.856    4.3402263    4.3402263    4.3402263    -2992.856   -7394.8542    10008.969   -11592.683   -3774.4691   -15022.558    8330.9652    81.759289 
   65700    669.02718    -117.8616   0.60534985   -117.25625    6016.5717    4.3360665    4.3360665    4.3360665    6016.5717    12859.553     2716.154    2474.0081    67.065048    1687.4683    5785.9738    81.524437 
   65800    599.52408   -117.80182   0.54246198   -117.25936   -7707.3952     4.341759     4.341759     4.341759   -7707.3952   -15830.632   -5743.1272   -1548.4259    16281.384    6870.6243   -9555.2205    81.845939 
   65900    485.42877   -117.69985   0.43922616   -117.26062   -717.96517    4.3401408    4.3401408    4.3401408   -717.96517   -289.23763    4409.9294   -6274.5873     2585.688   -6195.7336   -1301.8592    81.754461 
   66000     646.9046   -117.84287   0.58533288   -117.25754    1062.1513    4.3400329    4.3400329    4.3400329    1062.1513    11550.484    88.856959    -8452.887   -890.30633   -11695.957    14948.374    81.748361 
   66100    623.21586   -117.82119    0.5638988   -117.25729    4270.6817    4.3391634    4.3391634    4.3391634    4270.6817    8086.9032    3598.2477    1126.8942    4275.6004    4471.8808    477.97213    81.699238 
   66200    520.67749   -117.72984   0.47111993   -117.25872    128.66514    4.3395969    4.3395969    4.3395969    128.66514   -1540.6647   -316.58407    2243.2442    13663.203    5822.4648   -9007.5732    81.723729 
   66300    505.24167   -117.71789   0.45715328   -117.26073   -3178.2372    4.3387733    4.3387733    4.3387733   -3178.2372    717.15927   -1688.7013   -8563.1696     1944.298   -12087.328    8479.7349    81.677208 
   66400     555.7346   -117.76331   0.50284034   -117.26047     6200.117    4.3383545    4.3383545    4.3383545     6200.117    20204.233    7549.5713   -9153.4533   -4447.3852   -5295.7208    14790.531    81.653559 
   66500    760.73321   -117.94447   0.68832739   -117.25614   -5734.0715    4.3443871    4.3443871    4.3443871   -5734.0715   -7569.8366   -7734.4484   -1897.9294    17203.434    2732.8355   -2323.2309    81.994654 
   66600     519.4376   -117.72809   0.46999806    -117.2581    317.04094    4.3362466    4.3362466    4.3362466    317.04094   -26.189411    216.74944    760.56281    5604.1862   -752.97179   -5907.0467    81.534593 
   66700    477.57263   -117.69261   0.43211775   -117.26049   -9301.6032    4.3388038    4.3388038    4.3388038   -9301.6032    1293.1051   -4363.1726   -24834.742   -3090.5629   -10843.458    18038.206    81.678926 
   66800    620.71036   -117.82166   0.56163178   -117.26003    152.01011    4.3419685    4.3419685    4.3419685    152.01011    12573.023   -2551.9964   -9564.9964    2535.7799   -4278.9765    11621.537    81.857788 
   66900     856.1347   -118.03111   0.77464867   -117.25646    3101.0637    4.3361558    4.3361558    4.3361558    3101.0637    -5624.646    8813.4004    6114.4367    4290.9877    6583.7621   -9984.5017    81.529475 
   67000    439.75074    -117.6604   0.39789572    -117.2625   -6547.4446    4.3406147    4.3406147    4.3406147   -6547.4446   -1256.9541    5053.6017   -23438.982    6076.2554   -10863.242    8472.9791    81.781245 
   67100    359.22333   -117.59038   0.32503282   -117.26535   -6637.8778    4.3408609    4.3408609    4.3408609   -6637.8778    5205.7336    2541.1195   -27660.487    -7121.754   -9012.1079    18074.905    81.795159 
   67200    800.56791   -117.98364   0.72437067   -117.25927     7120.514    4.3359989    4.3359989    4.3359989     7120.514    11956.865    5818.1701    3586.5072    7012.9988    713.64875    1267.1971    81.520621 
   67300    815.92323   -117.99685   0.73826448   -117.25858     2316.067    4.3397105    4.3397105    4.3397105     2316.067   -6130.9583     17886.23   -4807.0711    9382.1886    -359.0838   -2526.9731    81.730149 
   67400    343.15791   -117.57513   0.31049649   -117.26464   -10417.963    4.3428807    4.3428807    4.3428807   -10417.963     2951.796   -11032.241   -23173.443   -4903.6867   -9224.8471    17266.355    81.909391 
   67500    465.78347   -117.68526   0.42145067   -117.26381    338.10001    4.3351293    4.3351293    4.3351293    338.10001    10978.382    534.18936   -10498.272   -919.34458   -8259.6495    10836.333    81.471585 
   67600    865.87005   -118.04169   0.78345742   -117.25823    5147.0229     4.339917     4.339917     4.339917    5147.0229   -1524.2501    12353.199    4612.1201   -3977.1849    7840.4342   -7162.4792    81.741816 
   67700    702.53742   -117.89646   0.63567062   -117.26079   -2309.6833    4.3404618    4.3404618    4.3404618   -2309.6833    644.07535    1843.4933   -9416.6185    2052.7833    650.75344    9830.8191      81.7726 
   67800     355.2207   -117.58575   0.32141115   -117.26434   -1090.6491    4.3372955    4.3372955    4.3372955   -1090.6491    10720.139    1393.2778   -15385.364   -2682.2372    -7189.759    17598.202    81.593775 
   67900    647.67669   -117.84674   0.58603148   -117.26071   -4008.2171    4.3416435    4.3416435    4.3416435   -4008.2171   -4751.5256     5347.279   -12620.405   -6601.2851    3666.6779   -310.55445     81.83941 
   68000    805.02664   -117.98525   0.72840502   -117.25684    7454.8148    4.3370536    4.3370536    4.3370536    7454.8148    1192.9996    21771.379   -599.93426    6022.2449    7640.9338   -1702.7594    81.580123 
   68100    657.63311   -117.85458   0.59504025   -117.25954   -5913.6252    4.3402081    4.3402081    4.3402081   -5913.6252    4303.4318   -4933.2665   -17111.041   -2877.6375   -279.25592    22497.343    81.758265 
   68200    458.16806   -117.67654   0.41456009   -117.26198    -1169.166    4.3391024    4.3391024    4.3391024    -1169.166    3602.3734    5331.4732   -12441.345   -4628.7549   -6381.2375    10515.536    81.695792 
   68300    689.21276   -117.88326   0.62361419   -117.25965   -492.61577    4.3380064    4.3380064    4.3380064   -492.61577   -4319.4285    7420.4089   -4578.8277   -2806.0795    11233.805   -11652.162    81.633906 
   68400    669.27241   -117.86345   0.60557174   -117.25788    956.56315    4.3418287    4.3418287    4.3418287    956.56315   -1118.0158    10356.868   -6369.1626   -940.48721     11663.04    8175.9143    81.849879 
   68500    699.71004   -117.89159   0.63311235   -117.25848   -2584.8105    4.3370385    4.3370385    4.3370385   -2584.8105    8453.5823   -6443.0389   -9764.9749    3728.1905   -10227.756    13793.843    81.579273 
   68600    480.72796   -117.69618   0.43497276   -117.26121    676.84954    4.3394007    4.3394007    4.3394007    676.84954   -225.29507    8807.3615   -6551.5178   -8863.2221   -1079.5209   -3937.4906    81.712646 
   68700      632.734   -117.83345   0.57251102   -117.26094   -6281.2582    4.3404954    4.3404954    4.3404954   -6281.2582   -9625.5719    8791.7691   -18009.972   -1783.6856    18009.442   -8905.2968    81.774502 
   68800    759.54095   -117.94512   0.68724862   -117.25787    4838.7979    4.3367628    4.3367628    4.3367628    4838.7979    10241.607    8199.9241   -3925.1373    1072.2616    7669.0398    10353.382    81.563719 
   68900     730.9095   -117.91914   0.66134228    -117.2578   -1346.4702    4.3428241    4.3428241    4.3428241   -1346.4702    4864.1371   -2107.9742   -6795.5735   -6393.1384   -7110.3855    12005.682    81.906187 
   69000    460.56797   -117.67765   0.41673157   -117.26092   -2442.7801    4.3397034    4.3397034    4.3397034   -2442.7801   -6950.3186    17415.575   -17793.597   -3955.5301    9663.3214   -8659.3434    81.729744 
   69100    590.42216   -117.79496   0.53422638   -117.26073    4509.2521    4.3354895    4.3354895    4.3354895    4509.2521    1388.0139    11306.722    833.01992   -3925.1635    17369.391   -2323.5181    81.491893 
   69200    900.78422   -118.07178   0.81504849   -117.25673    288.58124    4.3429881    4.3429881    4.3429881    288.58124    4823.1756    -3505.373   -452.05885     7115.603   -2620.6289    6986.1008    81.915466 
   69300    605.43376   -117.80858   0.54780919   -117.26077    2044.7083    4.3396433    4.3396433    4.3396433    2044.7083   -735.70058     9295.251   -2425.4256   -2545.6141    404.29375    1014.6865    81.726352 
   69400    361.30024    -117.5916   0.32691205   -117.26469   -3759.7439     4.338166     4.338166     4.338166   -3759.7439   -7193.4117    9324.2426   -13410.063    -8418.163    18136.368   -11215.204    81.642914 
   69500    736.05791   -117.92666   0.66600067   -117.26066   -2861.1316    4.3421532    4.3421532    4.3421532   -2861.1316    1814.1749   -173.43399   -10224.136    3509.8741    3529.5611   -6984.4985    81.868232 
   69600    953.12755   -118.11825   0.86240984   -117.25584    643.39174    4.3397395    4.3397395    4.3397395    643.39174     8648.957   -2768.1454   -3950.6364   -981.17153    -4098.206    7548.3904    81.731787 
   69700    435.71459   -117.65791   0.39424371   -117.26367   -2413.4249    4.3396334    4.3396334    4.3396334   -2413.4249    -2100.246    13746.283   -18886.312   -2378.2592     11917.02   -5071.8744    81.725791 
   69800    395.53619   -117.62305   0.35788946   -117.26516   -4586.2511    4.3401521    4.3401521    4.3401521   -4586.2511     5635.362    3755.7409   -23149.856   -5231.3426    11874.552   -11674.224    81.755098 
   69900    793.91241   -117.97827   0.71834863   -117.25993    4199.9214    4.3405561    4.3405561    4.3405561    4199.9214    12134.986   -374.62844    839.40608    4622.9714   -3078.2109   -460.52359    81.777932 
   70000    788.48583   -117.97289   0.71343855   -117.25945    4572.6222    4.3396779    4.3396779    4.3396779    4572.6222     3722.653    3446.0921    6549.1215    4676.2672    70.194525    5521.8059    81.728304 
   70100    310.45978   -117.54675   0.28091053   -117.26584    540.73357     4.340841     4.340841     4.340841    540.73357    6804.8099     6806.583   -11989.192   -7126.6602    16847.469   -10501.491    81.794037 
   70200    421.89813   -117.64507    0.3817423   -117.26333     -2929.34    4.3421388    4.3421388    4.3421388     -2929.34    6247.0269   -7282.4895   -7752.5573    2327.0411    4586.7394   -12106.674    81.867419 
   70300    812.46311   -117.99155   0.73513369   -117.25641    1334.3721    4.3388254    4.3388254    4.3388254    1334.3721   -307.82657   -6851.0476    11161.991     6312.878   -4575.3927    4379.8355    81.680151 
   70400    668.43828   -117.86352     0.604817    -117.2587   -1855.6907    4.3407943    4.3407943    4.3407943   -1855.6907    2265.0072   -3645.0671   -4187.0121    1389.3742    9524.6524   -4400.1544    81.791397 
   70500    399.29897   -117.62389    0.3612941    -117.2626   -8527.8646    4.3412333    4.3412333    4.3412333   -8527.8646   -1172.6975     380.5064   -24791.403   -4481.1033    10733.841   -14662.566    81.816213 
   70600    466.09539    -117.6835   0.42173291   -117.26177   -753.98249    4.3382896    4.3382896    4.3382896   -753.98249   -2354.9342    945.81392   -852.82721    6516.8624   -92.955406   -5094.0683    81.649894 
   70700    752.52241   -117.93857   0.68089809   -117.25767   -3577.6416    4.3418431    4.3418431    4.3418431   -3577.6416   -6577.4327   -4722.9802    567.48813    13937.445   -5493.3948    6104.0321    81.850697 
   70800    554.13246   -117.76022    0.5013907   -117.25883   -173.12139    4.3412164    4.3412164    4.3412164   -173.12139   -5383.4671     5844.644   -980.54106    -7000.799    11847.662   -6248.0883    81.815259 
   70900    317.25431   -117.54851   0.28705837   -117.26146    1625.4252    4.3381927    4.3381927    4.3381927    1625.4252    804.43621    1837.4275    2234.4119   -2115.6947    7888.9122   -12566.874    81.644423 
   71000    515.44658   -117.72735    0.4663869   -117.26096   -213.73131    4.3381239    4.3381239    4.3381239   -213.73131    2409.2874   -12591.509    9541.0274    9961.9988   -9251.6454    6801.3295    81.640538 
   71100     615.6313   -117.81607   0.55703614   -117.25903    1185.0545    4.3420043    4.3420043    4.3420043    1185.0545    2010.1929   -6328.4754     7873.446    4009.1695    754.53359    2459.7178     81.85981 
   71200    625.30815   -117.82549   0.56579195    -117.2597   -5361.2453    4.3390904    4.3390904    4.3390904   -5361.2453    3966.1647   -9078.9514   -10970.949   -4347.4696    5746.6787   -14690.923    81.695114 
   71300    355.71809   -117.58366   0.32186121   -117.26179     2513.587    4.3386415    4.3386415    4.3386415     2513.587    24516.603    -17606.07    630.22766     1688.655    2741.6782   -11137.881    81.669765 
   71400    606.78808   -117.80812   0.54903461   -117.25908   -10766.032    4.3426585    4.3426585    4.3426585   -10766.032   -9066.7123   -16143.451    -7087.932    15272.501   -8195.8844    8571.2531    81.896822 
   71500    612.75092   -117.81278   0.55442991   -117.25836    2308.4508     4.335744     4.335744     4.335744    2308.4508    9896.4695   -2136.6551   -834.46195      255.253   -3880.8608   -4917.9587    81.506245 
   71600    545.40113   -117.75396    0.4934904   -117.26047   -4640.1869    4.3415128    4.3415128    4.3415128   -4640.1869    8670.0729   -16276.245   -6314.3884     -2574.59    11277.803   -20585.177    81.832015 
   71700     404.4927   -117.62687    0.3659935   -117.26088   -1517.3466    4.3417593    4.3417593    4.3417593   -1517.3466   -7100.1236   -4743.1281    7291.2118    10144.039   -4992.7902    5399.4315    81.845959 
   71800    535.65775   -117.74354   0.48467439   -117.25886    248.17146    4.3375745    4.3375745    4.3375745    248.17146   -8417.1716    3204.1644    5957.5216    5648.4961   -11062.568    5999.8718    81.609524 
   71900    621.86629   -117.81924   0.56267768   -117.25656    -4201.252    4.3424043    4.3424043    4.3424043    -4201.252    6842.5397     -13999.7   -5446.5959   -1515.4577    1.4900421   -12197.217    81.882438 
   72000    570.55495   -117.77476   0.51625011   -117.25851    1986.2098    4.3369264    4.3369264    4.3369264    1986.2098    5642.0525   -6226.6191    6543.1959    2294.4847    7758.3686   -10215.971    81.572945 
   72100    493.40355   -117.70679    0.4464419   -117.26035   -2494.8866    4.3403069    4.3403069    4.3403069   -2494.8866   -5213.1368   -4083.0251    1811.5021    15316.913   -1282.1946    3559.5612    81.763845 
   72200    570.01413   -117.77512   0.51576077   -117.25936   -3613.4582    4.3418535    4.3418535    4.3418535   -3613.4582    4685.5894   -12149.348   -3376.6164    3367.9655   -13638.713   -628.88927    81.851283 
   72300    735.92256   -117.92303    0.6658782   -117.25715   -597.78287    4.3374043    4.3374043    4.3374043   -597.78287    10661.174   -9092.8831   -3361.6391   -5431.9392    6810.5952    -17291.92    81.599916 
   72400    505.84332   -117.71639   0.45769767   -117.25869    2450.4587    4.3416431    4.3416431    4.3416431    2450.4587    7183.0686   -7042.2198    7210.5273    9194.7807    9068.7052    -2123.197    81.839385 
   72500    561.83825   -117.76757   0.50836305   -117.25921   -5077.3292    4.3401312    4.3401312    4.3401312   -5077.3292   -6475.8719   -7457.5995   -1298.5161    7216.0948   -11027.568    4418.3002    81.753916 
   72600    542.50717   -117.75021   0.49087189   -117.25934    1439.0945    4.3370353    4.3370353    4.3370353    1439.0945    9222.4909   -3884.6647   -1020.5428   -3356.0942   -7640.7308   -5801.6658    81.579093 
   72700    647.93834   -117.84538   0.58626823   -117.25911     -5661.21     4.341172     4.341172     4.341172     -5661.21    2881.8107   -15572.072   -4293.3683   -3035.9239    3359.4444   -9445.5757    81.812746 
   72800    537.95699   -117.74685   0.48675479   -117.26009   -760.07213    4.3402633    4.3402633    4.3402633   -760.07213   -9063.4784   -841.22256    7624.4846    8006.6765    4996.5896    2236.0473    81.761381 
   72900    611.55149   -117.81162   0.55334464   -117.25828   -2981.1808    4.3375012    4.3375012    4.3375012   -2981.1808   -4978.3048    3161.4517   -7126.6892    5619.9243   -6891.8356    6404.6413    81.605389 
   73000    552.33308   -117.75871   0.49976258   -117.25895   -6871.8781    4.3426225    4.3426225    4.3426225   -6871.8781     4766.036   -19877.547   -5504.1227   -9114.8383   -2976.5072    -14233.38    81.894785 
   73100    515.40798   -117.72582   0.46635198   -117.25947    1149.4974    4.3399676    4.3399676    4.3399676    1149.4974   -2648.4957   -6165.2747    12262.262    17.577868    12487.307   -8564.0743    81.744673 
   73200    696.65863   -117.88718   0.63035137   -117.25683     4952.397    4.3360196    4.3360196    4.3360196     4952.397    348.76415    7076.2422    7432.1847    7411.8956   -109.72093    1906.5218    81.521792 
   73300    549.69666   -117.75611   0.49737709   -117.25874   -775.87035    4.3437411    4.3437411    4.3437411   -775.87035    8404.1401   -17234.253    6502.5022   -3343.3465   -5066.2931   -2727.3568    81.958083 
   73400    447.06988   -117.66606   0.40451823   -117.26154   -7959.2317    4.3400423    4.3400423    4.3400423   -7959.2317    2559.8865   -18030.201   -8407.3811   -8223.2218    5013.1919    -12601.65    81.748897 
   73500    524.22517   -117.73524   0.47432995   -117.26091    8379.2141    4.3329074    4.3329074    4.3329074    8379.2141    3305.8366    8988.9063    12842.899   -906.60683    16162.026   -3199.8545     81.34638 
   73600    854.17887    -118.0288     0.772879   -117.25592    -11439.05    4.3487626    4.3487626    4.3487626    -11439.05   -5769.4254   -15496.718   -13051.006    3962.4369    4096.5101    6994.7405     82.24265 
   73700    507.74518   -117.71978   0.45941851   -117.26036   -4592.0609    4.3387373    4.3387373    4.3387373   -4592.0609    8769.0714   -17075.459   -5469.7948   -9263.8624   -6175.1297    -6335.881    81.675174 
   73800    336.62595   -117.56743   0.30458623   -117.26285    2697.8131    4.3316242    4.3316242    4.3316242    2697.8131    357.28173   -1499.1611    9235.3188   -10007.608    17756.313   -6245.3689    81.274126 
   73900    668.54904   -117.86533   0.60491722   -117.26042   -8433.4678    4.3490015    4.3490015    4.3490015   -8433.4678   -17607.127   -9222.4701    1529.1938    1658.1802    12915.195   -2710.2375    82.256205 
   74000     805.0373   -117.98471   0.72841467    -117.2563    7328.2872    4.3351143    4.3351143    4.3351143    7328.2872    8916.8408   -1834.6695     14902.69   -3369.1341   -5551.7333    1243.9371    81.470738 
   74100    394.84428    -117.6203    0.3572634   -117.26304   -4598.8737    4.3391751    4.3391751    4.3391751   -4598.8737   -3016.6741   -11150.814    370.86725   -8188.5538    6045.9149   -9911.6272    81.699899 
   74200    319.07424   -117.55238   0.28870507   -117.26368   -4856.4952    4.3440376    4.3440376    4.3440376   -4856.4952   -9248.4852   -7684.9931    2363.9929   -5501.3999    19700.417   -6854.1558    81.974868 
   74300    803.88263    -117.9843   0.72736989   -117.25693    5767.9224    4.3353473    4.3353473    4.3353473    5767.9224    5868.5165    10047.234     1388.017    3985.3938    6082.1937    4627.3439    81.483877 
   74400    702.37564   -117.89461   0.63552424   -117.25908   -2472.9864    4.3414742    4.3414742    4.3414742   -2472.9864    419.54081   -8093.9911      255.491    -781.6581   -9750.4099   -5935.2618    81.829832 
   74500    211.42583   -117.45635   0.19130253   -117.26504    3765.5562    4.3393972    4.3393972    4.3393972    3765.5562     6391.313    1296.2434    3609.1123   -8835.3612    16770.541    -1075.529    81.712448 
   74600    440.48876   -117.66109   0.39856349   -117.26252   -1732.3741    4.3409467    4.3409467    4.3409467   -1732.3741   -6063.0549    4080.8019   -3214.8694    2784.1715    14385.778    -1619.781     81.80001 
   74700      767.109   -117.94994   0.69409635   -117.25584    2136.2318    4.3381263    4.3381263    4.3381263    2136.2318    1907.7272    4292.8282    208.14009    2402.7112    -13809.24    2891.9393    81.640673 
   74800    584.57042   -117.78867   0.52893161   -117.25974   -2541.8639    4.3398817    4.3398817    4.3398817   -2541.8639    3616.3316   -3121.3445   -8120.5788   -5971.3548    5595.0941   -1696.6418     81.73982 
   74900    264.79979   -117.50296   0.23959642   -117.26337   -3177.1629    4.3416861    4.3416861    4.3416861   -3177.1629   -12680.238    2802.5276    346.22164   -6814.7929    24287.708   -10627.209    81.841816 
   75000    595.40904   -117.79816   0.53873861   -117.25942   -1243.3147    4.3365804    4.3365804    4.3365804   -1243.3147   -4822.7266    4441.7556   -3348.9732    954.54082    2526.0763    3988.3669    81.553425 
   75100    730.10303    -117.9169   0.66061256   -117.25629   -6034.6253    4.3433547    4.3433547    4.3433547   -6034.6253   -6170.5427   -5578.4037   -6354.9294    2699.0337    -13415.75   -1766.7945    81.936215 
   75200    500.56564   -117.71299   0.45292231   -117.26007   -236.41136    4.3368542    4.3368542    4.3368542   -236.41136   -5542.5505    3945.1663    888.15008   -10619.907    14799.545   -5388.8929    81.568873 
   75300    300.61759   -117.53542   0.27200511   -117.26341   -955.88091    4.3392787    4.3392787    4.3392787   -955.88091   -5704.1444    2811.3516    25.150098   -510.78586     17684.92   -5557.0614    81.705755 
   75400    611.76169   -117.81309   0.55353483   -117.25956   -7018.3276    4.3418241    4.3418241    4.3418241   -7018.3276    2452.8193   -8257.2965   -15250.506    6400.1513   -17249.896   -1667.6304    81.849621 
   75500    679.05981   -117.87056   0.61442759   -117.25614   -3001.1914    4.3394167    4.3394167    4.3394167   -3001.1914    2464.1571   -896.60964   -10571.122   -3994.7488    36.578543    7721.8156     81.71355 
   75600    362.28018   -117.58775   0.32779872   -117.25995    -3014.117    4.3416559    4.3416559    4.3416559    -3014.117   -11364.249    5326.7436   -3004.8459   -2904.7987    21959.887   -5881.0028    81.840108 
   75700    474.38618   -117.68816   0.42923458   -117.25892   -269.45379     4.335566     4.335566     4.335566   -269.45379    939.03915   -485.52198   -1261.8786    1714.6955    992.35657   -2473.2235     81.49621 
   75800    604.65835   -117.80536   0.54710758   -117.25825    -6118.065    4.3434527    4.3434527    4.3434527    -6118.065   -1897.2503   -5836.7366   -10620.208    4167.3359   -10542.966     7603.055    81.941761 
   75900    612.74605   -117.81294   0.55442551   -117.25851   -1131.9006    4.3372217    4.3372217    4.3372217   -1131.9006   -1661.2273    4087.5927   -5822.0673   -4693.5653    8122.3023    2641.6432     81.58961 
   76000    402.16868   -117.62474   0.36389067   -117.26085    8273.8666    4.3384594    4.3384594    4.3384594    8273.8666   -1631.0031    3743.1831     22709.42    -3888.183     15922.12   -5881.7785     81.65948 
   76100    538.21424    -117.7457   0.48698755   -117.25871   -7065.6962    4.3447047    4.3447047    4.3447047   -7065.6962   -6004.9713   -9388.2408   -5803.8766    6768.4965   -10045.118   -2978.3033    82.012642 
   76200    556.07382   -117.75959   0.50314728   -117.25644      7278.47    4.3319683    4.3319683    4.3319683      7278.47    19851.099     2094.582   -110.27091   -1485.0644    -5768.181     12213.01      81.2935 
   76300    586.87395   -117.79002   0.53101588   -117.25901   -4296.2755    4.3438881    4.3438881    4.3438881   -4296.2755   -1445.1478    -10960.32     -483.359   -5407.9858    12008.698    2423.0934    81.966405 
   76400    500.65274   -117.71229   0.45300112   -117.25928    4379.1885    4.3387811    4.3387811    4.3387811    4379.1885   -340.51553    1129.6221    12348.459    617.71616    4262.8441   -10376.777    81.677645 
   76500     468.3133   -117.68349   0.42373971   -117.25975   -1655.2492     4.335447     4.335447     4.335447   -1655.2492    20892.242   -15577.239   -10280.751    2401.4407   -5302.7842    10149.973    81.489498 
   76600    517.68751   -117.72665   0.46841454   -117.25824   -10741.895    4.3472278    4.3472278    4.3472278   -10741.895    3418.6859   -20073.976   -15570.395   -1817.3384    513.48523    17528.009    82.155606 
   76700    647.52341   -117.84121   0.58589279   -117.25532    11129.178     4.333786     4.333786     4.333786    11129.178    861.44484    636.01262    31890.076   -3603.1052    13474.581   -5385.0641    81.395872 
   76800    494.73412   -117.70748   0.44764583   -117.25984   -2170.5317    4.3382131    4.3382131    4.3382131   -2170.5317    4990.6152   -14652.027    3149.8173    6118.5226   -1901.8835   -3998.9977    81.645574 
   76900    307.72165   -117.54151   0.27843302   -117.26308   -11325.115    4.3444776    4.3444776    4.3444776   -11325.115    10324.475   -28939.461    -15360.36    3126.9969   -5073.4314    17205.866    81.999782 
   77000    722.84587   -117.91215   0.65404614   -117.25811    1018.5731    4.3370322    4.3370322    4.3370322    1018.5731    4031.8263   -8757.1884    7781.0813   -2516.5244    4237.0855    8228.3484    81.578916 
   77100    791.10982   -117.97225   0.71581279   -117.25644    5333.3311    4.3379744    4.3379744    4.3379744    5333.3311   -2038.2697   -6205.7743    24244.037    6864.7984   -654.81207   -4682.0998    81.632097 
   77200    281.86137    -117.5197   0.25503409   -117.26467    -4848.844    4.3403591    4.3403591    4.3403591    -4848.844    8090.4246   -22702.221    65.264774    4309.1959    -3459.974    11224.671      81.7668 
   77300    375.66684   -117.60582   0.33991125   -117.26591   -11817.949    4.3424775    4.3424775    4.3424775   -11817.949    4126.2661   -27557.529   -12022.583   -90.675212   -8861.2996    17736.576    81.886577 
   77400    832.49319   -118.01179   0.75325733   -117.25854     14408.35    4.3338033    4.3338033    4.3338033     14408.35    3915.7926    3190.4281    36118.829    190.70091    2083.3201    -4562.013    81.396848 
   77500    755.38192   -117.94519   0.68348544    -117.2617    -8164.302    4.3428636    4.3428636    4.3428636    -8164.302   -6153.4461   -20159.078    1819.6179     2837.692    2931.3179    5816.3715    81.908425 
   77600    154.53843   -117.40842   0.13982962   -117.26859   -13186.546    4.3409977    4.3409977    4.3409977   -13186.546    7393.9823   -22295.133   -24658.488    2068.5486   -7821.2855    22654.035    81.802892 
   77700    564.95844    -117.7776   0.51118627   -117.26641    3827.7421    4.3331591    4.3331591    4.3331591    3827.7421    12012.833   -11303.373    10773.766   -3478.9571   -40.660849   -718.61203    81.360556 
   77800    939.05568   -118.10681   0.84967732   -117.25713   -2447.8514      4.34687      4.34687      4.34687   -2447.8514   -11625.903    -10726.76    15009.109   -612.38005    451.80164   -6527.3096    82.135321 
   77900    487.62027   -117.70354   0.44120907   -117.26233    4515.4809    4.3355664    4.3355664    4.3355664    4515.4809    6886.5976   -2480.0254    9139.8705    86.024238    212.04849    17248.477    81.496233 
   78000    367.48407   -117.59702   0.33250731   -117.26451   -10295.112    4.3406418    4.3406418    4.3406418   -10295.112    7084.2151   -28250.851      -9718.7     549.5946   -6489.7404    13925.067    81.782776 
   78100    701.09421   -117.89337   0.63436478     -117.259    977.40309    4.3408575    4.3408575    4.3408575    977.40309   -390.07946   -9205.9278    12528.216   -2402.9938   -3639.5858   -7220.5537    81.794968 
   78200    802.00225   -117.98227   0.72566849   -117.25661   -1337.6251    4.3386595    4.3386595    4.3386595   -1337.6251   -4907.2896    -2549.215    3443.6295   -1396.4807    10066.659    4510.7386    81.670778 
   78300    476.55418   -117.69234   0.43119624   -117.26115   -8402.8862     4.341517     4.341517     4.341517   -8402.8862    8071.6498   -18998.419   -14281.889    2708.1127   -3231.8752    18575.766    81.832257 
   78400    496.30942   -117.70996    0.4490712   -117.26089    4426.5537    4.3359529    4.3359529    4.3359529    4426.5537    13699.249   -8416.7373    7997.1489   -2384.3873   -2709.1852   -2941.0072    81.518028 
   78500    609.35692   -117.80964   0.55135895   -117.25828   -5375.6095    4.3472534    4.3472534    4.3472534   -5375.6095   -12364.964   -14639.658    10877.794   -3771.0041    9678.6477   -9768.2735    82.157058 
   78600    603.66984   -117.80393   0.54621316   -117.25772    3225.5298    4.3342169    4.3342169    4.3342169    3225.5298     7566.487   -3971.9811    6082.0835   -888.43904    7628.1367    13476.554    81.420153 
   78700    573.86232    -117.7788   0.51924269   -117.25956   -915.37215    4.3393966    4.3393966    4.3393966   -915.37215    12299.466   -9042.2789   -6003.3036    5951.7021    -4166.673    8917.9224    81.712414 
   78800    534.82553   -117.74208   0.48392138   -117.25816   -9465.9434    4.3472736    4.3472736    4.3472736   -9465.9434   -5567.3936   -23082.069    251.63295   -2312.6078   -3371.9673   -11260.434    82.158202 
   78900    566.27889   -117.76914   0.51238104   -117.25676     5341.433    4.3308235    4.3308235    4.3308235     5341.433    4779.8159   -370.78839    11615.271    -8803.484    20448.136   -793.38575    81.229063 
   79000     696.2643    -117.8874   0.62999457    -117.2574   -5276.3574    4.3438083    4.3438083    4.3438083   -5276.3574    1114.0008   -12126.548   -4816.5251    1637.3261     1466.882    10071.975    81.961885 
   79100    654.21059   -117.84981   0.59194349   -117.25787   -912.49294    4.3415926    4.3415926    4.3415926   -912.49294    1414.5489   -10530.094    6378.0666   -1858.5323   -12920.385    1452.9813     81.83653 
   79200    403.05082   -117.62525   0.36468885   -117.26056    2868.6602    4.3342971    4.3342971    4.3342971    2868.6602     834.4491    -7121.015    14892.546   -10431.667    11527.387   -8370.9755    81.424675 
   79300    565.51548   -117.77326   0.51169029   -117.26157   -7127.9948    4.3411205    4.3411205    4.3411205   -7127.9948   -13252.269   -5593.9774   -2537.7375   -4535.6051    15626.463    -1705.881    81.809837 
   79400    818.10051   -117.99684   0.74023454    -117.2566    1507.2796    4.3407288    4.3407288    4.3407288    1507.2796     844.7609   -500.92275    4178.0007    1893.1973   -2614.9138    6042.0352    81.787695 
   79500    495.24905   -117.70966   0.44811175   -117.26155    336.15392     4.338637     4.338637     4.338637    336.15392    5882.1275   -5254.6355    380.96971   -1556.0403   -4546.5517   -6346.3706    81.669512 
   79600    311.98051   -117.54661   0.28228652   -117.26432     519.4406    4.3356179    4.3356179    4.3356179     519.4406    2805.6072    88.461604    -1335.747   -6137.7942     21819.87   -5075.6594    81.499137 
   79700    643.95121   -117.84257   0.58266059   -117.25991   -5207.8991    4.3475201    4.3475201    4.3475201   -5207.8991   -5639.9196   -3835.8304   -6147.9473   -49.350054    9328.7282    851.58354    82.172179 
   79800    842.74348   -118.01954   0.76253201     -117.257    5675.3757    4.3340059    4.3340059    4.3340059    5675.3757    5488.6512    3208.3574    8329.1184    4802.3226   -18187.827   -1603.2255    81.408266 
   79900    305.07233   -117.54117   0.27603585   -117.26514    9368.2587    4.3342252    4.3342252    4.3342252    9368.2587    3256.5796    10610.401    14237.796   -6717.9312    12149.418   -3324.6435    81.420624 
   80000     384.2225   -117.61243   0.34765259   -117.26478   -18122.199    4.3502209    4.3502209    4.3502209   -18122.199   -27687.482   -15679.705   -10999.411   -8834.0412      20481.4   -8039.0178    82.325416 
   80100    798.17082   -117.97834   0.72220173   -117.25614    12492.305    4.3297568    4.3297568    4.3297568    12492.305    11451.862    4507.4665    21517.588    1309.0807   -3777.9833    3853.2858    81.169061 
   80200    730.55744    -117.9206   0.66102373   -117.25958    2179.2238    4.3412847    4.3412847    4.3412847    2179.2238   -1130.7584   -1057.9173    8726.3472   -410.23118   -2667.4561    1176.8499    81.819121 
   80300    229.97018   -117.47332   0.20808185   -117.26524   -4811.5391    4.3440194    4.3440194    4.3440194   -4811.5391   -4395.2591   -5406.4483   -4632.9098   -8261.0828    18577.922   -10472.786     81.97384 
   80400     433.2956   -117.65528   0.39205496   -117.26323    2942.1891    4.3313407    4.3313407    4.3313407    2942.1891    11755.808   -7310.7229    4381.4826   -6619.6757    14778.235   -788.02397    81.258171 
   80500    884.09807   -118.05806   0.79995052   -117.25811   -4824.1479     4.343286     4.343286     4.343286   -4824.1479    2731.0579   -17205.899    2.3977254     3038.512   -11907.483    1992.7255    81.932328 
   80600    553.74109   -117.76252   0.50103658   -117.26148    691.63167    4.3415948    4.3415948    4.3415948    691.63167    3861.3028   -2222.6774    436.26965   -769.44815     8244.515   -2255.7826    81.836655 
   80700     273.1516   -117.51193   0.24715331   -117.26478   -10517.146     4.336381     4.336381     4.336381   -10517.146   -9031.1769   -10205.712   -12314.551   -11247.012     23294.14   -9402.3893    81.542177 
   80800    576.13878   -117.78386   0.52130248   -117.26255   -6322.0081    4.3393909    4.3393909    4.3393909   -6322.0081     1221.031   -21247.938    1060.8831   -837.42514   -2270.6123    1356.0597    81.712089 
   80900    917.35818   -118.08723   0.83004496   -117.25719    -5134.074    4.3429685    4.3429685    4.3429685    -5134.074   -3264.6515   -14260.225     2122.654    3235.3009     3313.995    9058.8825    81.914358 
   81000    480.87568   -117.69966   0.43510642   -117.26456       3861.6    4.3337632    4.3337632    4.3337632       3861.6   -868.38443    3861.2107    8591.9738   -5574.7247    14026.778   -9286.4545    81.394588 
   81100    293.57527   -117.53219   0.26563307   -117.26656   -4918.9613    4.3405119    4.3405119    4.3405119   -4918.9613    4763.2239   -18896.859   -623.24879   -9603.4334    11522.855   -1086.4793    81.775434 
   81200    689.24388   -117.88291   0.62364235   -117.25927   -6407.7166    4.3477325    4.3477325    4.3477325   -6407.7166    12122.481   -24888.125   -6457.5056   -3022.9643   -5317.7336    7884.3148    82.184223 
   81300    753.35172   -117.93621   0.68164847   -117.25456    12652.701    4.3310833    4.3310833    4.3310833    12652.701     14080.31    6780.5502    17097.242    1513.7885    2636.1821   -1153.6945    81.243685 
   81400    415.18105   -117.63756   0.37566454    -117.2619   -4391.7211    4.3409859    4.3409859    4.3409859   -4391.7211    3161.1029   -9875.2867   -6460.9794   -8662.1171    19031.848   -5785.3712    81.802228 
   81500    414.14636   -117.63761   0.37472833   -117.26288   -7487.1978    4.3432292    4.3432292    4.3432292   -7487.1978    8150.8058   -20914.493   -9697.9065   -7841.9056   -1171.7331    2877.5823    81.929113 
   81600    754.03082   -117.94024   0.68226293   -117.25798    2383.6052    4.3340039    4.3340039    4.3340039    2383.6052    4142.5437   -2786.1435    5794.4154     5085.265   -4800.0528    9779.1802    81.408153 
   81700    640.54108   -117.83905   0.57957503   -117.25948   -1107.3163    4.3424312    4.3424312    4.3424312   -1107.3163   -9865.8848    1520.7077    5023.2284    3815.3572    5665.9422   -4138.4189    81.883959 
   81800    569.34324   -117.77413   0.51515373   -117.25898   -5764.1573    4.3414709    4.3414709    4.3414709   -5764.1573   -694.67434   -8498.4054   -8099.3922   -5570.0602    9629.6633    -4097.343    81.829647 
   81900    570.36698   -117.77289   0.51608003   -117.25681   -2104.5424    4.3391337    4.3391337    4.3391337   -2104.5424    5007.8288   -13501.599     2180.143    377.69375   -4978.2559    3423.4393    81.697563 
   82000    647.75995   -117.84315   0.58610682   -117.25704    477.86063    4.3377718    4.3377718    4.3377718    477.86063    825.35478   -4369.9372    4978.1644    10506.591   -14670.725    3375.4696    81.620659 
   82100    630.48534   -117.83001   0.57047639   -117.25953    4792.7044      4.33925      4.33925      4.33925    4792.7044    8750.5211   -34.258282    5661.8502    2200.4711    9951.1563   -2804.1488    81.704134 
   82200    626.48251   -117.82605   0.56685454   -117.25919    1687.8059    4.3404701    4.3404701    4.3404701    1687.8059     16374.01   -11445.776    135.18427    -3607.453    7044.3151   -4711.8518    81.773073 
   82300    557.03356   -117.76345   0.50401567   -117.25944   -1466.0269    4.3384846    4.3384846    4.3384846   -1466.0269    12806.006   -12379.514    -4824.573    4754.3984   -14761.894    2802.2103    81.660904 
   82400    542.69363   -117.75057    0.4910406   -117.25953   -3119.8258    4.3420334    4.3420334    4.3420334   -3119.8258   -11284.832    -1986.953    3912.3076    9804.0319   -7240.1141    1190.7999    81.861458 
   82500    759.96223    -117.9439    0.6876298   -117.25627     3393.586    4.3364161    4.3364161    4.3364161     3393.586    1387.4911    4034.5361    4758.7309      1030.94    10163.637   -4099.3556    81.544157 
   82600    656.93914    -117.8536   0.59441234   -117.25919   -2398.3229    4.3383731    4.3383731    4.3383731   -2398.3229    8903.5769   -8355.5346   -7743.0111   -6748.8702    1103.4641   -3804.4022    81.654608 
   82700     409.4117   -117.63299   0.37044431   -117.26254   -7277.2438    4.3422266    4.3422266    4.3422266   -7277.2438   -14501.956   -2223.4906   -5106.2851    9475.8644   -20277.722    5446.1791    81.872387 
   82800    631.01809   -117.83059   0.57095843   -117.25963    1805.6859    4.3390793    4.3390793    4.3390793    1805.6859   -2117.8755   -1816.8355    9351.7688    9938.7826    -4943.315   -2015.1888    81.694491 
   82900    757.71537   -117.94182   0.68559679   -117.25623    6341.9789     4.338608     4.338608     4.338608    6341.9789    19691.131    -68.95768   -596.23711   -2334.8728     9744.259   -7292.8859     81.66787 
   83000    471.26969   -117.68739   0.42641472   -117.26098    910.75654    4.3365562    4.3365562    4.3365562    910.75654    12348.554   -5604.0175   -4012.2668    4273.0604   -10972.941    4176.6734    81.552062 
   83100    358.85251   -117.58923   0.32469729   -117.26453   -7029.4748    4.3436476    4.3436476    4.3436476   -7029.4748     737.4603   -15929.616   -5896.2685    11640.767    -18177.84    4202.5402    81.952792 
   83200    786.58106   -117.96936   0.71171507   -117.25764    3023.5038    4.3373044    4.3373044    4.3373044    3023.5038    6229.1501   -6221.1841    9062.5453    8719.2984   -500.79026   -169.31684    81.594277 
   83300    707.73234   -117.89848   0.64037109   -117.25811     8016.685    4.3361191    4.3361191    4.3361191     8016.685    17384.728    6453.1318    212.19514   -6103.2177     2420.054   -7124.3981    81.527404 
   83400    369.90589    -117.5973   0.33469862    -117.2626   -17608.404    4.3467068    4.3467068    4.3467068   -17608.404   -20966.015   -18557.083   -13302.112    5328.6345   -20131.415    2301.2259    82.126072 
   83500     500.1568    -117.7137   0.45255238   -117.26115    -1402.519    4.3352212    4.3352212    4.3352212    -1402.519   -13782.327   -2166.3315    11741.102    14416.072   -12743.122    5164.7116    81.476769 
   83600      913.807   -118.08346   0.82683178   -117.25663    3834.3943    4.3381302    4.3381302    4.3381302    3834.3943    3540.4379   -201.26151    8164.0065   -4791.1775    8086.0777   -9064.3512    81.640893 
   83700    600.19159   -117.80409   0.54306596   -117.26102   -1235.4625    4.3432742    4.3432742    4.3432742   -1235.4625    253.17266   -3332.1556    -627.4045    204.04967   -8316.8283    1376.5368    81.931656 
   83800    254.81951   -117.49622   0.23056605   -117.26565   -2220.9234    4.3363477    4.3363477    4.3363477   -2220.9234   -5348.0922    -1381.733    67.055055    11443.509    -19951.32    4550.5114    81.540297 
   83900    633.36731   -117.83517   0.57308405   -117.26208   -3657.1466    4.3424362    4.3424362    4.3424362   -3657.1466    290.57689    -9348.039   -1913.9777    10166.431   -323.76921    454.44677    81.884246 
   84000    849.88892   -118.02482   0.76899735   -117.25582    6655.0832    4.3413268    4.3413268    4.3413268    6655.0832    15133.961    1088.5237    3742.7646   -2707.5989    4202.8656   -2607.8278    81.821501 
   84100    488.57932   -117.70398   0.44207684    -117.2619   -2412.5385    4.3372635    4.3372635    4.3372635   -2412.5385   -8634.8481    8311.0873   -6913.8547    3167.8413    -21862.98   -3086.7378    81.591968 
   84200    329.04209   -117.56232    0.2977242    -117.2646   -7842.6143    4.3397824    4.3397824    4.3397824   -7842.6143   -14399.944   -2256.5021   -6871.3967    17151.209   -13197.618    8037.6183    81.734211 
   84300    772.80777   -117.95954   0.69925271   -117.26029   -3141.5528    4.3431751    4.3431751    4.3431751   -3141.5528   -7258.7572   -5852.9001     3686.999    984.48124    12457.802   -1333.6507    81.926047 
   84400    802.73322    -117.9834   0.72632989   -117.25707    6603.7189    4.3374768    4.3374768    4.3374768    6603.7189    -472.0379    14820.898    5462.2967   -3091.9647   -6802.4638   -324.47495    81.604006 
   84500    367.66668   -117.59485   0.33267254   -117.26218   -252.24317     4.340537     4.340537     4.340537   -252.24317   -2286.0177    6794.6138   -5265.3257    7201.3962   -16657.057    8779.6422    81.776852 
   84600    428.99307   -117.64948   0.38816195   -117.26131   -6824.9022    4.3456045    4.3456045    4.3456045   -6824.9022   -11772.999   -6544.4953   -2157.2125    8607.1103    5609.9379    1528.5413    82.063608 
   84700    826.43241   -118.00273   0.74777341   -117.25496    12562.182    4.3319777    4.3319777    4.3319777    12562.182    15477.686    7571.2041    14637.656   -3297.3363    11627.128    1919.2828    81.294027 
   84800    656.03651   -117.85361   0.59359562   -117.26001    436.65585    4.3419834    4.3419834    4.3419834    436.65585    2409.0217    5511.1513   -6610.2055   -4207.6524   -11672.494    210.38433    81.858632 
   84900    362.18693   -117.59217   0.32771435   -117.26446   -9715.7759    4.3420575    4.3420575    4.3420575   -9715.7759   -16628.393    -13352.82    833.88513    21072.283   -13929.227    5355.3594    81.862823 
   85000    635.54454   -117.83612   0.57505406   -117.26107    137.55423    4.3354037    4.3354037    4.3354037    137.55423   -7215.5805   -5646.4482    13274.691    10070.726    13353.516    270.71152    81.487058 
   85100    865.15477   -118.03823   0.78281022   -117.25542   -6501.4576    4.3452822    4.3452822    4.3452822   -6501.4576   -8704.5002   -7096.5924   -3703.2803   -8047.7979    1767.6601    -6294.494     82.04535 
   85200    542.30585   -117.75076   0.49068973   -117.26007    1393.0584      4.33416      4.33416      4.33416    1393.0584   -8511.6813    546.68827    12144.168    9339.6887   -15994.828    4381.1406    81.416948 
   85300    377.10203   -117.60477   0.34120985   -117.26356   -7006.1166    4.3424623    4.3424623    4.3424623   -7006.1166   -7920.3444   -11809.987   -1288.0189    17886.101    -2483.038    3813.6566    81.885717 
   85400    735.76084   -117.92391   0.66573187   -117.25818     -824.944    4.3423965    4.3423965    4.3423965     -824.944    4361.4374   -3504.4877   -3331.7817   -2952.1763    6770.0309     1784.441    81.881999 
   85500    695.70691    -117.8867   0.62949023   -117.25721    14129.249    4.3324599    4.3324599    4.3324599    14129.249    12113.912    14260.516    16013.319   -10115.217    1802.3958   -1422.7356    81.321178 
   85600    371.53926   -117.59764   0.33617653   -117.26146   -6647.9328    4.3469507    4.3469507    4.3469507   -6647.9328   -9171.0154   -5517.3016   -5255.4815     14567.37   -10346.264    2964.0562    82.139894 
   85700    544.40131   -117.75205   0.49258575   -117.25947    1511.5374    4.3367361    4.3367361    4.3367361    1511.5374    397.88329    2616.6255    1520.1034    12443.524    4117.2549     4808.019    81.562208 
   85800    801.48378   -117.98127   0.72519937   -117.25607    6669.6977    4.3388089    4.3388089    4.3388089    6669.6977    9364.0377    4659.0782    5985.9771   -8271.6245    7447.7743   -5002.6625    81.679217 
   85900    634.45943   -117.83243   0.57407222   -117.25836   -5962.6855    4.3441662    4.3441662    4.3441662   -5962.6855     -7457.01   -11222.802    791.75599    4053.8198    -11426.53    3658.3922    81.982147 
   86000      390.188   -117.61389    0.3530503   -117.26084    538.04436    4.3355579    4.3355579    4.3355579    538.04436     6371.002   -6587.4931    1830.6242     21806.92   -5751.7397    7797.9364    81.495755 
   86100    683.25413   -117.87692   0.61822269    -117.2587    -6243.759    4.3420622    4.3420622    4.3420622    -6243.759    7251.0267   -11932.932   -14049.372    3895.7562   -1896.2191   -2189.3701    81.863086 
   86200    756.10892   -117.94096   0.68414324   -117.25682    7928.1428    4.3380402    4.3380402    4.3380402    7928.1428    22699.762   -5744.1146    6828.7805   -9344.5698     839.6049   -7768.9595    81.635814 
   86300    448.76429   -117.66667   0.40605136   -117.26062   -5287.1998    4.3424805    4.3424805    4.3424805   -5287.1998   -2394.7441   -11689.061   -1777.7938    15095.498   -8291.9913    2922.0301     81.88675 
   86400      433.759   -117.65292   0.39247425   -117.26045   -5393.2425    4.3383859    4.3383859    4.3383859   -5393.2425    4710.7103   -13561.973   -7328.4648    14242.388   -8016.1981    4076.9054    81.655328 
   86500    765.28017   -117.94941   0.69244158   -117.25697    1431.5642    4.3383674    4.3383674    4.3383674    1431.5642    20032.348   -8370.2778   -7367.3775   -6836.4741    9002.1841   -12582.815    81.654288 
   86600    720.28396   -117.90913   0.65172807    -117.2574    -4210.334     4.343354     4.343354     4.343354    -4210.334   -9314.1504    -6075.223    2758.3713    2480.9515   -4671.8104   -4771.4898    81.936175 
   86700    440.91787   -117.66064   0.39895175   -117.26169    4383.6373    4.3326665    4.3326665    4.3326665    4383.6373    7434.4407   -5010.4198    10726.891    23025.547   -5929.0416    4837.1855    81.332812 
   86800    526.26417   -117.73797   0.47617488   -117.26179   -8488.2614    4.3445189    4.3445189    4.3445189   -8488.2614    5577.3749   -22468.692   -8573.4668    7533.2036   -1974.6522   -7364.3644    82.002121 
   86900    731.98251   -117.91806   0.66231315   -117.25575     3561.204    4.3403805    4.3403805    4.3403805     3561.204    22651.498   -8317.4908   -3650.3949   -4305.8443    134.14059   -8960.8163    81.768008 
   87000    651.79553   -117.84591   0.58975829   -117.25615    5323.4429    4.3346192    4.3346192    4.3346192    5323.4429    11774.371   -8930.7306    13126.689    18668.259    2699.0078    3050.9659    81.442827 
   87100    415.15133   -117.63664   0.37563765   -117.26101   -6875.9823    4.3417844    4.3417844    4.3417844   -6875.9823    116.27176   -22427.733    1683.5147    15000.172   -10239.676    346.28968    81.847374 
   87200    524.01323   -117.73521   0.47413818   -117.26107   -3672.5831    4.3373826    4.3373826    4.3373826   -3672.5831    20424.376   -19230.513   -12211.613   -5399.1039    803.86213   -15704.645    81.598693 
   87300    770.50186   -117.95489   0.69716627   -117.25772   -7276.9216    4.3414453    4.3414453    4.3414453   -7276.9216    193.31252   -18564.481   -3459.5965   -650.45001    344.28658   -5122.1508      81.8282 
   87400    665.39166   -117.85976   0.60206036   -117.25769    450.87711    4.3378893    4.3378893    4.3378893    450.87711   -775.88843   -9844.0241    11972.544    15598.145     -3685.56    5560.3038     81.62729 
   87500    507.57887     -117.719   0.45926803   -117.25974   -9410.5989    4.3391971    4.3391971    4.3391971   -9410.5989    6644.6874   -21646.262   -13230.222     2475.132   -1147.2193   -9934.2337    81.701142 
   87600    471.35503   -117.68764   0.42649194   -117.26114   -6543.7395    4.3422193    4.3422193    4.3422193   -6543.7395    17162.239   -24965.649   -11827.808   -12383.709   -1442.0797    -9268.478    81.871972 
   87700     840.4766   -118.01739   0.76048089   -117.25691    4746.5015    4.3327345    4.3327345    4.3327345    4746.5015    3260.4463   -2603.7326    13582.791    2121.8827    7872.2866     2032.538    81.336638 
   87800     639.2598   -117.83758    0.5784157   -117.25917    5293.9065    4.3426481    4.3426481    4.3426481    5293.9065    28599.504   -7189.2446     -5528.54    9020.4962   -4001.1604   -5796.8232    81.896233 
   87900    402.21784   -117.62681   0.36393515   -117.26287   -5820.8178     4.342105     4.342105     4.342105   -5820.8178    20818.039   -26739.962    -11540.53   -5163.2248   -2328.1436    -12895.26    81.865509 
   88000    529.40323   -117.74026   0.47901517   -117.26124    7437.9037    4.3311251    4.3311251    4.3311251    7437.9037    13595.091   -8863.8453    17582.466   -16689.846    1570.0495   -815.50725    81.246039 
   88100    848.25551   -118.02451   0.76751941   -117.25699   -197.16862    4.3461053    4.3461053    4.3461053   -197.16862    1918.1772   -2733.9728     224.2898    874.09018    1191.0989    3027.2319    82.091983 
   88200      676.664   -117.87212   0.61225981   -117.25986    2650.1392    4.3386579    4.3386579    4.3386579    2650.1392    16198.162   -7691.1898   -556.55463    4322.9008    2814.1737   -12500.506    81.670688 
   88300     387.5087   -117.61292   0.35062602   -117.26229    107.54087    4.3335773    4.3335773    4.3335773    107.54087    3201.1272   -18950.167    16071.662   -18523.413   -6648.3601   -9638.8263    81.384116 
   88400    689.24445   -117.88324   0.62364286    -117.2596   -9753.2979    4.3467405    4.3467405    4.3467405   -9753.2979   -13693.619   -17297.321     1731.047   -12909.467    6792.5159    7895.1648    82.127978 
   88500    869.22505    -118.0427   0.78649309    -117.2562    9795.6624    4.3358647    4.3358647    4.3358647    9795.6624    26279.832    967.50941    2139.6457    3194.5734    2779.8051   -4008.9766    81.513053 
   88600    576.34142   -117.78278   0.52148583    -117.2613    1885.2078    4.3368175    4.3368175    4.3368175    1885.2078    16252.429   -19190.747    8593.9413   -5612.8092   -3363.4203   -12310.131    81.566801 
   88700    429.19906   -117.65156   0.38834833   -117.26321   -8438.9343    4.3449167    4.3449167    4.3449167   -8438.9343    7537.3671   -28772.427   -4081.7432   -17399.217    1523.0479   -434.78393    82.024645 
   88800    704.43303   -117.89666   0.63738581   -117.25927    6093.4551    4.3361818    4.3361818    4.3361818    6093.4551    12872.793   -339.15229    5746.7245    643.70434    7099.1886    6298.0866    81.530941 
   88900     820.4376   -117.99918   0.74234918   -117.25683    2179.5332    4.3379542    4.3379542    4.3379542    2179.5332    10653.861   -3663.5762   -451.68516    6479.8256    11027.364    -6198.216    81.630955 
   89000    517.55744   -117.72797   0.46829685   -117.25967   -7231.8272    4.3452182    4.3452182    4.3452182   -7231.8272    4446.2211   -23001.156   -3140.5465   -15401.906   -5774.9454   -9867.9558    82.041723 
   89100    571.44467   -117.77646   0.51705515    -117.2594   -4236.9244    4.3365437    4.3365437    4.3365437   -4236.9244    -4135.315   -10576.417    2000.9593   -10201.635    5044.4073    8212.8199    81.551353 
   89200     723.9994   -117.91283   0.65508987   -117.25774    6931.6626     4.334918     4.334918     4.334918    6931.6626    10130.771    3532.2487    7131.9679    8686.4427    7756.3221    -131.8098    81.459671 
   89300    690.45438   -117.88309   0.62473764   -117.25835   -5077.0685    4.3462231    4.3462231    4.3462231   -5077.0685    6075.5737   -12923.601   -8383.1781   -2297.7279   -6089.2014   -9426.7748    82.098658 
   89400    540.05716    -117.7472   0.48865507   -117.25855    2177.4105      4.33681      4.33681      4.33681    2177.4105    12569.619   -9988.2903    3950.9032     -21191.2    -1270.305   -1638.6977    81.566379 
   89500    549.38991    -117.7555   0.49709954    -117.2584    4205.5873    4.3378513    4.3378513    4.3378513    4205.5873    7195.5516   -5826.9391    11248.149    2827.4771    6743.3865    2857.9607    81.625148 
   89600    681.87149   -117.87293   0.61697165   -117.25596   -1414.9806    4.3433334    4.3433334    4.3433334   -1414.9806   -1840.1738   -2904.2187    499.45067    11575.684    10974.403    2380.1498    81.935006 
   89700    691.76061   -117.88178   0.62591954   -117.25586    2149.2774    4.3352618    4.3352618    4.3352618    2149.2774    208.07733   -1376.1156    7615.8706   -15732.336   -6602.3459   -7099.8282    81.479057 
   89800     632.8587   -117.83169   0.57262385   -117.25907   -6410.6691    4.3394244    4.3394244    4.3394244   -6410.6691   -12221.367   -13733.605    6722.9648   -10378.497    459.99352     1578.718     81.71398 
   89900    567.90064   -117.77318   0.51384843   -117.25933    820.98478    4.3407887    4.3407887    4.3407887    820.98478   -3137.8223    3260.2943    2340.4824    13144.945    20019.471    7118.6667    81.791076 
   90000    708.53151   -117.89854    0.6410942   -117.25745   -1830.9246    4.3400134    4.3400134    4.3400134   -1830.9246   -519.95914   -4412.7368   -560.07798     2835.545   -930.05511   -741.59923     81.74726 
   90100    674.84756   -117.86777   0.61061626   -117.25715    3751.5635    4.3363264    4.3363264    4.3363264    3751.5635    6336.0963   -7792.5007    12711.095   -15855.264   -8838.6987   -2723.2971    81.539098 
   90200    548.73952   -117.75615   0.49651105   -117.25964   -1414.2334    4.3414717    4.3414717    4.3414717   -1414.2334    11397.861    -7635.002   -8005.5591    869.80939    5964.1733   -2903.7262    81.829692 
   90300    517.52306   -117.72832   0.46826574   -117.26005   -644.23797    4.3413578    4.3413578    4.3413578   -644.23797    2312.5707   -5015.5434    770.25878    13209.809    11117.615    5153.0982    81.823254 
   90400    732.94588   -117.91944   0.66318484   -117.25626    4061.7365    4.3362103    4.3362103    4.3362103    4061.7365    6359.9291   -3307.6872    9132.9677   -10679.004   -3340.1731   -114.24563    81.532547 
   90500    699.63206   -117.88912   0.63304179   -117.25608   -11367.101    4.3458783    4.3458783    4.3458783   -11367.101   -8548.2697   -12947.834     -12605.2   -10054.473    -1041.275   -6098.8684    82.079119 
   90600    501.08246   -117.71241   0.45338994   -117.25902   -1612.9253    4.3352234    4.3352234    4.3352234   -1612.9253   -1118.9513    1860.5029   -5580.3274    11229.089    20520.012    1917.4714    81.476889 
   90700     595.3732   -117.79907   0.53870618   -117.26036   -1421.5827    4.3397386    4.3397386    4.3397386   -1421.5827   -605.56078   -4225.7931    566.60578     7220.972    3845.2912    5276.7459    81.731732 
   90800    742.85151   -117.92904   0.67214766   -117.25689   -2639.9025    4.3441326    4.3441326    4.3441326   -2639.9025    10337.967   -8428.4861   -9829.1879   -7205.4642   -5809.9049   -3310.8983    81.980245 
   90900    533.88248    -117.7415   0.48306809   -117.25844    8866.3077    4.3334144    4.3334144    4.3334144    8866.3077    23935.394    2723.9602   -60.431668    1360.3294     9403.743   -9050.8037    81.374935 
   91000    398.34409   -117.62109    0.3604301   -117.26066   -6221.7476    4.3462664    4.3462664    4.3462664   -6221.7476   -2369.7978    -12246.56   -4048.8853     17436.86    12574.713    6738.8956    82.101107 
   91100    660.26707   -117.85368   0.59742352   -117.25626    6287.2938    4.3360793    4.3360793    4.3360793    6287.2938    14364.599    1913.8187    2583.4633    1743.0581   -2614.5417    9020.5607    81.525159 
   91200    764.45974   -117.94782   0.69169924   -117.25612    2911.3118    4.3360346    4.3360346    4.3360346    2911.3118    7396.5107   -95.087085    1432.5117   -4981.9666   -6894.6573   -9297.4893    81.522635 
   91300    414.58554   -117.63607   0.37512571   -117.26094    -8781.484    4.3452854    4.3452854    4.3452854    -8781.484   -6020.9433   -12448.983   -7874.5259    6368.7036    15876.119    -5080.297    82.045531 
   91400    494.81178   -117.70868    0.4477161   -117.26096   -1020.7258    4.3340559    4.3340559    4.3340559   -1020.7258    2336.6773   -2306.1199   -3092.7349    5607.9187    9326.6441     14848.24    81.411083 
   91500    725.54493    -117.9147    0.6564883   -117.25822    229.93864    4.3406915    4.3406915    4.3406915    229.93864    12537.269   -7194.5659   -4652.8869   -1905.8341   -4781.1357    5230.4894    81.785585 
   91600    694.98637   -117.88682   0.62883827   -117.25798   -2010.8933    4.3397812    4.3397812    4.3397812   -2010.8933    10276.766   -4979.0711   -11330.375   -5383.2628    6003.3305   -15092.829    81.734142 
   91700    312.56361   -117.54524   0.28281412   -117.26242   -4866.6524    4.3384022    4.3384022    4.3384022   -4866.6524    14231.762   -9063.4265   -19768.293    9334.3164    12860.512     5467.083    81.656252 
   91800    475.11768   -117.69196   0.42989646   -117.26206   -5046.2905    4.3394581    4.3394581    4.3394581   -5046.2905     11802.36   -12687.963   -14253.269    7612.7691    6810.3138    20367.805    81.715886 
   91900    812.25838   -117.99177   0.73494845   -117.25683     4436.369    4.3380066    4.3380066    4.3380066     4436.369    19977.217   -1255.7218   -5412.3885   -681.57228   -7245.8805   -5125.6196    81.633917 
   92000    545.78495   -117.75481   0.49383769   -117.26097   -5659.2861    4.3421985    4.3421985    4.3421985   -5659.2861    7227.6042    -3461.201   -20744.262     2085.083    10537.848   -6727.7933    81.870794 
   92100     246.5244   -117.48789   0.22306046   -117.26483   -3152.8403    4.3354399    4.3354399    4.3354399   -3152.8403    4932.6569   -4292.3556   -10098.822    7510.8938    11098.335    18275.643    81.489097 
   92200    591.21509   -117.79684   0.53494384    -117.2619   -2341.8902    4.3429107    4.3429107    4.3429107   -2341.8902    5229.0985    -7915.572   -4339.1972    8349.8875   -3556.4633    11892.937    81.911091 
   92300    871.89226    -118.0455   0.78890644   -117.25659    6042.6015    4.3382104    4.3382104    4.3382104    6042.6015    5055.1834    13509.416   -436.79533   -4547.6395    2336.6906   -9079.5237    81.645422 
   92400     453.8808   -117.67517   0.41068089   -117.26449    3480.6744    4.3339636    4.3339636    4.3339636    3480.6744    9782.4784    3840.1367   -3180.5918    2031.4751    6376.8944    7504.2197    81.405879 
   92500    266.90139   -117.50891   0.24149799   -117.26741   -13924.496    4.3470759    4.3470759    4.3470759   -13924.496    4613.5577   -24564.012   -21823.033    9371.6047    7839.8846    21313.784    82.146993 
   92600    751.69084   -117.93934   0.68014567   -117.25919    8045.5579    4.3365794    4.3365794    4.3365794    8045.5579    17496.401    1170.6639    5469.6088    1258.0284   -3841.7013    1369.7215    81.553372 
   92700     871.9318   -118.04509   0.78894222   -117.25615    4095.9673    4.3375848    4.3375848    4.3375848    4095.9673     10179.48     359.0032     1749.419   -2208.9335    1747.1303   -2095.3745    81.610106 
   92800    286.05322    -117.5234   0.25882696   -117.26457   -7689.8418    4.3434593    4.3434593    4.3434593   -7689.8418    14509.965   -14126.165   -23453.326     7620.844    11203.751    16075.027    81.942132 
   92900    401.39024     -117.629   0.36318632   -117.26581   -4898.9586    4.3362287    4.3362287    4.3362287   -4898.9586    2866.9153   -12474.465   -5089.3264    12893.359    276.01917    11288.634    81.533584 
   93000    849.22278   -118.02889   0.76839462   -117.26049    6631.5713    4.3372977    4.3372977    4.3372977    6631.5713    2601.4923    7530.1751    9763.0466   -3884.2566    2261.1679   -6183.7267    81.593903 
   93100    705.89622   -117.90068   0.63870974   -117.26197    2340.6666    4.3421542    4.3421542    4.3421542    2340.6666    5754.7248    8974.4919   -7707.2169    42.967734    4388.9337     6094.342     81.86829 
   93200    326.63699   -117.56112   0.29554801   -117.26557   -9634.4622    4.3402044    4.3402044    4.3402044   -9634.4622   -6741.9043     -11216.9   -10944.582    11040.171    5156.0549    19197.334    81.758056 
   93300    572.69124   -117.78054   0.51818307   -117.26236     1440.765    4.3340251    4.3340251    4.3340251     1440.765   -2502.1569   -2697.7706    9522.2223    4506.8927   -522.14124    1010.1603    81.409347 
   93400    904.94432   -118.07607   0.81881264   -117.25726   -959.42206    4.3442319    4.3442319    4.3442319   -959.42206   -2921.5264   -2821.0449    2864.3051   -5862.4824   -4620.5616    -5805.184     81.98587 
   93500    637.73021   -117.83907    0.5770317   -117.26204   -2139.8886     4.337891     4.337891     4.337891   -2139.8886    3223.2942   -5239.0551   -4403.9048    1403.2831    10793.099    14804.618    81.627388 
   93600    432.04712   -117.65515   0.39092532   -117.26423    70.007733    4.3330585    4.3330585    4.3330585    70.007733    5255.5726   -6921.4654     1875.916    15018.278    5581.9934    16030.085     81.35489 
   93700    692.47785   -117.88738   0.62656851   -117.26081   -8611.2473    4.3482836    4.3482836    4.3482836   -8611.2473    -5095.156   -15465.428   -5273.1577    1572.1184   -2622.1129   -6826.5565    82.215477 
   93800    787.75148   -117.97035   0.71277409   -117.25758     9027.918    4.3343289    4.3343289    4.3343289     9027.918    10686.212      12349.5    4048.0415    -5473.241    5762.8029   -8999.5009    81.426465 
   93900    527.50484   -117.73853   0.47729746   -117.26123     255.6741    4.3370607    4.3370607    4.3370607     255.6741    1429.2199    6230.5189   -6892.7165    11137.965    6085.0197    10652.421    81.580528 
   94000    466.79684   -117.68382   0.42236759   -117.26145   -5927.8863    4.3449657    4.3449657    4.3449657   -5927.8863    -8490.233   -6519.6459     -2773.78    17883.519    2801.2475     5859.104    82.027421 
   94100    775.35381   -117.95883   0.70155642   -117.25728    5002.2655    4.3346048    4.3346048    4.3346048    5002.2655     6886.697      3205.88    4914.2195   -3210.5318   -3469.3716   -10495.278    81.442019 
   94200    699.37945   -117.89134   0.63281322   -117.25853   -443.62523    4.3404536    4.3404536    4.3404536   -443.62523    1153.2482    2535.4366   -5019.5605   -6186.3812    4754.7029   -5294.8942    81.772135 
   94300    583.00215   -117.78831    0.5275126    -117.2608   -5718.8501    4.3399921    4.3399921    4.3399921   -5718.8501   -12406.109   -2015.6126   -2734.8281    16665.955    7109.6168    10447.739    81.746058 
   94400    619.74451   -117.82096   0.56075785   -117.26021   -2724.7033    4.3401317    4.3401317    4.3401317   -2724.7033   -9160.0045   -8605.4974    9591.3919    7970.7085   -3497.5472    2075.6953    81.753944 
   94500    812.72862   -117.99286   0.73537394   -117.25749    2967.8759    4.3363915    4.3363915    4.3363915    2967.8759    5966.2316    5333.6659   -2396.2697   -8970.2905    3795.2503   -13531.087     81.54277 
   94600    643.89328   -117.84273   0.58260817   -117.26012   -78.819793    4.3405963    4.3405963    4.3405963   -78.819793    -12712.99    10322.856    2153.6742    2755.7376    3200.3254    1759.5977    81.780204 
   94700    481.70068   -117.69795   0.43585289   -117.26209    -5238.479    4.3416974    4.3416974    4.3416974    -5238.479   -20931.614   -6902.6539    12118.831    20665.429    1157.0778    10658.253    81.842454 
   94800    700.23107   -117.89203   0.63358379   -117.25845    8765.7936    4.3311591    4.3311591    4.3311591    8765.7936    7590.9616    7818.0813    10888.338    7205.8316   -2352.3633   -4219.2906    81.247948 
   94900    735.03686   -117.92352    0.6650768   -117.25845    -4254.858    4.3464154    4.3464154    4.3464154    -4254.858   -5213.5859    -3160.141    -4390.847   -7453.4374   -651.78624   -12033.871    82.109554 
   95000    516.57377    -117.7296    0.4674068   -117.26219    -3230.949    4.3355955    4.3355955    4.3355955    -3230.949   -10881.356   -11108.099    12296.609    13437.815    8406.4986    5105.7269    81.497871 
   95100    469.63058   -117.68789   0.42493162   -117.26295    728.36949    4.3343568    4.3343568    4.3343568    728.36949   -758.43086   -6642.0659    9585.6052    17429.689   -1804.1945    13621.184    81.428037 
   95200    754.30951   -117.94049   0.68251509   -117.25797   -9874.7024    4.3472538    4.3472538    4.3472538   -9874.7024   -6870.7359   -9622.3693   -13131.002   -4753.9644    174.43661   -10760.209    82.157078 
   95300    701.32731   -117.89176   0.63457569   -117.25719    10307.578    4.3293433    4.3293433    4.3293433    10307.578    7778.9466    7419.7551    15724.033   -1831.8252    4088.6514   -8817.2882    81.145803 
   95400    384.54364   -117.61176   0.34794317   -117.26381   -7866.6545    4.3424336    4.3424336    4.3424336   -7866.6545   -17929.826   -4872.3217   -797.81585    15784.883    1154.3769    10171.162    81.884097 
   95500    511.38764   -117.72571   0.46271428     -117.263   -1059.0555    4.3400018    4.3400018    4.3400018   -1059.0555   -6542.4078    337.58431    3027.6571    8075.8861   -506.33036     13533.45    81.746608 
   95600    858.32155   -118.03341   0.77662737   -117.25678    13923.977    4.3321158    4.3321158    4.3321158    13923.977    10171.195    18869.505     12731.23   -5208.9308   -5627.8297   -1862.4932    81.301802 
   95700    653.70856    -117.8523   0.59148925   -117.26081    -8280.482    4.3460093    4.3460093    4.3460093    -8280.482   -21799.027   -1050.9059   -1991.5132    8511.9642    3237.3757   -4810.1452     82.08654 
   95800    343.97738   -117.57493   0.31123796   -117.26369   -897.57432    4.3339577    4.3339577    4.3339577   -897.57432   -11625.756   -7599.4986    16532.531    18527.162   -646.32486    17673.674     81.40555 
   95900    644.75257   -117.84589   0.58338568    -117.2625   -835.36402    4.3388036    4.3388036    4.3388036   -835.36402   -4257.5085   -1488.7591    3240.1756   -1466.5582   -3826.1463    11713.632    81.678916 
   96000    934.90656   -118.10318    0.8459231   -117.25725   -843.86066    4.3405094    4.3405094    4.3405094   -843.86066   -7645.8337    9935.7942   -4821.5425   -2033.0529   -1160.2249    -9839.084    81.775294 
   96100    477.31113   -117.69525   0.43188114   -117.26337    134.11232    4.3349417    4.3349417    4.3349417    134.11232   -10383.536   -4067.6181    14853.491    15354.062    458.08854    6197.9504     81.46101 
   96200    320.18893   -117.55596   0.28971368   -117.26625    -11939.11    4.3424194    4.3424194    4.3424194    -11939.11    -10848.42   -15643.011   -9325.8976    7447.0438    1408.5631    21035.075     81.88329 
   96300    734.60976     -117.925   0.66469034   -117.26031    7225.2194    4.3363168    4.3363168    4.3363168    7225.2194    -108.6856    23759.636   -1975.2919   -4791.8404   -8977.4675    3837.5325    81.538554 
   96400    839.76875   -118.01779   0.75984041   -117.25795    2471.7452    4.3388972    4.3388972    4.3388972    2471.7452   -2871.2962    9877.3033    409.22866     2085.528   -1498.1325   -2193.6866    81.684204 
   96500    423.05824   -117.64688   0.38279199   -117.26409   -4414.7372    4.3387402    4.3387402    4.3387402   -4414.7372   -2171.4895   -3636.8368   -7435.8852     11738.08    3061.4927    16033.439    81.675339 
   96600     396.4534   -117.62354   0.35871937   -117.26482   -1809.0617    4.3374739    4.3374739    4.3374739   -1809.0617   -415.49474    2875.4799   -7887.1702    1876.6499   -3340.9937     17862.66    81.603845 
   96700    806.72006   -117.98923   0.72993727   -117.25929    159.15398    4.3397735    4.3397735    4.3397735    159.15398   -6082.0089    5979.4592    580.01166   -8275.4134   -1582.2121   -10070.571    81.733705 
   96800    731.25905   -117.91984   0.66165855   -117.25818    1775.9414    4.3381471    4.3381471    4.3381471    1775.9414    4472.0767    3753.3341   -2897.5867    9604.5114   -1918.4269   -269.44199    81.641849 
   96900    461.28871   -117.67985   0.41738372   -117.26247   -8019.6987      4.33863      4.33863      4.33863   -8019.6987   -2400.9364   -13917.109   -7741.0504    8638.5356    990.25309    22778.803    81.669115 
   97000     476.2519   -117.69361   0.43092273   -117.26269    300.23784    4.3369947    4.3369947    4.3369947    300.23784   -8385.1281     134.9574    9150.8842   -3215.7043   -8929.6079     1596.101    81.576799 
   97100    782.57799   -117.96739   0.70809301    -117.2593   -504.74562    4.3407997    4.3407997    4.3407997   -504.74562   -5057.7341    10048.454   -6504.9569   -1286.4347   -6100.7851   -9229.3196    81.791701 
   97200    698.18518   -117.89088   0.63173262   -117.25915    4407.4545    4.3368802    4.3368802    4.3368802    4407.4545    10970.247   -2806.2828    5058.3995    2968.6762    4465.4626    13067.173    81.570342 
   97300    519.84453   -117.73175   0.47036626   -117.26138   -867.61408    4.3385522    4.3385522    4.3385522   -867.61408   -3964.1033   -3729.6315    5090.8925    5983.7836   -7934.2178    18049.294     81.66472 
   97400    597.40348   -117.80065   0.54054323    -117.2601    -2363.869    4.3410204    4.3410204    4.3410204    -2363.869   -12579.702    9093.9262   -3605.8316   -6942.1492   -6045.3807   -6755.1181     81.80418 
   97500    746.41591   -117.93265    0.6753728   -117.25727    5050.4821    4.3353749    4.3353749    4.3353749    5050.4821    4904.1275    117.29928     10130.02   -7747.5547    1398.6631    -2721.766    81.485431 
   97600    720.68664   -117.91074   0.65209242   -117.25865   -5319.1838    4.3412308    4.3412308    4.3412308   -5319.1838    86.230464   -9590.1472   -6453.6346    5024.1185    2718.9385    20643.547    81.816075 
   97700    566.62129    -117.7733   0.51269085   -117.26061   -185.46664    4.3373631    4.3373631    4.3373631   -185.46664   -3942.4016    5027.8532   -1641.8515    3057.4193    -4088.512    4819.3788    81.597594 
   97800    639.20434   -117.83829   0.57836552   -117.25993   -4052.2735    4.3383438    4.3383438    4.3383438   -4052.2735   -12148.478   -2618.7238    2610.3811   -5158.7947   -10300.832   -11338.381    81.652952 
   97900    627.68808   -117.82727   0.56794536   -117.25933   -4591.6614    4.3422804    4.3422804    4.3422804   -4591.6614    1233.4296   -12058.423   -2949.9908   -6893.2948    3894.8343    5681.8506    81.875429 
   98000    672.56919   -117.86651   0.60855474   -117.25795    2725.6663    4.3362133    4.3362133    4.3362133    2725.6663    8377.6002    1561.7584   -1762.3597    6985.6329   -620.59604     19823.45    81.532718 
   98100    631.50096   -117.83025   0.57139534   -117.25886    120.24539    4.3382865    4.3382865    4.3382865    120.24539   -7643.4701   -2076.2909    10080.497    4213.6233   -7606.5677   -1216.3952    81.649717 
   98200    517.14776   -117.72874   0.46792616   -117.26081   -965.87732    4.3399291    4.3399291    4.3399291   -965.87732   -8176.7282   -7677.4784    12956.575   -8754.2505   -910.55101   -7574.1684    81.742496 
   98300     602.5539   -117.80543   0.54520343   -117.26023   -485.04353     4.338712     4.338712     4.338712   -485.04353    12230.941   -11190.974   -2495.0977   -1939.1105    364.37845    17173.783    81.673747 
   98400    701.38223   -117.89296   0.63462538   -117.25834    5665.1981    4.3367863    4.3367863    4.3367863    5665.1981    5207.8952    -2982.616    14770.315    7138.1039     395.7946    9387.0972    81.565041 
   98500    671.70791   -117.86663   0.60777543   -117.25885   -3273.4478    4.3404218    4.3404218    4.3404218   -3273.4478   -12248.963   -13104.618    15533.238    1671.8765   -7873.8255   -8280.7205    81.770342 
   98600    496.20874   -117.71024    0.4489801   -117.26126   -8265.3527    4.3395371    4.3395371    4.3395371   -8265.3527   -3103.9326   -15950.979   -5741.1465   -10291.355    1091.9159    4572.1801    81.720351 
   98700    571.81956   -117.77782   0.51739436   -117.26043    1231.0628      4.33525      4.33525      4.33525    1231.0628    6740.6742   -1876.3125   -1171.1731   -1181.2068    9438.5301     11409.78    81.478391 
   98800    758.70916   -117.94394   0.68649599   -117.25744   -3742.9698    4.3420151    4.3420151    4.3420151   -3742.9698   -15993.428   -4975.2386    9739.7574    12343.258   -3549.7471    3089.7494    81.860425 
   98900     617.9012   -117.81846   0.55908999   -117.25937   -1400.3038    4.3375209    4.3375209    4.3375209   -1400.3038   -10255.579   -5760.7426     11815.41   -1294.5474   -426.72246   -3501.3568      81.6065 
   99000     498.9188   -117.71311   0.45143221   -117.26168   -1342.5923    4.3344468    4.3344468    4.3344468   -1342.5923    1346.3935   -6501.0869    1126.9166   -8640.3261    7151.0278    7574.0917    81.433112 
   99100    518.74537   -117.73113   0.46937171   -117.26176   -1239.6652    4.3431172    4.3431172    4.3431172   -1239.6652   -13438.808     2880.692     6839.121    7697.0743    8836.4817    9228.4569    81.922775 
   99200    726.04291   -117.91506   0.65693888   -117.25812    3983.9159    4.3375042    4.3375042    4.3375042    3983.9159   -8403.4433   -4223.0765    24578.268    14181.482   -972.25526   -5909.1566    81.605556 
   99300    649.55639   -117.84553   0.58773227   -117.25779    4097.7076    4.3355513    4.3355513    4.3355513    4097.7076   -801.88301   -7707.0749    20802.081   -5587.3165   -4742.8136    2254.2307     81.49538 
   99400    464.80734   -117.68152   0.42056745   -117.26095   -5178.7179    4.3425389    4.3425389    4.3425389   -5178.7179   -6009.4074   -10125.204    598.45737   -5051.9687    8558.6861    5987.5392    81.890054 
   99500    478.03463   -117.69432   0.43253578   -117.26179    1788.8402    4.3359384    4.3359384    4.3359384    1788.8402    -2831.583    -2216.005    10414.109    17129.603    3278.0346    2349.3782    81.517209 
   99600    700.43562   -117.89303   0.63376886   -117.25926    3593.2776    4.3356696    4.3356696    4.3356696    3593.2776   -2703.7937   -7035.0071    20518.634    6543.7793   -2709.1813   -51.117172    81.502053 
   99700    700.50917   -117.89277   0.63383542   -117.25894   -6597.3768    4.3439709    4.3439709    4.3439709   -6597.3768   -2098.0285    -14566.02   -3128.0823   -10952.421    3339.6296    163.02651    81.971094 
   99800    415.94408   -117.63726   0.37635494   -117.26091   -2375.2746     4.336704     4.336704     4.336704   -2375.2746    3149.1369    -5490.841   -4784.1198    5543.0961    7314.8024    10878.712    81.560398 
   99900     504.4583   -117.71745   0.45644447     -117.261   -354.16654    4.3362857    4.3362857    4.3362857   -354.16654   -13457.577    -2102.559    14497.636    20052.984    6556.7296   -749.20223    81.536798 
  100000    798.02443   -117.97964   0.72206927   -117.25757   -4392.3429    4.3434845    4.3434845    4.3434845   -4392.3429   -10958.793   -10899.679    8681.4428   -931.69706   -3897.8031    357.56473    81.943562 
Loop time of 22.6282 on 1 procs for 100000 steps with 8 atoms

Pair  time (%) = 7.04434 (31.1308)
Kspce time (%) = 5.50447 (24.3257)
Neigh time (%) = 0 (0)
Comm  time (%) = 1.13734 (5.02621)
Outpt time (%) = 0.0369897 (0.163467)
Other time (%) = 8.90509 (39.3539)

Nlocal:    8 ave 8 max 8 min
Histogram: 1 0 0 0 0 0 0 0 0 0
Nghost:    2189 ave 2189 max 2189 min
Histogram: 1 0 0 0 0 0 0 0 0 0
Neighs:    2056 ave 2056 max 2056 min
Histogram: 1 0 0 0 0 0 0 0 0 0

Total # of neighbors = 2056
Ave neighs/atom = 257
Neighbor list builds = 0
Dangerous builds = 0
unfix 20
unfix 21
print "seeds:6254068"
seeds:6254068
