LAMMPS (10 Feb 2015)
# ---- initialize simulations
clear
units metal
dimension 3
boundary p p p
atom_style charge
atom_modify map array
# ---- create atoms
read_data /Users/eugeneragasa/pyflamestk_git/pypospack/tests/tests_integration/workflow/WorkflowLammpsThermalExpansion/param_9544/MgO_NaCl_unit.npt.T900/lammps.structure
  triclinic box = (0 0 0) to (4.2565 4.2565 4.2565) with tilt (0 0 0)
  1 by 1 by 1 MPI processor grid
  reading atoms ...
  8 atoms
# ---- define interatomic potential
include potential.mod
mass 1 24.305
mass 2 15.999

group Mg type 1
4 atoms in group Mg
group O type 2
4 atoms in group O

set group Mg charge 1.64252902328
  4 settings made for charge
set group O charge -1.64252902328
  4 settings made for charge

variable R_cut equal 10.0

pair_style buck/coul/long ${R_cut}
pair_style buck/coul/long 10
pair_coeff 1 1 0.0 0.5 0.0 ${R_cut}
pair_coeff 1 1 0.0 0.5 0.0 10
pair_coeff 1 2 1425.65456865 0.277130619093 0.0 ${R_cut}
pair_coeff 1 2 1425.65456865 0.277130619093 0.0 10
pair_coeff 2 2 8710.58674493 0.211543782712 -4.62088168449 ${R_cut}
pair_coeff 2 2 8710.58674493 0.211543782712 -4.62088168449 10

kspace_style pppm 1.0e-5

neighbor 1.0 bin
neigh_modify every 1 delay 0 check yes
# ---- define settings
compute eng all pe/atom
compute eatoms all reduce sum c_eng
# ---- run minimization
reset_timestep 0
fix 1 all box/relax iso 0.0 vmax 0.001
thermo 10
thermo_style custom step pe lx ly lz xy xz yz press pxx pyy pzz pxy pxz pyz c_eatoms
min_style cg
minimize 1e-25 1e-25 5000 10000
PPPM initialization ...
  G vector (1/distance) = 0.352708
  grid = 8 8 8
  stencil order = 5
  estimated absolute RMS force accuracy = 3.89813e-05
  estimated relative force accuracy = 2.7071e-06
  using double precision FFTs
  3d grid and FFT values/proc = 3375 512
Neighbor list info ...
  1 neighbor list requests
  update every 1 steps, delay 0 steps, check yes
  master list distance cutoff = 11
Memory usage per processor = 4.06549 Mbytes
Step PotEng Lx Ly Lz Xy Xz Yz Press Pxx Pyy Pzz Pxy Pxz Pyz eatoms 
       0   -111.38871       4.2565       4.2565       4.2565            0            0            0   -14022.103   -14022.103   -14022.103   -14022.103 -1.0617953e-11 -7.0203049e-11 5.2505523e-12   -111.38871 
       6    -111.3915    4.2448057    4.2448057    4.2448057            0            0            0    11.870105    11.870105    11.870105    11.870105 -3.2023954e-10 4.899455e-11 2.2757866e-10    -111.3915 
Loop time of 0.0154629 on 1 procs for 6 steps with 8 atoms

Minimization stats:
  Stopping criterion = linesearch alpha is zero
  Energy initial, next-to-last, final = 
        -111.388714234     -111.391500014     -111.391500014
  Force two-norm initial, final = 2.0248 0.00171153
  Force max component initial, final = 2.0248 0.00170464
  Final line search alpha, max atom move = 0.00229153 3.90625e-06
  Iterations, force evaluations = 6 44

Pair  time (%) = 0.0042367 (27.3992)
Kspce time (%) = 0.00237036 (15.3293)
Neigh time (%) = 0 (0)
Comm  time (%) = 0.000504255 (3.26107)
Outpt time (%) = 0 (0)
Other time (%) = 0.00835156 (54.0104)

Nlocal:    8 ave 8 max 8 min
Histogram: 1 0 0 0 0 0 0 0 0 0
Nghost:    2189 ave 2189 max 2189 min
Histogram: 1 0 0 0 0 0 0 0 0 0
Neighs:    2344 ave 2344 max 2344 min
Histogram: 1 0 0 0 0 0 0 0 0 0

Total # of neighbors = 2344
Ave neighs/atom = 293
Neighbor list builds = 0
Dangerous builds = 0
unfix 1
# ---- define output variables ----
variable natoms equal "count(all)"
variable tot_energy equal "c_eatoms"
variable length_x equal "lx"
variable length_y equal "ly"
variable length_z equal "lz"
variable tilt_xy equal "xy"
variable tilt_xz equal "xz"
variable tilt_yz equal "yz"
variable tot_press equal "press"
variable press_xx equal "pxx"
variable press_yy equal "pyy"
variable press_zz equal "pzz"
variable press_xy equal "pxy"
variable press_xz equal "pxz"
variable press_yz equal "pyz"

# ---- output ----
print "pypospack:output_section:begin"
pypospack:output_section:begin
print "tot_energy = ${tot_energy}"
tot_energy = -111.391500014071
print "num_atoms = ${natoms}"
num_atoms = 8
print "xx = ${length_x}"
xx = 4.24480566540602
print "yy = ${length_y}"
yy = 4.24480566540602
print "zz = ${length_z}"
zz = 4.24480566540602
print "xy = ${tilt_xy}"
xy = 0
print "xz = ${tilt_xz}"
xz = 0
print "yz = ${tilt_yz}"
yz = 0
print "tot_press = ${tot_press}"
tot_press = 11.8701047091937
print "pxx = ${press_xx}"
pxx = 11.8701047092997
print "pyy = ${press_yy}"
pyy = 11.8701047087814
print "pzz = ${press_zz}"
pzz = 11.8701047094999
print "pxy = ${press_xy}"
pxy = -3.20239539923879e-10
print "pxz = ${press_xz}"
pxz = 4.8994550277695e-11
print "pyz = ${press_yz}"
pyz = 2.27578662531736e-10
print "pypospack:output_section:done"
pypospack:output_section:done
print "pypospack:lammps_sim:done"
pypospack:lammps_sim:done
#------------------------------------------------------------------------------
# RUN THERMOSTAT
# running using an NPT Nose-Hoover style thermostat
#------------------------------------------------------------------------------
variable tempdamp equal 0.1
variable pressdamp equal 1.0
# set initial velocities
velocity all create 900 9233556 mom yes dist gaussian loop all
# fix for Nose-Hoover style thermostat
fix 20 all npt temp 900 900 0.1 aniso 0.0 0.0 1.0 drag 1.0 couple xyz
variable boxx equal lx
variable boxy equal ly
variable boxz equal lz
variable boxp equal press
variable boxt equal temp
# calculate averages every 10000 steps
reset_timestep 0
fix 21 all ave/time 10 10 100 v_boxx v_boxy v_boxz v_boxp v_boxt file lattice.out
thermo_style custom step temp pe ke etotal press lx ly lz press pxx pyy pzz pxy pxz pyz vol
thermo_modify flush yes
thermo 100
run 100000
PPPM initialization ...
  G vector (1/distance) = 0.352825
  grid = 8 8 8
  stencil order = 5
  estimated absolute RMS force accuracy = 3.87738e-05
  estimated relative force accuracy = 2.69269e-06
  using double precision FFTs
  3d grid and FFT values/proc = 3375 512
Memory usage per processor = 3.06549 Mbytes
Step Temp PotEng KinEng TotEng Press Lx Ly Lz Press Pxx Pyy Pzz Pxy Pxz Pyz Volume 
       0          900    -111.3915   0.81433891   -110.57716    11384.357    4.2448057    4.2448057    4.2448057    11384.357    5143.8194    19718.352    9290.8985    2629.0876   -2391.7546   -7591.3609    76.484501 
     100    412.20278   -110.84172   0.37296973   -110.46875    12962.094    4.2646221    4.2646221    4.2646221    12962.094   -9344.7818    24660.726    23570.338   -97.955755   -216.50572    11339.285     77.56069 
     200    612.52775   -110.80187   0.55422798   -110.24764   -22990.459    4.2801508    4.2801508    4.2801508   -22990.459   -25652.785   -13758.824   -29559.767   -2719.7604    5136.4914    7761.7618    78.411041 
     300    841.40996    -110.8085   0.76132541   -110.04718    19931.859    4.2617698    4.2617698    4.2617698    19931.859   -373.53517    36551.818    23617.294   -5742.4874    560.39093    354.65589    77.405171 
     400     1374.882   -111.14592    1.2440221    -109.9019    8287.4186    4.2665449    4.2665449    4.2665449    8287.4186    -6772.627    22160.755    9474.1283    3711.9398   -1681.1001    7398.4163    77.665645 
     500    759.72143   -110.49983   0.68741192   -109.81241   -9529.6281     4.291875     4.291875     4.291875   -9529.6281   -20624.517   -1182.7252   -6781.6422    6503.8454    461.11054    19258.448    79.057155 
     600     926.9309   -110.59523   0.83870656   -109.75652   -12233.396    4.2755396    4.2755396    4.2755396   -12233.396   -8554.7535   -4101.8342     -24043.6   -1150.8489   -2548.7286    10877.748    78.157884 
     700    1159.3866   -110.79047    1.0490373   -109.74143    11725.602    4.2638844    4.2638844    4.2638844    11725.602   -6136.8823    13501.794    27811.893    -7448.279    5843.3696   -14142.836    77.520444 
     800     1185.762   -110.81876    1.0729024   -109.74586   -13333.539    4.2894593    4.2894593    4.2894593   -13333.539   -23179.031   -1943.4342   -14878.152   -2615.2749   -4512.8357     5422.983     78.92374 
     900    1032.7209   -110.68535   0.93442758   -109.75092   -15837.805    4.2838756    4.2838756    4.2838756   -15837.805   -16259.814   -25158.204   -6095.3963   -2144.2946   -6501.5872    21585.576     78.61593 
    1000    714.49038   -110.40007   0.64648591   -109.75358    16508.304    4.2658099    4.2658099    4.2658099    16508.304   -3733.9533    16373.568    36885.296    -5352.651   -332.05451   -11883.057    77.625514 
    1100    1266.4148   -110.90124    1.1458787   -109.75536   -8196.7049    4.2780438    4.2780438    4.2780438   -8196.7049   -9930.7931    2050.2777   -16709.599   -3103.4561    5809.7175   -8896.1919      78.2953 
    1200    1112.2934   -110.76302    1.0064264   -109.75659    12379.803    4.2818194    4.2818194    4.2818194    12379.803   -12322.673    -705.5897    50167.672    -2049.684    1541.7365    12269.707    78.502778 
    1300    922.23475   -110.59861   0.83445738   -109.76415    13651.166    4.2726139    4.2726139    4.2726139    13651.166   -12214.839     50536.84    2631.4978   -1109.3615   -6801.4826   -224.57288    77.997547 
    1400    910.38577   -110.59149   0.82373618   -109.76775    -4445.658    4.2815695    4.2815695    4.2815695    -4445.658   -19118.643   -2358.1684    8139.8371    3233.8752    8494.3769   -11557.445    78.489035 
    1500     1150.431   -110.79653    1.0409342   -109.75559    1675.8994    4.2854617    4.2854617    4.2854617    1675.8994   -19382.311    14185.853    10224.157    5021.6775    1621.1698   -868.13981    78.703285 
    1600    1375.1149   -110.99044    1.2442329   -109.74621    13490.365    4.2666788    4.2666788    4.2666788    13490.365   -9284.8819    32899.185    16856.792   -9570.3867   -265.77849    10354.507    77.672957 
    1700    769.70773   -110.45655   0.69644773   -109.76011   -5032.3683    4.2813045    4.2813045    4.2813045   -5032.3683   -11286.155   -11501.514    7690.5646   -13078.357   -6575.0471   -16103.589    78.474463 
    1800    779.62287   -110.46267   0.70541916   -109.75725   -18335.185    4.2897228    4.2897228    4.2897228   -18335.185   -27054.468   -5241.4974   -22709.589    3770.0604   -4465.6566   -14709.027    78.938287 
    1900    1272.1968   -110.89596    1.1511104   -109.74485     22908.19    4.2639426    4.2639426    4.2639426     22908.19   -7534.2381    19074.166    57184.642    13701.996    7095.9857      12127.7    77.523622 
    2000    1216.6091   -110.85908    1.1008135   -109.75827    -10122.65    4.2801634    4.2801634    4.2801634    -10122.65   -5572.2289    5949.3832   -30745.105   -1941.8734     6271.555   -19593.941     78.41173 
    2100    666.43083   -110.36482   0.60300062   -109.76182   -13568.694    4.2845924    4.2845924    4.2845924   -13568.694   -12681.062   -13731.866   -14293.153   -4600.8746   -1090.1389   -24468.548    78.655401 
    2200    1026.1246   -110.68296   0.92845914    -109.7545    8246.2019    4.2641583    4.2641583    4.2641583    8246.2019   -16395.853    26800.477    14333.982   -1420.7328   -1067.4296   -7933.1212    77.535387 
    2300      1184.62    -110.8299     1.071869   -109.75803    3366.9713    4.2815606    4.2815606    4.2815606    3366.9713   -16471.139     14148.48    12423.573    1662.4512    2395.3722    11276.746    78.488546 
    2400    1219.0382   -110.85613    1.1030114   -109.75312   -15121.312    4.2848537    4.2848537    4.2848537   -15121.312   -18872.896   -12593.113   -13897.928    3100.5002    5965.4111     1611.716    78.669789 
    2500    717.40007   -110.40555   0.64911866   -109.75643    1545.2587    4.2715011    4.2715011    4.2715011    1545.2587   -28761.553    2742.0524    30655.276   -573.57364    3982.9634   -11941.124    77.936623 
    2600    942.45142   -110.60873   0.85274985   -109.75598    3635.7232    4.2761041    4.2761041    4.2761041    3635.7232   -24058.288    4427.2388    30538.219    3464.3628    2924.1572    7859.7011    78.188845 
    2700    1330.5049   -110.95403    1.2038688   -109.75016   -6790.1963    4.2864399    4.2864399    4.2864399   -6790.1963   -24686.419    937.75028    3378.0802   -2281.0468   -4393.0076    -10482.49    78.757191 
    2800    725.98433   -110.41111   0.65688588   -109.75422    4077.0515    4.2826112    4.2826112    4.2826112    4077.0515   -24561.244     14674.03    22118.368    2476.7186    2767.9155   -7327.3062    78.546336 
    2900        911.4   -110.57319   0.82465387   -109.74853   -4737.4285     4.274587     4.274587     4.274587   -4737.4285   -27370.633     16406.58    -3248.233    10582.461    4851.2608   -419.45178    78.105654 
    3000    916.39968   -110.57845   0.82917769   -109.74927    16881.719     4.278024     4.278024     4.278024    16881.719   -7381.7063    11911.154    46115.711   -1134.7251    1865.1335    4989.5973    78.294209 
    3100    1094.5156   -110.74073   0.99034071   -109.75039   -17555.107    4.2855155    4.2855155    4.2855155   -17555.107    -28502.37   -4925.5304   -19237.421   -9264.3365   -10326.457    13239.745    78.706251 
    3200    787.85232   -110.46758   0.71286534   -109.75471   -13825.737     4.278312     4.278312     4.278312   -13825.737   -19767.269   -8932.3248   -12777.619   -2693.8284   -3319.7327   -27349.661    78.310025 
    3300    897.97338   -110.57126   0.81250519   -109.75875   -844.74035    4.2655782    4.2655782    4.2655782   -844.74035   -4029.7722   -4412.9624    5908.5135    6806.4866    10965.763    23190.318    77.612864 
    3400    921.96492   -110.60028   0.83421324   -109.76607    4457.0475    4.2773705    4.2773705    4.2773705    4457.0475      1147.73    30317.136   -18093.723    3902.8139   -9552.9452    16220.013    78.258336 
    3500    904.98715   -110.57929   0.81885139   -109.76044    -2528.094    4.2924953    4.2924953    4.2924953    -2528.094   -23058.771    7739.2705    7735.2187   -1426.6081   -454.45226   -8685.3056    79.091438 
    3600    996.36607    -110.6575   0.90153296   -109.75597    10696.123    4.2693075    4.2693075    4.2693075    10696.123   -14841.127    45824.236    1105.2591   -3204.0424    6756.7276   -11131.412     77.81661 
    3700    757.51985   -110.44624   0.68541988   -109.76082    23119.435     4.263116     4.263116     4.263116    23119.435    14647.024   -298.20672    55009.488    1781.4099    2545.4789    26532.838    77.478546 
    3800    1030.3357   -110.69654   0.93226938   -109.76427   -34687.444    4.3000044    4.3000044    4.3000044   -34687.444   -18188.977   -37197.669   -48675.686   -4252.4378   -1192.7713    21901.843    79.507242 
    3900    1009.7969   -110.66626   0.91368548   -109.75257   -1198.4095    4.2802464    4.2802464    4.2802464   -1198.4095   -16144.836    22009.117   -9459.5098    1848.7509   -1971.6468   -13605.675    78.416295 
    4000    752.41782   -110.42615   0.68080346   -109.74534    26731.707    4.2591221    4.2591221    4.2591221    26731.707      6739.33    67089.696    6366.0942    1724.2991   -4022.1302    7549.6736     77.26099 
    4100    386.60149   -110.10851   0.34980515    -109.7587   -3695.1429    4.2949455    4.2949455    4.2949455   -3695.1429    1826.8814   -3210.2299   -9702.0801   -2391.6104   -1134.9654    33612.372    79.226955 
    4200    1191.3839   -110.81719    1.0779892    -109.7392   -7665.6661    4.2820209    4.2820209    4.2820209   -7665.6661   -5780.6676    13272.534   -30488.864    3856.3904   -7841.2775   -5882.9763    78.513861 
    4300    948.59081   -110.59448    0.8583049   -109.73618   -323.77797    4.2714989    4.2714989    4.2714989   -323.77797   -1252.4228    4670.7924   -4389.7035    1452.6345    -3203.831   -2104.8338    77.936501 
    4400    768.50055   -110.44431   0.69535544   -109.74896   -28743.882    4.2782966    4.2782966    4.2782966   -28743.882    8127.6491   -41823.363   -52535.931   -8521.1353    3481.2799    36546.754    78.309178 
    4500    691.00499   -110.37875   0.62523584   -109.75351    25431.853    4.2757087    4.2757087    4.2757087    25431.853    9767.0679    34847.029    31681.463   -3541.7277    2218.7716    2531.0484     78.16716 
    4600    1304.6652   -110.92887    1.1804885   -109.74838   -22480.271    4.2903015    4.2903015    4.2903015   -22480.271   -30096.445   -8688.2573   -28656.111    7968.9937    3398.8686   -217.10375    78.970239 
    4700    834.35637   -110.50963   0.75494318   -109.75468    10272.098    4.2624291    4.2624291    4.2624291    10272.098    17789.133    30742.666   -17715.506    1426.5023   -684.90138    24997.156    77.441098 
    4800    455.73676   -110.18436    0.4123602     -109.772    14312.178    4.2717354    4.2717354    4.2717354    14312.178     13894.94   -6446.9754    35488.568   -4071.8557   -10988.665    24707.053    77.949447 
    4900    1050.6751   -110.70356   0.95067289   -109.75289    -32461.72    4.2947499    4.2947499    4.2947499    -32461.72   -40172.819   -37839.429   -19372.911    3576.3917    816.81771   -12458.839    79.216131 
    5000    854.76843   -110.51724   0.77341244   -109.74383    26349.623    4.2588107    4.2588107    4.2588107    26349.623    7746.4264    24020.306    47282.137    3001.5231   -4806.8926    9043.5791    77.244046 
    5100    698.34506   -110.39184   0.63187728   -109.75997    3688.5131    4.2734471    4.2734471    4.2734471    3688.5131      26460.6   -1893.0411    -13502.02    -3726.896   -443.30766    35784.432    78.043187 
    5200    773.30475   -110.45065   0.69970239   -109.75095   -9551.8407    4.2867721    4.2867721    4.2867721   -9551.8407   -26332.332   -16572.713    14249.523   -993.00487    11480.838   -3218.0914    78.775502 
    5300    847.38909   -110.51261   0.76673546   -109.74588   -4762.5513      4.27429      4.27429      4.27429   -4762.5513   -17979.655    13649.166   -9957.1647    15498.174   -1560.7782   -2017.1833    78.089377 
    5400    856.65611   -110.52474   0.77512045   -109.74961   -8890.8315    4.2748358    4.2748358    4.2748358   -8890.8315    21794.932   -13805.883   -34661.543    7040.9293     1085.132    14332.842    78.119296 
    5500    809.94597    -110.4816   0.73285614   -109.74874    16518.455    4.2746879    4.2746879    4.2746879    16518.455   -2313.7658    12274.618    39594.514   -11235.351   -135.94862     11816.49    78.111188 
    5600    1003.3993   -110.65892   0.90789673   -109.75102   -24095.758     4.284239     4.284239     4.284239   -24095.758   -37724.806   -21198.012   -13364.454    132.02516   -5577.8005   -8467.8644     78.63594 
    5700    709.46367   -110.39082   0.64193764   -109.74888   -5348.1324    4.2777507    4.2777507    4.2777507   -5348.1324    11402.881   -15739.054   -11708.224    9647.2893    3725.6745   -3384.1356    78.279207 
    5800    1045.6589   -110.69299   0.94613418   -109.74686    3552.5339    4.2706738    4.2706738    4.2706738    3552.5339    2609.3471     11876.55   -3828.2957   -5417.7094   -3349.4683    25472.252    77.891347 
    5900    751.37095   -110.43258   0.67985623   -109.75272    9114.0971    4.2849063    4.2849063    4.2849063    9114.0971   -29700.902     25555.41    31487.783   -8552.5648   -2311.8626    4975.0862    78.672688 
    6000    753.44553   -110.42985   0.68173335   -109.74812    3011.2853    4.2817912    4.2817912    4.2817912    3011.2853   -5036.3379    19343.753    -5273.559     6750.633    2970.4476    89.830094    78.501227 
    6100    691.60493   -110.37252   0.62577867   -109.74674    10168.271    4.2736688    4.2736688    4.2736688    10168.271   -6202.3375     43904.41   -7197.2602    9739.5725   -3177.1428    14814.357    78.055333 
    6200    854.74092   -110.52272   0.77338755   -109.74933    -10215.96     4.284565     4.284565     4.284565    -10215.96    -31382.52    11773.924   -11039.283   -18037.999    5775.0268    6982.6848    78.653889 
    6300    615.60713   -110.30758   0.55701427   -109.75057   -402.10353    4.2769582    4.2769582    4.2769582   -402.10353   -14707.564   -20088.733    33589.986   -16525.268   -1821.0132    4261.6579    78.235706 
    6400    1012.1118   -110.66529      0.91578   -109.74951   -4481.3408    4.2690818    4.2690818    4.2690818   -4481.3408   -18387.223   -3940.2579    8883.4581    21879.029   -3272.9546   -9710.6176     77.80427 
    6500    818.57627   -110.49631   0.74066501   -109.75564   -21742.819    4.2915068    4.2915068    4.2915068   -21742.819   -28816.302   -16298.066   -20114.089   -5396.4228    -537.9374    1964.4427    79.036811 
    6600    966.60168    -110.6275   0.87460151    -109.7529    9075.2375    4.2643683    4.2643683    4.2643683    9075.2375    -14858.59    21096.454    20987.848   -20082.738   -9276.2584   -755.28032    77.546841 
    6700    701.43569   -110.39881   0.63467375   -109.76414    11127.102    4.2732708    4.2732708    4.2732708    11127.102   -9521.8857    30376.669    12526.523    4726.0071    6652.3833    -12315.77    78.033527 
    6800    904.66532   -110.56468   0.81856019   -109.74612   -35069.552    4.2988472    4.2988472    4.2988472   -35069.552    -48621.55   -28679.377    -27907.73     18532.83       1718.1   -7345.1097    79.443073 
    6900    983.30555    -110.6232   0.88971553   -109.73349    21889.225    4.2557284    4.2557284    4.2557284    21889.225   -4918.0813    43694.749    26891.009   -17671.599   -3249.5796    129.71448    77.076449 
    7000    836.93479    -110.5124   0.75727618   -109.75513   -3937.2051    4.2742637    4.2742637    4.2742637   -3937.2051   -7855.9351   -24274.566    20318.886   -5621.3579   -3713.4913    9831.5491    78.087933 
    7100    873.43445   -110.53638   0.79030185   -109.74607   -34817.426    4.2922476    4.2922476    4.2922476   -34817.426   -39764.017    -48290.15   -16398.112    21180.469   -4406.0631   -4505.5804    79.077747 
    7200    993.32419   -110.63641    0.8987806   -109.73763    17440.211    4.2589343    4.2589343    4.2589343    17440.211    10728.063     34220.08     7372.488   -3542.4566    2625.6667   -7234.5865    77.250771 
    7300    1076.9233   -110.72205    0.9744228   -109.74763    -6681.306    4.2772201    4.2772201    4.2772201    -6681.306     -15112.7    424.67651   -5355.8949   -10882.641   -9473.7424    7703.1084    78.250079 
    7400    862.81176   -110.52919   0.78069021    -109.7485    4238.2355    4.2806321    4.2806321    4.2806321    4238.2355   -32931.344    25263.097    20382.954    14882.221    3817.1077   -4547.1746    78.437492 
    7500    873.28339    -110.5385   0.79016516   -109.74834     8707.626     4.268645     4.268645     4.268645     8707.626   -371.72449     30594.56   -4099.9578    13628.595    611.79221   -7595.0324     77.78039 
    7600     965.3721   -110.62519   0.87348896   -109.75171    1562.7279    4.2721575    4.2721575    4.2721575    1562.7279    1695.0723     11708.09   -8714.9784   -11680.455   -5809.3303   -17232.017    77.972557 
    7700    980.85831   -110.63966   0.88750121   -109.75216    11861.172    4.2775294    4.2775294    4.2775294    11861.172   -31345.254    43921.422    23007.348     2414.387   -901.07653   -827.49313    78.267058 
    7800    902.38034   -110.56763   0.81649269   -109.75114     -14821.7    4.2846411    4.2846411    4.2846411     -14821.7   -28312.229   -32374.566    16221.697    22614.505    1290.2902   -6076.8163    78.658083 
    7900    847.30049   -110.51485   0.76665529   -109.74819    7158.1071    4.2610465    4.2610465    4.2610465    7158.1071    23637.535    11515.827   -13679.041   -1871.9385   -388.96402   -12167.324    77.365767 
    8000    1107.6059   -110.76086    1.0021851   -109.75868   -13437.458    4.2733663    4.2733663    4.2733663   -13437.458   -22006.863    17426.417   -35731.928    2285.6702   -16622.105    13937.752    78.038759 
    8100    837.63478   -110.51344   0.75790955   -109.75553    -14844.38    4.2884647    4.2884647    4.2884647    -14844.38     -36565.3   -25450.938    17483.097    16336.214    6255.1735    -11452.19    78.868849 
    8200     1188.731   -110.82213    1.0755888   -109.74654    20830.418    4.2498082    4.2498082    4.2498082    20830.418    34607.958    14936.105    12947.191   -1694.4369   -2822.5241   -7319.4918    76.755234 
    8300    718.55896   -110.41709   0.65016724   -109.76692   -4582.9748    4.2810081    4.2810081    4.2810081   -4582.9748   -19652.076    3573.9419    2329.2093   -4302.8447   -13828.506    -3342.165    78.458166 
    8400    944.77713   -110.60389    0.8548542   -109.74904   -32957.385    4.2917715    4.2917715    4.2917715   -32957.385   -45380.869     -23193.5   -30297.785    7911.2737     149.3359    2812.7848    79.051441 
    8500    1033.2752   -110.66506   0.93492908   -109.73013    51684.215     4.245106     4.245106     4.245106    51684.215    36752.754    33546.051     84753.84    11556.181    10604.152   -3250.9988    76.500735 
    8600     1071.206   -110.72009   0.96924966   -109.75085   -19415.258    4.2766158    4.2766158    4.2766158   -19415.258   -21854.215    3537.3716    -39928.93   -2632.2634   -13409.708   -15564.804    78.216922 
    8700    666.42881   -110.35636   0.60299879   -109.75336   -11425.116    4.2818942    4.2818942    4.2818942   -11425.116   -18493.666     11598.95   -27380.631   -4971.2869   -22940.557    147.16445    78.506896 
    8800    1074.2824   -110.71914   0.97203328   -109.74711    8754.0962    4.2660697    4.2660697    4.2660697    8754.0962   -2195.0914    16941.172    11516.208    15158.252    8769.3615   -786.02465    77.639699 
    8900    1122.5334   -110.76155    1.0156918   -109.74586   -717.61072    4.2761175    4.2761175    4.2761175   -717.61072   -15273.697    9379.8598    3741.0054    1865.4939   -5060.3869    5478.3455    78.189583 
    9000    780.19612   -110.45743   0.70593785   -109.75149    10259.099    4.2704406    4.2704406    4.2704406    10259.099   -18106.615    38373.393    10510.521   -8206.9805   -22761.419    112.73159    77.878587 
    9100    1026.1707   -110.68696    0.9285008   -109.75845   -21463.951    4.2753582    4.2753582    4.2753582   -21463.951    -32921.52   -9788.8639   -21681.469    12181.931   -133.35656   -2853.7171    78.147937 
    9200    930.07613    -110.5966   0.84155243   -109.75504    14057.898    4.2696592    4.2696592    4.2696592    14057.898   -9389.1867   -11491.704    63054.585    11428.621    5883.2672    3365.6433    77.835841 
    9300    1097.7108    -110.7484   0.99323182   -109.75517   -13816.182    4.2753171    4.2753171    4.2753171   -13816.182   -19245.337    3077.5163   -25280.725   -1819.3696    -20664.74    11515.015    78.145684 
    9400    771.43674   -110.45389   0.69801217   -109.75588   -15311.936    4.2775767    4.2775767    4.2775767   -15311.936   -26735.786   -10636.841   -8563.1808    10453.114   -22342.009   -10418.364    78.269656 
    9500     903.0586   -110.57351    0.8171064   -109.75641    1322.4435    4.2702612    4.2702612    4.2702612    1322.4435    2752.8938   -19264.398    20478.835    9459.3582    9443.7043   -3761.9924     77.86877 
    9600    1078.5904   -110.73065   0.97593127   -109.75472   -15449.829     4.272977     4.272977     4.272977   -15449.829   -12029.195   -6739.1109   -27581.182   -1905.0096   -12110.909     20306.75    78.017433 
    9700    774.09711   -110.45764   0.70041933   -109.75722    15047.137    4.2686813    4.2686813    4.2686813    15047.137   -3743.0629    24970.356    23914.117    -2205.936   -18360.227     1923.256    77.782375 
    9800    995.57383   -110.65742   0.90081613    -109.7566   -6484.4668    4.2773238    4.2773238    4.2773238   -6484.4668   -6786.1133    158.59045   -12825.878    7966.4166    546.22383   -11364.441    78.255774 
    9900    740.29861   -110.42446   0.66983774   -109.75462    17623.878    4.2741031    4.2741031    4.2741031    17623.878    10503.496    11604.458    30763.682    3645.6791    5212.2544    5450.4137    78.079132 
   10000    1050.1513   -110.70107   0.95019896   -109.75087   -4790.8224    4.2740043    4.2740043    4.2740043   -4790.8224   -2373.3059    17655.307   -29654.468   -10035.248   -11596.363    7372.5938    78.073719 
   10100    763.00153   -110.44119   0.69037982   -109.75081    18353.604    4.2706942    4.2706942    4.2706942    18353.604    11166.759    34789.254    9104.7985   -197.77893   -11421.885   -4310.3149    77.892459 
   10200     952.2059   -110.61505   0.86157591   -109.75347    1500.7189    4.2726143    4.2726143    4.2726143    1500.7189    16772.927   -13968.275    1697.5047    9044.7727    10004.956   -6504.1416    77.997571 
   10300    755.90511   -110.44058   0.68395883   -109.75663    842.11257    4.2760166    4.2760166    4.2760166    842.11257    15572.917   -11173.012   -1873.5669   -3749.0122   -1822.6466    17718.504    78.184047 
   10400    1027.4823   -110.68061   0.92968759   -109.75093    9839.0751    4.2705553    4.2705553    4.2705553    9839.0751    6011.2937     7363.859    16142.073   -8857.0383   -8931.2319    7422.1596    77.884864 
   10500    928.23581     -110.592   0.83988727   -109.75211   -9484.8984    4.2829513    4.2829513    4.2829513   -9484.8984   -1916.1078   -17188.887   -9349.7005    5900.7143    4117.0246   -16620.904    78.565053 
   10600    801.63398   -110.47532   0.72533528   -109.74998    7281.5913    4.2668572    4.2668572    4.2668572    7281.5913     31387.13    -14252.72    4710.3641    11369.384   -244.33082    3842.6479    77.682703 
   10700    1033.9247   -110.69066   0.93551681   -109.75514    1183.5777    4.2703029    4.2703029    4.2703029    1183.5777    5917.3592    7709.9513   -10076.577   -6669.7944   -3668.4222    16311.614    77.871053 
   10800    1006.5758   -110.66529   0.91077098   -109.75452   -12629.546    4.2841584    4.2841584    4.2841584   -12629.546   -14034.696    -12333.32    -11520.62   -8829.3352    -10287.41   -8093.1864    78.631501 
   10900    964.67216   -110.62411   0.87285564   -109.75125    12851.262    4.2648937    4.2648937    4.2648937    12851.262    38649.779    12482.213   -12578.206     13528.05    2970.0966   -5056.0838     77.57551 
   11000    795.06318   -110.47512   0.71938987   -109.75573   -6751.1211    4.2797747    4.2797747    4.2797747   -6751.1211   -9992.4128   -6655.8683   -3605.0823    6317.2765   -1138.9535    8241.3246     78.39037 
   11100    1176.3557   -110.81111    1.0643913   -109.74672    -9695.239    4.2760542    4.2760542    4.2760542    -9695.239   -16491.464    2673.6493   -15267.902   -12813.669   -6885.0477    10304.611    78.186108 
   11200    1084.3595   -110.72853   0.98115126   -109.74738    8506.5817    4.2685883    4.2685883    4.2685883    8506.5817   -3215.3329    10327.302    18407.776   -2093.3489   -72.825031   -5321.1385     77.77729 
   11300    1038.4338   -110.69098   0.93959669   -109.75138   -19543.445    4.2811726    4.2811726    4.2811726   -19543.445    -19517.64   -4447.1074   -34665.589    14973.065   -826.69366    1367.6132    78.467209 
   11400    796.07796   -110.47303   0.72030807   -109.75273    6128.8842    4.2740334    4.2740334    4.2740334    6128.8842   -11958.551   -1799.1263     32144.33   -1706.2017   -185.69747     8541.872    78.075312 
   11500    1045.8502   -110.69771    0.9463072    -109.7514    391.43888    4.2738795    4.2738795    4.2738795    391.43888    9550.0624    2133.1686   -10508.914   -20529.036   -3423.1411   -10950.697    78.066882 
   11600    926.60266   -110.58666   0.83840956   -109.74825    74.290318    4.2821886    4.2821886    4.2821886    74.290318    14788.213   -2935.6706   -11629.671    7534.1693   -10181.502    357.10625    78.523087 
   11700    731.70811   -110.40834   0.66206487   -109.74628   -3137.5143    4.2807109    4.2807109    4.2807109   -3137.5143    1617.7979   -5107.5041   -5922.8367    5786.7731    3715.4736    6128.9184    78.441826 
   11800    765.29819   -110.43666   0.69245788   -109.74421     2667.298    4.2781289    4.2781289    4.2781289     2667.298    -5385.839    7339.1499    6048.5831    -25492.99    -2057.107   -14193.928     78.29997 
   11900    951.02425   -110.60344   0.86050673   -109.74293    12285.653    4.2766731    4.2766731    4.2766731    12285.653    846.31982     38652.71   -2642.0707   -14530.309   -4470.6383    944.08703    78.220064 
   12000    1027.1059   -110.67432   0.92934701   -109.74497    9930.3866    4.2714156    4.2714156    4.2714156    9930.3866      3315.12    33806.709   -7330.6689   -976.45868   -2620.6591    2990.8395    77.931941 
   12100    472.98682   -110.18418   0.42796842   -109.75621   -8300.3389    4.2845359    4.2845359    4.2845359   -8300.3389   -29946.258    12131.352   -7086.1106    -20827.68    4038.4267     1501.602    78.652285 
   12200    785.91055   -110.45808   0.71110838   -109.74698    -8994.795    4.2820687    4.2820687    4.2820687    -8994.795   -30421.293    6735.8133    -3298.905   -16366.524    473.30146    3681.3662    78.516491 
   12300    1174.2293   -110.79893    1.0624673   -109.73647    12519.797    4.2702229    4.2702229    4.2702229    12519.797   -2015.9573    35267.304    4308.0445    3088.0669   -5651.4633    1342.6673    77.866676 
   12400    823.34695   -110.49359   0.74498162    -109.7486   -7202.3492    4.2793031    4.2793031    4.2793031   -7202.3492   -5096.7579   -14926.417   -1583.8731   -12268.505    10523.118    15441.222    78.364462 
   12500     619.7053   -110.31253   0.56072238    -109.7518    -10715.32    4.2781296    4.2781296    4.2781296    -10715.32   -32580.993    -3033.812    3468.8436   -23333.305    -1866.185   -5224.2405    78.300008 
   12600    852.80151   -110.52332   0.77163273   -109.75169    8042.6923    4.2728694    4.2728694    4.2728694    8042.6923   -21275.007    25717.756    19685.328    9336.8029   -1217.6093   -3668.0244    78.011542 
   12700    1048.4879   -110.69765    0.9486939   -109.74896    4655.7407    4.2692298    4.2692298    4.2692298    4655.7407   -6788.5331    29380.973   -8625.2177    4423.9024   -296.19786    1125.1354    77.812362 
   12800    689.04108   -110.37784   0.62345885   -109.75438    2770.8897    4.2706035    4.2706035    4.2706035    2770.8897   -22032.164    9294.5915    21050.241   -25866.781    3978.6455   -4178.8377    77.887496 
   12900    628.09648   -110.32531   0.56831489     -109.757   -21556.092    4.2804774    4.2804774    4.2804774   -21556.092   -33656.147   -28213.514   -2798.6158   -3810.2417    686.37356    37.084063    78.428991 
   13000    748.64245   -110.42593   0.67738743   -109.74855     6292.127    4.2697658    4.2697658    4.2697658     6292.127   -10984.903    20766.171    9095.1126    13832.651   -9422.3842   -10133.672    77.841674 
   13100    1032.4686   -110.68047   0.93419929   -109.74627   -13648.868    4.2757058    4.2757058    4.2757058   -13648.868   -36066.357   -4578.0023   -302.24372   -21648.585    5888.4699   -496.73719    78.167003 
   13200    805.52947   -110.47693   0.72885999   -109.74807   -23349.154    4.2788557    4.2788557    4.2788557   -23349.154   -34514.917    -25441.66   -10090.886    -19296.21    1873.5781    -3659.941    78.339886 
   13300    617.51302   -110.30878   0.55873876   -109.75004    6072.0576    4.2626448    4.2626448    4.2626448    6072.0576    394.25473    15789.551    2032.3673    18503.665   -13535.173   -11273.705    77.452857 
   13400    846.03567   -110.52355   0.76551085   -109.75804   -4912.9391    4.2755934    4.2755934    4.2755934   -4912.9391   -14738.882    7614.9536   -7614.8885    3834.5705   -321.43443   -2964.7627    78.160834 
   13500    1102.2767   -110.74736   0.99736314      -109.75   -4806.9578    4.2779547    4.2779547    4.2779547   -4806.9578   -9735.6108    9375.3414   -14060.604   -13216.261    1333.6329    6241.8964    78.290409 
   13600    725.03669   -110.40653   0.65602844    -109.7505    449.33487    4.2676764    4.2676764    4.2676764    449.33487    -13509.79    13988.976    868.81849    3401.6362   -7774.8084   -5952.5894    77.727452 
   13700    601.28612   -110.30073   0.54405632   -109.75668   -15913.503    4.2726241    4.2726241    4.2726241   -15913.503    9914.4862   -28966.081   -28688.913    13593.904   -7704.5993   -12440.333    77.998107 
   13800     765.4273   -110.44992   0.69257471   -109.75735    11158.107    4.2753755    4.2753755    4.2753755    11158.107    7811.2782     15500.54    10162.503    5157.2034   -345.38005    6884.4388    78.148886 
   13900    1078.9138   -110.72901   0.97622392   -109.75279   -6396.5898    4.2794462    4.2794462    4.2794462   -6396.5898   -27233.346    21322.195   -13278.618    2027.9653    5615.9535    6422.8514     78.37232 
   14000    638.74631   -110.33418   0.57795109   -109.75623    1566.4679    4.2693868    4.2693868    4.2693868    1566.4679    -11732.81    5538.4276    10893.786    14206.647   -9168.0044    842.54758    77.820944 
   14100    494.88785   -110.20652   0.44778493   -109.75874    14429.805    4.2724872    4.2724872    4.2724872    14429.805    27093.601    5348.4744     10847.34    14420.735   -7509.5795   -5638.8874    77.990607 
   14200     971.8246   -110.63046   0.87932732   -109.75113   -6069.7331    4.2794339    4.2794339    4.2794339   -6069.7331   -10934.343     9995.203   -17270.059   -5053.7127    5738.0127    768.26783    78.371644 
   14300    884.18042   -110.54674   0.80002502   -109.74672    16676.476    4.2684186    4.2684186    4.2684186    16676.476    11734.075    8411.3742    29883.977    8398.1293    3338.0437      4262.11    77.768016 
   14400    860.15111   -110.53112    0.7782828   -109.75284   -21740.471    4.2832556    4.2832556    4.2832556   -21740.471    1655.4504   -34447.662   -32429.203    20501.687   -3691.9757    -13650.32      78.5818 
   14500    636.15669   -110.32254   0.57560794   -109.74693    8085.0718     4.275827     4.275827     4.275827    8085.0718    36385.551    -3985.241   -8145.0941    -4248.724    -3746.434   -18253.945    78.173646 
   14600    1142.7364   -110.77555    1.0339719   -109.74158   -655.88953    4.2717494    4.2717494    4.2717494   -655.88953    3950.9032    3589.9459   -9508.5177    3889.5102    15480.845    204.55707    77.950212 
   14700    920.42283   -110.57814   0.83281792   -109.74533   -24235.822    4.2878142    4.2878142    4.2878142   -24235.822   -8273.3346   -31544.993    -32889.14    7329.0737    115.47738    -9799.573    78.832965 
   14800    940.64264   -110.59359   0.85111323   -109.74248    -1519.654    4.2678661    4.2678661    4.2678661    -1519.654    11776.509   -13126.769   -3208.7022    3064.6699     1954.917   -17402.567    77.737821 
   14900    702.86243   -110.39113    0.6359647   -109.75517    7888.9033    4.2769452    4.2769452    4.2769452    7888.9033    8252.0905     8488.555    6926.0643    788.27846    19852.038   -4571.9667    78.234994 
   15000    940.62043   -110.59768   0.85109313   -109.74659    -13676.65    4.2890721    4.2890721    4.2890721    -13676.65   -38889.425    -12825.18    10684.656   -6447.5383    8615.7938    2597.7853    78.902371 
   15100    821.23678   -110.48435   0.74307229   -109.74128    17448.551    4.2671707    4.2671707    4.2671707    17448.551    17630.862   -18340.867    53055.656    3756.1185    2419.9173   -18130.549    77.699827 
   15200    850.11336   -110.52112   0.76920043   -109.75192    2779.7902    4.2717815    4.2717815    4.2717815    2779.7902    427.88617   -5948.9883    13860.473   -3517.4907    6164.1786   -16312.414    77.951969 
   15300    850.01435   -110.52259   0.76911085   -109.75348   -1603.9535    4.2856447    4.2856447    4.2856447   -1603.9535   -7732.6378    6042.3517   -3121.5743   -6568.9522    8115.0855    9606.4221    78.713367 
   15400    1105.4855   -110.74849    1.0002665   -109.74823   -11505.221    4.2784651    4.2784651    4.2784651   -11505.221    2136.6338   -27496.182   -9156.1137      14868.4    3388.7014    -1146.755    78.318431 
   15500    1012.0726   -110.66222   0.91574458   -109.74647    7282.9016    4.2621024    4.2621024    4.2621024    7282.9016    32856.415    -4002.985   -7004.7253   -1470.0061   -1577.0586   -22661.884    77.423292 
   15600    896.96515   -110.56699   0.81159292    -109.7554    7226.6716    4.2788472    4.2788472    4.2788472    7226.6716   -5817.0783   -1774.7957    29271.889   -1746.3108     10707.12   -10278.639    78.339416 
   15700    1050.2603   -110.69996    0.9502976   -109.74967     575.6579    4.2849198    4.2849198    4.2849198     575.6579     8030.867   -12338.942    6035.0486    9119.1698    7370.2957    7881.9768    78.673431 
   15800    944.53798    -110.5985   0.85463781   -109.74386    31516.547    4.2566886    4.2566886    4.2566886    31516.547    41199.805   -7985.4446     61335.28   -5482.7543   -13867.377   -17175.383    77.128636 
   15900    949.70845   -110.61347   0.85931616   -109.75415    181.76332    4.2725212    4.2725212    4.2725212    181.76332    17160.548   -3410.8995   -13204.359    3571.6351    11384.366    -21593.03    77.992473 
   16000    1023.5511    -110.6762   0.92613056   -109.75007   -17250.376    4.2824969    4.2824969    4.2824969   -17250.376   -12602.164   -10815.233   -28333.733   -530.46505    17753.402    9355.6477    78.540049 
   16100    1033.1994   -110.68096   0.93486053    -109.7461     3948.534    4.2635214    4.2635214    4.2635214     3948.534    12543.727    1582.1029   -2280.2278    5606.2511    3154.6565    328.80802    77.500651 
   16200    989.95177    -110.6472   0.89572917   -109.75147    -12013.46    4.2743287    4.2743287    4.2743287    -12013.46    4301.7331    -23011.13   -17330.983    1704.4303   -4736.5809   -26969.213    78.091497 
   16300    988.88254   -110.64441   0.89476171   -109.74965    -14335.24    4.2774455    4.2774455    4.2774455    -14335.24   -9835.9713   -7534.1152   -25635.634    -5702.911    21051.026   -7677.3959    78.262451 
   16400     836.2689   -110.50742   0.75667368   -109.75074    658.17978     4.271041     4.271041     4.271041    658.17978   -18192.726    -17329.82    37497.085    14164.484    18190.439    3205.0045    77.911437 
   16500    959.36481   -110.62221   0.86805344   -109.75415    11751.258    4.2686007    4.2686007    4.2686007    11751.258    25204.978   -4401.4093    14450.204    5734.7221   -6737.2913   -8020.7298     77.77797 
   16600    1208.6632   -110.84849    1.0936239   -109.75486    7337.9443    4.2720138    4.2720138    4.2720138    7337.9443    9221.0168   -14395.096    27187.912    -542.7201   -9432.8257   -389.79745    77.964687 
   16700    730.46496   -110.41794   0.66094004     -109.757    -20332.98    4.2855616    4.2855616    4.2855616    -20332.98    -17805.59   -19122.239   -24071.111    11618.924    26478.535    3487.9946    78.708788 
   16800    909.29118    -110.5724   0.82274577   -109.74966    1497.5054    4.2646804    4.2646804    4.2646804    1497.5054    12562.179   -6287.6486   -1782.0143    7178.7096    9554.7976     15777.06    77.563869 
   16900    1163.0983   -110.80095    1.0523958   -109.74856    10985.191    4.2719204    4.2719204    4.2719204    10985.191    15980.174    11596.139    5379.2609     3418.213   -6370.1499   -3128.4637    77.959573 
   17000     971.1801   -110.62687   0.87874416   -109.74813   -22232.357    4.2857942    4.2857942    4.2857942   -22232.357   -34349.192   -10669.911   -21677.967    2547.6487    19835.004   -12552.189    78.721606 
   17100    531.67419   -110.23137   0.48106998    -109.7503     22098.59    4.2597978    4.2597978    4.2597978     22098.59    5286.4069    9846.9932    51162.371    9894.9866    18126.528    13384.104    77.297769 
   17200    1116.8094   -110.76291    1.0105126   -109.75239   -2353.8398    4.2754745    4.2754745    4.2754745   -2353.8398   -7607.8732   -17027.862    17574.215    10001.242   -1104.7087   -555.79656    78.154317 
   17300    1054.8825   -110.70161   0.95447987   -109.74713    7177.9815    4.2795136    4.2795136    4.2795136    7177.9815   -6989.3679    3698.7525     24824.56   -6038.9681    6483.9922   -11508.696    78.376025 
   17400    747.59367   -110.42663   0.67643847   -109.75019    7973.1086    4.2662253    4.2662253    4.2662253    7973.1086    98.108657      22921.4    899.81696     6440.689    15352.843    4002.8606    77.648196 
   17500     826.8332   -110.49902   0.74813606   -109.75088    -9433.158    4.2740575    4.2740575    4.2740575    -9433.158   -6879.0879   -21402.789   -17.597338     6166.444   -650.96589    13978.522    78.076632 
   17600    1117.0041   -110.75296    1.0106888   -109.74227    -1526.797    4.2768456    4.2768456    4.2768456    -1526.797    11415.564   -23224.081    7228.1253   -2109.1007   -5980.8737    10115.908    78.229528 
   17700    889.67949   -110.55188   0.80500069   -109.74688   -14253.872    4.2796226    4.2796226    4.2796226   -14253.872   -24242.445    -8772.125   -9747.0477     5683.157    16157.288   -3996.5802    78.382015 
   17800    515.15572   -110.21408   0.46612372   -109.74796    14394.664    4.2688497    4.2688497    4.2688497    14394.664   -3642.8322    4373.5904    42453.234    7611.7681    6221.9036     7183.016     77.79158 
   17900     1131.117      -110.77    1.0234584   -109.74654   -3450.4536    4.2665199    4.2665199    4.2665199   -3450.4536     7574.523   -27058.284    9132.4002    2475.6304   -11104.125    15903.675    77.664281 
   18000    848.85886   -110.51919   0.76806534   -109.75113   -15535.134    4.2823343    4.2823343    4.2823343   -15535.134   -9980.5523   -33158.377   -3466.4738   -6141.8116    10086.465   -5801.5417    78.531104 
   18100    873.86453   -110.53621   0.79069099   -109.74552   -25611.781    4.2807969    4.2807969    4.2807969   -25611.781    -31835.28   -26572.985   -18427.078    6268.5268    30310.103    7923.8598    78.446556 
   18200     969.9583   -110.61803   0.87763865   -109.74039    8748.2156    4.2712818    4.2712818    4.2712818    8748.2156    28179.621   -12020.032    10085.058    4529.8006   -7105.8025     16401.26    77.924617 
   18300    1198.3587   -110.82721    1.0843001   -109.74291   -1303.0326    4.2665765    4.2665765    4.2665765   -1303.0326    7394.0398   -7500.9609   -3802.1769   -4180.2608    -3906.325    -10419.24     77.66737 
   18400    641.77784   -110.33625   0.58069408   -109.75555     3869.644     4.272997     4.272997     4.272997     3869.644    8162.5644   -18871.333      22317.7    4538.8244    18496.006   -5889.4159    78.018532 
   18500    863.67834   -110.53613   0.78147431   -109.75465   -11152.618    4.2864983    4.2864983    4.2864983   -11152.618   -11427.649   -34500.956    12470.752     5440.531   -264.99544    2075.7997    78.760408 
   18600    1048.7547   -110.69005   0.94893529   -109.74111     27781.97    4.2699168    4.2699168    4.2699168     27781.97    31802.653    10008.553    41534.704   -1897.0601    -4956.213   -5527.8407     77.84993 
   18700    684.22625   -110.36941   0.61910229   -109.75031    6122.5259    4.2701353    4.2701353    4.2701353    6122.5259    3441.2306    6633.7324    8292.6148   -3754.2382    8311.9374   -9553.9452    77.861886 
   18800    506.58131   -110.21112   0.45836542   -109.75275   -15435.822    4.2877015    4.2877015    4.2877015   -15435.822   -30768.889   -6300.7073   -9237.8689    9151.4617    11310.113   -6366.8894    78.826751 
   18900    1209.8484   -110.83447    1.0946963   -109.73977    11355.035    4.2702792    4.2702792    4.2702792    11355.035    6806.8651    11705.641    15552.599   -4799.4888    691.14016   -2656.5249    77.869758 
   19000    768.68394   -110.44667   0.69552138   -109.75115     8454.319    4.2740901    4.2740901    4.2740901     8454.319   -7346.7072    53716.129   -21006.465   -4045.7971    5946.9638   -5930.4372    78.078422 
   19100    582.16474   -110.28143   0.52675489   -109.75468   -20785.219    4.2801058    4.2801058    4.2801058   -20785.219   -30511.699   -3347.6053   -28496.354    11808.338    17858.618   -10595.755    78.408568 
   19200    1129.7348     -110.766    1.0222078   -109.74379    4749.0713    4.2747169    4.2747169    4.2747169    4749.0713    16432.187   -4508.2643    2323.2916    1491.2727   -6038.5069    2134.4312    78.112776 
   19300    1179.7986   -110.81334    1.0675066   -109.74584   -18224.872    4.2831579    4.2831579    4.2831579   -18224.872   -21960.483   -7078.6093   -25635.522   -2443.8338    1463.1404      5584.34    78.576425 
   19400    660.82068   -110.34898   0.59792444   -109.75105    9247.8626    4.2606299    4.2606299    4.2606299    9247.8626    23292.194   -1441.8838     5893.278    10225.115    19889.469   -3202.9532    77.343074 
   19500    1003.8089    -110.6646   0.90826743   -109.75633   -4090.3101    4.2768737    4.2768737    4.2768737   -4090.3101   -5914.2469   -11979.369    5622.6861    14127.158   -2267.8278   -4609.2461     78.23107 
   19600    1044.3265   -110.68654   0.94492856   -109.74161   -34527.434    4.2964341    4.2964341    4.2964341   -34527.434   -34822.444   -27842.687   -40917.171   -1764.6337    1379.7757    17062.015    79.309362 
   19700    744.38795   -110.41068   0.67353786   -109.73714    16881.974    4.2496321    4.2496321    4.2496321    16881.974   -7621.8235    39435.825     18831.92    1369.7978    25527.573   -246.91187    76.745691 
   19800    831.45301   -110.50876   0.75231616   -109.75644    7108.5436    4.2653287    4.2653287    4.2653287    7108.5436   -6976.9393    13407.344    14895.226    10744.106    3089.9715   -5521.2189     77.59925 
   19900    1138.7249   -110.77208    1.0303423   -109.74173   -15407.236    4.2876543    4.2876543    4.2876543   -15407.236   -30138.747   -13037.216   -3045.7434     6241.408   -3789.6302   -2790.5976    78.824151 
   20000    568.14917    -110.2567   0.51407331   -109.74263    17849.975    4.2682765    4.2682765    4.2682765    17849.975   -21087.887    41817.212    32820.602   -8772.1683    7555.9246    4013.7858     77.76025 
   20100    871.94941    -110.5315   0.78895815   -109.74255   -19837.381    4.2789126    4.2789126    4.2789126   -19837.381   -44767.946   -3808.9141   -10935.282    6627.7588    8607.7562    -287.8597    78.343007 
   20200    1215.7126   -110.83716    1.1000023   -109.73716    16606.319    4.2640039    4.2640039    4.2640039    16606.319    2704.9646    6740.5258    40373.465    4474.8305   -7289.3272   -5735.5469    77.526963 
   20300    809.37555   -110.48671   0.73234001   -109.75437   -12463.536    4.2690531    4.2690531    4.2690531   -12463.536   -20359.248   -4578.1452   -12453.213   -11613.886    7950.1177    12481.106    77.802701 
   20400    557.47643   -110.26397   0.50441639   -109.75955   -32612.477    4.2801117    4.2801117    4.2801117   -32612.477   -52389.889   -2378.0144   -43069.528    4164.4104    11900.306    2697.7256    78.408892 
   20500    1270.5678    -110.8934    1.1496365   -109.74376    15218.408    4.2612144    4.2612144    4.2612144    15218.408    -3016.093    16318.304    32353.013    3943.3169    -6327.736   -4916.6515     77.37491 
   20600    1031.3897   -110.68327   0.93322308   -109.75005   -7466.2245    4.2760683    4.2760683    4.2760683   -7466.2245   -20926.356    7700.4201   -9172.7372    -6521.906    11185.412    2898.1297    78.186886 
   20700    468.57334    -110.1798   0.42397501   -109.75583    1766.1623    4.2731899    4.2731899    4.2731899    1766.1623   -8316.8621    18934.907   -5319.5579   -2844.2659    11714.977    4880.0608    78.029097 
   20800    1112.0223   -110.75215    1.0061812   -109.74596    9277.8007    4.2644404    4.2644404    4.2644404    9277.8007   -16708.277    23340.816    21200.863   -1367.2696    2632.7573    10169.152    77.550778 
   20900    1019.7418   -110.66955   0.92268379   -109.74687    3552.8803    4.2738408    4.2738408    4.2738408    3552.8803    -11430.35    16019.806    6069.1859    3573.0285   -692.04131   -15002.016    78.064757 
   21000    801.16535   -110.47757   0.72491125   -109.75265   -8397.7081    4.2677978    4.2677978    4.2677978   -8397.7081   -16623.292   -8644.0551    74.222799   -12319.831    6452.3301   -5036.8609    77.734086 
   21100    792.90234   -110.46871    0.7174347   -109.75128    4350.9603    4.2719292    4.2719292    4.2719292    4350.9603    970.90673    8339.8141    3742.1601    -3964.462    5399.5481    12994.746    77.960057 
   21200    1181.5022   -110.81367     1.069048   -109.74462   -10341.197    4.2736376    4.2736376    4.2736376   -10341.197    -7019.171   -10926.733   -13077.686    8668.2315   -5744.4766   -21079.558    78.053626 
   21300    812.38247   -110.48377   0.73506073   -109.74871   -102.09514    4.2631785    4.2631785    4.2631785   -102.09514    9635.5109    -10787.39     845.5939   -6239.5645    7135.8383   -21043.821    77.481954 
   21400    895.92319   -110.56293   0.81065013   -109.75228   -12482.872    4.2722588    4.2722588    4.2722588   -12482.872   -39998.763    662.55816    1887.5898   -7471.9327    15840.162    9490.1393    77.978103 
   21500    1059.7005   -110.70601   0.95883931   -109.74717   -2222.1303    4.2736536    4.2736536    4.2736536   -2222.1303    421.92457   -7302.7575    214.44192    4196.4395   -5402.5386    1644.0813    78.054499 
   21600    774.55125   -110.44932   0.70083025   -109.74849    14636.123    4.2683065    4.2683065    4.2683065    14636.123    18084.745     21657.35    4166.2726    6097.4501   -1869.6754   -17421.519    77.761887 
   21700    930.89764   -110.59353   0.84229575   -109.75123    -6474.808    4.2697816    4.2697816    4.2697816    -6474.808    -23871.07    1215.9996    3230.6461   -5364.2675    11702.721   -8002.7504    77.842538 
   21800    981.85417   -110.63875   0.88840229   -109.75035    16103.313    4.2635293    4.2635293    4.2635293    16103.313    -15090.07    50479.377    12920.632   -3826.6492    6268.9486    9133.6093    77.501078 
   21900    1018.1539   -110.67706   0.92124705   -109.75582   -9609.5899    4.2797329    4.2797329    4.2797329   -9609.5899   -9086.2875   -9846.0002   -9896.4819    17626.092   -8043.3636    -14814.09    78.388076 
   22000    768.37574   -110.44283   0.69524252   -109.74759    336.57295    4.2805516    4.2805516    4.2805516    336.57295   -10160.303    397.90456    10772.117    8252.9893   -543.71606    -13700.88    78.433068 
   22100    1278.7969   -110.89307    1.1570823   -109.73599    3110.4377    4.2623647    4.2623647    4.2623647    3110.4377   -12281.266    23853.418   -2240.8387   -11801.813    9387.3663   -1273.1499     77.43759 
   22200    1020.4606   -110.66942    0.9233342   -109.74608   -2180.5535    4.2661662    4.2661662    4.2661662   -2180.5535   -3460.1691    5718.0323   -8799.5237    671.04968   -4339.9568   -8601.3607    77.644968 
   22300    705.46436   -110.39437   0.63831898   -109.75605   -3461.1515    4.2768772    4.2768772    4.2768772   -3461.1515   -10455.934    18108.228   -18035.749    13062.615   -2055.0795   -20749.871    78.231265 
   22400    987.43566   -110.64244   0.89345253   -109.74898   -8924.3391    4.2849321    4.2849321    4.2849321   -8924.3391   -25507.949    21033.804   -22298.872   -7234.0516    10529.867    3993.8496    78.674106 
   22500    1083.5251   -110.72499   0.98039624   -109.74459    14532.992    4.2609016    4.2609016    4.2609016    14532.992    -4441.668     41027.47    7013.1733   -8280.6905    2570.2354    14444.403    77.357874 
   22600    840.65388   -110.51349   0.76064129   -109.75285    2360.3208    4.2592088    4.2592088    4.2592088    2360.3208    281.16567   -9695.5942    16495.391    21403.995   -4418.7042   -23594.965    77.265706 
   22700    826.54142   -110.50528   0.74787205    -109.7574   -27079.976    4.2849872    4.2849872    4.2849872   -27079.976   -24424.661   -26236.042   -30579.226    4651.7105    2058.8817   -16431.918    78.677142 
   22800    1240.3992   -110.86967    1.1223393   -109.74733    11379.027    4.2628186    4.2628186    4.2628186    11379.027     2443.405    19722.874    11970.803   -7817.7149    5925.5065    17509.875    77.462328 
   22900    764.00328   -110.44108   0.69128622    -109.7498     26126.02    4.2624904    4.2624904    4.2624904     26126.02    6546.3079    39774.761    32056.993    14684.225    3903.3733   -7395.9157     77.44444 
   23000    851.68638   -110.52149   0.77062373   -109.75087   -17656.086    4.2821712    4.2821712    4.2821712   -17656.086   -22184.744    -4546.514       -26237    17830.015   -3831.7431   -19592.063    78.522129 
   23100    938.68604   -110.59329   0.84934285   -109.74395    23276.946    4.2621342    4.2621342    4.2621342    23276.946    20207.754    53340.568   -3717.4832   -1434.0798    743.26023    1658.7024    77.425026 
   23200    1063.5159   -110.71298    0.9622915   -109.75069   -9944.5355    4.2694442    4.2694442    4.2694442   -9944.5355   -8472.6879   -8147.5153   -13213.403   -5924.4991    5067.8605     11520.21    77.824084 
   23300    808.94474   -110.48376    0.7319502   -109.75181     1920.534    4.2724618    4.2724618    4.2724618     1920.534    14563.919   -13441.756    4639.4388    14744.428    3095.3437   -1964.1033    77.989218 
   23400    1144.2004   -110.78174    1.0352966   -109.74644   -888.85955    4.2644866    4.2644866    4.2644866   -888.85955    2744.8736    4651.3785   -10062.831    8481.7549   -10354.766   -13275.327    77.553299 
   23500    664.37866   -110.35436   0.60114377   -109.75322   -23630.513     4.276281     4.276281     4.276281   -23630.513   -27114.699   -6851.1658   -36925.674   -16773.014    355.40407    19279.395    78.198551 
   23600    905.26392    -110.5713   0.81910182    -109.7522    1771.7448    4.2606248    4.2606248    4.2606248    1771.7448   -2377.0117    11144.484   -3452.2381     6167.915    5621.1178    10771.828    77.342795 
   23700    1054.0833   -110.70558   0.95375669   -109.75182    11067.419    4.2715322    4.2715322    4.2715322    11067.419   -12844.524    35606.247    10440.533   -432.38455     -2164.34   -5449.1098    77.938324 
   23800    730.53186   -110.41599   0.66100057   -109.75499   -13392.523    4.2779976    4.2779976    4.2779976   -13392.523   -33323.066    24238.568   -31093.073   -4365.9333   -6743.8633    18881.724     78.29276 
   23900    665.28474   -110.35235   0.60196361   -109.75038    13546.066    4.2577239    4.2577239    4.2577239    13546.066    11880.532    28126.819    630.84551   -15334.504    141.37534    20709.318    77.184925 
   24000    1063.1357   -110.71076   0.96194756   -109.74882    -2842.585    4.2776541    4.2776541    4.2776541    -2842.585    -8042.499     2417.065   -2902.3211   -1608.0779    4934.6154    3763.4006    78.273902 
   24100    972.33791   -110.62602   0.87979177   -109.74623    4125.2107     4.271761     4.271761     4.271761    4125.2107   -64.882384     13054.54   -614.02513      10115.1    -8016.015    2286.8173    77.950848 
   24200    556.04456   -110.25339    0.5031208   -109.75027     12141.58    4.2607972    4.2607972    4.2607972     12141.58    24818.821    8453.5643    3152.3531   -10680.405    -1548.792    12662.504    77.352185 
   24300    879.70156   -110.54911   0.79597246   -109.75314   -17018.932    4.2730534    4.2730534    4.2730534   -17018.932   -14246.333   -33866.592   -2943.8704   -14726.043    3008.2571    13692.082    78.021621 
   24400      1058.26   -110.70623   0.95753593   -109.74869    15059.317    4.2656057    4.2656057    4.2656057    15059.317    20657.463    13995.333    10525.156    1016.5192   -8281.6151   -8741.6654     77.61437 
   24500    902.89358   -110.57023   0.81695709   -109.75328   -20350.139    4.2800736    4.2800736    4.2800736   -20350.139   -11219.155   -20796.609   -29034.653    3878.7567    -7183.486    3043.7002    78.406794 
   24600    663.02666   -110.34934   0.59992046   -109.74942   -8231.4052    4.2709383    4.2709383    4.2709383   -8231.4052   -24447.093   -6667.9908    6420.8687    -17191.48    605.99735    12911.052    77.905818 
   24700    1225.3435   -110.84887    1.1087165   -109.74015    149.86829    4.2592493    4.2592493    4.2592493    149.86829    2795.9924   -5716.4452    3370.0577   -12351.472   -503.52517   -9243.0215    77.267912 
   24800    1029.4063   -110.67939   0.93142846   -109.74796   -17297.734    4.2790804    4.2790804    4.2790804   -17297.734    2721.9134   -11106.306   -43508.808    10750.736   -11890.691   -13204.875    78.352224 
   24900    797.86275   -110.47375   0.72192298   -109.75183   -1939.5713    4.2643362    4.2643362    4.2643362   -1939.5713    10198.362   -7362.2404   -8654.8351    -15958.61   -6911.7649    8804.8486    77.545091 
   25000      683.667   -110.37453   0.61859626   -109.75593    6830.6735     4.269684     4.269684     4.269684    6830.6735    17598.163   -12060.015    14953.872   -23958.783    1036.9906    3790.9953    77.837199 
   25100    1277.4711   -110.90116    1.1558827   -109.74527   -21125.419    4.2798612    4.2798612    4.2798612   -21125.419   -11692.823   -20678.517   -31004.915    15241.414   -1604.7581   -13662.182    78.395124 
   25200    842.57974   -110.50578   0.76238386    -109.7434    27273.086    4.2558962    4.2558962    4.2558962    27273.086    38446.904    26662.542    16709.812   -8692.8063   -290.11287    1258.4067     77.08557 
   25300    607.77975   -110.30542   0.54993189   -109.75548    -11569.29    4.2742204    4.2742204    4.2742204    -11569.29   -26548.282   -15408.609    7249.0217   -26251.777   -1010.4034    15331.436    78.085561 
   25400    915.68225   -110.57893   0.82852855    -109.7504   -9564.2672    4.2725073    4.2725073    4.2725073   -9564.2672   -26131.211    6887.0999   -9448.6899    2210.7449   -1494.3508   -2717.4368    77.991708 
   25500    1174.2347    -110.8069    1.0624722   -109.74443    16815.604    4.2564554    4.2564554    4.2564554    16815.604    14868.183    19133.964    16444.666    5674.8493    2850.2964   -4737.5374    77.115959 
   25600    744.76835   -110.43008   0.67388205    -109.7562   -19519.786    4.2786712    4.2786712    4.2786712   -19519.786   -16864.569   -29563.446   -12131.343   -28758.274   -1275.8447    13440.479    78.329748 
   25700    723.67279   -110.40768   0.65479435   -109.75288   -2961.5325    4.2690676    4.2690676    4.2690676   -2961.5325    668.49863   -3430.0134   -6123.0828   -11405.313   -3228.5859    7603.9278    77.803492 
   25800    1180.4105   -110.81513    1.0680602   -109.74707    8362.3685    4.2602067    4.2602067    4.2602067    8362.3685    15554.821    1283.5452    8248.7393    22392.707    330.07687   -973.07827    77.320031 
   25900    1020.8201   -110.67522   0.92365948   -109.75156    1494.1057    4.2685702    4.2685702    4.2685702    1494.1057    -2488.404    14519.695   -7548.9742   -8955.6036   -976.64367    4324.8563      77.7763 
   26000    651.28542   -110.34484   0.58929673   -109.75554   -7168.2751    4.2759953    4.2759953    4.2759953   -7168.2751    7769.1088   -8630.4207   -20643.513   -21352.434   -2467.0674    18004.514    78.182879 
   26100    969.15906   -110.62746   0.87691548   -109.75054   -2610.8027    4.2689678    4.2689678    4.2689678   -2610.8027   -3972.1516     6528.638   -10388.895    20762.121    270.13211    5992.8406    77.798038 
   26200    1317.3182   -110.93595    1.1919372   -109.74402    5216.7948    4.2594048    4.2594048    4.2594048    5216.7948   -3160.2257    15337.707    3472.9033   -1387.5316    6088.6838    -6622.146    77.276377 
   26300    713.65626   -110.40242   0.64573118   -109.75669   -18656.368    4.2747346    4.2747346    4.2747346   -18656.368   -3138.1796   -38355.666   -14475.258   -32693.646    1571.8782    17081.032    78.113745 
   26400    882.47354   -110.55084   0.79848061   -109.75236   -3920.0551    4.2688363    4.2688363    4.2688363   -3920.0551    20809.737   -24357.709   -8212.1941   -1314.0835   -2480.8051    6401.6387    77.790846 
   26500    1225.7023   -110.85353    1.1090412   -109.74448    4736.9377    4.2678946    4.2678946    4.2678946    4736.9377   -5919.6258    22957.304   -2826.8646     17390.35    2204.1796   -2114.2122     77.73938 
   26600    1011.2057   -110.66564   0.91496017   -109.75068    -2374.314    4.2646619    4.2646619    4.2646619    -2374.314    8600.1474   -9598.3134   -6124.7759   -12913.708    9821.9404    8721.6227     77.56286 
   26700     625.4711   -110.32826    0.5659394   -109.76232    2744.5851    4.2671315    4.2671315    4.2671315    2744.5851    16534.667   -2940.7004    -5360.211   -25092.642    1429.0746    14116.134    77.697685 
   26800    1127.2009   -110.77664    1.0199151   -109.75673    1814.3801    4.2703346    4.2703346    4.2703346    1814.3801    11689.601    4688.3187    -10934.78      5456.28   -2593.6194    3532.9631    77.872786 
   26900    1237.9876   -110.86952    1.1201572   -109.74936     21770.08    4.2588565    4.2588565    4.2588565     21770.08    11028.321    45541.968    8739.9522   -3828.4056    13635.101   -5962.3001    77.246536 
   27000    591.74553   -110.29385   0.53542379   -109.75843   -14513.829    4.2790212    4.2790212    4.2790212   -14513.829    -9212.487   -29371.411   -4957.5879   -30958.704    9434.6111    17287.141    78.348972 
   27100    1081.4347   -110.72536   0.97850485   -109.74685   -4889.0867    4.2691145    4.2691145    4.2691145   -4889.0867    6985.8466   -17410.179    -4242.928    2335.8152   -5485.3964    10576.321    77.806057 
   27200    1224.6853   -110.84642     1.108121    -109.7383    28603.306    4.2556396    4.2556396    4.2556396    28603.306    8187.2621    77984.165   -361.50782    895.77827    8856.9331   -915.50961    77.071627 
   27300    877.82688   -110.54596   0.79427621   -109.75168   -17244.446    4.2752881    4.2752881    4.2752881   -17244.446   -25887.646   -12746.899   -13098.792   -26147.224    10691.799    2087.5084    78.144095 
   27400    776.05491   -110.45403   0.70219079   -109.75184    2954.2112    4.2689071    4.2689071    4.2689071    2954.2112    4637.0662    11881.057   -7655.4894   -13469.251    1291.1145    18563.206    77.794718 
   27500    1398.7091    -111.0116    1.2655814   -109.74602    1649.9422    4.2648716    4.2648716    4.2648716    1649.9422    11396.212    3839.0046    -10285.39    9625.8036     3371.817    13319.447    77.574301 
   27600    953.07129    -110.6152   0.86235893   -109.75284    9278.3747    4.2653031    4.2653031    4.2653031    9278.3747   -8676.0049    26211.542    10299.587   -15278.406    10458.654    -9584.478    77.597853 
   27700    819.59977   -110.49616   0.74159109   -109.75457   -4437.7359    4.2718819    4.2718819    4.2718819   -4437.7359    154.57937   -24571.365    11103.578   -31992.982    6328.3758    12736.336    77.957466 
   27800    1147.2888   -110.78493    1.0380911   -109.74684   -7548.6832    4.2761882    4.2761882    4.2761882   -7548.6832     4284.535   -16841.214   -10089.371    8374.4694   -6871.1319    10339.771    78.193461 
   27900    1162.3294   -110.79428       1.0517   -109.74258    18801.411    4.2539628    4.2539628    4.2539628    18801.411    13408.726     18443.29    24552.218   -1228.2205    8229.1587   -1302.5997    76.980559 
   28000    776.71128   -110.46036   0.70278469   -109.75758    4248.9427    4.2679121    4.2679121    4.2679121    4248.9427   -12924.357    8213.9791    17457.206   -34355.976    11070.745    -6513.804    77.740332 
   28100    1012.5474   -110.66616   0.91617414   -109.74998   -8751.6538    4.2786924    4.2786924    4.2786924   -8751.6538   -7234.0847   -19215.761    194.88421   -1074.0782   -3030.8693    9470.5231    78.330914 
   28200    1172.3698   -110.80251    1.0607848   -109.74172    15863.581     4.256942     4.256942     4.256942    15863.581     16633.95    28283.873    2672.9197   -1256.3402    65.077252    14637.203    77.142409 
   28300    884.39785   -110.55249   0.80022176   -109.75227    -4486.216    4.2667355    4.2667355    4.2667355    -4486.216   -18947.833    3943.1028     1546.082   -27823.239    9532.2893   -10167.964    77.676058 
   28400    980.22901   -110.63546   0.88693181   -109.74852   -6573.8617     4.272351     4.272351     4.272351   -6573.8617   -16498.403   -5503.1746    2279.9925   -13182.809    8863.1075    16376.269    77.983148 
   28500     1132.454   -110.77032    1.0246682   -109.74565    4106.2267    4.2668107    4.2668107    4.2668107    4106.2267    10098.454    15930.903   -13710.677    5849.7316   -10980.652    21705.508    77.680161 
   28600    1008.6109   -110.66016    0.9126123   -109.74755   -10473.663    4.2677221    4.2677221    4.2677221   -10473.663    -21379.31    5082.4768   -15124.157   -13622.674   -2724.4279   -4112.2701    77.729953 
   28700     862.0866   -110.52988   0.78003407   -109.74985    3189.9231    4.2634936    4.2634936    4.2634936    3189.9231    -18299.56    24588.967    3280.3627    -22403.95    9132.9148   -488.95473    77.499135 
   28800    1036.6535   -110.68943   0.93798584   -109.75144   -7894.1571    4.2705708    4.2705708    4.2705708   -7894.1571    3071.7404   -14138.982    -12615.23    5359.3521   -5225.9802     16040.45    77.885708 
   28900    975.47249   -110.63111     0.882628   -109.74848    4379.9398     4.265386     4.265386     4.265386    4379.9398    4195.7162    9619.8157   -675.71248    7950.7631    1399.4063    16984.999    77.602374 
   29000    1068.7136   -110.71561   0.96699453   -109.74862   -4932.0106    4.2649847    4.2649847    4.2649847   -4932.0106   -27709.176   0.89926625    12912.245   -27332.065    10143.046   -5583.8459    77.580477 
   29100    957.04954   -110.61378   0.86595853   -109.74782    -17826.02    4.2746501    4.2746501    4.2746501    -17826.02   -14778.118   -23925.739   -14774.204   -5454.2422    4537.6179    13699.937    78.109116 
   29200    1001.0355   -110.65178   0.90575792   -109.74602    1986.3811    4.2616767    4.2616767    4.2616767    1986.3811    11192.129   -5386.6471    153.66119    11665.744   -4564.4099    28687.048    77.400096 
   29300    1036.0955   -110.68891   0.93748097   -109.75143    11049.074    4.2656189    4.2656189    4.2656189    11049.074    -15689.91    28727.391     20109.74   -9721.7458    2138.2295   -11498.907    77.615087 
   29400    1123.2438   -110.76788    1.0163346   -109.75154    2053.8042    4.2659808    4.2659808    4.2659808    2053.8042    -5785.457    24168.426   -12221.557   -7001.6832    11754.918    9252.5076    77.634847 
   29500    751.81383   -110.43699   0.68025696   -109.75673    6327.5671    4.2673667    4.2673667    4.2673667    6327.5671    12439.567    27455.785   -20912.651    4935.3273   -3330.4752    34950.777    77.710534 
   29600    983.28901     -110.639   0.88970056    -109.7493   -18968.207    4.2780556    4.2780556    4.2780556   -18968.207   -21596.868   -22151.207   -13156.547    8955.1717    1434.4421   -4105.1912    78.295944 
   29700    1187.3959   -110.81434    1.0743808   -109.73996    21828.668    4.2511535    4.2511535    4.2511535    21828.668    8796.0221     33079.48    23610.503    -3631.977    7788.2651   -12175.567    76.828147 
   29800    793.25329   -110.47326   0.71775225   -109.75551   -13609.359    4.2678974    4.2678974    4.2678974   -13609.359    12824.797   -24144.619   -29508.254   -5562.3018    1230.3986    43322.281    77.739528 
   29900     922.2246   -110.58292    0.8344482   -109.74848   -32459.752    4.2787749    4.2787749    4.2787749   -32459.752    -15283.38   -42700.463   -39395.413    8155.5163   -4274.7936    25154.577    78.335444 
   30000    1176.8872    -110.8034    1.0648722   -109.73852    22373.939    4.2532964    4.2532964    4.2532964    22373.939    1155.1703    33737.063    32229.583    7688.3285    2606.9386   -21179.322    76.944389 
   30100    840.00831   -110.50928   0.76005717   -109.74923   -16131.174    4.2720809    4.2720809    4.2720809   -16131.174    954.48894   -26597.088   -22750.923   -5236.9683    8487.2318    26266.188    77.968362 
   30200    790.36139   -110.46669    0.7151356   -109.75156    -6993.793    4.2667305    4.2667305    4.2667305    -6993.793    8265.7506   -10141.396   -19105.733    895.02429   -3324.1905    39030.738    77.675783 
   30300     1245.157   -110.87315    1.1266442   -109.74651     7750.248    4.2590898    4.2590898    4.2590898     7750.248   -10751.266     17191.85     16810.16    13348.708    5745.0808   -10183.005    77.259231 
   30400    777.26807   -110.45535   0.70328848   -109.75206   -2943.4572    4.2723641    4.2723641    4.2723641   -2943.4572   -5996.9879   -15422.736    12589.352    1133.8527    6729.0749    5090.3539    77.983866 
   30500    715.38925   -110.39829   0.64729923   -109.75099    3855.2863    4.2632684    4.2632684    4.2632684    3855.2863    14300.321   -4927.6211    2193.1589     -1973.93   -3791.3526     39421.07    77.486854 
   30600    1079.9347   -110.72427   0.97714766   -109.74712   -3872.5777    4.2699209    4.2699209    4.2699209   -3872.5777   -16266.856   -7402.3055    12051.428    7821.7226    1707.8448   -2758.2637    77.850156 
   30700    1066.8416   -110.71228   0.96530067   -109.74698    1008.1419    4.2623468    4.2623468    4.2623468    1008.1419    231.44399   -4606.2627    7399.2446    7204.2978   -3079.7204    4092.0081    77.436611 
   30800    576.15779   -110.27642   0.52131967    -109.7551    17101.179    4.2576416    4.2576416    4.2576416    17101.179    26968.801   -4568.8987    28903.635    153.27078    3453.4581    33017.847    77.180451 
   30900    928.16428   -110.59032   0.83982255    -109.7505   -25824.299    4.2789462    4.2789462    4.2789462   -25824.299    -21706.71   -31708.682   -24057.504   -2045.5886     3293.058    2709.5646    78.344854 
   31000    1128.5835    -110.7654     1.021166   -109.74423    2204.4463    4.2591419    4.2591419    4.2591419    2204.4463   -12170.084    10349.589    8433.8347    11202.562   -15810.017   -9500.8241    77.262066 
   31100    686.02795   -110.37317   0.62073251   -109.75244    10625.322    4.2585313    4.2585313    4.2585313    10625.322    24814.771    3460.4697    3600.7242    354.90314    4420.4652     33490.76    77.228844 
   31200    854.73535   -110.52224    0.7733825   -109.74886   -10468.042    4.2744504    4.2744504    4.2744504   -10468.042    6113.5552   -27136.606   -10381.076   -3791.2007    5458.3846    31931.249    78.098166 
   31300    1178.4928   -110.80883     1.066325    -109.7425    11874.056    4.2598752    4.2598752    4.2598752    11874.056   -8451.7693    25062.485    19011.453    1476.9216   -13149.925   -15454.363    77.301984 
   31400    756.90201   -110.43744   0.68486084   -109.75257    -12473.64    4.2681555    4.2681555    4.2681555    -12473.64   -7404.3127   -338.87784    -29677.73   -2067.4784   -3423.2731    23250.727    77.753636 
   31500    783.49384   -110.46079   0.70892169   -109.75186    2583.7059    4.2654155    4.2654155    4.2654155    2583.7059    15723.445    -13293.66    5321.3325     9141.193   -2611.7003    44008.483    77.603988 
   31600    1419.4056   -111.02963     1.284308   -109.74532     11334.34    4.2614024    4.2614024    4.2614024     11334.34     4718.902    22099.895    7184.2226   -2957.9607    2801.5402   -9382.1499    77.385152 
   31700    873.71777    -110.5437    0.7905582   -109.75314   -20475.241    4.2739247    4.2739247    4.2739247   -20475.241   -23266.894   -9043.4164   -29115.411   -3571.4022   -10577.811    11858.822    78.069356 
   31800    597.00748   -110.29827   0.54018491   -109.75809   -1064.2346     4.257519     4.257519     4.257519   -1064.2346    20616.322      2110.59   -25919.616    5323.1751   -11866.118    43046.974     77.17378 
   31900    1314.9146    -110.9448    1.1897624   -109.75504    11929.919    4.2642718    4.2642718    4.2642718    11929.919    579.06986     22911.73    12298.958   -5672.8152    10723.761   -1945.7248    77.541578 
   32000    1365.8053   -110.98522    1.2358093   -109.74941   -5988.1075     4.272994     4.272994     4.272994   -5988.1075   -9879.3246    9593.7063   -17678.704    62.883855   -5157.8607    2213.5269    78.018368 
   32100    523.87039   -110.23234   0.47400894   -109.75833     6790.523    4.2588619    4.2588619    4.2588619     6790.523    18883.912    19426.798   -17939.141    401.33751   -12430.859    47553.054     77.24683 
   32200    1055.1501   -110.70968   0.95472196   -109.75495   -5267.8494    4.2685852    4.2685852    4.2685852   -5267.8494    7604.6969   -3250.6805   -20157.565   -936.04374    1246.5153    17924.998    77.777118 
   32300    1470.6898   -111.07468    1.3307111   -109.74397    9929.9272    4.2656771    4.2656771    4.2656771    9929.9272    -7235.224    13314.336    23710.669    8153.0735   -2104.3804   -13894.917    77.618267 
   32400    803.62006   -110.48144   0.72713232   -109.75431   -7214.6621    4.2638871    4.2638871    4.2638871   -7214.6621    7601.8814   -2637.7095   -26608.158   -1149.3946   -4175.7705    35750.447    77.520593 
   32500    694.54229   -110.38431   0.62843646   -109.75587   -12442.505    4.2691841    4.2691841    4.2691841   -12442.505   -13454.221   -8127.9652   -15745.329   -222.66482   -14126.913    32978.556    77.809863 
   32600    1472.5289   -111.07761    1.3323751   -109.74523    11208.631     4.258617     4.258617     4.258617    11208.631   -4881.7308    19212.607    19295.018    588.11604   -4150.9183    -19343.47    77.233508 
   32700    941.89762   -110.60614   0.85224876   -109.75389    3391.0992    4.2682156    4.2682156    4.2682156    3391.0992    9740.3014   -607.80138    1040.7977   -3535.3085    8236.4579    28165.494    77.756922 
   32800    793.76348   -110.47328   0.71821388   -109.75506   -12372.845    4.2679872    4.2679872    4.2679872   -12372.845   -6237.8742   -11415.724   -19464.936    391.04259   -13516.891    42041.881    77.744437 
   32900     1169.925   -110.80435    1.0585728   -109.74578    12809.959    4.2581047    4.2581047    4.2581047    12809.959   -16994.921    34014.061    21410.738   -3165.4775   -6409.1886   -16399.303    77.205635 
   33000    1105.8627   -110.74877    1.0006078   -109.74816   -11540.715    4.2701476    4.2701476    4.2701476   -11540.715   -18205.694   -7361.7722   -9054.6795    -3002.421     10463.43    17472.416    77.862559 
   33100    764.37996   -110.44392   0.69162705   -109.75229   -2465.6427    4.2658193    4.2658193    4.2658193   -2465.6427    22064.292   -16933.812   -12527.408    2263.5611   -6650.5746    44675.338    77.626026 
   33200    1163.3475   -110.79985    1.0526213   -109.74723     6209.426    4.2615268    4.2615268    4.2615268     6209.426   -16392.008    13903.969    21116.318   -5668.9111   -4493.9412   -949.13607    77.391927 
   33300    1146.6928   -110.78663    1.0375518   -109.74907   -501.49795    4.2646087    4.2646087    4.2646087   -501.49795   -27845.974    7163.6932    19177.787   -6819.6305     590.5249   -6125.7762    77.559957 
   33400    593.40548   -110.29499   0.53692575   -109.75806   -1300.4605     4.268918     4.268918     4.268918   -1300.4605   -4323.9294   -19051.094    19473.642    852.84458    4588.7527     37531.06    77.795312 
   33500    1152.8449   -110.79267    1.0431183   -109.74955   -3249.8639    4.2681254    4.2681254    4.2681254   -3249.8639    1937.9651    1852.7858   -13540.343   -1655.9524    6245.0557    21073.206     77.75199 
   33600    1318.8139   -110.93772    1.1932905   -109.74443    24105.248    4.2566632    4.2566632    4.2566632    24105.248   -4359.7826    25125.683    51549.843   -2529.1593   -5745.9765   -12558.792    77.127253 
   33700    649.78941   -110.34734   0.58794311    -109.7594   -17582.062    4.2693807    4.2693807    4.2693807   -17582.062   -12952.366   -22191.952   -17601.867   -2064.0775    4966.5829    36408.956    77.820615 
   33800    693.31303   -110.38772    0.6273242    -109.7604   -3378.6502    4.2657056    4.2657056    4.2657056   -3378.6502   -3541.6482   -2629.3529   -3964.9496    1184.8954    6729.8791    28145.531    77.619822 
   33900    1378.0444   -110.99465    1.2468836   -109.74777     10110.02     4.267858     4.267858     4.267858     10110.02   -16684.184    5188.0952    41826.148    1839.5656     -2626.33   -11756.297    77.737377 
   34000    843.24258   -110.51654   0.76298361   -109.75356   -8365.5187    4.2734591    4.2734591    4.2734591   -8365.5187    -4927.374   -23160.453    2991.2712   -4079.0658    3131.7445    28813.221    78.043846 
   34100    575.97187    -110.2739   0.52115145   -109.75275    12640.053    4.2582488    4.2582488    4.2582488    12640.053    11380.353    10968.863    15570.944    2068.7491    7918.1392    36605.396    77.213477 
   34200    1397.3211   -111.00933    1.2643255   -109.74501   -5611.6981    4.2725827    4.2725827    4.2725827   -5611.6981    -24735.82     13888.72   -5987.9947    629.52375     4003.374   -6648.8162    77.995841 
   34300    1173.2057    -110.8137    1.0615412   -109.75216    10939.379    4.2643074    4.2643074    4.2643074    10939.379   -2816.0738    13982.899    21651.311   -5459.5963   -4795.9854    4588.2868     77.54352 
   34400    594.58565   -110.29731   0.53799359   -109.75931    19382.733    4.2563675    4.2563675    4.2563675    19382.733    19306.201    18363.137    20478.862    1928.1694    254.62518    39167.988    77.111183 
   34500    973.03117   -110.63561   0.88041905   -109.75519   -15430.716    4.2785225    4.2785225    4.2785225   -15430.716   -30837.154   -11699.177   -3755.8159    426.20686    11388.418    4132.8726    78.321581 
   34600    1390.7161   -111.00352    1.2583492   -109.74517    12209.261    4.2591852    4.2591852    4.2591852    12209.261   -4292.4849    17371.308    23548.961   -310.14459   -454.40166   -14606.801    77.264425 
   34700     785.3951   -110.46588   0.71064199   -109.75524    788.34422    4.2615681    4.2615681    4.2615681    788.34422    17366.014   -16355.572    1354.5911    -521.8751    -8604.189     46095.56     77.39418 
   34800    851.59996   -110.52375   0.77054554   -109.75321   -19520.977     4.272254     4.272254     4.272254   -19520.977    -5486.569   -27211.675   -25864.687   -4082.8637     9056.707     27139.99    77.977839 
   34900    1336.6168   -110.95196     1.209399   -109.74256    9797.9745    4.2598859    4.2598859    4.2598859    9797.9745    -7165.025    19703.648    16855.301    4854.2857    11641.117   -13741.084    77.302566 
   35000    874.90632   -110.54364   0.79163362   -109.75201   -14668.341    4.2709987    4.2709987    4.2709987   -14668.341     4580.388   -22377.982   -26207.429     1267.746   -4014.6954    27537.907    77.909122 
   35100    748.16661   -110.43242   0.67695687   -109.75546    -284.0819    4.2608216    4.2608216    4.2608216    -284.0819     9119.968   -14099.628     4127.414   -173.03701   -5255.8753     32120.13    77.353514 
   35200    1281.1417   -110.91055    1.1592039   -109.75135    10910.072    4.2621084    4.2621084    4.2621084    10910.072   -11619.463    10266.149    34083.532    4712.2699   -574.59624   -5489.8524    77.423619 
   35300    1236.6816   -110.87137    1.1189755    -109.7524   -3985.9496    4.2693123    4.2693123    4.2693123   -3985.9496   -184.65693   -18223.203    6450.0113    741.84739    2364.8119    8604.3874    77.816871 
   35400    693.01576   -110.38387   0.62705522   -109.75682    7511.6917    4.2617399    4.2617399    4.2617399    7511.6917    20754.108   -22873.233    24654.201    236.64164   -2106.3764     37030.06     77.40354 
   35500    1172.7338   -110.81429    1.0611142   -109.75317   -8222.8795    4.2669345    4.2669345    4.2669345   -8222.8795    -15872.18   -17508.871    8712.4125   -3634.0949    -5287.074   -1518.8664    77.686923 
   35600    1378.4486   -110.99305    1.2472493    -109.7458    3004.5815    4.2642631    4.2642631    4.2642631    3004.5815   -6140.2018   -7604.0792    22758.026   -2441.5683    10643.135    3550.9856    77.541103 
   35700    828.22003   -110.50404   0.74939089   -109.75465   -15302.441    4.2701412    4.2701412    4.2701412   -15302.441    13904.326    -40745.34    -19066.31    2437.7907   -1604.8614    50068.297    77.862208 
   35800    1113.0045   -110.75815    1.0070698   -109.75108   -2935.1473    4.2597567    4.2597567    4.2597567   -2935.1473    3807.7006   -16147.492    3534.3494   -1037.3062   -13103.853    1524.0462     77.29553 
   35900    1282.1219   -110.90852    1.1600908   -109.74843    10263.905    4.2631824    4.2631824    4.2631824    10263.905   -8172.4871   -4102.1683    43066.372   -437.89443     2156.799   -13218.984    77.482166 
   36000    967.84267   -110.62671   0.87572439   -109.75098   -14501.264    4.2763372    4.2763372    4.2763372   -14501.264   -2505.9652   -34449.605   -6548.2217    1675.6061    6681.5027     34878.36    78.201637 
   36100    1081.5118   -110.72511   0.97857464   -109.74653    15374.484    4.2564294    4.2564294    4.2564294    15374.484    19693.931   -10061.924    36491.445   -4235.5331   -788.97143    20672.137    77.114543 
   36200    1332.5433   -110.95379    1.2057132   -109.74808    3772.4328    4.2629433    4.2629433    4.2629433    3772.4328    -3962.506   -7380.9711    22660.776    -4875.134   -6032.9161   -24096.418     77.46913 
   36300    900.93634   -110.56752   0.81518613   -109.75234   -8083.6921    4.2711623    4.2711623    4.2711623   -8083.6921   -4932.4149   -12883.842   -6434.8192   -779.54727     14820.57    10021.504    77.918077 
   36400    916.12902   -110.58107   0.82893279   -109.75214    4757.2527    4.2605529    4.2605529    4.2605529    4757.2527    15781.279    8735.5372   -10245.058    3194.1559    15229.945    37994.385    77.338879 
   36500    1351.8829   -110.97027    1.2232121   -109.74706   -5492.3531    4.2667306    4.2667306    4.2667306   -5492.3531    6783.2959   -14394.571   -8865.7837    -87.23316   -7188.1078   -10422.627    77.675787 
   36600    958.37415   -110.61819   0.86715708   -109.75103    1285.1424    4.2666876    4.2666876    4.2666876    1285.1424    2401.6972    21618.372   -20164.642   -6521.6006    3860.5859   -8718.1786    77.673439 
   36700    780.30065    -110.4587   0.70603243   -109.75266    132.43145    4.2652823    4.2652823    4.2652823    132.43145    11970.132    13703.799   -25276.636   -998.35569    16222.905    31467.678    77.596719 
   36800    1194.2084   -110.82796    1.0805449   -109.74742   -5513.8976    4.2684535    4.2684535    4.2684535   -5513.8976    2636.9706   -13026.096   -6152.5669    7043.1585   -7531.0525    5400.6413    77.769924 
   36900    1169.4131    -110.8056    1.0581095   -109.74749    6051.2251    4.2596446    4.2596446    4.2596446    6051.2251    10347.209    18418.042   -10611.576    783.64083   -1339.0895   -16277.526    77.289431 
   37000    772.59593   -110.45553   0.69906104   -109.75647   -5047.2479    4.2663756    4.2663756    4.2663756   -5047.2479   -784.18389   -8098.6412   -6258.9187   -7061.7131    17593.512    22240.413    77.656402 
   37100    916.15053   -110.58268   0.82895225   -109.75372   -12510.919    4.2720462    4.2720462    4.2720462   -12510.919   -11188.487   -18217.351   -8126.9182    5568.4319    4587.0537    21579.963    77.966462 
   37200    1275.5148   -110.89954    1.1541126   -109.74543    4967.5726    4.2566584    4.2566584    4.2566584    4967.5726    9540.1621    6294.9808   -932.42522    7162.6627   -7972.8796   -15443.545    77.126991 
   37300     909.8542   -110.57642    0.8232552   -109.75317   -1156.8999    4.2662435    4.2662435    4.2662435   -1156.8999    5558.2867   -7891.0897   -1137.8966    -4376.409    6163.8891    1491.8744    77.649189 
   37400    838.41256   -110.50876    0.7586133   -109.75015   -5164.7352    4.2732068    4.2732068    4.2732068   -5164.7352    3854.6698    634.46346   -19983.339   -2148.3667    13652.246    27035.738    78.030021 
   37500    1078.3571   -110.72036   0.97572014   -109.74464    16313.462    4.2588406    4.2588406    4.2588406    16313.462    15861.235     24149.85    8929.3013    11288.496   -11596.261    455.91213    77.245673 
   37600    1044.2703   -110.69295   0.94487772   -109.74807    2871.2498    4.2628185    4.2628185    4.2628185    2871.2498   -11112.396    8088.8111    11637.334    6661.5612   -5300.3836   -8578.4658    77.462324 
   37700    933.02773    -110.5955   0.84422309   -109.75128    997.74343    4.2677582    4.2677582    4.2677582    997.74343    11625.775    20769.474   -29402.019   -11944.146    12769.391     18473.75    77.731921 
   37800    970.67919   -110.62902   0.87829093   -109.75073    8614.1267    4.2664003    4.2664003    4.2664003    8614.1267    4452.2221    6078.6527    15311.505    10889.114   -1087.6204    8037.3078     77.65775 
   37900    1044.6928   -110.69231   0.94525996   -109.74705   -3175.7043    4.2656997    4.2656997    4.2656997   -3175.7043   -20214.153   -3126.5573    13813.597    21974.717   -13934.411   -1975.0668      77.6195 
   38000    1069.4954   -110.71427   0.96770191   -109.74657   -5161.2746    4.2631302    4.2631302    4.2631302   -5161.2746   -1906.8852    8043.5804   -21620.519   -11877.422    4711.1628    10709.859    77.479316 
   38100    972.27596   -110.62871   0.87973572   -109.74897   -6270.9222     4.266897     4.266897     4.266897   -6270.9222     2354.042   -10433.852   -10732.957    2549.0932    14227.711    7874.0243    77.684875 
   38200    950.28239    -110.6087   0.85983547   -109.74887   -7652.7268    4.2684317    4.2684317    4.2684317   -7652.7268   -22601.639   -8959.3509    8602.8097     24530.38    -15753.98    627.01461    77.768733 
   38300    1035.6446   -110.68556     0.937073   -109.74849   -793.28681    4.2633047    4.2633047    4.2633047   -793.28681    -11624.29    14280.165   -5035.7355   -369.26049   -5847.2718   -8411.8584    77.488835 
   38400    1079.6791   -110.72383   0.97691636   -109.74692    627.05898    4.2632281    4.2632281    4.2632281    627.05898    3456.7669    9381.2521   -10956.842   -7714.5538     16861.05    14027.424    77.484655 
   38500    846.10742   -110.51707   0.76557578    -109.7515   -5889.9471    4.2716108    4.2716108    4.2716108   -5889.9471   -17039.465    15615.669   -16246.045    24155.377   -7448.6333    12033.105    77.942625 
   38600    937.86468   -110.59793   0.84859967   -109.74933    6824.9552     4.264789     4.264789     4.264789    6824.9552    -8635.496    30968.793   -1858.4314    24334.207   -12720.491    -10235.62    77.569797 
   38700    1167.1653   -110.80024    1.0560757   -109.74417    17672.807    4.2606034    4.2606034    4.2606034    17672.807    17552.553     31234.98    4230.8886   -15835.076    4470.0104     3809.889    77.341634 
   38800    942.31521   -110.60192    0.8526266   -109.74929   -14605.555    4.2751589    4.2751589    4.2751589   -14605.555   -22423.422   -3368.7586   -18024.485    8488.2846    1122.7137    6402.3182     78.13701 
   38900    847.47544   -110.51585   0.76681359   -109.74904    4449.2373    4.2620231    4.2620231    4.2620231    4449.2373    7571.4696     8111.475   -2335.2327    33781.735   -13337.622    3730.6645    77.418971 
   39000    1309.5202   -110.93169    1.1848814   -109.74681    11872.261    4.2590317    4.2590317    4.2590317    11872.261    5389.5028    16397.411    13829.869   -7686.9483    238.31229    3212.3925    77.256071 
   39100    1099.1827   -110.74341   0.99456358   -109.74885   -8318.1875     4.274271     4.274271     4.274271   -8318.1875    -4504.474   -8858.8329   -11591.256   -5021.2836    9691.0674     8011.805    78.088334 
   39200    826.38284   -110.49677   0.74772856   -109.74904    4238.3102    4.2648918    4.2648918    4.2648918    4238.3102    4631.0527    12848.383   -4764.5051     30527.18   -6096.7955     10983.73    77.575406 
   39300    1208.2821   -110.83905     1.093279   -109.74577   -277.59472    4.2660773    4.2660773    4.2660773   -277.59472   -16534.833    14722.264    979.78501    6114.1734   -5815.1607   -8233.5489    77.640116 
   39400    1195.6219    -110.8269    1.0818238   -109.74507    9375.9307    4.2620211    4.2620211    4.2620211    9375.9307    459.98596    25729.236      1938.57   -13252.473    7981.1557   -1626.6844    77.418864 
   39500    811.19612   -110.49046    0.7339873   -109.75647   -1726.3998     4.263745     4.263745     4.263745   -1726.3998   -7418.4991    1767.3831    471.91647    21638.261    4870.2246    19448.204    77.512842 
   39600    1019.0715   -110.67652   0.92207729   -109.75444    -12061.91    4.2684114    4.2684114    4.2684114    -12061.91   -23524.455   -15551.143    2889.8672    31533.567   -5057.5973    937.76716     77.76762 
   39700    1329.1436   -110.94695     1.202637   -109.74431    531.82815    4.2634325    4.2634325    4.2634325    531.82815    702.70304    10273.174   -9380.3922    -8675.026   -327.48515   -12129.609      77.4958 
   39800    830.56445   -110.50284   0.75151217   -109.75132   -19184.102    4.2719991    4.2719991    4.2719991   -19184.102   -11165.657   -22404.573   -23982.076     8845.641    5267.0646    9900.3788    77.963882 
   39900    890.13042   -110.55568   0.80540871   -109.75027     437.5065    4.2608697    4.2608697    4.2608697     437.5065   -1283.8145   -12593.556     15189.89    31181.953   -591.86734    11182.148    77.356135 
   40000    1202.6389   -110.83679     1.088173   -109.74861    9580.6405    4.2642611    4.2642611    4.2642611    9580.6405    16103.331    25116.265   -12477.675   -4535.0734    1552.6783   -10472.178    77.540993 
   40100     1021.179   -110.67681    0.9239842   -109.75282   -7975.3148    4.2700813    4.2700813    4.2700813   -7975.3148    14694.634   -8027.2622   -30593.316   -5444.4503    4438.0977   -9099.6504    77.858929 
   40200    737.07957   -110.41952   0.66692508   -109.75259    20668.856    4.2572057    4.2572057    4.2572057    20668.856    13437.294    29734.321    18834.953    23322.704    8333.9307    19156.359    77.156745 
   40300    1035.8839   -110.68766   0.93728954   -109.75037   -3532.5118    4.2744869    4.2744869    4.2744869   -3532.5118    6126.1006    -5932.387   -10791.249    10075.133   -947.80642   -5482.5183    78.100168 
   40400    1153.8756   -110.79132    1.0440509   -109.74727    8995.3104    4.2614818    4.2614818    4.2614818    8995.3104    36115.747    3172.9961   -12302.812   -7628.1823   -3912.0508   -26530.274    77.389476 
   40500    829.67449   -110.50243   0.75070692   -109.75172    16643.198     4.256779     4.256779     4.256779    16643.198     29856.31    6258.4015    13814.882    8058.9565    6313.5947    14376.462    77.133547 
   40600    811.78005   -110.48449   0.73451565   -109.74998   -24998.713    4.2818069    4.2818069    4.2818069   -24998.713   -17871.812   -30516.108   -26608.218    20570.467    4909.0935    11699.178    78.502091 
   40700    1112.3009   -110.74996    1.0064333   -109.74352    12466.813    4.2560895    4.2560895    4.2560895    12466.813    33800.976    1387.4621    2212.0002   -91.311206    3540.0629   -22644.418     77.09607 
   40800    1050.4785   -110.69865     0.950495   -109.74815     8707.387     4.259014     4.259014     4.259014     8707.387     20208.14    4950.6209    963.40031   -2496.5212   -3249.3145   -2557.0117    77.255105 
   40900    695.62106   -110.37961   0.62941256   -109.75019   -22901.873    4.2770951    4.2770951    4.2770951   -22901.873   -16188.114   -27503.208   -25014.299    19012.022     7820.159    23179.932     78.24322 
   41000    895.98548   -110.55627   0.81070649   -109.74556    16163.493    4.2583657    4.2583657    4.2583657    16163.493    17062.285     20067.74    11360.453    7962.3712    6236.5919   -5723.1201    77.219832 
   41100      1292.72   -110.91073    1.1696802   -109.74105    -2797.019    4.2695375    4.2695375    4.2695375    -2797.019    3719.8744   -6793.2596   -5317.6719   -651.44808   -3325.6426    -13396.84     77.82919 
   41200     702.6477   -110.38511   0.63577041   -109.74934    645.41306    4.2672297    4.2672297    4.2672297    645.41306    5915.6879    229.43515   -4208.8839    4421.4239    5614.8597    26523.368    77.703047 
   41300    654.17993   -110.34374   0.59191575   -109.75182    10891.956    4.2589154    4.2589154    4.2589154    10891.956    7283.3338     21784.14    3608.3927    15044.982    5223.3481    7618.7482    77.249745 
   41400    1186.4118    -110.8191    1.0734903   -109.74561   -6261.9504    4.2713519    4.2713519    4.2713519   -6261.9504   -8060.0148   -3323.4876   -7402.3487     3594.075   -2203.2062   -12685.288    77.928452 
   41500    1088.7019   -110.73394   0.98508039   -109.74885    6857.3161    4.2592337    4.2592337    4.2592337    6857.3161    19489.797    4376.9651   -3294.8141   -9487.9318   -3507.6867    20047.033    77.267067 
   41600    409.47185   -110.13086   0.37049874   -109.76036   -2542.4242    4.2647275    4.2647275    4.2647275   -2542.4242    10390.549    7925.6411   -25943.463    12990.632    7555.5176    18718.038    77.566442 
   41700    921.28639   -110.58234   0.83359928   -109.74874   -19448.907    4.2750928    4.2750928    4.2750928   -19448.907   -29958.485   -7993.3962   -20394.839    10685.949    9906.6422   -3572.2531    78.133386 
   41800    1171.6726   -110.80022     1.060154   -109.74006    10149.647    4.2597859    4.2597859    4.2597859    10149.647    17825.075    10412.189    2211.6769   -9641.5309   -6350.2251    8644.1044    77.297122 
   41900     615.4365   -110.30737   0.55685988   -109.75051   -8527.7608    4.2651437    4.2651437    4.2651437   -8527.7608    5996.6671    -14183.65   -17396.299    978.52387    3712.3666    20747.392     77.58915 
   42000    501.93969   -110.20679   0.45416558   -109.75262   -12924.913    4.2735781    4.2735781    4.2735781   -12924.913   -24230.249   -12563.895   -1980.5956    16264.414    17745.753     6788.836    78.050367 
   42100    1087.3746   -110.72922   0.98387939   -109.74534    2965.6727     4.261073     4.261073     4.261073    2965.6727    11040.452     2527.575   -4671.0093    -1387.043    4085.8321   -10403.018    77.367209 
   42200    815.07971   -110.48723   0.73750125   -109.74973    6157.4008    4.2609127    4.2609127    4.2609127    6157.4008    34247.695   -13800.306   -1975.1864   -10097.634    717.16496    4558.8254    77.358476 
   42300    549.64129   -110.25174   0.49732699   -109.75441   -16472.504     4.273301     4.273301     4.273301   -16472.504   -11180.025   -25919.923   -12317.563    16023.984    10415.386    17558.595    78.035185 
   42400    794.51178   -110.46719   0.71889096   -109.74829    8141.1776    4.2625057    4.2625057    4.2625057    8141.1776    22541.504    16934.691   -15052.663    10967.319    7024.1355   -12353.526    77.445274 
   42500    937.54255   -110.59389    0.8483082   -109.74558    5258.3956     4.262253     4.262253     4.262253    5258.3956    26451.314    3646.3786   -14322.506   -8956.9283   -1629.1237     -12004.7    77.431501 
   42600    575.68634   -110.27099    0.5208931    -109.7501   -16048.896    4.2740643    4.2740643    4.2740643   -16048.896   -8344.3824   -13096.159   -26706.147   -753.66266    789.45059    12964.854    78.077005 
   42700    705.15362   -110.38594   0.63803782    -109.7479    2182.0563     4.258417     4.258417     4.258417    2182.0563    7385.7558    17367.813     -18207.4    9288.8825    12003.362    2565.7773    77.222628 
   42800    826.05651   -110.49783   0.74743329   -109.75039   -868.17289    4.2617478    4.2617478    4.2617478   -868.17289    12753.783    6767.6023   -22125.904    1086.9545    413.41164   -30740.789    77.403969 
   42900      765.825   -110.44159   0.69293456   -109.74866   -11261.982    4.2724207    4.2724207    4.2724207   -11261.982   -3414.3182   -8117.9678   -22253.659    -14596.94   -8482.2948   -5165.6721    77.986968 
   43000     784.0426   -110.45503   0.70941822   -109.74561    2215.8603    4.2622375    4.2622375    4.2622375    2215.8603    6442.4085    3911.0375    -3705.865    3749.3951    9987.0289    15960.772    77.430655 
   43100    681.87381   -110.36604   0.61697376   -109.74907   -7774.8767    4.2663135    4.2663135    4.2663135   -7774.8767    21734.584   -21532.049   -23527.166    3906.9797    5700.4925    -30440.06    77.653011 
   43200    888.42703   -110.55349   0.80386745   -109.74962   -1721.7407     4.261804     4.261804     4.261804   -1721.7407    11189.048    1292.5848   -17646.855   -3677.3959     696.4974   -25020.239    77.407033 
   43300    1021.0257   -110.67295   0.92384552    -109.7491    7390.2448     4.262646     4.262646     4.262646    7390.2448    20833.196    1921.3577   -583.81918   -3983.3843    2041.6568    20615.519    77.452919 
   43400    513.71667   -110.21919   0.46482164   -109.75437   -15208.565    4.2731261    4.2731261    4.2731261   -15208.565    12404.932   -26963.004   -31067.622    2854.5706    2347.3527   -14905.151      78.0256 
   43500    668.87536   -110.35757   0.60521249   -109.75236   -2550.9821    4.2579166    4.2579166    4.2579166   -2550.9821    16858.809   -9429.3051    -15082.45    1184.5008    315.85848    -38097.59    77.195407 
   43600    1213.7237   -110.84411    1.0982028    -109.7459    5259.0806    4.2629326    4.2629326    4.2629326    5259.0806    4362.1522    8076.8457    3338.2441   -7684.3005   -2009.4761    6017.3771    77.468546 
   43700     752.2839   -110.43198   0.68068229    -109.7513   -8653.0773    4.2722209    4.2722209    4.2722209   -8653.0773    961.42933   -16619.548   -10301.113   -64.332255    6318.1295   -3959.5036    77.976029 
   43800    285.45924   -110.01674   0.25828952   -109.75845    844.13571      4.25766      4.25766      4.25766    844.13571    17523.552   -20282.078    5290.9333    8905.8913    6943.2117   -38029.532    77.181448 
   43900    938.26599   -110.60554   0.84896278   -109.75658    617.85204    4.2612978    4.2612978    4.2612978    617.85204   -2951.4199   -12070.569    16875.545    4254.5174   -4843.6949   -3284.5594    77.379456 
   44000    1104.2945   -110.75001   0.99918884   -109.75082    5637.1548    4.2661849    4.2661849    4.2661849    5637.1548   -13327.844    20447.286    9792.0223   -1471.0596    -2749.858    1408.1033    77.645989 
   44100    536.74501   -110.24483   0.48565817   -109.75917   -4779.1879    4.2662121    4.2662121    4.2662121   -4779.1879    4806.3748   -11892.424   -7251.5142    1456.4241    3743.7911   -41172.019    77.647475 
   44200    558.52318   -110.26189   0.50536351   -109.75653   -5476.4007    4.2651036    4.2651036    4.2651036   -5476.4007    6346.6582   -16276.068   -6499.7925    4832.8688    479.94276   -14015.744    77.586962 
   44300    1108.8614    -110.7494    1.0033211   -109.74608    4072.9641    4.2587702    4.2587702    4.2587702    4072.9641   -9788.6415     20560.38    1447.1537   -1312.5581   -4495.7458    24812.766    77.241843 
   44400    779.72372   -110.45766   0.70551041   -109.75215   -14765.745    4.2692097    4.2692097    4.2692097   -14765.745   -12089.034   -6725.6649   -25482.536    4912.5925   -2266.9427   -26470.662    77.811265 
   44500    638.54408   -110.33157   0.57776811    -109.7538   -6324.0529    4.2633469    4.2633469    4.2633469   -6324.0529    8789.2122   -23400.172   -4361.1987    10655.543    3800.4025   -36453.375    77.491134 
   44600    981.97328   -110.63614   0.88851006   -109.74763     9302.185    4.2594664    4.2594664    4.2594664     9302.185    4898.7229    9498.3212    13509.511    1842.1104    2147.2353     19684.19    77.279727 
   44700    958.16121   -110.61521    0.8669644   -109.74825   -15556.293    4.2705906    4.2705906    4.2705906   -15556.293   -7872.9782   -8727.5392   -30068.363   -5988.5068   -9993.2418    696.21159    77.886794 
   44800    583.46324   -110.27941    0.5279298   -109.75148    4957.1349    4.2634247    4.2634247    4.2634247    4957.1349    31411.952    4059.2487   -20599.796   -144.09618    1638.1986   -35910.167    77.495374 
   44900    980.93135   -110.63512    0.8875673   -109.74755   -355.78617    4.2658813    4.2658813    4.2658813   -355.78617    3968.0519    6446.7169   -11482.127    8174.7684     9469.781   -252.24551    77.629414 
   45000    1099.6114   -110.74277   0.99495147   -109.74782    9406.1818    4.2615916    4.2615916    4.2615916    9406.1818    9556.7357    26478.832   -7817.0229    2329.6736   -4633.5373    7039.5723    77.395462 
   45100    746.07636   -110.43008   0.67506557   -109.75502    11503.893     4.260869     4.260869     4.260869    11503.893    48839.932    13257.499   -27585.753   -5172.8594   -8840.3324   -25306.535    77.356094 
   45200    723.32431   -110.40983   0.65447904   -109.75535   -15876.605    4.2736614    4.2736614    4.2736614   -15876.605   -8966.5246   -1752.4686   -36910.821    3967.4368    14103.337   -18581.411    78.054927 
   45300    1071.5526   -110.71623   0.96956328   -109.74666    7277.3335    4.2594607    4.2594607    4.2594607    7277.3335   -43.947328    25522.401   -3646.4534    519.61802    16537.718    10507.529    77.279417 
   45400    991.24313   -110.64395   0.89689762   -109.74706   -1732.2716     4.264566     4.264566     4.264566   -1732.2716    23747.846    -5026.572   -23918.089    185.23753   -6958.9302   -23821.355    77.557628 
   45500    755.25201   -110.43238   0.68336789   -109.74902   -20390.007      4.27083      4.27083      4.27083   -20390.007    2501.3373   -18070.794   -45600.564    3587.9119    3026.5924   -33280.328    77.899891 
   45600    907.38203   -110.56824   0.82101833   -109.74722    2561.1506    4.2562816    4.2562816    4.2562816    2561.1506   -7174.2931    33911.251   -19053.506    6379.0821    25612.224     6945.984     77.10651 
   45700    932.91868   -110.59504   0.84412443   -109.75091   -9806.7594    4.2680241    4.2680241    4.2680241   -9806.7594    5357.6406   -10540.133   -24237.785    3609.2111      5012.74   -15732.813    77.746453 
   45800    871.01277   -110.53989   0.78811066   -109.75178   -3576.4601    4.2654419    4.2654419    4.2654419   -3576.4601    31441.395    -13124.55   -29046.225   -3311.1196   -1401.1663   -28012.158    77.605426 
   45900    847.93459   -110.51599   0.76722903   -109.74876    3419.0452    4.2613747    4.2613747    4.2613747    3419.0452    15643.421    27860.954    -33247.24     2297.377    23828.872     5500.677    77.383641 
   46000    777.85213   -110.45129   0.70381696   -109.74747   -19848.642    4.2749122    4.2749122    4.2749122   -19848.642   -5886.3455   -8361.9333   -45297.648    11747.033    17985.202   -4995.3544    78.123481 
   46100      746.481   -110.42341   0.67543169   -109.74798    7549.2785    4.2564643    4.2564643    4.2564643    7549.2785    48894.729   -15045.532   -11201.361   -3094.5317   -9161.8008   -35013.048    77.116442 
   46200    835.05431   -110.50567   0.75557469    -109.7501    8411.0796     4.261797     4.261797     4.261797    8411.0796    29276.356    7308.2219   -11351.339   -6104.7127    10755.399    -11706.71    77.406649 
   46300    879.71807   -110.54454    0.7959874   -109.74855   -17671.846    4.2757714    4.2757714    4.2757714   -17671.846   -11807.336    3213.3621   -44421.564    6609.4374    27126.716    8841.5345      78.1706 
   46400    748.70492   -110.42418   0.67744394   -109.74674    9490.8798    4.2568045    4.2568045    4.2568045    9490.8798    35417.779    1641.5749    -8586.714    4205.6994    -2367.941     -23223.8    77.134934 
   46500    864.27354   -110.52879   0.78201287   -109.74678   -26.206723    4.2658186    4.2658186    4.2658186   -26.206723    13180.578   -11640.799   -1618.3991   -8579.0714    4777.6006   -18762.999    77.625989 
   46600    857.81917     -110.523   0.77617281   -109.74683    -1902.638     4.268244     4.268244     4.268244    -1902.638   -17037.313    21342.203   -10012.805   -8661.2495    24854.028    7347.3046    77.758471 
   46700    795.05423   -110.46635   0.71938177   -109.74697    8251.4778    4.2567556    4.2567556    4.2567556    8251.4778    24833.386    16891.142   -16970.094    6908.7893    10376.427   -19564.752    77.132274 
   46800    897.39832   -110.56268   0.81198486    -109.7507   -8020.9826    4.2687721    4.2687721    4.2687721   -8020.9826    25138.114   -21700.684   -27500.378     4327.538   -7168.3407   -25680.282    77.787338 
   46900     971.3974   -110.62731   0.87894078   -109.74837    7911.1745    4.2638989    4.2638989    4.2638989    7911.1745     362.0362    12672.764    10698.724   -15641.006    6180.8447    4509.6417    77.521235 
   47000    846.30017   -110.51586   0.76575018   -109.75011      9198.88    4.2610382    4.2610382    4.2610382      9198.88    27394.198    14751.851   -14549.409   -5532.2945    22828.114   -3844.9081    77.365311 
   47100    886.75417   -110.55222   0.80235381   -109.74986   -10599.026     4.271153     4.271153     4.271153   -10599.026     26267.36   -18318.882   -39745.556    1203.0396   -3833.7926    -26203.49     77.91757 
   47200    1131.5539   -110.76834    1.0238537   -109.74449     2022.699     4.260737     4.260737     4.260737     2022.699    24933.429   -2801.0805   -16064.252   -5308.4725   -4274.9051   -6247.3916    77.348907 
   47300    987.12479   -110.64205   0.89317125   -109.74888    1850.2423    4.2619661    4.2619661    4.2619661    1850.2423    5049.5601      5087.41   -4586.2432   -11535.671    19771.076    10084.069    77.415865 
   47400    796.04491   -110.47286   0.72027817   -109.75259   -12205.751    4.2683726    4.2683726    4.2683726   -12205.751    9444.8039   -18795.743   -27266.314   -3961.3271    6453.2621   -24697.461      77.7655 
   47500    1057.1404   -110.70493   0.95652282   -109.74841   -383.72598    4.2608241    4.2608241    4.2608241   -383.72598    26046.458    3355.5731   -30553.209   -229.58933   -11433.361   -18037.832    77.353651 
   47600    1157.3047   -110.79305    1.0471536    -109.7459   -11514.148    4.2689274    4.2689274    4.2689274   -11514.148   -11820.839   -279.45086   -22442.156   -12833.562    8135.7959    15623.304    77.795826 
   47700    807.54236   -110.47857    0.7306813   -109.74789   -4274.3547    4.2665613    4.2665613    4.2665613   -4274.3547   -2144.4672   -6321.5506   -4357.0464   -7495.6618    10563.109   -20181.829    77.666541 
   47800    864.37334    -110.5305   0.78210316    -109.7484    7858.8414    4.2596459    4.2596459    4.2596459    7858.8414    27251.434    18476.278   -22151.188    2084.3746   -4528.5775   -32346.236      77.2895 
   47900    1155.1873   -110.79159    1.0452378   -109.74635   -6354.5696    4.2675179    4.2675179    4.2675179   -6354.5696    3092.3167   -4927.4572   -17228.568   -4109.2957   -325.50126    17002.523    77.718794 
   48000    891.31733   -110.55573   0.80648265   -109.74925   -985.83611    4.2622539    4.2622539    4.2622539   -985.83611    5939.1289    10025.845   -18922.483   -4348.5464    14210.345    3000.2242    77.431549 
   48100    636.24797   -110.33115   0.57569053   -109.75546    1173.7357    4.2642928    4.2642928    4.2642928    1173.7357     19831.22   -4837.6507   -11472.362    864.15684     7529.438   -45337.902    77.542726 
   48200    1102.2542   -110.74535    0.9973428     -109.748   -9685.5284    4.2685134    4.2685134    4.2685134   -9685.5284    4311.3804   -19336.599   -14031.367    1336.3132   -6437.7972   -3803.6434    77.773196 
   48300    1024.3364   -110.67412   0.92684107   -109.74728    -1348.167     4.258467     4.258467     4.258467    -1348.167    10793.506    2585.5401   -17423.547    -1776.126    648.83556    25546.176    77.225343 
   48400    503.24195   -110.21225   0.45534389    -109.7569   -11927.272    4.2646846    4.2646846    4.2646846   -11927.272    19894.223   -29787.919   -25888.118   -6682.1592    10733.042   -38370.909    77.564098 
   48500    733.42759   -110.41522   0.66362069    -109.7516   -4161.3255    4.2712489    4.2712489    4.2712489   -4161.3255    542.52228   -23244.432    10217.934   -2276.7376     6944.148   -27767.659    77.922814 
   48600    1329.1058    -110.9432    1.2026028   -109.74059    4766.1426     4.258409     4.258409     4.258409    4766.1426    -372.9989    5870.4075    8801.0191    3066.0918    135.45673    18158.214    77.222189 
   48700    584.59373   -110.28253   0.52895269   -109.75357   -10187.705    4.2651753    4.2651753    4.2651753   -10187.705    8527.1455   -26135.856   -12954.403   -1831.2845    4461.4412   -25603.025    77.590874 
   48800    437.86931   -110.15215   0.39619335   -109.75596   -17917.674    4.2713514    4.2713514    4.2713514   -17917.674    393.78765   -29074.138   -25072.672   -3794.2379    13124.043   -35036.125    77.928426 
   48900    1101.8517   -110.74092   0.99697859   -109.74394    12774.566    4.2598872    4.2598872    4.2598872    12774.566   -7957.7819    16704.104    29577.375    683.01092   -941.63808    11881.361    77.302633 
   49000    945.45233   -110.60338   0.85546514   -109.74792   -11768.976    4.2661248    4.2661248    4.2661248   -11768.976   -342.33921   -17887.347   -17077.241    1941.5422   -4223.0298    -17495.61    77.642705 
   49100    517.08188   -110.22425   0.46786655   -109.75638    -13944.65    4.2626029    4.2626029    4.2626029    -13944.65    12377.031    -18253.42   -35957.561   -5322.8401    6970.9833   -39346.349    77.450573 
   49200    720.63597   -110.40847   0.65204657   -109.75642    8842.0405    4.2619554    4.2619554    4.2619554    8842.0405   -1264.6213    15612.055    12178.688   -1187.6179    3617.1037    1847.9681    77.415283 
   49300    1080.7501   -110.72535   0.97788541   -109.74746   -11158.168    4.2736369    4.2736369    4.2736369   -11158.168   -16696.075   -10436.297   -6342.1325    6406.3451   -4971.6394      4961.84    78.053585 
   49400    821.42443   -110.49205   0.74324209    -109.7488     5797.121    4.2566018    4.2566018    4.2566018     5797.121    26371.428    9875.8476   -18855.912    478.18815    1128.5567   -32031.383    77.123918 
   49500    691.03722   -110.37913     0.625265   -109.75386   -4286.8517    4.2631929    4.2631929    4.2631929   -4286.8517   -8456.4829    2809.7417    -7213.814   -3783.0713    14946.979   -16239.623    77.482738 
   49600    897.29923   -110.55975    0.8118952   -109.74786    -9437.545    4.2728472    4.2728472    4.2728472    -9437.545   -19607.147   -9414.4644    708.97652   -3963.0655    6033.5179    11156.834    78.010326 
   49700    1160.3489   -110.79424    1.0499081   -109.74433    14883.646       4.2524       4.2524       4.2524    14883.646     28975.67    6893.0514    8782.2156    6870.5312   -12065.046   -10854.295    76.895749 
   49800    833.54857   -110.50874   0.75421226   -109.75453   -8164.2137    4.2642192    4.2642192    4.2642192   -8164.2137    4636.7059   -6751.3587   -22377.988   -5101.3413    18156.085   -13239.431    77.538708 
   49900     738.6212   -110.42333   0.66831999   -109.75501   -17974.399    4.2707027    4.2707027    4.2707027   -17974.399   -24115.302   -11484.801   -18323.093   -18062.704    20127.978    4.7808939    77.892925 
   50000    1136.3037   -110.77511    1.0281515   -109.74695    14567.309    4.2585139    4.2585139    4.2585139    14567.309    25881.868   -969.20863    18789.269    406.13072   -7120.0577     6606.907    77.227897 
   50100    1126.9126   -110.76669    1.0196542   -109.74704    -10180.67     4.266766     4.266766     4.266766    -10180.67    6667.3816   -10586.176   -26623.216    178.04094    8348.0612   -1366.1649    77.677722 
   50200    637.19323   -110.33158   0.57654583   -109.75503   -2154.0745      4.26322      4.26322      4.26322   -2154.0745    -4585.414    10610.796   -12487.605   -10864.224    21985.154   -10538.584    77.484212 
   50300    1014.4155   -110.66835   0.91786442   -109.75049    2268.9607    4.2636914    4.2636914    4.2636914    2268.9607    3108.8184    517.52097    3180.5429   -9635.9173    4075.9547    13216.138    77.509923 
   50400    1136.4319   -110.77631    1.0282675   -109.74805    3986.0282      4.26457      4.26457      4.26457    3986.0282    17191.625    6979.8268   -12213.368   -375.92136   -3204.4099    18365.838    77.557849 
   50500    854.00949   -110.52648   0.77272573   -109.75375    11097.528     4.257089     4.257089     4.257089    11097.528    7367.4198    26189.694   -264.52822   -396.54077    18439.045   -8409.8919    77.150399 
   50600    817.10111   -110.49528   0.73933026   -109.75595    2780.9761    4.2678413    4.2678413    4.2678413    2780.9761    94.204324    6318.4465    1930.2774   -19624.521    16758.739   -6761.7098    77.736467 
   50700    1146.3331   -110.78585    1.0372263   -109.74863    4094.8811    4.2670143    4.2670143    4.2670143    4094.8811    13667.206   -1403.5699    21.006922   -6804.7541   -12781.651     15178.49    77.691284 
   50800    952.04041   -110.60949   0.86142617   -109.74807    10715.975    4.2596558    4.2596558    4.2596558    10715.975    13089.469    6423.8787    12634.578    1001.4768    13090.678    11645.192    77.290036 
   50900    914.07401   -110.57757   0.82707337    -109.7505    3142.2827    4.2623386    4.2623386    4.2623386    3142.2827    7270.9287    5691.3313    -3535.412   -12643.028    25886.386   -14679.899    77.436165 
   51000    952.98864   -110.61178   0.86228415   -109.74949    5550.4757    4.2658188    4.2658188    4.2658188    5550.4757    9960.3704   -13306.835    19997.892   -7807.7435   -2756.3091    10775.716    77.626003 
   51100     971.2783   -110.62788   0.87883302   -109.74905   -8189.4212    4.2662376    4.2662376    4.2662376   -8189.4212    4332.4667   -20839.124   -8061.6065    2447.4523    410.11952    33481.732    77.648867 
   51200    948.46162   -110.60741   0.85818801   -109.74922   -1599.3785    4.2577346    4.2577346    4.2577346   -1599.3785   -13269.551    11000.291   -2528.8757    1784.9325    18746.796   -5183.5788    77.185506 
   51300    866.46663   -110.53518   0.78399722   -109.75118   -6171.3082    4.2642708    4.2642708    4.2642708   -6171.3082   -24470.733   -8577.3222    14534.131   -21045.217    16200.826    1513.0003    77.541524 
   51400    826.58341   -110.49867   0.74791004   -109.75076   -11973.963    4.2685449    4.2685449    4.2685449   -11973.963   -6121.5885   -23085.742   -6714.5584   -9096.3507   -5891.0233    27012.109    77.774917 
   51500    879.76093    -110.5437   0.79602618   -109.74768    -6790.431    4.2606577    4.2606577    4.2606577    -6790.431   -21327.408    6085.2377   -5129.1222    8436.4201    10562.227    9030.5473     77.34459 
   51600    923.46029   -110.58251   0.83556628   -109.74694    -10398.82    4.2627659    4.2627659    4.2627659    -10398.82   -42074.566     7250.328    3627.7788   -9389.7093    20372.157   -7644.1017    77.459455 
   51700    653.82873   -110.34377   0.59159798   -109.75217   -1855.8063    4.2642469    4.2642469    4.2642469   -1855.8063    -3034.731     -21553.1    19020.412   -12566.448   -6274.9601    20963.252    77.540221 
   51800    810.58648   -110.48288   0.73343568   -109.74944    -6472.303    4.2657132    4.2657132    4.2657132    -6472.303   -3520.3454   -6331.3651   -9565.1984    447.29097     6248.165     29105.33    77.620239 
   51900    912.39021   -110.57172   0.82554983   -109.74617   -7621.7789    4.2636696    4.2636696    4.2636696   -7621.7789   -41655.205    15709.281     3080.588   -775.95463    20255.571   -9637.0374    77.508733 
   52000    730.11063   -110.41002   0.66061944    -109.7494   -6915.7289     4.260493     4.260493     4.260493   -6915.7289   -22053.642   -9234.0156     10540.47   -12290.579    2198.1585    9321.3286    77.335621 
   52100    506.83168   -110.21351   0.45859195   -109.75491    1414.1394    4.2650859    4.2650859    4.2650859    1414.1394    14041.824   -19615.286    9815.8805   -9783.0865   -2200.2984     39310.75       77.586 
   52200    990.87015   -110.64725   0.89656013   -109.75069    61.518601    4.2614278    4.2614278    4.2614278    61.518601   -15750.821    12651.231    3284.1454    8258.4953    5446.1883   -2604.3264    77.386538 
   52300    837.84479    -110.5079   0.75809957    -109.7498     3626.035    4.2608997    4.2608997    4.2608997     3626.035   -22312.148    10831.334    22358.919   -5317.5266    14254.948   -2113.0667    77.357767 
   52400    424.53465   -110.14139   0.38412787   -109.75726   -7315.6607    4.2685531    4.2685531    4.2685531   -7315.6607   -6550.3091   -17160.893    1764.2199    -13673.71   -7287.8607     34574.67    77.775365 
   52500    776.11463   -110.45188   0.70224483   -109.74964    8493.6096    4.2629909    4.2629909    4.2629909    8493.6096    6885.4282    3857.2393    14738.161    17.906848   -1221.6442     16046.83    77.471722 
   52600    1159.7841   -110.79264     1.049397   -109.74324    3910.7808    4.2598679    4.2598679    4.2598679    3910.7808    -17087.39    16237.904    12581.829    1693.5816    19501.486   -8967.3057    77.301587 
   52700    554.50048   -110.25756   0.50172368   -109.75584   -8059.9357    4.2647681    4.2647681    4.2647681   -8059.9357   -13754.242   -2633.6506   -7791.9142   -5983.7895    3031.0727    23687.683    77.568657 
   52800    577.43406   -110.27832   0.52247447   -109.75585   -2663.1983    4.2653585    4.2653585    4.2653585   -2663.1983   -4344.5176   -17735.041    14089.964    -10431.53   -2556.9028    34715.859    77.600873 
   52900    1236.2544   -110.86607    1.1185889   -109.74748    7132.8322    4.2622332    4.2622332    4.2622332    7132.8322   -7301.7566    5970.1251    22730.128    1257.7734    652.98701   -12351.856    77.430423 
   53000    970.74911   -110.63133   0.87835419   -109.75297    9418.7768    4.2585875    4.2585875    4.2585875    9418.7768   -1936.2526     11612.88    18579.703    2370.1276    7593.6534    11543.255      77.2319 
   53100    479.64647   -110.19742   0.43399421   -109.76343   -13844.307    4.2672746    4.2672746    4.2672746   -13844.307   -8719.9943   -35639.367    2826.4394   -10860.602    1952.4351    43356.091    77.705502 
   53200    1013.2662   -110.67146   0.91682452   -109.75464   -261.84032    4.2645979    4.2645979    4.2645979   -261.84032   -13896.774   -7798.4494    20909.702   -6909.3872   -9299.1172   -3234.4869    77.559368 
   53300    1380.7172   -110.99505     1.249302   -109.74575    1765.9593    4.2614668    4.2614668    4.2614668    1765.9593    -7824.215    2135.1021    10986.991    6198.6867   -1299.4726    712.80241    77.388661 
   53400     709.2207   -110.39601    0.6417178   -109.75429   -19266.061    4.2696697    4.2696697    4.2696697   -19266.061   -5606.2206   -39613.559   -12578.403   -7565.6492    1564.5452    42309.089    77.836417 
   53500    941.67003   -110.60354   0.85204283   -109.75149   -4542.8684    4.2579399    4.2579399    4.2579399   -4542.8684   -13154.126    -6393.939    5919.4597   -19265.588   -4423.3843    13545.256    77.196675 
   53600    1313.1547    -110.9392      1.18817   -109.75103    2252.7305     4.262328     4.262328     4.262328    2252.7305    -18793.48    5443.9074    20107.764    -4789.554   -8395.5254   -10682.176     77.43559 
   53700    1056.7863   -110.70937   0.95620243   -109.75317   -9042.4529    4.2684027    4.2684027    4.2684027   -9042.4529    -709.9729   -16881.794    -9535.592    5369.5925    -1947.917    27847.959    77.767146 
   53800    817.61651   -110.49389    0.7397966   -109.75409    13439.081    4.2581562    4.2581562    4.2581562    13439.081   -589.27139   -288.06585    41194.581    -11961.78    5151.9132     28067.45    77.208438 
   53900    1154.3708   -110.79458     1.044499   -109.75008   -3214.0022    4.2673405    4.2673405    4.2673405   -3214.0022   -19277.693   -11820.726    21456.412    -16328.49   -10401.166   -13894.544    77.709102 
   54000    1054.1147   -110.70115   0.95378511   -109.74737    2216.3229    4.2642171    4.2642171    4.2642171    2216.3229    5846.7064   -347.76081    1150.0232    4558.5848   -6048.9567    18291.329    77.538594 
   54100    955.86365   -110.61431   0.86488552   -109.74942    2986.3418    4.2614583    4.2614583    4.2614583    2986.3418    6527.5475   -13295.564    15727.042   -3733.5183    6952.8455    28295.026    77.388197 
   54200    1053.3083   -110.70114   0.95305545   -109.74808   -7327.5162    4.2669605    4.2669605    4.2669605   -7327.5162   -14812.979   -27065.246    19895.676   -23990.108    2831.0585   -7927.0273    77.688347 
   54300    1019.2997   -110.67037   0.92228375   -109.74809    628.36698    4.2616369    4.2616369    4.2616369    628.36698   -2438.2628   -1525.3743     5848.738   -3826.7349   -9383.5723    6640.8664    77.397928 
   54400    841.08269   -110.51354   0.76102929   -109.75251   -10564.024    4.2671496    4.2671496    4.2671496   -10564.024    1541.2568   -17038.928   -16194.402    3352.8121   -9352.8798    30289.314    77.698676 
   54500    852.76114   -110.52385    0.7715962   -109.75225    11888.249    4.2593187    4.2593187    4.2593187    11888.249    13748.498   -10552.199    32468.448   -16525.123    4799.7286    10495.264    77.271689 
   54600    950.52317   -110.61019   0.86005334   -109.75013    7468.3157    4.2607941    4.2607941    4.2607941    7468.3157   -3542.7855    3241.3632    22706.369   -13390.212   -7495.9219   -14337.098    77.352017 
   54700    704.92079    -110.3889   0.63782715   -109.75107   -18815.357    4.2744744    4.2744744    4.2744744   -18815.357   -13536.851   -9425.8962   -33483.322    6106.4589   -13332.263    19595.668    78.099483 
   54800    737.68545   -110.41649    0.6674733   -109.74902    6514.2371    4.2561934    4.2561934    4.2561934    6514.2371    20504.044   -6878.7677     5917.435    -5982.417    9.3622505    27713.963    77.101717 
   54900    904.71646   -110.56754   0.81860647   -109.74893    5624.9579    4.2587434    4.2587434    4.2587434    5624.9579     330.5533    1325.0795    15219.241   -25768.469   -1501.7782   -14424.318    77.240382 
   55000    741.83317   -110.42082   0.67122624   -109.74959    -22686.19    4.2730827    4.2730827    4.2730827    -22686.19   -20541.351   -6720.0881    -40797.13   -3203.5355   -11595.016     4558.977    78.023225 
   55100    723.19472   -110.40286   0.65436178    -109.7485    -4760.749    4.2584789    4.2584789    4.2584789    -4760.749    17075.099   -1498.9552   -29858.391    2662.7264   -11688.207    26300.604    77.225991 
   55200    813.85526   -110.48577   0.73639335   -109.74938    2920.9996    4.2614029    4.2614029    4.2614029    2920.9996    2516.6995   -9351.2228    15597.522   -20037.486     6316.901    569.10849     77.38518 
   55300    775.03683   -110.45262   0.70126961   -109.75135   -1139.0255    4.2644096    4.2644096    4.2644096   -1139.0255   -4778.4577    1216.9322    144.44893   -10797.048    396.48808   -8165.3673    77.549093 
   55400    744.10706   -110.42515    0.6732837   -109.75187    3550.7567    4.2615915    4.2615915    4.2615915    3550.7567    16395.161    3593.3593   -9336.2507    3468.9549   -13771.976    12130.605    77.395455 
   55500    861.15001   -110.52959   0.77918663   -109.75041   -6684.8374    4.2674054    4.2674054    4.2674054   -6684.8374    195.51966   -18540.498   -1709.5341   -2826.7318    1575.3706    13462.408    77.712649 
   55600    639.99398   -110.33182      0.57908   -109.75274    12089.747    4.2593729    4.2593729    4.2593729    12089.747    11025.381   -3589.4032    28833.264   -12409.318    5721.0808   -15066.713    77.274642 
   55700    824.95461   -110.49982   0.74643627   -109.75339    3639.7553    4.2644454    4.2644454    4.2644454    3639.7553    14719.701   -8038.8414    4238.4065    2737.7329     3132.669   -10346.635    77.551047 
   55800    1156.0713   -110.79359    1.0460376   -109.74756   -3185.9141    4.2669632    4.2669632    4.2669632   -3185.9141    13186.095   -9948.8937   -12794.944    1762.5287   -4342.2383    7088.6804    77.688494 
   55900     812.7268   -110.48836   0.73537229   -109.75298    1461.0913    4.2592717    4.2592717    4.2592717    1461.0913    9617.1333   -22677.889     17444.03   -20541.524    2133.7243   -2700.4782    77.269132 
   56000    593.14184   -110.29467    0.5366872   -109.75799   -7764.1681    4.2669362    4.2669362    4.2669362   -7764.1681    4713.7466   -26410.843   -1595.4077   -8855.7071     12428.12   -17227.908    77.687015 
   56100    1323.8348   -110.94559    1.1978335   -109.74775   -1806.0175    4.2634947    4.2634947    4.2634947   -1806.0175    21627.544   -11383.594   -15662.003    7169.3438   -4492.7671   -7625.8837    77.499195 
   56200     1277.168   -110.90538    1.1556085   -109.74978   -4441.3885    4.2622685    4.2622685    4.2622685   -4441.3885    6460.5641   -25207.829    5423.0994    -7810.354   -1217.2063    7830.2936    77.432343 
   56300    661.98414   -110.36039   0.59897716   -109.76141   -14295.539    4.2629074    4.2629074    4.2629074   -14295.539   -488.23573   -43875.969    1477.5879   -14147.956    4216.4396     -12197.6    77.467171 
   56400    919.29451   -110.59231   0.83179699   -109.76051    4344.0972    4.2581922    4.2581922    4.2581922    4344.0972    25557.324   -16461.159    3936.1264    5299.3274    7087.3333   -20932.508    77.210398 
   56500    1414.7071    -111.0308    1.2800567   -109.75074   -7779.0844     4.270914     4.270914     4.270914   -7779.0844    9223.5336    -20908.89   -11651.897   -5338.3243   -321.81635    11281.969    77.904487 
   56600    999.84589   -110.65758   0.90468157    -109.7529   -9715.6808    4.2656495    4.2656495    4.2656495   -9715.6808    9507.3269     -37187.8   -1466.5689   -12134.899   -5660.4536    7146.9741    77.616757 
   56700    798.38001   -110.47196   0.72239101   -109.74957   -1741.5386    4.2567983    4.2567983    4.2567983   -1741.5386    11539.055   -20567.976    3804.3057    5228.9184    13264.638   -20116.864    77.134596 
   56800    1130.0106   -110.77237    1.0224573   -109.74991   -7079.2531    4.2656506    4.2656506    4.2656506   -7079.2531    7397.8908   -9791.6155   -18844.035    641.89041    612.83252    5752.1707    77.616816 
   56900      1178.53   -110.81693    1.0663588   -109.75057    3205.6342     4.260946     4.260946     4.260946    3205.6342    22589.192   -12474.613   -497.67673   -3607.4909   -8344.5119    23431.594     77.36029 
   57000    1036.5226   -110.69186   0.93786743   -109.75399    1288.6289    4.2612674    4.2612674    4.2612674    1288.6289   -89.479614   -2933.1541    6888.5203   -2635.2687    13642.651   -10845.821    77.377798 
   57100    863.71685   -110.53671   0.78150916    -109.7552   -2278.2307    4.2657931    4.2657931    4.2657931   -2278.2307   -2544.7017   -8357.3668    4067.3765    405.16079    9660.6542   -13724.338    77.624598 
   57200    1006.0985   -110.66115   0.91033907   -109.75081    3721.2318    4.2629016    4.2629016    4.2629016    3721.2318    18153.703   -9063.3465    2073.3395     5900.542   -4270.5233    26772.254    77.466854 
   57300    1070.1497   -110.71667    0.9682939   -109.74837    4255.2942    4.2646841    4.2646841    4.2646841    4255.2942    10571.161    7083.9535   -4889.2317   -3427.9459     2781.914    8809.8552    77.564071 
   57400    1036.8271   -110.68789   0.93814293   -109.74974    1099.1813    4.2589383    4.2589383    4.2589383    1099.1813   -695.94252   -583.70032    4577.1866   -353.61852    13134.055   -23825.567    77.250987 
   57500    768.45134   -110.45227   0.69531092   -109.75696   -5107.9973     4.261077     4.261077     4.261077   -5107.9973    13585.053   -7835.2756   -21073.769   -1022.3009   -2346.6473    16785.542    77.367424 
   57600    1015.4621   -110.67253   0.91881143   -109.75371   -8840.7301    4.2668621    4.2668621    4.2668621   -8840.7301    7769.5117   -8899.5279   -25392.174    811.33538   -12854.887    30411.609    77.682972 
   57700    1145.7861   -110.78515    1.0367313   -109.74842     3569.984    4.2618633    4.2618633    4.2618633     3569.984     9452.462    1196.0926    61.397465    2377.9075    17789.696   -17414.984    77.410263 
   57800    777.04082   -110.45637   0.70308286   -109.75329   -3982.6943    4.2605304    4.2605304    4.2605304   -3982.6943    2763.6368   -4616.6304   -10095.089   -8373.6855    9601.1922   -2777.1367    77.337655 
   57900    712.57548   -110.40026   0.64475327   -109.75551   -6475.8083    4.2628772    4.2628772    4.2628772   -6475.8083    1787.2404   -20445.595   -769.07082   -1890.2758    -14750.86    34591.019    77.465523 
   58000    1009.4567   -110.66553   0.91337762   -109.75215    973.03219    4.2636838    4.2636838    4.2636838    973.03219    1731.8689   -10250.755    11437.983    5937.8146     6059.364    2594.4813    77.509503 
   58100    969.54835   -110.62806   0.87726772   -109.75079    5311.6585    4.2612074    4.2612074    4.2612074    5311.6585    1895.3468    12555.828    1483.8003    2469.0754    14044.452   -15426.363    77.374528 
   58200    687.11677   -110.37518    0.6217177   -109.75346   -12412.281    4.2649911    4.2649911    4.2649911   -12412.281   -3202.2697   -20692.264    -13342.31   -196.82935   -2223.9845    23878.145    77.580827 
   58300    831.18781    -110.5033    0.7520762   -109.75123   -12944.484    4.2638193    4.2638193    4.2638193   -12944.484   -9467.4188   -19461.142   -9904.8929    3874.4714   -8869.7064      23665.8    77.516896 
   58400     1038.724    -110.6889   0.93985927   -109.74904    6402.9242    4.2586436    4.2586436    4.2586436    6402.9242   -5735.0421    12044.182    12899.633    5274.1019    14246.068    -8920.821    77.234952 
   58500    958.05873   -110.61897   0.86687167    -109.7521   -6275.9726    4.2644472    4.2644472    4.2644472   -6275.9726   -509.38619   -4187.2667   -14131.265   -3937.9617    15198.391    9912.4474    77.551148 
   58600    635.28958   -110.33134   0.57482336   -109.75651   -7306.5136    4.2633806    4.2633806    4.2633806   -7306.5136    2993.9166   -19166.492   -5746.9657    2995.6009   -13407.538    31445.864     77.49297 
   58700    902.50182   -110.56876   0.81660261   -109.75215    2311.7833    4.2638345    4.2638345    4.2638345    2311.7833   -12427.766   -2272.7167    21635.833    7106.4003    8510.3979   -4198.1326    77.517723 
   58800    1077.5919   -110.72034   0.97502775   -109.74532    477.93023    4.2671165    4.2671165    4.2671165    477.93023   -4629.3196    495.13507    5567.9752    205.52051     15119.33   -1872.8428    77.696868 
   58900    735.18391   -110.41546   0.66520985   -109.75025    6634.2691    4.2578336    4.2578336    4.2578336    6634.2691    22872.147    4684.6818   -7654.0209   -45.494193   -11993.777    30358.423    77.190894 
   59000    689.75784    -110.3794   0.62410739   -109.75529   -3716.1257    4.2633451    4.2633451    4.2633451   -3716.1257    -6380.719   -10562.524    5794.8664    8560.2793   -6934.1282    13270.561    77.491036 
   59100    1205.7499   -110.84072    1.0909878   -109.74973   -1273.6349    4.2651854    4.2651854    4.2651854   -1273.6349   -12787.665   -3503.4833    12470.244    5324.7801   -158.97955    -5069.109    77.591427 
   59200    1061.5462   -110.71372   0.96050931   -109.75321    14443.544    4.2571957    4.2571957    4.2571957    14443.544    24363.384    16343.144    2624.1037   -4426.8947    2534.6162    14247.588    77.156201 
   59300    600.23381   -110.30265   0.54310416   -109.75955   -10218.575    4.2681836    4.2681836    4.2681836   -10218.575   -4875.3069   -4619.3568   -21161.063    5306.1363   -12348.385    22580.894    77.755172 
   59400    994.00737   -110.65089   0.89939876   -109.75149   -183.81658    4.2665387    4.2665387    4.2665387   -183.81658    -12210.41    4899.1149    6759.8453    387.22853   -6007.8701   -5661.2411    77.665307 
   59500    1347.8987   -110.96224    1.2196071   -109.74264     7066.562    4.2594813    4.2594813    4.2594813     7066.562    18350.087    7044.7897   -4195.1909   -1092.4118    7879.4968    10163.045    77.280539 
   59600     786.8852   -110.46615   0.71199026   -109.75416   -7974.7634    4.2628683    4.2628683    4.2628683   -7974.7634    9196.2774   -11796.752   -21323.815    2655.0902   -11581.657    27591.052    77.465042 
   59700    799.27995   -110.48018    0.7232053   -109.75698    2774.0243    4.2590946    4.2590946    4.2590946    2774.0243    5221.2512    4788.5619   -1687.7402    6884.5493   -14484.067   -1098.4737    77.259493 
   59800    1248.5681   -110.88066    1.1297306   -109.75093    1261.2397     4.265353     4.265353     4.265353    1261.2397    6488.7767   -2963.6961    258.63834    6006.1093    6737.9593   -4041.1438    77.600572 
   59900     1005.139   -110.66431   0.90947085   -109.75484   -1170.9007    4.2635957    4.2635957    4.2635957   -1170.9007    23718.506   -9595.9127   -17635.295   -4458.3814    7508.0719     19267.72    77.504699 
   60000     959.2001   -110.62126   0.86790441   -109.75336    8368.5732     4.255606     4.255606     4.255606    8368.5732    29875.834   -176.19427   -4593.9206    2768.7617   -10189.424    13361.386    77.069801 
   60100    1248.6005   -110.87884      1.12976   -109.74908   -4800.4318    4.2677625    4.2677625    4.2677625   -4800.4318   -12054.505   -388.17571   -1958.6147    7361.2202   -2719.7018   -7269.8554    77.732157 
   60200     1016.454   -110.67179    0.9197089   -109.75208    1395.9226    4.2626683    4.2626683    4.2626683    1395.9226    6153.2964      1601.23   -3566.7586   -2250.3654    16756.257    11313.532    77.454137 
   60300    930.38263    -110.5939   0.84182976   -109.75207    9448.0304    4.2567984    4.2567984    4.2567984    9448.0304     39309.53    10931.749   -21897.187   -419.32983    10076.981    16332.733    77.134604 
   60400     1301.233   -110.92677    1.1773829   -109.74938    -7516.329     4.267575     4.267575     4.267575    -7516.329   -4047.8571    -11919.04   -6582.0899    7937.9663   -2716.9893   -8974.8508    77.721914 
   60500    1200.5382   -110.83738    1.0862722   -109.75111     5546.757     4.258234     4.258234     4.258234     5546.757   -436.19876    12818.959    4257.5111     5381.297     10946.99    3169.6998    77.212671 
   60600    896.69643   -110.56826   0.81134978   -109.75691   -634.56519    4.2600258    4.2600258    4.2600258   -634.56519    13252.617    11365.596   -26521.908   -1057.0355    15561.008    28573.579    77.310181 
   60700    1103.9393   -110.75275   0.99886752   -109.75388   -11237.994    4.2677865    4.2677865    4.2677865   -11237.994    5528.3217   -17263.671   -21978.633     1207.657   -3090.5227    4195.8362    77.733471 
   60800    1301.3673   -110.92527    1.1775045   -109.74777    3236.0074    4.2583194    4.2583194    4.2583194    3236.0074   -4646.7033    6394.8062    7959.9194     7597.581     709.6658    -13348.45    77.217315 
   60900    1031.0563   -110.68502   0.93292142    -109.7521   -11455.791    4.2643224    4.2643224    4.2643224   -11455.791   -2473.7945   -6694.5508   -25199.029    683.79522    16126.399    24972.961    77.544339 
   61000    941.22832   -110.60608   0.85164316   -109.75443   -7476.0138    4.2631038    4.2631038    4.2631038   -7476.0138    10545.309   -17110.427   -15862.924   -3166.3644    7993.2978    27367.171    77.477879 
   61100    1248.7134   -110.88121    1.1298621   -109.75135    9315.8705    4.2564817    4.2564817    4.2564817    9315.8705    5864.6644    7073.8593    15009.088    7901.9359   -8264.4703   -15049.721    77.117387 
   61200    1033.6308   -110.68936   0.93525083   -109.75411   -4098.6856    4.2663594    4.2663594    4.2663594   -4098.6856   -1056.2725   -15175.173    3935.3891    9775.8913   -7429.6217    1821.9403    77.655518 
   61300    809.00849   -110.48652   0.73200788   -109.75451    93.059229    4.2640531    4.2640531    4.2640531    93.059229     11490.98   -12146.379    934.57673   -2010.5658    9070.2661    34288.975    77.529646 
   61400    1144.8788    -110.7846    1.0359104   -109.74869    10807.841    4.2599323    4.2599323    4.2599323    10807.841    17722.639   -20.136325     14721.02   -1138.6942    4486.9817    4482.8828     77.30509 
   61500    1199.8257   -110.83361    1.0856275   -109.74798   -286.80753    4.2634664    4.2634664    4.2634664   -286.80753    1090.3644   -18282.791    16332.005    9192.2855   -10020.017   -7405.4545    77.497647 
   61600    677.90082   -110.37088   0.61337891   -109.75751   -32.416148    4.2601059    4.2601059    4.2601059   -32.416148      10105.3   -8376.2914   -1826.2574    7343.5083   -7244.3401    28232.378    77.314543 
   61700    918.30398   -110.58805   0.83090074   -109.75715   -252.82865    4.2621294    4.2621294    4.2621294   -252.82865    15953.063   -10718.691   -5992.8583   -2908.5545    5423.3591    20102.943    77.424766 
   61800    1227.3371   -110.85883    1.1105204   -109.74831    744.63212    4.2652693    4.2652693    4.2652693    744.63212   -1007.9722   -19442.238    22684.106    2105.4598    6124.1842   -12056.389    77.596006 
   61900    743.18676   -110.42629     0.672451   -109.75384    1163.8938    4.2606034    4.2606034    4.2606034    1163.8938    4824.4503   -6805.4977    5472.7287     8251.178   -13228.243    13578.517    77.341633 
   62000    763.42948   -110.44585   0.69076704   -109.75508    -1667.763    4.2601556    4.2601556    4.2601556    -1667.763    15397.517   -13418.233   -6982.5729    2346.5583    -4025.804    29941.327    77.317245 
   62100    1151.7883   -110.79213    1.0421622   -109.74996    1227.2792    4.2629125    4.2629125    4.2629125    1227.2792    5034.1032   -14886.501    13534.236   -430.58431    10549.311   -4841.2372     77.46745 
   62200    782.63959   -110.46192   0.70814875   -109.75377    4608.0778    4.2630478    4.2630478    4.2630478    4608.0778    3601.1073   -11893.815    22116.941    3806.1665    2228.1682   -5217.1887    77.474826 
   62300    703.89594   -110.39199   0.63689984   -109.75509   -6352.8003    4.2649271    4.2649271    4.2649271   -6352.8003     8126.778   -15596.636   -11588.543    4382.9658   -7478.8901    23723.871    77.577332 
   62400     1067.168   -110.71315   0.96559606   -109.74756       1412.2    4.2619368    4.2619368    4.2619368       1412.2    17539.891   -2953.9582   -10349.333   -6140.2957   -5918.8888    8925.9423    77.414268 
   62500    870.05798   -110.53718   0.78724675   -109.74993    6554.8254     4.260098     4.260098     4.260098    6554.8254    20458.863   -10793.633    9999.2462   -1226.0632    8750.5782   -13091.679     77.31411 
   62600    597.89856   -110.29617   0.54099118   -109.75518   -6857.4494    4.2668279    4.2668279    4.2668279   -6857.4494    10247.762   -27799.392   -3020.7186    6950.2762   -1557.1907     3851.096    77.681101 
   62700    923.71479   -110.58695   0.83579655   -109.75116   -484.88749    4.2607425    4.2607425    4.2607425   -484.88749    14612.129    2434.0227   -18500.814   -151.22763   -23303.082    9895.6028    77.349206 
   62800    990.70332   -110.64653   0.89640918   -109.75012   -1550.2697    4.2592627    4.2592627    4.2592627   -1550.2697    10421.534    1739.3713   -16811.714   -4011.1274   -8815.2515   -11275.147    77.268642 
   62900    670.44024   -110.36114   0.60662842   -109.75451   -15174.459    4.2679353    4.2679353    4.2679353   -15174.459    7033.0423   -36832.284   -15724.134     1855.718    1668.1093    -10565.05    77.741599 
   63000    713.79703   -110.39901   0.64585855   -109.75315     -1899.63    4.2615525    4.2615525    4.2615525     -1899.63    11696.964   -7127.0715   -10268.783     5659.625   -14863.855    9009.2151    77.393329 
   63100    937.27842   -110.59683   0.84806921   -109.74877    -935.0027    4.2603975    4.2603975    4.2603975    -935.0027    11927.467    13350.376    -28082.85    1202.3332   -13114.599    -3925.053     77.33042 
   63200    527.97466   -110.23137   0.47772256   -109.75365   -7406.0768    4.2670163    4.2670163    4.2670163   -7406.0768    37741.721   -27574.758   -32385.194    5252.9309    5466.8969   -16264.391    77.691391 
   63300    625.76088   -110.31966   0.56620159   -109.75345   -10461.346     4.264628     4.264628     4.264628   -10461.346    6902.2007   -27175.043   -11111.195     6996.972    3815.6503    2436.6632    77.561013 
   63400    991.06738   -110.64346   0.89673859   -109.74672    1446.7181    4.2588579    4.2588579    4.2588579    1446.7181   -424.60063    10324.231   -5559.4762   -90.411665   -7814.2542    1383.2681    77.246613 
   63500    698.10978   -110.38534    0.6316644   -109.75368   -11537.955    4.2654844    4.2654844    4.2654844   -11537.955    11407.606   -10827.398   -35194.074   -4374.8585   -1032.5892   -20436.045    77.607745 
   63600     395.5077    -110.1173   0.35786368   -109.75944   -13862.494     4.264849     4.264849     4.264849   -13862.494    1504.5979   -21688.841   -21403.237    1804.2683    6908.6648    -4512.606    77.573069 
   63700    999.03354   -110.65683   0.90394655   -109.75288    4913.5271    4.2580966    4.2580966    4.2580966    4913.5271    1685.7481    2817.9678    10236.865    6022.3804    1337.5718    6874.7879    77.205197 
   63800    1124.3915   -110.76811     1.017373   -109.75073   -3573.2053     4.265884     4.265884     4.265884   -3573.2053    12868.757   -3583.0463   -20005.326   -3925.6593    -2068.819   -16262.948    77.629558 
   63900    515.87836    -110.2258   0.46677758   -109.75903   -5352.2197    4.2643692    4.2643692    4.2643692   -5352.2197    25589.584    -11182.11   -30464.133    -3069.071     3478.409   -15105.984    77.546891 
   64000    721.40433   -110.40925    0.6527418   -109.75651   -1165.7696    4.2597295    4.2597295    4.2597295   -1165.7696    5164.4574    663.48803   -9325.2542    3754.6475    7491.0628    10178.092    77.294051 
   64100    1107.4788   -110.75308    1.0020701   -109.75101    8.8332718    4.2627843    4.2627843    4.2627843    8.8332718    6126.2258    9138.9768   -15238.703    2759.1839     3139.279   -6003.4543     77.46046 
   64200    874.49264   -110.54617   0.79125932   -109.75491    2033.2356     4.262156     4.262156     4.262156    2033.2356    33640.454   -11344.274   -16196.474    3153.7746   -9971.5246   -19444.813    77.426215 
   64300    827.27402   -110.50283   0.74853492    -109.7543   -2987.6916    4.2642978    4.2642978    4.2642978   -2987.6916    16825.773   -7249.0283   -18539.819    6347.1384    1138.5264    7032.6932    77.542998 
   64400    998.89247   -110.65372    0.9038189    -109.7499   -454.26914    4.2630453    4.2630453    4.2630453   -454.26914    1467.4622    15671.761   -18502.031    3617.1221    5160.3198    5904.6308    77.474687 
   64500    922.33626   -110.58572   0.83454923   -109.75117    5851.5396    4.2586801    4.2586801    4.2586801    5851.5396    31521.128    10374.982   -24341.492   -2267.4796   -10906.116   -16909.284    77.236939 
   64600    758.32039   -110.44173   0.68614423   -109.75559    3198.7742    4.2649796    4.2649796    4.2649796    3198.7742    37301.767   -2271.9673   -25433.477    3247.4298   -3341.7207    2464.9964    77.580195 
   64700    1113.5302   -110.75784    1.0075455   -109.75029    3642.6672    4.2639088    4.2639088    4.2639088    3642.6672     19013.85    11073.131    -19158.98    9032.6249    3407.9355    17721.122    77.521779 
   64800    1147.1339   -110.78877    1.0379509   -109.75082    12684.809    4.2567372    4.2567372    4.2567372    12684.809    20607.433    32672.714   -15225.719   -178.80097   -6281.9809   -9921.7601    77.131277 
   64900    721.58664   -110.41254   0.65290675   -109.75964   -5633.6605    4.2648054    4.2648054    4.2648054   -5633.6605     16142.77    12150.167   -45193.919    -2410.787   -8935.7947   -9890.9159    77.570692 
   65000    719.62505   -110.40857   0.65113187   -109.75744   -2152.9621    4.2655012    4.2655012    4.2655012   -2152.9621    15633.929    6545.2178   -28638.033    3547.0669   -3575.2999    21655.679    77.608661 
   65100    1312.5376   -110.93602    1.1876116   -109.74841    12683.684    4.2582652    4.2582652    4.2582652    12683.684    12330.964     23991.95    1728.1363    5319.2293   -349.40849    6108.0845    77.214365 
   65200    1140.2893   -110.78497    1.0317577   -109.75321   -2574.2287    4.2642401    4.2642401    4.2642401   -2574.2287     19.50253    15017.211   -22759.399   -2578.6376   -7734.9509   -8164.1605     77.53985 
   65300    426.17753    -110.1467   0.38561439   -109.76109   -9588.6938    4.2653818    4.2653818    4.2653818   -9588.6938     14231.25    4063.7807   -47061.112   -4554.5377   -5568.9743    17703.604    77.602147 
   65400    884.05285    -110.5566    0.7999096   -109.75669   -177.37273     4.260673     4.260673     4.260673   -177.37273    14344.341     9602.677   -24479.137    4906.8251    8053.9739    10002.135    77.345424 
   65500    1353.8963   -110.97493    1.2250338    -109.7499     8804.708    4.2599737    4.2599737    4.2599737     8804.708    6746.3246    25104.077   -5436.2777   -3485.5293    3420.8444   -6928.7545    77.307342 
   65600    881.40675   -110.55714   0.79751535   -109.75962   -4174.7353    4.2630199    4.2630199    4.2630199   -4174.7353     15072.84    4524.4389   -32121.485   -6845.2747   -5849.9759    15733.926    77.473303 
   65700    566.86211   -110.27338   0.51290875   -109.76047   -15833.539    4.2653012    4.2653012    4.2653012   -15833.539    20429.236   -14342.186   -53587.668    5365.7273    1502.8246    17996.253    77.597746 
   65800    1010.9937   -110.66757   0.91476837    -109.7528   -2224.3792    4.2582296    4.2582296    4.2582296   -2224.3792    3606.1078    12139.629   -22418.874   -4543.1488     17502.26   -6815.4505    77.212433 
   65900    1126.7778   -110.77179    1.0195322   -109.75226    3676.2779    4.2603372    4.2603372    4.2603372    3676.2779    10901.688    10369.675   -10242.529   -7019.5803    8645.6146    6119.2294    77.327138 
   66000    844.76286   -110.51856   0.76435919    -109.7542   -12231.049    4.2683382    4.2683382    4.2683382   -12231.049    20753.543   -18849.368   -38597.322   -41.157584   -2516.4116    20069.978     77.76362 
   66100    814.65177   -110.48984   0.73711404   -109.75273   -5153.3488    4.2596088    4.2596088    4.2596088   -5153.3488    14579.328    3374.7544   -33414.129    3947.5736    11327.511   -4867.5904    77.287479 
   66200    1020.3759   -110.67404   0.92325759   -109.75078    1598.9264    4.2590991    4.2590991    4.2590991    1598.9264   -64.835462    16932.277   -12070.663   -3175.5355    13087.434   -6063.0928    77.259736 
   66300    895.53542   -110.56276   0.81029927   -109.75246   -2271.4822    4.2667156    4.2667156    4.2667156   -2271.4822    10729.126   -6593.7826    -10949.79   -11106.552    -3671.986     16057.71    77.674971 
   66400    893.19731    -110.5613    0.8081837   -109.75312    3830.1781    4.2606858    4.2606858    4.2606858    3830.1781    28423.686    4427.2061   -21360.358    4335.0963    910.62948    710.60323    77.346118 
   66500    1089.0092   -110.73664   0.98535838   -109.75128     5705.442    4.2588445    4.2588445    4.2588445     5705.442    20090.017    9983.4936   -12957.184    -708.7929      7232.28   -15814.362    77.245887 
   66600    966.89329   -110.62891   0.87486537   -109.75405    4353.6041    4.2642193    4.2642193    4.2642193    4353.6041    15458.647   -2035.2648   -362.56961    -17975.81   -3876.0464    6950.5487    77.538712 
   66700    719.30258   -110.40671   0.65084009   -109.75587    4407.5356     4.266269     4.266269     4.266269    4407.5356    18882.691    1161.3208   -6821.4046    69.259357   -7645.7842    10912.433    77.650581 
   66800     1097.983   -110.74325   0.99347807   -109.74978    2946.0105    4.2611987    4.2611987    4.2611987    2946.0105    24218.829   -3494.8715   -11885.926    8584.1486   -4014.4807   -14034.532    77.374053 
   66900    1230.7344   -110.86175    1.1135943   -109.74815    9960.7992    4.2577377    4.2577377    4.2577377    9960.7992    26940.038   -3544.0004    6486.3597   -9826.0535    518.27275   -4340.1586    77.185676 
   67000    839.78943   -110.51744   0.75985912   -109.75758    -4873.994    4.2664037    4.2664037    4.2664037    -4873.994    5783.7761   -12025.966   -8379.7923   -14846.912   -3465.6395    10863.997    77.657936 
   67100    900.23015    -110.5713   0.81454715   -109.75676    -1362.507    4.2630035    4.2630035    4.2630035    -1362.507    18333.185   -9733.1296   -12687.576     10515.67   -10797.145   -4232.0349    77.472413 
   67200    1250.9097   -110.88341    1.1318494   -109.75156    13289.209    4.2554123    4.2554123    4.2554123    13289.209    36866.957    1509.4115    1491.2574     881.4822    209.95475   -9171.8812    77.059276 
   67300    1146.0883   -110.79241    1.0370048    -109.7554   -4050.7954    4.2651759    4.2651759    4.2651759   -4050.7954   -5720.5378   -15846.293    9414.4446   -31258.236    707.32448     5876.362    77.590912 
   67400    1025.3299   -110.68248   0.92774006   -109.75474   -3261.5457    4.2651218    4.2651218    4.2651218   -3261.5457    8826.8864   -19668.594    1057.0704   -461.16147   -6257.4139    8354.5943    77.587957 
   67500    1119.6334    -110.7641    1.0130678   -109.75103    3803.2465    4.2603532    4.2603532    4.2603532    3803.2465     18389.51   -6140.6254   -839.14512    10550.766   -2351.7899    -11435.61    77.328006 
   67600    1091.7711   -110.74036   0.98785741    -109.7525    1456.3442     4.260268     4.260268     4.260268    1456.3442   -3151.6159   -4203.5795    11724.228    -23039.66    6603.7929   -4303.3857    77.323366 
   67700     1053.585   -110.70687   0.95330584   -109.75357     5442.726    4.2624326    4.2624326    4.2624326     5442.726     8774.564   -18680.009    26233.623   -8497.0042    8309.5949    4652.8972    77.441289 
   67800    1138.9368   -110.78221    1.0305339   -109.75167   -4521.0228     4.268021     4.268021     4.268021   -4521.0228    12289.937   -20902.825   -4950.1803    23161.628   -7611.7519   -8981.9774    77.746287 
   67900    980.60263   -110.63955   0.88726986   -109.75228    9677.4286    4.2568929    4.2568929    4.2568929    9677.4286     12619.37    12589.216    3823.6998    -6400.815    6429.3259   -6656.7407    77.139742 
   68000    943.17126   -110.60751   0.85340117    -109.7541     6506.561    4.2594469    4.2594469    4.2594469     6506.561    4607.0539   -1064.3349    15976.964   -26795.279     13823.63   -2131.4283     77.27867 
   68100    1034.7948   -110.68817   0.93630408   -109.75186    -8247.762    4.2685008    4.2685008    4.2685008    -8247.762   -14957.587   -23220.926    13435.228     13577.06   -8124.9107   -1378.8449    77.772507 
   68200    1025.9431   -110.67816   0.92829489   -109.74987     7932.891    4.2561162    4.2561162    4.2561162     7932.891    951.90083    8606.0215    14240.751    19865.244    933.45215   -3028.5797    77.097523 
   68300    855.49865   -110.52889   0.77407315   -109.75482   -3315.5111    4.2614319    4.2614319    4.2614319   -3315.5111   -1505.6175   -8550.6047    109.68904   -25208.668    17449.476   -3520.3485     77.38676 
   68400     742.6066   -110.42695   0.67192606   -109.75502   -2720.1099    4.2642768    4.2642768    4.2642768   -2720.1099   -3964.0138   -14880.866     10684.55   -7418.3856    7975.9317    5792.7376    77.541848 
   68500    924.87316   -110.58829   0.83684468   -109.75144     5535.322    4.2585233    4.2585233    4.2585233     5535.322    6818.8359   -15080.008    24867.138     29889.18   -4486.7879   -5440.7208     77.22841 
   68600    855.81527   -110.52556   0.77435964    -109.7512   -8364.5645     4.263969     4.263969     4.263969   -8364.5645    184.22995   -24439.992   -837.93135   -3279.2546    3245.0107    -12611.09    77.525059 
   68700     544.7613   -110.24773   0.49291148   -109.75482   -4580.8059    4.2594946    4.2594946    4.2594946   -4580.8059   -1721.2467   -15150.379    3129.2084   -18783.761    17808.461   -3083.2839    77.281265 
   68800    715.05483   -110.40285   0.64699663   -109.75585   -3785.0196    4.2605279    4.2605279    4.2605279   -3785.0196   -8987.3108   -22587.921    20220.173     17366.35   -1989.4274    2850.0897    77.337518 
   68900    924.01301   -110.58641   0.83606639   -109.75034   -5776.1733    4.2644466    4.2644466    4.2644466   -5776.1733   -6955.9499   -23174.298    12801.729    16024.604   -4106.2288    1720.2117    77.551117 
   69000    579.32436   -110.27941   0.52418485   -109.75522    -2752.545    4.2576311    4.2576311    4.2576311    -2752.545   -10219.523   -5140.8706    7102.7581   -16410.004    22204.608   -7609.7995     77.17988 
   69100    459.44303   -110.17484    0.4157137   -109.75912   -5452.9366    4.2620199    4.2620199    4.2620199   -5452.9366     -11768.8   -14429.571    9839.5603   -6300.3433    13414.832   -722.94562      77.4188 
   69200    987.08498   -110.64263   0.89313524    -109.7495   -5003.4284    4.2662286    4.2662286    4.2662286   -5003.4284    2177.5997   -25050.005    7862.1204    13379.424   -2401.9836    4887.7702    77.648375 
   69300    791.19569    -110.4677   0.71589048   -109.75181    4680.8986     4.258086     4.258086     4.258086    4680.8986   -7423.9386    16003.509    5463.1253   -329.52831    2865.9177   -7231.5915    77.204618 
   69400    381.93141   -110.10518   0.34557957    -109.7596   -3007.9757    4.2588188    4.2588188    4.2588188   -3007.9757   -17456.365    9642.6855   -1210.2473   -15935.098    13937.217   -6121.3497    77.244488 
   69500    776.65577   -110.45931   0.70273447   -109.75658   -2279.8705     4.263894     4.263894     4.263894   -2279.8705    4378.4043    -17719.09     6501.074   -6748.2804    5131.4391    608.69164    77.520972 
   69600    1123.5005   -110.76801    1.0165669   -109.75144     9380.522    4.2596376    4.2596376    4.2596376     9380.522    335.76233    17481.585    10324.218    8213.5097   -10357.931    5496.3979    77.289046 
   69700    639.16362   -110.33733   0.57832868     -109.759   -2054.9052    4.2625843    4.2625843    4.2625843   -2054.9052   -28428.254    15016.335    7247.2038   -9138.4015    6386.6742   -3701.2153    77.449555 
   69800    569.97083   -110.27324   0.51572158   -109.75752   -7455.4049    4.2659671    4.2659671    4.2659671   -7455.4049   -32238.903   -5856.9892    15729.678   -26600.177    12296.036    -5773.978    77.634099 
   69900    1115.5571   -110.75824    1.0093795   -109.74886    11457.374    4.2587161    4.2587161    4.2587161    11457.374    2428.4274    8291.7794    23651.915   -1615.5089    -3371.929    14877.085    77.238897 
   70000    1094.7787   -110.74259   0.99057879   -109.75201    297.74415    4.2603644    4.2603644    4.2603644    297.74415   -15573.652    9192.9191    7273.9655    4066.8223    1489.4995    9690.5995    77.328619 
   70100    649.02905   -110.34699   0.58725513   -109.75973   -8835.1618    4.2622538    4.2622538    4.2622538   -8835.1618   -43932.418    8800.7315    8626.2016   -20038.054    13911.123   -7105.5998    77.431544 
   70200    835.70848   -110.51438    0.7561666   -109.75821   -3974.8073    4.2603176    4.2603176    4.2603176   -3974.8073    -24702.93   -200.88449    12979.392   -12100.942    7188.9412    5016.6632    77.326066 
   70300    1156.4323   -110.79795    1.0463642   -109.75158   -6457.2039    4.2664343    4.2664343    4.2664343   -6457.2039    3649.3732    -14112.96   -8908.0244    11094.539   -2759.1551    13870.588    77.659606 
   70400    952.71944    -110.6133   0.86204057   -109.75126   -7286.8076     4.262944     4.262944     4.262944   -7286.8076    -21081.48    -102.0049   -676.93768   -11982.967    7573.0865   -627.59413    77.469167 
   70500    746.79089   -110.42938   0.67571209   -109.75367   -6077.8936    4.2577916    4.2577916    4.2577916   -6077.8936   -34974.576    3153.7283    13587.167   -29594.476    13593.507    -1168.289    77.188609 
   70600    844.34807   -110.51883   0.76398388   -109.75485   -3609.8851    4.2632461    4.2632461    4.2632461   -3609.8851    2390.0801   -8829.7038   -4390.0318    7008.5282   -1519.4695     24076.16    77.485639 
   70700    1069.6284   -110.71936   0.96782229   -109.75153   -1330.9155    4.2626644    4.2626644    4.2626644   -1330.9155    5630.3347   -5645.4606   -3977.6208    10406.149   -3544.0313    13687.805    77.453925 
   70800    845.42267   -110.51878    0.7649562   -109.75382   -921.00775     4.260331     4.260331     4.260331   -921.00775   -26543.455     13340.26    10440.171   -27193.662    12041.301   -10976.206    77.326799 
   70900    660.22208   -110.35277   0.59738281   -109.75539    -4085.275    4.2630947    4.2630947    4.2630947    -4085.275   -10404.736    3673.3779    -5524.467   -16553.488    10100.964    13173.983    77.477385 
   71000    967.67422    -110.6268   0.87557197   -109.75123   -3174.4478    4.2639894    4.2639894    4.2639894   -3174.4478    5618.4959   -2782.8823   -12358.957    13310.316   -5432.2056    17285.253    77.526175 
   71100    948.07462   -110.60779   0.85783784   -109.74996    1292.6565    4.2601455    4.2601455    4.2601455    1292.6565   -7669.6274    6192.7059    5354.8908   -6763.1723   -1551.9581   -7036.4975    77.316697 
   71200    662.13592   -110.35449    0.5991145   -109.75538   -6795.5942    4.2600329    4.2600329    4.2600329   -6795.5942   -8302.1996   -4888.0159    -7196.567   -23356.174    12070.596    2711.0729    77.310569 
   71300    755.17157   -110.44094   0.68329511   -109.75764   -4347.1973    4.2629873    4.2629873    4.2629873   -4347.1973    5635.4163   -4913.8463   -13763.162    4914.1184    6727.5039    19732.293    77.471527 
   71400    1154.1384   -110.79349    1.0442886    -109.7492    7054.5496    4.2616299    4.2616299    4.2616299    7054.5496    14200.115    5708.4695    1255.0644    6204.0536    -6136.458    7051.6614    77.397547 
   71500    815.36105   -110.49155   0.73775581    -109.7538   -8062.6386    4.2648519    4.2648519    4.2648519   -8062.6386   -3386.6343   -10712.448   -10088.833   -22559.968     5838.538   -4250.3387     77.57323 
   71600    492.69014   -110.20291   0.44579639   -109.75711   -12602.241    4.2644072    4.2644072    4.2644072   -12602.241   -5487.3591   -6295.1366   -26024.229   -11987.147    15500.149    16572.806    77.548967 
   71700    1089.1635   -110.73571   0.98549805   -109.75021    3474.7883    4.2588141    4.2588141    4.2588141    3474.7883    14522.323    4437.1223   -8535.0809    9399.1319    6814.2913    19414.836    77.244231 
   71800    1269.3921   -110.89929    1.1485726   -109.75072    4534.8318    4.2606381    4.2606381    4.2606381    4534.8318    7176.7313   -1553.6436    7981.4077   -864.73813   -5858.9403   -8353.6892    77.343522 
   71900    659.13338    -110.3571   0.59639773    -109.7607   -4650.1889    4.2629933    4.2629933    4.2629933   -4650.1889    -6413.989    10199.533   -17736.111   -19388.863    11472.932     6029.554    77.471854 
   72000    748.15644   -110.43656   0.67694767   -109.75961   -4322.0761    4.2649395    4.2649395    4.2649395   -4322.0761    14426.439   -2282.3056   -25110.362   -4408.7989    11334.202    21821.443    77.578006 
   72100    1355.3831   -110.97353    1.2263791   -109.74715    954.61579     4.265449     4.265449     4.265449    954.61579    12134.136   -5889.1988     -3381.09    11211.672   -11054.789   -1226.4672    77.605813 
   72200    1050.0322   -110.69962   0.95009119   -109.74953    5231.1898    4.2602152    4.2602152    4.2602152    5231.1898   -1270.5968    15371.921    1592.2449   -8329.5315    4828.4969   -2513.2717    77.320494 
   72300    773.99976   -110.45659   0.70033125   -109.75626   -5865.6501    4.2623502    4.2623502    4.2623502   -5865.6501    13483.389    -9452.626   -21627.713   -11501.579    13158.402    18943.552    77.436798 
   72400    1128.4828    -110.7748    1.0210749   -109.75373    789.16957     4.261012     4.261012     4.261012    789.16957     17019.81    -9017.011   -5635.2901    6928.1572    690.11156    16392.423    77.363886 
   72500    1288.9677     -110.919     1.166285   -109.75272    4865.4995    4.2605795    4.2605795    4.2605795    4865.4995      2234.94    6715.6531    5645.9055    11942.397   -701.31884   -6670.1811     77.34033 
   72600    1006.9905   -110.66614   0.91114613   -109.75499   -8302.6186    4.2662606    4.2662606    4.2662606   -8302.6186    3108.7966   -6189.8287   -21826.824   -15849.695    12583.654     8416.834    77.650122 
   72700    1011.2899   -110.66747   0.91503631   -109.75244   -1487.0287    4.2608202    4.2608202    4.2608202   -1487.0287    18450.505   -7642.1351   -15269.456   -4151.3211    6583.1799    22181.426    77.353437 
   72800    1227.4725   -110.86069    1.1106429   -109.75004   -2912.7871    4.2620484    4.2620484    4.2620484   -2912.7871   -4727.5906   -11009.695    6998.9246    36729.419   -8057.7598   -3527.2472    77.420349 
   72900    1213.8512   -110.84899    1.0983181   -109.75067   -5555.7272    4.2619003    4.2619003    4.2619003   -5555.7272   -1433.7214    -9327.016   -5906.4444    2760.8664    2695.4851   -1646.5853    77.412282 
   73000    980.89118    -110.6426   0.88753096   -109.75507    2203.6568    4.2577665    4.2577665    4.2577665    2203.6568    20982.097    3455.8529    -17826.98   -19319.891    13283.109    20724.544     77.18724 
   73100    954.98366   -110.61962   0.86408929   -109.75553   -3234.8679    4.2661639    4.2661639    4.2661639   -3234.8679    6800.4532   -10528.082   -5976.9747    19264.627    2771.4247    12020.866    77.644844 
   73200    1165.6499   -110.80402    1.0547045   -109.74932    4134.4639    4.2621658    4.2621658    4.2621658    4134.4639    13315.435   -2861.2037    1949.1604    20122.814    1116.1148   -6172.0747    77.426748 
   73300    930.02974   -110.59297   0.84151045   -109.75145    8674.7693    4.2570254    4.2570254    4.2570254    8674.7693    15659.806    23786.082   -13421.581   -13882.249    10402.321     6774.972    77.146942 
   73400    657.72821   -110.35345    0.5951263   -109.75832    -3168.979    4.2630054    4.2630054    4.2630054    -3168.979    20233.565    -9679.991   -20060.511   -13327.483    7249.1462    19657.344    77.472514 
   73500    977.41709   -110.63934   0.88438752   -109.75495    9526.6228    4.2593899    4.2593899    4.2593899    9526.6228    22619.519    9248.1718   -3287.8222    18868.512   -2063.3542     2393.374    77.275563 
   73600    1095.9638   -110.74392   0.99165109   -109.75227   -921.14028    4.2639846    4.2639846    4.2639846   -921.14028   -3562.7191     7558.988   -6759.6898    7814.3984    4553.1431   -3633.0236    77.525911 
   73700    490.40305   -110.20152   0.44372698    -109.7578   -7755.0405    4.2640022    4.2640022    4.2640022   -7755.0405    9030.1936   -14636.202   -17659.113   -19027.431    14197.109    13361.351    77.526874 
   73800    813.16035   -110.49028   0.73576457   -109.75451    7008.0535    4.2569799    4.2569799    4.2569799    7008.0535    13586.165    19856.229   -12418.234   -1423.9004    414.92096    10689.868    77.144468 
   73900    1296.6415   -110.92164    1.1732285   -109.74842   -4475.3683    4.2656405    4.2656405    4.2656405   -4475.3683   -8897.4345     9162.186   -13690.856    11530.122   -6976.0308   -7216.7241    77.616269 
   74000    761.70892   -110.44976   0.68921024   -109.76055   -104.84266    4.2569761    4.2569761    4.2569761   -104.84266   -3007.8302    20063.463   -17370.161   -6854.4422    3580.8051    4207.3715    77.144262 
   74100    493.77741   -110.21336   0.44678018   -109.76658   -188.32022    4.2591666    4.2591666    4.2591666   -188.32022    -1735.868    23904.445   -22733.538   -20720.261    11773.718    22672.401    77.263414 
   74200    1237.8827   -110.87421    1.1200622   -109.75415   -10655.096    4.2686491    4.2686491    4.2686491   -10655.096   -12892.397    1846.7873   -20919.678   -4264.9581   -3982.3503     4540.683    77.780616 
   74300    1217.0654   -110.85085    1.1012263   -109.74963     4284.988    4.2584433    4.2584433    4.2584433     4284.988   -10381.782    41448.028   -18211.282    8264.6518   -7521.5283    58.250165    77.224058 
   74400    676.09888   -110.36772   0.61174848   -109.75597    -17423.13    4.2642838    4.2642838    4.2642838    -17423.13   -22913.545   -5211.3932    -24144.45   -20536.198    7891.9416    16913.818    77.542231 
   74500    979.87619   -110.64125   0.88661257   -109.75464   -3668.2823    4.2590016    4.2590016    4.2590016   -3668.2823   -9497.4597   -3884.1476    2376.7604   -13472.792    1517.4259    2553.4246    77.254435 
   74600    1331.8986   -110.95651    1.2051298   -109.75138    6034.8214     4.259274     4.259274     4.259274    6034.8214   -11887.845    35319.394   -5327.0842    14259.299   -12380.276   -4376.3553    77.269258 
   74700     1078.417   -110.73296   0.97577432   -109.75718   -6899.7733    4.2652748    4.2652748    4.2652748   -6899.7733   -15157.725    6646.4914   -12188.086   -1834.0709    -2793.427    9884.0394    77.596306 
   74800    907.58143   -110.57782   0.82119875   -109.75662    13169.423    4.2562182    4.2562182    4.2562182    13169.423     7327.518    15318.418    16862.333   -21062.297    10724.656    20791.653    77.103069 
   74900    1185.6452   -110.82502    1.0727967   -109.75222    852.39822    4.2675511    4.2675511    4.2675511    852.39822   -11684.948    14216.535    25.607591     5056.698   -4689.5167    482.78575    77.720609 
   75000    1276.3376   -110.90304    1.1548571   -109.74819     3220.198    4.2631938    4.2631938    4.2631938     3220.198   -9097.9335    8005.3476     10753.18    19209.224   -7272.2181   -7048.2814    77.482784 
   75100    964.42344   -110.62425   0.87263059   -109.75162    11034.127    4.2540615    4.2540615    4.2540615    11034.127    13708.738    11354.776    8038.8658   -15205.603    7282.2315    25026.505    76.985916 
   75200    946.55773   -110.61388   0.85646533   -109.75742   -11681.408    4.2655297    4.2655297    4.2655297   -11681.408   -15179.199    -9984.576   -9880.4484   -15926.816     5330.583    13620.409    77.610217 
   75300    1342.7361    -110.9669    1.2149359   -109.75196    6035.6507    4.2588716    4.2588716    4.2588716    6035.6507   -6333.1632    5638.5286    18801.587    19999.757   -2226.9704   -11159.322    77.247361 
   75400    1240.7981    -110.8765    1.1227002    -109.7538   -1631.4091     4.262588     4.262588     4.262588   -1631.4091    5090.8448   -7306.2145   -2678.8577    5170.4201    -1025.835    11715.213    77.449759 
   75500    724.17592    -110.4144   0.65524959   -109.75915   -9044.6637    4.2642516    4.2642516    4.2642516   -9044.6637   -3929.9699   -14341.677   -8862.3441    -22840.89    12171.643    16907.655    77.540479 
   75600    1113.3493   -110.75984    1.0073819   -109.75246    6865.5344    4.2584845    4.2584845    4.2584845    6865.5344   -8721.7304    4082.8883    25235.445    117.15493     7933.227   -3331.6776      77.2263 
   75700    1345.0829   -110.96268    1.2170593   -109.74562   -8308.5678    4.2699025    4.2699025    4.2699025   -8308.5678   -10946.978     -11549.2   -2429.5256    10148.852   -3189.9081    4845.4485     77.84915 
   75800    765.73605   -110.44833   0.69285407   -109.75548     2040.516    4.2558606    4.2558606    4.2558606     2040.516    7839.3339   -11728.248    10010.463   -16808.107    4011.2027    22089.996    77.083634 
   75900    690.88043   -110.38591   0.62512313   -109.76078    6056.8689    4.2547948    4.2547948    4.2547948    6056.8689    -1206.562   -7279.2911     26656.46   -18768.842    9636.4541     5124.976    77.025736 
   76000    1270.1159   -110.90071    1.1492276   -109.75148   -13341.816    4.2704059    4.2704059    4.2704059   -13341.816   -20002.139   -6356.0869   -13667.222    5025.5894    1700.4672   -9807.7143    77.876687 
   76100       979.06   -110.63823   0.88587406   -109.75236    3016.7843    4.2600544    4.2600544    4.2600544    3016.7843    12519.416    617.00812   -4086.0716    2122.7571   -9492.5447    19051.102    77.311737 
   76200    624.87333   -110.32176   0.56539852   -109.75636   -8387.0991    4.2608591    4.2608591    4.2608591   -8387.0991    2482.1732   -22482.745   -5160.7257   -24271.254   -360.29947    9605.9659    77.355557 
   76300    1082.2156   -110.73049   0.97921139   -109.75127   -3124.2978    4.2606579    4.2606579    4.2606579   -3124.2978   -5725.3211   -3997.4745    349.90225   -13574.768    6444.2302   -15569.145    77.344599 
   76400    1210.8569   -110.84577    1.0956087   -109.75016    -2791.142    4.2624121    4.2624121    4.2624121    -2791.142   -7762.3105    10319.264    -10930.38    6675.3699   -15974.236    4800.0015    77.440172 
   76500    784.87994   -110.46683   0.71017586   -109.75666   -9002.5061    4.2640869    4.2640869    4.2640869   -9002.5061   -2041.9623   -13730.454   -11235.102   -15188.129   -9333.7866    18225.835     77.53149 
   76600    903.71791   -110.57247   0.81770296   -109.75477    9023.9007     4.255213     4.255213     4.255213    9023.9007    14323.838   -9672.3413    22420.206   -20184.801    9821.9534   -1784.3232    77.048449 
   76700     1227.237   -110.86078    1.1104298   -109.75035   -966.70944    4.2649259    4.2649259    4.2649259   -966.70944   -7509.5514    1139.7796    3469.6435    11806.658   -4980.6734   -11121.249    77.577265 
   76800    993.63772   -110.65129   0.89906429   -109.75222    -3258.347    4.2644179    4.2644179    4.2644179    -3258.347   -9012.8955    1344.7997   -2106.9452    7026.3203   -9920.0946     8469.969    77.549547 
   76900    891.44647    -110.5597    0.8065995    -109.7531    7945.4015    4.2557924    4.2557924    4.2557924    7945.4015    15489.599   -9340.8412    17687.447   -29460.765    1286.8139    7097.2636    77.079929 
   77000    1183.6105   -110.82231    1.0709557   -109.75135   -304.33845      4.26238      4.26238      4.26238   -304.33845    4037.7051    -12540.44    7589.7198   -6916.3798    3925.6585   -5267.9914    77.438425 
   77100    1137.0426   -110.77971    1.0288201   -109.75089    706.71723    4.2623663    4.2623663    4.2623663    706.71723   -971.87674   -1619.0435    4711.0719     30220.87   -7767.9224   -2309.0967    77.437675 
   77200    852.52976   -110.52637   0.77138684   -109.75499   -3061.8521    4.2613964    4.2613964    4.2613964   -3061.8521   -6531.2527   -8299.3484    5645.0447   -14949.675   -9714.4086    8414.6466    77.384824 
   77300    1026.4433   -110.68247   0.92874746   -109.75372   -1045.7158    4.2604746    4.2604746    4.2604746   -1045.7158    2195.0324   -12305.041    6972.8609   -35317.102    4103.8182    7634.5172    77.334619 
   77400    1242.2508    -110.8745    1.1240147   -109.75049    6487.1556    4.2576001    4.2576001    4.2576001    6487.1556    9197.5505    2256.3244     8007.592    19726.147   -1547.6438   -1740.3273    77.178195 
   77500    868.77082   -110.54173   0.78608209   -109.75565   -1715.8458     4.264351     4.264351     4.264351   -1715.8458   -14644.496    12778.843   -3281.8845    12891.386   -7592.5892     3629.902      77.5459 
   77600    808.98135   -110.48738   0.73198333   -109.75539   -4675.0461    4.2633587    4.2633587    4.2633587   -4675.0461   -11837.252    1869.6275   -4057.5139    -34080.64   -1755.5845    8999.0593    77.491778 
   77700    1120.4454   -110.76304    1.0138025   -109.74924    10699.669    4.2562809    4.2562809    4.2562809    10699.669    26466.237    5639.9946   -7.2231036   -5952.4497    1795.3488    6418.0054    77.106475 
   77800    1087.9438   -110.73526   0.98439443   -109.75087   -3001.7125     4.263275     4.263275     4.263275   -3001.7125   -4624.2054    8072.7128   -12453.645    22194.658   -3237.5854   -1532.6009    77.487215 
   77900    739.06752   -110.42457   0.66872382   -109.75585   -1910.7628    4.2624662    4.2624662    4.2624662   -1910.7628   -367.17642   -166.17821   -5198.9339    -12954.79   -12362.117   -48.098375    77.443122 
   78000    974.37545   -110.63473   0.88163538    -109.7531    2376.8756    4.2567511    4.2567511    4.2567511    2376.8756    22655.023   -7632.5291   -7891.8668   -21183.945    1706.7175    10594.032    77.132034 
   78100    1052.6586   -110.70398   0.95246762   -109.75151   -5648.0315    4.2633786    4.2633786    4.2633786   -5648.0315    13517.707   -5446.6353   -25015.167     9845.215    5596.3667    -1601.442    77.492861 
   78200    843.58667   -110.51733   0.76329495   -109.75404   -1526.7581    4.2613959    4.2613959    4.2613959   -1526.7581   -712.89733    12905.908   -16773.285    8418.8686   -14848.768   -2718.5889    77.384799 
   78300    836.67981   -110.50996   0.75704547   -109.75292    5328.3193    4.2604336    4.2604336    4.2604336    5328.3193    7982.4694    8520.6388   -518.15042   -27482.689    -10662.21    7921.2582    77.332387 
   78400    1097.2173   -110.74259   0.99278529    -109.7498   -4370.6675    4.2615069    4.2615069    4.2615069   -4370.6675    12665.843   -13690.755    -12087.09   -4883.3616    9059.3795   -638.45196    77.390847 
   78500    752.56667   -110.43598   0.68093813   -109.75504     482.6627    4.2583742    4.2583742    4.2583742     482.6627    9286.9302    12612.099   -20451.041     16922.83    1495.8986   -3664.4414    77.220299 
   78600    757.87239   -110.44246   0.68573886   -109.75672   -6633.6589    4.2650159    4.2650159    4.2650159   -6633.6589   -12783.847    9540.2501   -16657.379   -14162.491    -18721.86   -1973.9839    77.582175 
   78700    1204.3983   -110.83839    1.0897649   -109.74862    3964.7755    4.2615387    4.2615387    4.2615387    3964.7755    12705.363   -4640.6089    3829.5728   -7902.7458    265.98761   -1789.9357    77.392576 
   78800    949.26039   -110.61161   0.85891075    -109.7527     986.4483    4.2573299    4.2573299    4.2573299     986.4483    9769.4505    1348.3374   -8158.4431     12522.16    11532.684   -3706.1609    77.163502 
   78900    547.34149   -110.25453   0.49524609   -109.75928   -14459.243    4.2652566    4.2652566    4.2652566   -14459.243   -12852.675   -2404.8216   -28120.232    2357.6452   -17635.716   -6128.9903    77.595311 
   79000    1119.1637   -110.76611    1.0126428   -109.75347    5419.2725    4.2595247    4.2595247    4.2595247    5419.2725    9541.9482    8091.6664   -1375.7972   -4688.3643   -15161.105    1897.3363    77.282905 
   79100    1327.9846   -110.95225    1.2015884   -109.75066    10743.033    4.2573781    4.2573781    4.2573781    10743.033    22817.598    2091.5388    7319.9622   -2855.0307    15545.909    2715.0067    77.166119 
   79200    668.71982    -110.3669   0.60507175   -109.76183   -8139.7591    4.2635104    4.2635104    4.2635104   -8139.7591   -8260.0866    2927.1028   -19086.293    10032.179   -2837.2908   -4959.6241    77.500051 
   79300    812.22882   -110.49574   0.73492171   -109.76082    -858.1445    4.2595561    4.2595561    4.2595561    -858.1445    2264.0618    10345.405     -15183.9   -1399.5194   -28351.011   -3841.8229    77.284611 
   79400    1394.7369   -111.01308    1.2619872   -109.75109    9709.5444    4.2611696    4.2611696    4.2611696    9709.5444    28183.383     1057.982    -112.7319   -8329.3091    2582.0583     3360.894    77.372469 
   79500    1118.5044   -110.76706    1.0120463   -109.75501   -3694.4435    4.2625783    4.2625783    4.2625783   -3694.4435   -2896.4021   -1127.9243   -7059.0043    12089.879    7695.9076    3795.8491    77.449233 
   79600    718.89584   -110.40938   0.65047207   -109.75891    1243.4808    4.2574485    4.2574485    4.2574485    1243.4808   -2355.4016    19663.933   -13578.089     9153.595   -25909.978    -5145.747    77.169949 
   79700    1251.8522    -110.8867    1.1327022     -109.754   -5450.5996    4.2635211    4.2635211    4.2635211   -5450.5996    6351.6776   -2183.9573   -20519.519    914.55987    -12566.96    5335.6697    77.500634 
   79800    1295.2268   -110.92314    1.1719485   -109.75119      4827.43    4.2612914    4.2612914    4.2612914      4827.43    21864.312   -4508.0247   -2873.9974    608.51594    5090.9811    16294.662    77.379106 
   79900    926.68862    -110.5953   0.83848734   -109.75681    3366.3558    4.2566841    4.2566841    4.2566841    3366.3558   -1990.4526    20321.519   -8231.9988    5996.4102   -18205.528     1928.284    77.128388 
   80000    1020.0122   -110.68062   0.92292847   -109.75769   -4281.1549     4.265256     4.265256     4.265256   -4281.1549   -8253.4599    19005.097   -23595.102    10380.802   -20940.973   -926.55652    77.595281 
   80100    1427.7687   -111.04132    1.2918751   -109.74945    6684.6818    4.2603439    4.2603439    4.2603439    6684.6818    14106.418    10227.016   -4279.3884    -10814.44    7106.2151    7112.1859    77.327501 
   80200    924.71338   -110.59187    0.8367001   -109.75517    6820.8519    4.2592451    4.2592451    4.2592451    6820.8519    3502.2031    19454.969   -2494.6162   -6016.4651   -13065.061    4868.7465    77.267682 
   80300    769.67123   -110.45462    0.6964147   -109.75821   -12242.732     4.265977     4.265977     4.265977   -12242.732   -32221.282    19927.302   -24434.215    9131.0124   -32690.009   -3189.0664    77.634637 
   80400    1252.0782   -110.88392    1.1329067   -109.75102    8003.3383    4.2557374    4.2557374    4.2557374    8003.3383    3573.0509     25844.16   -5407.1957    2549.5725    2371.2104    4533.1996    77.076938 
   80500      1085.72   -110.73608   0.98238223    -109.7537   -5907.5665    4.2618921    4.2618921    4.2618921   -5907.5665   -3602.9074   -2333.5951   -11786.197   -11863.702    179.00732    10553.359    77.411832 
   80600    450.76973     -110.169   0.40786592   -109.76114   -14637.435    4.2656344    4.2656344    4.2656344   -14637.435   -28201.235    8475.3978   -24186.466   -1622.9571   -34975.162    2847.9494    77.615932 
   80700    823.10403   -110.50086   0.74476182   -109.75609    7039.5067    4.2556316    4.2556316    4.2556316    7039.5067     -1197.85    22112.748    203.62208    13319.393   -15490.499   -5933.2147     77.07119 
   80800    1105.9775   -110.75028    1.0007117   -109.74956   -4992.1671     4.264215     4.264215     4.264215   -4992.1671    -2097.239    236.39596   -13115.658   -6098.8195    9002.1247    -9046.119    77.538481 
   80900    532.76474   -110.23951   0.48205673   -109.75746   -6753.6968    4.2619187    4.2619187    4.2619187   -6753.6968   -15345.548    17274.802   -22190.344   -11654.487   -23403.987     3405.537    77.413284 
   81000    458.71317    -110.1725   0.41505332   -109.75745    -2061.252    4.2604641    4.2604641    4.2604641    -2061.252    4830.3265    6343.6963   -17357.779    4968.9622   -28375.442   -4308.0806    77.334045 
   81100    955.67285   -110.61386   0.86471288   -109.74915   -1586.6552    4.2634492    4.2634492    4.2634492   -1586.6552    12040.853   -13856.927   -2943.8921    6432.3933    9700.3087   -17507.041    77.496712 
   81200     748.6374   -110.42891   0.67738285   -109.75152    2377.8675    4.2581261    4.2581261    4.2581261    2377.8675    9237.8062    8657.0967     -10761.3    -6482.556   -10350.759   -986.67611      77.2068 
   81300     494.4117   -110.20444    0.4473541   -109.75709   -11157.478    4.2633111    4.2633111    4.2633111   -11157.478   -15105.305    9910.3895   -28277.519   -7913.1456   -35360.925    4232.5018    77.489182 
   81400     856.9952   -110.52791   0.77542727   -109.75248   -1893.0958    4.2610256    4.2610256    4.2610256   -1893.0958    11977.502   -5248.0644   -12408.725    6409.6617    1298.6015   -7057.1257    77.364627 
   81500     891.2847   -110.55704   0.80645312   -109.75059    6840.3778    4.2596823    4.2596823    4.2596823    6840.3778    17895.251    753.67668    1872.2062    2496.1806    1321.7819   -13880.248    77.291481 
   81600    672.79665   -110.36295   0.60876054   -109.75419   -10719.632    4.2656116    4.2656116    4.2656116   -10719.632   -19204.722    16721.944   -29676.119   -7414.6242   -29529.081     2264.983    77.614691 
   81700    822.88043   -110.49634   0.74455951   -109.75178    2675.1883    4.2577599    4.2577599    4.2577599    2675.1883    4522.8002    22250.843   -18748.078   -6751.3522   -12341.279   -52.169022    77.186881 
   81800    1079.9784   -110.72699   0.97718713    -109.7498    4487.8138    4.2596431    4.2596431    4.2596431    4487.8138    25998.698    5743.7215   -18278.978   -473.84162     6209.783    -19928.66    77.289349 
   81900     805.8941   -110.48449   0.72918992    -109.7553    152.01138    4.2637225    4.2637225    4.2637225    152.01138    4165.7433    20989.112   -24698.821    3782.6729   -19671.225   -4460.8304    77.511618 
   82000    728.21246   -110.41522   0.65890193   -109.75631    4114.2805    4.2590053    4.2590053    4.2590053    4114.2805    1644.7183    34702.499   -24004.376   -7238.9729   -22722.457    6803.7335    77.254633 
   82100    1099.9625   -110.74674   0.99526923   -109.75147     295.4896    4.2614971    4.2614971    4.2614971     295.4896    13156.942    8094.9299   -20365.403    -2643.433    11052.324    -9829.522     77.39031 
   82200     1110.183     -110.756    1.0045169   -109.75149    2890.5094    4.2614552    4.2614552    4.2614552    2890.5094    20082.553    13481.656   -24892.681    6826.2817   -4950.1256   -8756.4409    77.388028 
   82300    754.23999   -110.43902    0.6824522   -109.75657   -1683.9421    4.2609735    4.2609735    4.2609735   -1683.9421   -10514.671    31013.151   -25550.307   -1280.3003   -28771.724    7980.7241    77.361789 
   82400    943.54713    -110.6081   0.85374128   -109.75436   -3581.9757    4.2599617    4.2599617    4.2599617   -3581.9757   -12259.462    17436.112   -15922.576   -6960.3112    4887.5757    2008.3059    77.306689 
   82500    1251.1512   -110.88251    1.1320679   -109.75044    2536.6117    4.2605897    4.2605897    4.2605897    2536.6117    13643.622    5406.8411   -11440.628   -6095.6601    12005.971   -11529.547    77.340884 
   82600    1015.9634   -110.67394     0.919265   -109.75468    -2604.245    4.2620892    4.2620892    4.2620892    -2604.245    1821.0976     16510.63   -26144.463    4472.9652    -27326.51   -2391.1429    77.422576 
   82700     778.2953   -110.46166   0.70421795   -109.75744    1170.2808    4.2583344    4.2583344    4.2583344    1170.2808    3032.5155    22883.385   -22405.058   -4567.2956   -11929.772    7257.9088    77.218132 
   82800    1081.3394   -110.73265    0.9784186   -109.75423   -2160.8423    4.2629295    4.2629295    4.2629295   -2160.8423   -2171.0302     8609.817   -12921.314   -15081.164    24069.257   -122.52599    77.468375 
   82900    1185.2388   -110.82366    1.0724289   -109.75123    573.29776    4.2604597    4.2604597    4.2604597    573.29776    3110.9107    6728.3089   -8119.3264    16180.531   -5122.9264   -2610.3467    77.333806 
   83000    874.63562   -110.54722   0.79138869   -109.75583   -4147.6573    4.2580637    4.2580637    4.2580637   -4147.6573   -9214.9598    12515.911   -15743.923    13708.358   -20829.995    3918.0189    77.203404 
   83100    871.19863   -110.54492   0.78827882   -109.75664   -14800.595    4.2636997    4.2636997    4.2636997   -14800.595   -32834.566    12349.637   -23916.855   -16190.744    16372.645   -461.32791    77.510371 
   83200    1132.3713   -110.77571    1.0245934   -109.75112    745.50259    4.2593591    4.2593591    4.2593591    745.50259   -12410.518    11117.084    3529.9423    3069.0773    11319.699   -4641.9146     77.27389 
   83300    976.59558   -110.63594    0.8836442    -109.7523   -3561.1375    4.2629842    4.2629842    4.2629842   -3561.1375   -7074.7343   -4454.7087    846.03033    22532.288   -14315.248    1711.0906    77.471359 
   83400     856.0468   -110.52807   0.77456914    -109.7535   -2405.8765    4.2596642    4.2596642    4.2596642   -2405.8765   -9746.8322    13458.358   -10929.155   -3979.4132    2624.3411     5108.917    77.290494 
   83500    882.63439   -110.55191   0.79862614   -109.75328    6189.5141    4.2567096    4.2567096    4.2567096    6189.5141    12088.928    16228.802   -9749.1879   -8657.4068    19677.732    4789.4167    77.129778 
   83600    875.69708   -110.54596   0.79234912   -109.75361    -6377.198    4.2674723    4.2674723    4.2674723    -6377.198   -6852.5565   -14815.431    2536.3931    28613.013    3126.9003   -2873.0388    77.716302 
   83700    1019.8951   -110.67252   0.92282256    -109.7497    5882.0975    4.2590202    4.2590202    4.2590202    5882.0975    2858.6714    7912.5727    6875.0484    17480.779   -7270.6419   -1337.1595    77.255448 
   83800    989.50405    -110.6454   0.89532406   -109.75008   -4388.3375    4.2584881    4.2584881    4.2584881   -4388.3375   -4426.6918    4904.4758   -13642.797   -18352.484    13675.927    4289.1216    77.226494 
   83900    571.49806   -110.27523   0.51710345   -109.75813   -12180.327    4.2617947    4.2617947    4.2617947   -12180.327   -14044.808   -21300.622   -1195.5497    22471.482    12169.796    -4817.042    77.406526 
   84000    840.47106   -110.51797   0.76047588    -109.7575    3214.5988    4.2599314    4.2599314    4.2599314    3214.5988    7461.4262   -14161.759    16344.129    37154.198   -4367.8348   -2309.6346    77.305039 
   84100    1266.5338   -110.89513    1.1459864   -109.74915   -3447.7932    4.2658098    4.2658098    4.2658098   -3447.7932    10208.876    -6993.065    -13559.19   -12613.363    2877.0117    4563.2673    77.625512 
   84200    756.78661   -110.44225   0.68475643    -109.7575    2038.4663    4.2562838    4.2562838    4.2562838    2038.4663    14411.586   -10253.982    1957.7943    5505.7807    8595.5545    1308.2451    77.106635 
   84300    477.69612   -110.19583   0.43222949    -109.7636    -4703.645    4.2595896    4.2595896    4.2595896    -4703.645   -18441.813   -14585.404    18916.282    36895.811   -388.42639   -1510.4902    77.286436 
   84400     1114.368   -110.76131    1.0083036   -109.75301   -7268.2649    4.2667391    4.2667391    4.2667391   -7268.2649   -6431.8338   -6515.8241   -8857.1369    3060.0959   -10348.602   -1323.7354    77.676254 
   84500    1162.0235   -110.80082    1.0514233    -109.7494    3154.6439     4.257844     4.257844     4.257844    3154.6439    5847.6338    10627.387   -7011.0894   -503.29881   -2399.6549    3844.8264    77.191456 
   84600    601.39472   -110.30252   0.54415458   -109.75837   -7553.9763    4.2599361    4.2599361    4.2599361   -7553.9763   -19872.441   -12436.248    9646.7602    39867.115    12225.824   -729.86855    77.305297 
   84700    753.23445   -110.43897   0.68154236   -109.75743    -1151.383    4.2615353    4.2615353    4.2615353    -1151.383    4423.1788   -6387.0489   -1490.2789    16829.925   -2816.3575   -2484.4162    77.392395 
   84800    1181.7252   -110.82049    1.0692498   -109.75124      3012.95    4.2603069    4.2603069    4.2603069      3012.95    7804.6115    21048.189   -19813.951   -12574.316   -17762.335    3661.5393    77.325485 
   84900    918.62023   -110.58604   0.83118689   -109.75485   -8361.9749    4.2620386    4.2620386    4.2620386   -8361.9749   -5766.1471   -16587.174   -2732.6032    23450.106    1447.1808    4498.0879    77.419819 
   85000    786.24166   -110.46725   0.71140797   -109.75584   -8904.2688    4.2607556    4.2607556    4.2607556   -8904.2688   -5441.4717   -21167.773   -103.56212    29754.301    7472.7881    1989.1542     77.34992 
   85100    1014.2407   -110.66946   0.91770633   -109.75176   -3128.5816    4.2605332    4.2605332    4.2605332   -3128.5816   -1209.7482    17683.678   -25859.675   -8590.3835   -12353.497   -4787.0943    77.337807 
   85200    1057.2268   -110.70707   0.95660107   -109.75047   -7690.0357    4.2632686    4.2632686    4.2632686   -7690.0357    445.70363   -3114.3189   -20401.492    4385.1316    -11094.69   -302.22911    77.486866 
   85300    1025.5705   -110.68072   0.92795772   -109.75276   -2558.8235    4.2588827    4.2588827    4.2588827   -2558.8235    1760.2863   -15692.411    6255.6537    32534.864    2508.7333    2063.7553    77.247962 
   85400    999.71152   -110.65827   0.90455999   -109.75371    2171.0589    4.2591402    4.2591402    4.2591402    2171.0589    9049.9769    18717.823   -21254.624    2388.5115    -5018.977   -8384.5397    77.261977 
   85500    900.42935   -110.56926    0.8147274   -109.75453   -9361.1895    4.2666719    4.2666719    4.2666719   -9361.1895    3556.0783    5894.6141   -37534.261   -8859.8046   -15128.333   -4275.6609    77.672584 
   85600    1050.3991   -110.70417   0.95042315   -109.75375    380.25354    4.2560757    4.2560757    4.2560757    380.25354   -821.29228   -2894.2762    4856.3291    23414.041   -3190.7972    3594.2074    77.095321 
   85700    1259.3032    -110.8902     1.139444   -109.75076    6194.5047    4.2564341    4.2564341    4.2564341    6194.5047    7180.7478    5269.2651    6133.5011    17888.434    1426.8621    1078.5741    77.114803 
   85800    973.09576    -110.6347    0.8804775   -109.75422   -13984.218    4.2695648    4.2695648    4.2695648   -13984.218    518.42479    236.64073   -42707.721   -5766.8777   -12348.614   -3898.4759    77.830683 
   85900    750.76503   -110.43501   0.67930797    -109.7557    4987.2502    4.2583968    4.2583968    4.2583968    4987.2502    14132.464    10782.275    -9952.988    6411.3551   -5274.0766   -5407.1594    77.221525 
   86000    1172.0705   -110.81095     1.060514   -109.75044    11767.633    4.2545841    4.2545841    4.2545841    11767.633    22727.829    2721.1401    9853.9293     13828.21    5549.7279    6965.6337    77.014293 
   86100    1138.6987   -110.78181    1.0303185   -109.75149   -766.57586    4.2644766    4.2644766    4.2644766   -766.57586      22860.8   -7308.7697   -17851.758   -4785.9743   -4266.1166    7810.3453    77.552751 
   86200    739.60034   -110.42643   0.66920593   -109.75723    877.72815     4.262139     4.262139     4.262139    877.72815    9523.1992     15792.53   -22682.545   -5377.0869   -7058.4602   -5879.7952    77.425289 
   86300    963.96645   -110.62576    0.8722171   -109.75355    5941.3333    4.2579808    4.2579808    4.2579808    5941.3333    19122.591    3988.2171   -5286.8081    5246.2229     3311.581    2231.4485    77.198895 
   86400      1187.68   -110.82466    1.0746378   -109.75002    4898.9474    4.2599996    4.2599996    4.2599996    4898.9474     32410.45   -13119.178   -4594.4301    4813.6153    2329.2618    13329.525    77.308756 
   86500    816.09504   -110.49409   0.73841994   -109.75567   -1485.3253    4.2618232    4.2618232    4.2618232   -1485.3253    9974.5265    6361.4287   -20791.931    710.91383   -8918.2816    2959.1922    77.408079 
   86600    774.12781   -110.45699   0.70044711   -109.75655   -1758.3453     4.261527     4.261527     4.261527   -1758.3453     8911.771    8369.4874   -22556.294    1075.4361   -5258.9129   -3018.3001    77.391942 
   86700    1208.6502   -110.84376    1.0936121   -109.75015    3248.7908    4.2601366    4.2601366    4.2601366    3248.7908    35805.932   -18035.927    -8023.632    7409.8952    2428.7108      11761.7    77.316211 
   86800    1030.5407   -110.68495    0.9324549    -109.7525    8657.1565    4.2591808    4.2591808    4.2591808    8657.1565    38589.425    1345.9037   -13963.859   -2511.3357   -9370.7159    13351.412    77.264184 
   86900    687.57187   -110.38024   0.62212948   -109.75811   -8044.2897     4.264424     4.264424     4.264424   -8044.2897    1009.8882    13835.424   -38978.181   -8558.6624   -7238.7664   -3295.7678    77.549879 
   87000    1038.0194   -110.69332   0.93922173    -109.7541   -2205.1556    4.2611873    4.2611873    4.2611873   -2205.1556    17820.363   -1903.6277   -22532.203    2341.8959     8797.039    877.35576    77.373434 
   87100    1465.7521   -111.07482    1.3262433   -109.74857    7505.8765    4.2545945    4.2545945    4.2545945    7505.8765    39294.614   -8437.0378   -8339.9471   -4140.4386    1870.2063     10742.33    77.014858 
   87200     886.8348   -110.56302   0.80242677   -109.76059   -4589.2002    4.2632421    4.2632421    4.2632421   -4589.2002    11649.424    7927.8097   -33344.835   -5551.0433   -19708.565    2987.1043    77.485422 
   87300    743.05006   -110.43351   0.67232731   -109.76118   -5317.0392    4.2650349    4.2650349    4.2650349   -5317.0392    15648.252    14219.522   -45818.891    664.66222   -3254.5052   -4120.5279    77.583215 
   87400    1403.0152   -111.02009    1.2694776   -109.75062    5186.0235    4.2576137    4.2576137    4.2576137    5186.0235    32913.417   -613.91666    -16741.43    725.96478     12648.53   -1562.4743    77.178931 
   87500    1294.7197   -110.92281    1.1714896   -109.75132    4071.9506    4.2582198    4.2582198    4.2582198    4071.9506    20246.833   -2406.0838   -5624.8975    6565.0572   -7571.8143    2308.5447    77.211899 
   87600    865.41401   -110.54123   0.78304479   -109.75819    -11956.39    4.2651836    4.2651836    4.2651836    -11956.39   -4839.9259    10354.658   -41383.901   -4132.5369   -12434.012   -2029.1934    77.591331 
   87700    1093.2334     -110.744   0.98918055   -109.75482    -4765.517    4.2604525    4.2604525    4.2604525    -4765.517    10385.128    14630.367   -39312.046   -1750.2002    4996.9914   -11383.023    77.333416 
   87800    1294.7649   -110.92231    1.1715305   -109.75078    5595.0048    4.2574848    4.2574848    4.2574848    5595.0048     15568.92   -1694.0041    2910.0988    12444.978    2131.5777   -2818.3778    77.171921 
   87900    1018.0037   -110.67701   0.92111116    -109.7559     -1486.89    4.2614211    4.2614211    4.2614211     -1486.89    2483.2234    5120.0068     -12063.9   -2130.3667   -10586.639    4560.4229    77.386169 
   88000    1045.0859   -110.70115   0.94561572   -109.75554    2349.8465    4.2606612    4.2606612    4.2606612    2349.8465    12379.309    20004.436   -25334.205     -6699.15    365.97392   -1519.6376    77.344777 
   88100    1214.9445   -110.85045    1.0993073   -109.75115    1313.9289     4.263223     4.263223     4.263223    1313.9289    10048.453   -42.474603   -6064.1919    8710.8482    9801.9784   -5292.9754     77.48438 
   88200    971.91859   -110.63372   0.87941237   -109.75431     3782.761    4.2581721    4.2581721    4.2581721     3782.761    5530.0761   -2370.6539    8188.8607    10761.897   -2751.3021    1457.6588    77.209305 
   88300    865.39366   -110.54076   0.78302637   -109.75774    4556.5564     4.258541     4.258541     4.258541    4556.5564   -1372.7628    17204.005    -2161.573   -5947.4412   -9604.3211    5399.6049    77.229371 
   88400    1269.5664   -110.90106    1.1487303   -109.75233   -3136.0706    4.2649458    4.2649458    4.2649458   -3136.0706   -1068.7996    7675.6158   -16015.028   -2825.1268    848.63392    1438.5755    77.578351 
   88500    1202.4075   -110.83924    1.0879636   -109.75128    2874.7845    4.2603461    4.2603461    4.2603461    2874.7845   -2637.5583    4012.0637    7249.8482    27404.472    6412.2824   -2324.7369    77.327623 
   88600    848.71633   -110.52378   0.76793637   -109.75584    2749.9218    4.2584939    4.2584939    4.2584939    2749.9218   -6890.1676    3438.9293    11701.004    7377.2286   -7653.0316    5239.2808    77.226811 
   88700     1033.064   -110.69048   0.93473804   -109.75574    1586.7828    4.2597325    4.2597325    4.2597325    1586.7828    12312.749    8163.2711   -15715.672   -19080.454   -12739.377    6057.9272    77.294214 
   88800    1196.6956   -110.83757    1.0827954   -109.75478    4327.1261    4.2603879    4.2603879    4.2603879    4327.1261    7200.0763    10075.916   -4294.6141    13550.326   -1435.3326   -3190.5078    77.329897 
   88900    1119.7132    -110.7683    1.0131401   -109.75516    3872.6917    4.2606307    4.2606307    4.2606307    3872.6917   -2882.3063   -3277.0501    17777.432    25975.667   -273.16231   -314.45472    77.343119 
   89000    981.57041   -110.64263   0.88814554   -109.75448    1851.3218    4.2624074    4.2624074    4.2624074    1851.3218    6454.2481    7246.9632   -8147.2461   -13821.375   -9978.5952    9447.2641    77.439915 
   89100    1009.6344   -110.66607   0.91353842   -109.75253   -6194.3638    4.2645417    4.2645417    4.2645417   -6194.3638   -370.73152    1602.1011   -19814.461   -8543.3355   -10357.671    2201.5785    77.556301 
   89200    1165.3294   -110.80489    1.0544146   -109.75047    2618.1555    4.2552119    4.2552119    4.2552119    2618.1555   -953.47403   -3213.8053    12021.746    30206.002    3001.0522   -4680.5397    77.048392 
   89300    1139.2298   -110.78428    1.0307991   -109.75348   -1775.3894    4.2586081    4.2586081    4.2586081   -1775.3894   -10980.595     3194.138    2460.2886    4489.5202   -2273.6036    1682.5073    77.233023 
   89400    881.26038   -110.55488   0.79738292    -109.7575   -12942.711    4.2662546    4.2662546    4.2662546   -12942.711   -11960.256   -1455.7817   -25412.096   -19348.505   -18269.685    10965.417    77.649796 
   89500    1021.4433   -110.67964   0.92422333   -109.75542    5092.7481    4.2566344    4.2566344    4.2566344    5092.7481    18874.169    3227.8434   -6823.7675    8153.2565   -2833.6887    2000.4072    77.125688 
   89600    1317.9742   -110.94289    1.1925307   -109.75036    1273.8181    4.2607557    4.2607557    4.2607557    1273.8181   -1733.7818    5340.2655    214.97065    10349.416    9581.9999   -5659.2896    77.349923 
   89700     926.5838   -110.59389    0.8383925    -109.7555   -4992.3637    4.2629198    4.2629198    4.2629198   -4992.3637   -19589.201    9276.3727   -4664.2632   -18787.411   -3688.7815    10854.129    77.467846 
   89800    772.22738   -110.45755   0.69872756   -109.75882    4154.5664    4.2591482    4.2591482    4.2591482    4154.5664    6176.7258    5758.8412    528.13229   -15019.832   -17963.076    3906.9168    77.262412 
   89900    1311.7423   -110.93896     1.186892   -109.75207   -85.652912    4.2628244    4.2628244    4.2628244   -85.652912    530.29817    3981.7996   -4769.0565    9565.2083    59.766604   -9114.0496    77.462644 
   90000    1182.1266   -110.82249     1.069613   -109.75288    7396.8654    4.2576584    4.2576584    4.2576584    7396.8654   -9856.2524    24896.753     7150.096    1989.6306    19511.363    1935.2778    77.181363 
   90100    610.43612   -110.31476   0.55233543   -109.76243   -4522.7242    4.2618282    4.2618282    4.2618282   -4522.7242   -12500.413    3638.1401   -4705.8994   -19355.725   -7993.2158    4598.5834    77.408352 
   90200    932.40126   -110.60315   0.84365625    -109.7595   -5040.8069    4.2617342    4.2617342    4.2617342   -5040.8069   -7288.4526    4094.8934   -11928.861      -9561.1   -16446.496    4862.3145    77.403231 
   90300    1295.9762   -110.92338    1.1726265   -109.75076    9848.0624    4.2565512    4.2565512    4.2565512    9848.0624    4014.7025    26480.459   -950.97488    5721.0992    14892.828   -198.00473    77.121164 
   90400    887.73155   -110.55953   0.80323816   -109.75629   -13142.817    4.2663118    4.2663118    4.2663118   -13142.817   -25393.879    7829.6687   -21864.242   -10918.593    8541.2342   -239.95278    77.652917 
   90500    668.52849   -110.36324   0.60489862   -109.75834   -4731.8566    4.2592826    4.2592826    4.2592826   -4731.8566   -24094.421    16639.632    -6740.781    -14367.82   -19738.307     9512.404    77.269723 
   90600    1028.6317   -110.68548   0.93072753   -109.75475    4802.4719    4.2550406    4.2550406    4.2550406    4802.4719   -3487.5067    12435.661    5459.2613    8617.4529   -2712.9806    2172.8514    77.039088 
   90700    1083.4348   -110.73386   0.98031457   -109.75355   -7239.2852    4.2636332    4.2636332    4.2636332   -7239.2852   -20122.399    5229.7752    -6825.232    9375.4795    14934.706   -1427.1544    77.506746 
   90800    857.24274   -110.53129   0.77565125   -109.75564   -4295.4071    4.2600585    4.2600585    4.2600585   -4295.4071   -27933.952    13180.711    1867.0194   -17880.993   -13013.312    8730.3664    77.311959 
   90900    736.10563   -110.42217   0.66604385   -109.75613   -4413.0825    4.2617051    4.2617051    4.2617051   -4413.0825   -22866.599   -6998.5163    16625.867   -2347.6215    -18252.63    14392.975    77.401646 
   91000    1027.8742   -110.68161   0.93004219   -109.75157   -2999.0826    4.2598714    4.2598714    4.2598714   -2999.0826   -16418.933   -7698.3638    15120.049    26404.601    6484.6366    3982.9801    77.301775 
   91100    1075.4933   -110.72396   0.97312891   -109.75083    2814.0828    4.2585175    4.2585175    4.2585175    2814.0828   -19334.618    12382.544    15394.322   -3443.2706    1904.4418   -9202.1619    77.228091 
   91200    813.98587   -110.49204   0.73651152   -109.75553   -10886.465    4.2642286    4.2642286    4.2642286   -10886.465   -27957.859   -1634.6618   -3066.8731    -13695.34   -10913.339    8061.2372    77.539222 
   91300    687.39475    -110.3801   0.62196922   -109.75813    794.02348    4.2568156    4.2568156    4.2568156    794.02348   -17008.784     4434.714    14956.141    21774.745   -4816.9119    19341.598    77.135539 
   91400    1123.4958   -110.77178    1.0165626   -109.75522     682.3502    4.2587017    4.2587017    4.2587017     682.3502   -18643.884    4482.3367    16208.598    14326.236    4003.3859   -3845.6864    77.238114 
   91500    1116.7757   -110.76289    1.0104821   -109.75241   -5886.7747    4.2649964    4.2649964    4.2649964   -5886.7747   -17835.606    9779.2892   -9604.0073   -11336.809   -13775.149   -6313.7264    77.581111 
   91600    602.10189    -110.3019   0.54479444    -109.7571   -3145.4749    4.2609934    4.2609934    4.2609934   -3145.4749   -20870.074     3694.625    7739.0247    10566.842    -14718.53    15090.888    77.362871 
   91700    834.06272   -110.50957   0.75467748   -109.75489    -5947.648    4.2610177    4.2610177    4.2610177    -5947.648   -27813.613   -16137.872    26108.541    25575.411    8201.8938    11351.508    77.364198 
   91800    1272.9076   -110.90089    1.1517536   -109.74914    5323.8918    4.2561263    4.2561263    4.2561263    5323.8918   -4467.7819    11479.102    8960.3548    -979.7206    2321.8873   -9973.0885    77.098074 
   91900    886.15422   -110.55979   0.80181096   -109.75798    625.00053    4.2609757    4.2609757    4.2609757    625.00053   -11765.824    1025.3041    12615.522   -1730.3995   -13948.729   -2971.9913    77.361909 
   92000    536.16316   -110.24627   0.48513169   -109.76114   -10334.753    4.2660843    4.2660843    4.2660843   -10334.753   -30926.314   -19368.483    19290.539    18037.343    -7979.047    23098.918    77.640497 
   92100    961.58297   -110.62338   0.87006048   -109.75332    8376.8615    4.2551116    4.2551116    4.2551116    8376.8615   -10114.546    19254.312    15990.818    5865.3651    15141.979    4534.2644    77.042941 
   92200     1032.294   -110.68407   0.93404128   -109.75003    2165.1179    4.2617613    4.2617613    4.2617613    2165.1179   -15397.775    12141.127    9752.0014   -4352.8373    1755.1456   -11017.263    77.404708 
   92300    716.26649   -110.40283   0.64809297   -109.75474   -9609.1655    4.2641675    4.2641675    4.2641675   -9609.1655   -28607.406   -6074.4002    5854.3102     10227.79   -20864.218    6992.9284     77.53589 
   92400    549.92368    -110.2536    0.4975825   -109.75601    9789.3023      4.25321      4.25321      4.25321    9789.3023   -11318.937    23233.901    17452.943    17185.916     8478.577    13410.758    76.939699 
   92500    883.33346   -110.55421   0.79925868   -109.75495   -5417.5743    4.2624771    4.2624771    4.2624771   -5417.5743   -29563.686    14004.407   -693.44472   -1667.8776    24541.248    4797.4606    77.443714 
   92600    947.52276   -110.60954    0.8573385   -109.75221   -2302.2051    4.2625416    4.2625416    4.2625416   -2302.2051   -24387.058    9315.4623    8164.9798    236.41596   -7561.8489   -5668.8425    77.447231 
   92700    605.25946   -110.30259   0.54765148   -109.75494    5706.8356    4.2557317    4.2557317    4.2557317    5706.8356   -13499.286    16591.955    14027.838    16046.874   -8887.1229     8695.408    77.076632 
   92800    476.90105   -110.18959   0.43151009   -109.75808   -10509.901    4.2645187    4.2645187    4.2645187   -10509.901   -43671.541    10103.787    2038.0513    2289.3257    32727.133    8260.2517     77.55505 
   92900    943.36864   -110.60521   0.85357977   -109.75163   -105.78397    4.2592785    4.2592785    4.2592785   -105.78397   -26959.942    16019.653    10622.937   -3749.3874     18126.91    -7341.849    77.269502 
   93000    988.95789   -110.64486   0.89482989   -109.75003    6706.6989    4.2562738    4.2562738    4.2562738    6706.6989   -16558.093    10357.492    26320.698    8771.5786   -16604.441    4115.1762    77.106087 
   93100    364.07275    -110.0902   0.32942067   -109.76078   -14064.943     4.265183     4.265183     4.265183   -14064.943   -50520.909   -59.407139    8385.4858    15096.823    18518.222     9834.766    77.591295 
   93200    443.92704   -110.16338   0.40167452    -109.7617   -1920.6736     4.256939     4.256939     4.256939   -1920.6736   -30609.717    16187.615    8660.0813   -515.86124    30122.081     7892.203    77.142248 
   93300    1033.6686   -110.68768   0.93528508   -109.75239    5202.9832    4.2573691    4.2573691    4.2573691    5202.9832   -15660.694    5583.7743    25685.869   -6651.7737   -6640.2093   -2391.8646    77.165628 
   93400    760.55351   -110.44332    0.6881648   -109.75516   -13723.425    4.2664115    4.2664115    4.2664115   -13723.425    -46743.51   -8706.2648    14279.498    11142.643    4463.8339   -4046.2715    77.658364 
   93500    308.79155   -110.03923   0.27940109   -109.75982    -5146.434    4.2566667    4.2566667    4.2566667    -5146.434    -34799.74    14011.314    5349.1234    7216.6404    36332.406    10022.244    77.127446 
   93600    734.49109      -110.42   0.66458297   -109.75542   -172.76852    4.2568208    4.2568208    4.2568208   -172.76852   -21906.581    7474.8608    13913.415   -6467.1104    9974.5354    754.69699    77.135822 
   93700    881.66271   -110.54941   0.79774695   -109.75166   -5614.9284    4.2650533    4.2650533    4.2650533   -5614.9284   -22144.429   -14625.182    19924.826    4090.4016   -10842.173   -8743.1532    77.584221 
   93800    481.10388   -110.19168    0.4353129   -109.75637     -1442.94     4.259725     4.259725     4.259725     -1442.94   -22700.127     7998.819    10372.488    13185.431    30720.958    1101.3706    77.293803 
   93900    640.22637    -110.3342   0.57929027   -109.75491    423.16805    4.2592394    4.2592394    4.2592394    423.16805   -22499.249    11364.396    12404.357    1982.0694    23006.599    6128.0235    77.267374 
   94000    1040.5208   -110.69058   0.94148511    -109.7491    1257.3796    4.2595555    4.2595555    4.2595555    1257.3796    2021.7174   -11642.359     13392.78   -6966.1947   -13741.725   -2617.2737     77.28458 
   94100    616.01184   -110.31465   0.55738046   -109.75727   -3512.8745    4.2594233    4.2594233    4.2594233   -3512.8745   -21442.744   -4970.9582    15875.079    7864.1529    13417.591    -10586.99    77.277382 
   94200     397.0852    -110.1215   0.35929103   -109.76221   -6439.6916    4.2611042    4.2611042    4.2611042   -6439.6916    -40074.43    9701.0515    11054.304    15754.244    29482.056     1187.606    77.368908 
   94300     983.8662   -110.64328   0.89022281   -109.75305    4318.4388    4.2593961    4.2593961    4.2593961    4318.4388    1170.0344   -1636.8824    13422.164   -1531.7026   -1012.0976    6363.1509    77.275903 
   94400    964.18114    -110.6249   0.87241136   -109.75249    -78.49765    4.2605969    4.2605969    4.2605969    -78.49765   -8276.8513   -8939.4904    16980.849   -533.28387   -417.62149   -5287.4958    77.341279 
   94500    412.68274   -110.13248   0.37340402   -109.75907   -3053.9514    4.2609313    4.2609313    4.2609313   -3053.9514   -23957.869     8182.114    6613.9006     11247.49    34597.514   -4161.5286    77.359488 
   94600    723.52726   -110.40958   0.65466267   -109.75492   -1821.0682    4.2600889    4.2600889    4.2600889   -1821.0682   -16302.772    3768.0414    7071.5263    3616.7174    17207.864    5405.6141    77.313618 
   94700    1069.3084   -110.71723   0.96753275    -109.7497   -109.96955    4.2584302    4.2584302    4.2584302   -109.96955   -2931.9952   -9732.5885    12334.675   -6681.0094   -15894.477   -1685.8795    77.223343 
   94800    518.98652   -110.22804   0.46958991   -109.75845   -7754.4025      4.26033      4.26033      4.26033   -7754.4025   -15653.828    1567.3912   -9176.7711    3486.1189    21690.562   -11135.796    77.326743 
   94900    485.58682   -110.19951   0.43936916   -109.76014   -13112.265    4.2630347    4.2630347    4.2630347   -13112.265   -42290.213    -1089.909    4043.3276    14348.583    34652.113   -1423.9622     77.47411 
   95000    1103.9913   -110.74975   0.99891453   -109.75084    232.15698     4.258334     4.258334     4.258334    232.15698   -13326.848   -11990.721     26014.04     2124.982   -8065.2707    4091.1029    77.218108 
   95100    845.17579   -110.52043   0.76473282    -109.7557    3750.1882    4.2576726    4.2576726    4.2576726    3750.1882    -12921.35    8189.0439    15982.871   -7991.1621    10384.016   -7005.7099    77.182133 
   95200    272.97816   -110.01067   0.24699638   -109.76367   -10518.179    4.2645922    4.2645922    4.2645922   -10518.179   -49122.715    7651.2442     9916.933    5371.9025    37218.202   -6530.4325    77.559056 
   95300    786.91548   -110.46924   0.71201766   -109.75723   -6280.5492    4.2583912    4.2583912    4.2583912   -6280.5492   -23424.529   -6588.9414    11171.823    11116.628    1275.8941    1884.7624    77.221222 
   95400    1095.0429   -110.74168   0.99081783   -109.75086    5459.7097    4.2562215    4.2562215    4.2562215    5459.7097   -2991.3495    2551.1876    16819.291     -3815.36   -5570.9443    6602.4253    77.103244 
   95500    654.55449   -110.34959   0.59225466   -109.75734   -17075.281    4.2681119    4.2681119    4.2681119   -17075.281   -33121.023    2874.1164   -20978.937    1738.4387    34514.836   -8044.3874    77.751253 
   95600    525.10738   -110.23224   0.47512819   -109.75711   -1992.8284    4.2581624    4.2581624    4.2581624   -1992.8284   -11747.587    6339.4307   -570.32868    11928.058    14899.226   -7285.5318    77.208772 
   95700    909.77445   -110.57502   0.82318304   -109.75183    7296.8536    4.2544295    4.2544295    4.2544295    7296.8536   -140.51337    5022.8183    17008.256    4234.3116   -18396.623    13836.165    77.005899 
   95800    900.85031   -110.56879   0.81510829   -109.75368   -5348.7068    4.2638822    4.2638822    4.2638822   -5348.7068   -4640.5707    2666.4349   -14071.985   -5017.6804     12483.87    5278.0995    77.520326 
   95900    730.30439   -110.41714   0.66079476   -109.75634    10563.081    4.2579273    4.2579273    4.2579273    10563.081    1905.4215    19707.336    10076.484    1500.1165    28000.972   -11075.654    77.195988 
   96000    744.28529    -110.4284   0.67344497   -109.75496    5019.8084    4.2603562    4.2603562    4.2603562    5019.8084   -3942.3936    6301.2741    12700.545    16059.603   -6867.6643   -1203.8739    77.328168 
   96100     809.3132   -110.48505   0.73228359   -109.75277   -1246.8688    4.2620168    4.2620168    4.2620168   -1246.8688    15566.601   -9823.7923   -9483.4153    4338.7853   -9444.9226    16291.184    77.418628 
   96200    862.45339   -110.53152   0.78036596   -109.75115    3978.3006    4.2585185    4.2585185    4.2585185    3978.3006    7594.6158    11069.446   -6729.1603   -4626.4509    16874.014    4377.2694    77.228145 
   96300    852.82553   -110.52455   0.77165446   -109.75289   -5377.7466    4.2609848    4.2609848    4.2609848   -5377.7466   -11664.967    -608.8173   -3859.4551    6719.0289    14861.358   -14579.305    77.362402 
   96400    718.52044   -110.40681    0.6501324   -109.75668     2197.075    4.2551851    4.2551851    4.2551851     2197.075    13980.296   -12056.129    4667.0583    8375.4235   -13464.502    6700.0155    77.046937 
   96500    818.62469   -110.49794   0.74070883   -109.75723      -5246.6    4.2616619    4.2616619    4.2616619      -5246.6   -1609.2303   -3589.7876   -10540.782     1754.857   -10461.342    15848.638     77.39929 
   96600    1014.0438   -110.66972   0.91752815   -109.75219   -11451.974    4.2646906    4.2646906    4.2646906   -11451.974   -20287.917   -3711.0447    -10356.96    -2775.752    17248.548   -10214.215    77.564427 
   96700    817.89519    -110.4925   0.74004876   -109.75245    5442.9873    4.2543926    4.2543926    4.2543926    5442.9873    1355.8868   -6273.3692    21246.444    6590.8176    2072.1612   -4745.6655    77.003894 
   96800    677.19364   -110.36912   0.61273904   -109.75638   -8033.8464    4.2623436    4.2623436    4.2623436   -8033.8464   -8191.7546   -8959.5292   -6950.2554    5301.2624   -20277.803    15875.121    77.436438 
   96900    994.19811   -110.65303   0.89957134   -109.75346   -2998.8951    4.2592947    4.2592947    4.2592947   -2998.8951   -7424.5024    5035.9499   -6608.1328   -7677.7944   -10554.688    8990.5442    77.270382 
   97000    1153.7644   -110.79589    1.0439503   -109.75194    5743.1068    4.2564306    4.2564306    4.2564306    5743.1068   -1929.2617    -2180.767    21339.349    2100.3321      9744.47   -9973.2565    77.114611 
   97100    761.91425   -110.44843   0.68939603   -109.75903   -13230.432    4.2652159    4.2652159    4.2652159   -13230.432   -15539.309   -13946.692   -10205.296    7295.0655   -9726.3754    -1149.305     77.59309 
   97200    764.34724   -110.44996   0.69159745   -109.75836    2028.3402    4.2545883    4.2545883    4.2545883    2028.3402    4855.1394    12082.358   -10852.477   -1574.7957   -31669.288    12630.743    77.014524 
   97300     1182.458   -110.82428    1.0699129   -109.75437     4120.219    4.2607682    4.2607682    4.2607682     4120.219   -2805.4423    2455.8304    12710.269   -6498.7841   -1126.2766    537.79227    77.350609 
   97400    1169.4284   -110.81172    1.0581234    -109.7536   -8293.3796    4.2646289    4.2646289    4.2646289   -8293.3796   -13187.454   -14907.688    3215.0033   -2910.5915     4798.066   -5400.9878    77.561058 
   97500    796.27288   -110.47652   0.72048443   -109.75604    12077.165    4.2511021    4.2511021    4.2511021    12077.165     16037.86    20995.124   -801.48821    4906.6531   -28082.187    4267.4107    76.825359 
   97600    970.42032   -110.63568   0.87805669   -109.75762   -5605.7323    4.2640917    4.2640917    4.2640917   -5605.7323   -13333.916    6385.9008   -9869.1821   -7798.3717   -7830.8631    3725.2607    77.531755 
   97700    1148.0135   -110.79195    1.0387467   -109.75321   -1311.2078    4.2616171    4.2616171    4.2616171   -1311.2078   -10181.245    1758.9297    4488.6915   -7662.0353     20078.02     -2018.43    77.396851 
   97800    1078.5801   -110.72892   0.97592194     -109.753    13154.333    4.2521256    4.2521256    4.2521256    13154.333    5139.7716    31642.183    2681.0446    10116.641   -9718.1047   -1174.4127    76.880865 
   97900    1055.9485   -110.70959   0.95544438   -109.75415   -5099.7479    4.2646297    4.2646297    4.2646297   -5099.7479    -12012.45    9821.0664    -13107.86   -2164.0323   -21981.741    4812.8914    77.561104 
   98000    955.55888   -110.61865   0.86460976   -109.75404    756.81271    4.2597221    4.2597221    4.2597221    756.81271   -16125.331    16134.635    2261.1338   -18791.102    12672.343    4113.6102    77.293649 
   98100    899.70412   -110.56961   0.81407119   -109.75554    4465.4223    4.2571231    4.2571231    4.2571231    4465.4223    -18184.61    33708.226   -2127.3496   -1164.0219    20126.714   -400.71764    77.152254 
   98200    1218.3477    -110.8541    1.1023866   -109.75171   -771.02161    4.2606598    4.2606598    4.2606598   -771.02161   -9282.3066    6077.7226    891.51913    19039.579   -11133.767    238.34111    77.344703 
   98300     1070.739   -110.72301   0.96882713   -109.75418    3499.7583    4.2582581    4.2582581    4.2582581    3499.7583   -2811.2516    13859.827    -549.3008   -6901.1062     891.5631     2468.046    77.213981 
   98400    666.43802   -110.36327   0.60300712   -109.76026   -14445.207    4.2628114    4.2628114    4.2628114   -14445.207   -35415.626    13358.533    -21278.53   -15127.531    30957.826   -132.27039    77.461936 
   98500    922.01284   -110.59128    0.8342566   -109.75703   -2134.5519    4.2569452    4.2569452    4.2569452   -2134.5519   -17514.429    9622.9881    1487.7847    16321.227    5727.8158   -2582.7879    77.142584 
   98600    1272.2255   -110.90262    1.1511364   -109.75149     811.6406    4.2586508    4.2586508    4.2586508     811.6406    2268.9887    5046.1558   -4880.2227    8690.1026   -5115.9226    4870.7693    77.235348 
   98700    861.57472   -110.53663   0.77957091   -109.75706   -11710.568    4.2649187    4.2649187    4.2649187   -11710.568    -18751.84    10990.218   -27370.082   -12101.505    24945.817    2249.5105    77.576876 
   98800    704.63282   -110.39532   0.63756658   -109.75775    940.01705    4.2556218    4.2556218    4.2556218    940.01705   -22610.627    19403.668    6027.0102    1332.3773    17142.529   -47.253571    77.070661 
   98900    1063.2568   -110.71608   0.96205709   -109.75403    2003.7803    4.2587474    4.2587474    4.2587474    2003.7803   -8667.2158    4885.3009    9793.2557    18063.007   -9908.8344    459.08236    77.240604 
   99000    1113.6491   -110.76046    1.0076531    -109.7528   -505.24858    4.2619198    4.2619198    4.2619198   -505.24858    2901.2693    11387.844   -15804.859    1187.6074    3021.9987    2477.4159    77.413343 
   99100    960.33771   -110.62353   0.86893374    -109.7546      3746.41    4.2586212    4.2586212    4.2586212      3746.41     -8762.29    19371.252     630.2684   -9229.5303    20578.107    3942.3912    77.233732 
   99200    933.45755   -110.59991   0.84461201    -109.7553   -3110.3942     4.259538     4.259538     4.259538   -3110.3942   -22907.432   -9350.6702    22926.919     10396.18    2598.2512   -3109.8041    77.283629 
   99300    993.66131   -110.65469   0.89908563   -109.75561    2067.9915    4.2580043    4.2580043    4.2580043    2067.9915   -5235.7825    5118.7434    6321.0136    9764.5211   -17887.341   -2916.8988    77.200178 
   99400    1233.4551   -110.86965    1.1160561    -109.7536   -3721.1923    4.2616556    4.2616556    4.2616556   -3721.1923   -7902.6219    10786.059   -14047.014   -4630.7221   -2058.9035   -1639.9572    77.398948 
   99500    1161.0311   -110.80479    1.0505254   -109.75427    1686.9963    4.2589733    4.2589733    4.2589733    1686.9963   -17519.962   -1653.0083    24233.959   -10154.533    12287.603    426.85914    77.252894 
   99600    827.71464   -110.50808    0.7489336   -109.75914    51.476246     4.256497     4.256497     4.256497    51.476246   -25723.213   -812.10759    26689.749    5962.8912    -13277.19    2994.2382    77.118219 
   99700    1018.2574   -110.67982    0.9213407   -109.75848    -7411.132    4.2647914    4.2647914    4.2647914    -7411.132   -23928.923    17784.797    -16089.27    8850.9292   -23197.807    1261.8612    77.569927 
   99800    1491.5647   -111.09877    1.3495991   -109.74917    4329.8538    4.2587471    4.2587471    4.2587471    4329.8538     -7200.32    9857.1481    10332.733   -11624.962    3141.9385    81.393475    77.240585 
   99900    1000.7785   -110.66363   0.90552539   -109.75811    944.97275    4.2561674    4.2561674    4.2561674    944.97275   -24522.118    1555.9484    25801.088   -2188.1491    -2596.258    1952.6752    77.100307 
  100000    638.02161   -110.34216   0.57729536   -109.76486   -12255.519    4.2619702    4.2619702    4.2619702   -12255.519   -39188.989    6392.4458   -3970.0127    13752.531   -31177.507    427.21525    77.416089 
Loop time of 22.3133 on 1 procs for 100000 steps with 8 atoms

Pair  time (%) = 7.26294 (32.5498)
Kspce time (%) = 5.3 (23.7527)
Neigh time (%) = 0 (0)
Comm  time (%) = 1.07975 (4.83903)
Outpt time (%) = 0.0245972 (0.110235)
Other time (%) = 8.64601 (38.7483)

Nlocal:    8 ave 8 max 8 min
Histogram: 1 0 0 0 0 0 0 0 0 0
Nghost:    2189 ave 2189 max 2189 min
Histogram: 1 0 0 0 0 0 0 0 0 0
Neighs:    2344 ave 2344 max 2344 min
Histogram: 1 0 0 0 0 0 0 0 0 0

Total # of neighbors = 2344
Ave neighs/atom = 293
Neighbor list builds = 0
Dangerous builds = 0
unfix 20
unfix 21
print "seeds:9233556"
seeds:9233556
