LAMMPS (10 Feb 2015)
# ---- initialize simulations
clear
units metal
dimension 3
boundary p p p
atom_style charge
atom_modify map array
# ---- create atoms
read_data /Users/eugeneragasa/pyflamestk_git/pypospack/tests/tests_integration/workflow/WorkflowLammpsThermalExpansion/param_2424/MgO_NaCl_unit.npt.T800/lammps.structure
  triclinic box = (0 0 0) to (4.2565 4.2565 4.2565) with tilt (0 0 0)
  1 by 1 by 1 MPI processor grid
  reading atoms ...
  8 atoms
# ---- define interatomic potential
include potential.mod
mass 1 24.305
mass 2 15.999

group Mg type 1
4 atoms in group Mg
group O type 2
4 atoms in group O

set group Mg charge 1.67924051174
  4 settings made for charge
set group O charge -1.67924051174
  4 settings made for charge

variable R_cut equal 10.0

pair_style buck/coul/long ${R_cut}
pair_style buck/coul/long 10
pair_coeff 1 1 0.0 0.5 0.0 ${R_cut}
pair_coeff 1 1 0.0 0.5 0.0 10
pair_coeff 1 2 1306.98043044 0.288034123545 0.0 ${R_cut}
pair_coeff 1 2 1306.98043044 0.288034123545 0.0 10
pair_coeff 2 2 2032.48006166 0.252585756474 14.8401495582 ${R_cut}
pair_coeff 2 2 2032.48006166 0.252585756474 14.8401495582 10

kspace_style pppm 1.0e-5

neighbor 1.0 bin
neigh_modify every 1 delay 0 check yes
# ---- define settings
compute eng all pe/atom
compute eatoms all reduce sum c_eng
# ---- run minimization
reset_timestep 0
fix 1 all box/relax iso 0.0 vmax 0.001
thermo 10
thermo_style custom step pe lx ly lz xy xz yz press pxx pyy pzz pxy pxz pyz c_eatoms
min_style cg
minimize 1e-25 1e-25 5000 10000
PPPM initialization ...
  G vector (1/distance) = 0.352997
  grid = 8 8 8
  stencil order = 5
  estimated absolute RMS force accuracy = 4.02799e-05
  estimated relative force accuracy = 2.79728e-06
  using double precision FFTs
  3d grid and FFT values/proc = 3375 512
Neighbor list info ...
  1 neighbor list requests
  update every 1 steps, delay 0 steps, check yes
  master list distance cutoff = 11
Memory usage per processor = 4.06549 Mbytes
Step PotEng Lx Ly Lz Xy Xz Yz Press Pxx Pyy Pzz Pxy Pxz Pyz eatoms 
       0   -114.09861       4.2565       4.2565       4.2565            0            0            0    83013.551    83013.551    83013.551    83013.551 1.023811e-10 -6.100653e-11 -2.0427431e-10   -114.09861 
      10   -114.17745     4.299065     4.299065     4.299065            0            0            0    27173.213    27173.213    27173.213    27173.213 -1.7620305e-11 8.177727e-11 3.0587737e-11   -114.17745 
      19   -114.18814    4.3219883    4.3219883    4.3219883            0            0            0 -0.014642896 -0.014642896 -0.014642896 -0.014642896 -4.2788838e-11 1.5607732e-10 -4.5124802e-11   -114.18814 
Loop time of 0.008183 on 1 procs for 19 steps with 8 atoms

Minimization stats:
  Stopping criterion = linesearch alpha is zero
  Energy initial, next-to-last, final = 
        -114.098610965     -114.188144107     -114.188144107
  Force two-norm initial, final = 11.9872 7.95763e-05
  Force max component initial, final = 11.9872 1.65313e-05
  Final line search alpha, max atom move = 0.5 8.26564e-06
  Iterations, force evaluations = 19 24

Pair  time (%) = 0.00217724 (26.6068)
Kspce time (%) = 0.00135231 (16.5258)
Neigh time (%) = 0 (0)
Comm  time (%) = 0.000248909 (3.04178)
Outpt time (%) = 1.19209e-05 (0.145679)
Other time (%) = 0.00439262 (53.6799)

Nlocal:    8 ave 8 max 8 min
Histogram: 1 0 0 0 0 0 0 0 0 0
Nghost:    2189 ave 2189 max 2189 min
Histogram: 1 0 0 0 0 0 0 0 0 0
Neighs:    2344 ave 2344 max 2344 min
Histogram: 1 0 0 0 0 0 0 0 0 0

Total # of neighbors = 2344
Ave neighs/atom = 293
Neighbor list builds = 0
Dangerous builds = 0
unfix 1
# ---- define output variables ----
variable natoms equal "count(all)"
variable tot_energy equal "c_eatoms"
variable length_x equal "lx"
variable length_y equal "ly"
variable length_z equal "lz"
variable tilt_xy equal "xy"
variable tilt_xz equal "xz"
variable tilt_yz equal "yz"
variable tot_press equal "press"
variable press_xx equal "pxx"
variable press_yy equal "pyy"
variable press_zz equal "pzz"
variable press_xy equal "pxy"
variable press_xz equal "pxz"
variable press_yz equal "pyz"

# ---- output ----
print "pypospack:output_section:begin"
pypospack:output_section:begin
print "tot_energy = ${tot_energy}"
tot_energy = -114.188144106894
print "num_atoms = ${natoms}"
num_atoms = 8
print "xx = ${length_x}"
xx = 4.32198834005221
print "yy = ${length_y}"
yy = 4.32198834005221
print "zz = ${length_z}"
zz = 4.32198834005221
print "xy = ${tilt_xy}"
xy = 0
print "xz = ${tilt_xz}"
xz = 0
print "yz = ${tilt_yz}"
yz = 0
print "tot_press = ${tot_press}"
tot_press = -0.0146428956780545
print "pxx = ${press_xx}"
pxx = -0.0146428956419126
print "pyy = ${press_yy}"
pyy = -0.0146428958165915
print "pzz = ${press_zz}"
pzz = -0.0146428955756593
print "pxy = ${press_xy}"
pxy = -4.27888380608005e-11
print "pxz = ${press_xz}"
pxz = 1.56077321107314e-10
print "pyz = ${press_yz}"
pyz = -4.51248020389503e-11
print "pypospack:output_section:done"
pypospack:output_section:done
print "pypospack:lammps_sim:done"
pypospack:lammps_sim:done
#------------------------------------------------------------------------------
# RUN THERMOSTAT
# running using an NPT Nose-Hoover style thermostat
#------------------------------------------------------------------------------
variable tempdamp equal 0.1
variable pressdamp equal 1.0
# set initial velocities
velocity all create 800 7185110 mom yes dist gaussian loop all
# fix for Nose-Hoover style thermostat
fix 20 all npt temp 800 800 0.1 aniso 0.0 0.0 1.0 drag 1.0 couple xyz
variable boxx equal lx
variable boxy equal ly
variable boxz equal lz
variable boxp equal press
variable boxt equal temp
# calculate averages every 10000 steps
reset_timestep 0
fix 21 all ave/time 10 10 100 v_boxx v_boxy v_boxz v_boxp v_boxt file lattice.out
thermo_style custom step temp pe ke etotal press lx ly lz press pxx pyy pzz pxy pxz pyz vol
thermo_modify flush yes
thermo 100
run 100000
PPPM initialization ...
  G vector (1/distance) = 0.35233
  grid = 8 8 8
  stencil order = 5
  estimated absolute RMS force accuracy = 4.15437e-05
  estimated relative force accuracy = 2.88505e-06
  using double precision FFTs
  3d grid and FFT values/proc = 3375 512
Memory usage per processor = 3.06549 Mbytes
Step Temp PotEng KinEng TotEng Press Lx Ly Lz Press Pxx Pyy Pzz Pxy Pxz Pyz Volume 
       0          800   -114.18815   0.72385681    -113.4643    9574.9677    4.3219883    4.3219883    4.3219883    9574.9677    12596.921    9768.1584     6359.824    3085.0395    442.42387   -1937.5578    80.732941 
     100    224.03338   -113.57239   0.20271011   -113.36968    -2279.298    4.3531581    4.3531581    4.3531581    -2279.298    25279.581   -6624.9591   -25492.516   -1834.7864    668.71616    6257.3801    82.492282 
     200    540.95206   -113.66488   0.48946479   -113.17541   -22799.809    4.3556192    4.3556192    4.3556192   -22799.809   -17451.647   -14139.551   -36808.229    5849.2966    9148.6526    3995.2123    82.632276 
     300    815.36587   -113.73215   0.73776018   -112.99439    22654.307    4.3379831    4.3379831    4.3379831    22654.307    45248.645    17920.273    4794.0038   -4769.0207   -647.81204   -1416.2276     81.63259 
     400    733.43476   -113.53753   0.66362719    -112.8739   -12135.548    4.3727555    4.3727555    4.3727555   -12135.548   -7901.2891    4777.9315   -33283.286   -3242.0958    6073.7654     4589.762    83.611418 
     500    506.73269    -113.2416   0.45850238    -112.7831   -11274.057    4.3608251    4.3608251    4.3608251   -11274.057   -1709.1513    13202.904   -45315.923    7484.4581    22698.088    5828.4735    82.928918 
     600    974.44925   -113.61146   0.88170216   -112.72975    10790.585    4.3476568    4.3476568    4.3476568    10790.585    2966.0481     43701.81   -14296.102   -3280.6874   -6073.2133   -1095.0787    82.179928 
     700    818.01953   -113.46065   0.74016126   -112.72049   -27240.392    4.3863816    4.3863816    4.3863816   -27240.392   -19708.137   -8967.0999   -53045.938    4896.6648    5737.6164   -293.04241    84.395487 
     800    547.59978   -113.22179   0.49547979   -112.72631    2435.6473    4.3487314    4.3487314    4.3487314    2435.6473   -871.12941    36268.782   -28090.711   -4176.3511    29030.103    -673.7463    82.240879 
     900    862.32146   -113.51192   0.78024658   -112.73167     14820.34    4.3472269    4.3472269    4.3472269     14820.34     16586.92    35582.266    -7708.167    5065.8444   -6854.5301     4316.162    82.155554 
    1000    1011.3166   -113.63419   0.91506052   -112.71912   -44748.294    4.3962166    4.3962166    4.3962166   -44748.294   -39794.492   -46979.942   -47470.449    4186.5482    745.11195   -6607.8704    84.964452 
    1100    669.80677   -113.33303   0.60605524   -112.72698     21574.11    4.3389451    4.3389451    4.3389451     21574.11    13473.301    60825.464   -9576.4371    4417.7301    17441.515   -7841.3345    81.686909 
    1200    858.28626   -113.51742   0.77659545   -112.74082     10712.85     4.347775     4.347775     4.347775     10712.85    18173.615    16730.377   -2765.4435    1639.4245   -2593.5308    10661.513    82.186633 
    1300      900.831   -113.53176   0.81509082   -112.71667    -29538.27    4.3933724    4.3933724    4.3933724    -29538.27   -46624.998    -9954.799   -32035.012   -7682.5795   -1013.9409   -4504.4533     84.79965 
    1400    730.99309   -113.37088   0.66141791   -112.70946    22531.901    4.3452133    4.3452133    4.3452133    22531.901     27698.71    36701.638     3195.354    5078.2553     10731.89    3704.4687    82.041447 
    1500     918.6594   -113.55317   0.83122233   -112.72195   -7248.1328    4.3537959    4.3537959    4.3537959   -7248.1328    6351.1376   -4163.5788   -23931.957   -11336.471    -2132.123    19272.324    82.528547 
    1600    804.55006   -113.44627    0.7279738    -112.7183   -23889.307    4.3785462    4.3785462    4.3785462   -23889.307   -15940.379   -17493.783    -38233.76   -10945.711   -4539.2578   -8687.7598    83.944032 
    1700     833.0671   -113.46928   0.75377662   -112.71551    4159.2836    4.3583737    4.3583737    4.3583737    4159.2836    7266.3254    14939.809   -9728.2838    11407.195    6879.4321    1887.7235    82.789147 
    1800    825.31164   -113.46805   0.74675932   -112.72129   -3494.4255    4.3579485    4.3579485    4.3579485   -3494.4255    6368.2614    8934.2546   -25785.792   -5618.6223   -1775.2155    17207.492    82.764918 
    1900    807.68883   -113.46106   0.73081383   -112.73025   -1534.1195    4.3586724    4.3586724    4.3586724   -1534.1195    22453.904    2806.0381   -29862.301   -5407.5634     2144.999   -3670.3693     82.80617 
    2000    795.83645   -113.46243   0.72008954   -112.74234   -12330.837      4.37372      4.37372      4.37372   -12330.837   -17196.141    3203.8563   -23000.226    1469.4146    14266.997   -4730.8236    83.666753 
    2100    797.74624   -113.45913   0.72181756   -112.73731    13013.541    4.3603239    4.3603239    4.3603239    13013.541    23461.157    31299.209   -15719.743     6004.152   -7213.7333    377.19899     82.90033 
    2200    798.27884   -113.45536   0.72229947   -112.73306    11120.729    4.3531062    4.3531062    4.3531062    11120.729    29647.204    16744.003   -13029.019    5128.2196    9384.7683   -4131.2629     82.48933 
    2300     614.0093   -113.28551   0.55556852   -112.72994   -29044.963    4.3835739    4.3835739    4.3835739   -29044.963   -24783.073   -23786.547   -38565.269   -12955.023    18335.584   -4773.0207    84.233529 
    2400    868.89225     -113.506   0.78619197   -112.71981    18003.746    4.3480255    4.3480255    4.3480255    18003.746    34588.706    16281.673    3140.8583    8757.4845   -2464.1538   -6546.3947     82.20084 
    2500    929.99016   -113.57313   0.84147464   -112.73166    4836.4434    4.3491986    4.3491986    4.3491986    4836.4434    -43.13786    23695.024   -9142.5562   -12717.174    8999.8873    10486.281    82.267388 
    2600    587.84563   -113.26656   0.53189508   -112.73467   -50814.924     4.383392     4.383392     4.383392   -50814.924    -60745.13   -39628.205   -52071.436   -12225.756     12846.95   -13637.734    84.223044 
    2700    627.22601   -113.29293   0.56752728   -112.72541    22011.087     4.340232     4.340232     4.340232    22011.087    9995.8389    38355.087    17682.335    12753.776   -4485.9268   -7258.2076    81.759613 
    2800    1191.1648   -113.80903     1.077791   -112.73124   -6546.2379    4.3544457    4.3544457    4.3544457   -6546.2379    2188.9127    -5206.406    -16621.22   -11575.197   -2009.2062      7795.16    82.565505 
    2900    400.43405    -113.0949   0.36232115   -112.73258   -16853.562    4.3765113    4.3765113    4.3765113   -16853.562   -19059.735   -11424.062    -20076.89    240.87538    12537.123   -7809.9085    83.827044 
    3000    692.03614   -113.34476   0.62616884    -112.7186    25700.104    4.3435015    4.3435015    4.3435015    25700.104    38286.835    12529.335    26284.142   -548.90342   -1370.3954    4463.5358     81.94452 
    3100    1057.5556   -113.68583    0.9568985   -112.72893   -1301.9267    4.3637211    4.3637211    4.3637211   -1301.9267   -1435.5018    7391.9069   -9862.1852    4328.6156   -11750.988    875.72838    83.094245 
    3200    723.79422   -113.38445   0.65490422   -112.72954    2819.2835    4.3652912    4.3652912    4.3652912    2819.2835    41681.449   -30997.599   -2225.9989    6715.5747    7950.4573   -7066.4296    83.183972 
    3300    669.15126    -113.3334   0.60546212   -112.72794    5089.9742    4.3604205    4.3604205    4.3604205    5089.9742    -12870.29    16256.724    11883.489   -5605.6114    6539.3009   -2140.4717    82.905837 
    3400    1051.4198   -113.67759   0.95134676   -112.72625   -6007.4364    4.3656187    4.3656187    4.3656187   -6007.4364    1835.6535   -4072.7288   -15785.234    5484.7819   -2050.3615    -1180.062    83.202696 
    3500    1028.9147   -113.65707   0.93098361   -112.72608    2943.3976    4.3527275    4.3527275    4.3527275    2943.3976    10606.952   -16172.761    14396.001   -3812.1814    10680.002    2507.5989    82.467803 
    3600    613.54649   -113.29688   0.55514976   -112.74173    3926.8025     4.363393     4.363393     4.363393    3926.8025    32432.583    -2588.749   -18063.427    -5741.447    7370.2283    -8323.196    83.075506 
    3700    894.03436   -113.54178   0.80894107   -112.73284   -7488.8082     4.379405     4.379405     4.379405   -7488.8082    25189.639   -7076.9939    -40579.07    -578.4309   -595.96547   -424.47684    83.993434 
    3800    718.05154   -113.37475   0.64970813   -112.72505    10319.362    4.3600738    4.3600738    4.3600738    10319.362    52400.597   -20144.505   -1298.0058     88.45347    593.11697   -5488.9315    82.886064 
    3900    735.10893   -113.38999   0.66514201   -112.72485    12667.372    4.3500783    4.3500783    4.3500783    12667.372    31385.466   -14655.335    21271.984   -1837.0614   -687.83144   -9561.3314     82.31732 
    4000    846.82864   -113.49605   0.76622835   -112.72982   -14678.624    4.3830516    4.3830516    4.3830516   -14678.624    2686.7846    -34205.22   -12517.436    6028.0184    -6919.245    3665.8848    84.203424 
    4100    617.90796   -113.28354   0.55909611   -112.72445    19096.739    4.3628132    4.3628132    4.3628132    19096.739    16141.096   -7823.3122    48972.432   -1527.0239   -19000.892   -1484.9127    83.042395 
    4200    651.03743   -113.31227   0.58907235    -112.7232    4149.3403    4.3476954    4.3476954    4.3476954    4149.3403    11779.765   -9764.0671    10432.323   -4055.9711    6022.2818   -14153.623    82.182116 
    4300    872.14541   -113.51852    0.7891355   -112.72938   -15566.043    4.3679746    4.3679746    4.3679746   -15566.043   -23008.488   -21904.122     -1785.52     6219.796    4780.6422   -1705.3394    83.337472 
    4400    915.44595   -113.55397   0.82831474   -112.72566    1366.5652     4.367814     4.367814     4.367814    1366.5652    1937.3672    -5924.136    8086.4645    1776.6467   -4325.7158    6211.3712    83.328277 
    4500    616.72091   -113.29139   0.55802204   -112.73337    -9512.306    4.3626089    4.3626089    4.3626089    -9512.306    -3092.378   -19806.961   -5637.5795   -2129.2131    17655.469   -22067.081     83.03073 
    4600    829.27274   -113.48433    0.7503434   -112.73399    7727.4425    4.3453572    4.3453572    4.3453572    7727.4425   -1666.1668     4293.182    20555.312    147.18453    7822.0592   -6151.9491    82.049595 
    4700    770.84224   -113.44128   0.69747426   -112.74381    772.71781    4.3728666    4.3728666    4.3728666    772.71781   -19929.835   -14738.927    36986.916    1262.9484    8453.5984   -917.45702     83.61779 
    4800     600.9983   -113.28362   0.54379589   -112.73983   -8435.3189    4.3686129    4.3686129    4.3686129   -8435.3189    1608.0443   -24289.168   -2624.8329   -2857.0733    5950.2561   -20324.071    83.374008 
    4900    770.63109   -113.41259   0.69728321   -112.71531    23758.686     4.328105     4.328105     4.328105    23758.686     9989.155    22610.552     38676.35    3864.0152    14181.781   -13215.846    81.076197 
    5000    908.45016   -113.56416   0.82198479   -112.74218   -3650.8679    4.3726957    4.3726957    4.3726957   -3650.8679    8141.9021   -254.07938   -18840.427   -719.60054    4285.6359   -4227.2315    83.607987 
    5100    881.51891   -113.52201   0.79761684    -112.7244   -16413.116    4.3809234    4.3809234    4.3809234   -16413.116   -29483.354   -23455.445    3699.4515   -7943.1026   -7150.0589   -7414.2138     84.08083 
    5200    866.94198   -113.48864   0.78442732   -112.70421    22676.707    4.3284375    4.3284375    4.3284375    22676.707    15243.053    22760.058    30027.009     1987.193    20566.091   -17490.979    81.094881 
    5300    822.86208   -113.47599    0.7445429   -112.73145    479.20864    4.3605024    4.3605024    4.3605024    479.20864   -14874.421    4958.2724    11353.775   -3059.2705     7515.376    5549.9931    82.910511 
    5400    969.81762   -113.59402   0.87751137   -112.71651   -15904.412    4.3794042    4.3794042    4.3794042   -15904.412   -35633.614   -31427.309    19347.686   -4634.2778   -13578.128   -1180.0464    83.993385 
    5500    583.61336   -113.24861   0.52806564   -112.72055    17736.273    4.3417139    4.3417139    4.3417139    17736.273    16818.532    5795.5558     30594.73    3651.3154    13478.265   -8620.0273    81.843391 
    5600    674.61664   -113.34452   0.61040731   -112.73411    9128.9548    4.3476846    4.3476846    4.3476846    9128.9548   -8735.4449    8246.8636    27875.446   -1917.0201    13830.485   -1322.0253    82.181507 
    5700    974.29119   -113.60764   0.88155914   -112.72608   -22609.715    4.3809783    4.3809783    4.3809783   -22609.715   -34390.093   -19066.345   -14372.709   -5905.5842   -7309.9736   -2474.6235     84.08399 
    5800    725.07351   -113.38692   0.65606175   -112.73086   -6250.0869    4.3509983    4.3509983    4.3509983   -6250.0869   -6015.0803   -7609.8095    -5125.371    1773.3852    10843.032   -4781.7396     82.36956 
    5900    767.65033    -113.4188   0.69458615   -112.72421      22203.1    4.3312364    4.3312364    4.3312364      22203.1    22372.405    29990.043    14246.852    2077.8115    16711.607   -10054.214    81.252299 
    6000    919.94416   -113.56552   0.83238481   -112.73313    -12373.79    4.3748566    4.3748566    4.3748566    -12373.79   -32926.676   -16489.703    12295.009   -6260.4931     562.5154     5515.715    83.731998 
    6100    932.40599   -113.57962   0.84366054   -112.73596    10321.812    4.3472062    4.3472062    4.3472062    10321.812     2100.493   -3934.0695    32799.013   -175.07345   -83.096909    1247.3568    82.154379 
    6200    652.09884   -113.32726   0.59003274   -112.73722        17782    4.3409149    4.3409149    4.3409149        17782    1599.3193    22309.157    29437.525    2562.3675    18489.823   -11542.072    81.798213 
    6300     757.9927   -113.41036   0.68584772   -112.72451   -22004.581    4.3755766    4.3755766    4.3755766   -22004.581   -43660.551   -16071.283   -6281.9101   -2447.7145    7328.3714    7204.5158    83.773347 
    6400    898.70654   -113.53045   0.81316857   -112.71728    29769.551    4.3368496    4.3368496    4.3368496    29769.551    39749.859    16697.437    32861.356   -3314.2034   -12840.201    8198.5036    81.568612 
    6500    788.60612   -113.45094   0.71354739   -112.73739   -9339.6735    4.3511484    4.3511484    4.3511484   -9339.6735     -16156.1   -3347.2957   -8515.6249    1038.9291    12766.797    -15364.91    82.378083 
    6600    610.12904   -113.28948   0.55205758   -112.73742     7949.194    4.3571446    4.3571446    4.3571446     7949.194   -10847.606    20663.736    14031.452   -1415.4202    10094.841   -2699.5471    82.719123 
    6700     789.3426   -113.45054   0.71421378   -112.73632    7390.1876    4.3562317    4.3562317    4.3562317    7390.1876   -14942.853    8380.7574    28732.658   -5140.0049   -19937.659   -3406.4005     82.66714 
    6800    799.19669   -113.45965   0.72312996   -112.73652   -4000.8931    4.3560869    4.3560869    4.3560869   -4000.8931   -651.52921   -2598.1131   -8753.0369   -6753.8911   -3389.8124   -8017.3423    82.658899 
    6900    970.62997   -113.60786   0.87824639   -112.72961    25400.093    4.3330559    4.3330559    4.3330559    25400.093    14951.502    23873.181    37375.597    2833.7972    6076.5135   -619.35134    81.354745 
    7000    408.91335   -113.11479    0.3699934    -112.7448   -16866.998    4.3784219    4.3784219    4.3784219   -16866.998    -29352.98    -33259.82    12011.807   -7698.2691   -22699.999   -5844.7686    83.936882 
    7100    773.63795   -113.44163   0.70000388   -112.74163   -9179.5681    4.3529023    4.3529023    4.3529023   -9179.5681   -20773.763   -4027.7055   -2737.2359   -3794.1772   -13569.034    1467.7596    82.477743 
    7200    1093.9889    -113.7015   0.98986418   -112.71163    45441.234    4.3130392    4.3130392    4.3130392    45441.234     50687.85    34053.238    51582.613    1395.8938    11310.221   -3933.5912    80.232482 
    7300    620.10646   -113.29693   0.56108536   -112.73585   -44805.779    4.3834869    4.3834869    4.3834869   -44805.779   -51127.108   -45482.182   -37808.046   -7304.6475   -19337.962   -2952.2743    84.228515 
    7400    509.72607   -113.20545   0.46121086   -112.74424   -7093.6263    4.3492461    4.3492461    4.3492461   -7093.6263   -33595.155   -4856.8049    17171.081   -3505.2843   -22790.135    7342.1541    82.270087 
    7500    1180.3374   -113.77528    1.0679941   -112.70729    45606.262    4.3107778    4.3107778    4.3107778    45606.262    43421.977    29649.249    63747.559   -240.49563    10400.616   -15807.599    80.106343 
    7600    781.54722    -113.4295   0.70716035   -112.72234   -27977.696    4.3795058    4.3795058    4.3795058   -27977.696   -39130.467   -33674.713   -11127.909    407.34174   -8947.9237   -217.62556    83.999232 
    7700    707.63412   -113.36707   0.64028222   -112.72679    -1577.171    4.3487506    4.3487506    4.3487506    -1577.171   -28151.305   -21.158623    23440.951   -6501.0653   -22448.148    4137.4763    82.241968 
    7800    868.65669   -113.50166   0.78597882   -112.71568    27557.588    4.3238099    4.3238099    4.3238099    27557.588    9435.1176    19979.137     53258.51     1796.814    12695.774   -5058.8399    80.835063 
    7900    775.23613   -113.42801   0.70144994   -112.72656   -18457.519    4.3654546    4.3654546    4.3654546   -18457.519   -27637.933   -17377.933    -10356.69    3512.1646    16646.291     427.7982    83.193313 
    8000    971.62895   -113.60307    0.8791503   -112.72392    -2664.534    4.3531868    4.3531868    4.3531868    -2664.534   -19353.333   -1340.1548    12699.885   -8635.7145   -21063.618    2192.7128    82.493912 
    8100    667.90317   -113.33358   0.60433282   -112.72924    -11301.81    4.3509535    4.3509535    4.3509535    -11301.81    -24359.45   -10065.131    519.15227    -530.0266    10764.891    8084.1391    82.367014 
    8200    751.99478   -113.41333   0.68042068   -112.73291   -3845.5796    4.3356662    4.3356662    4.3356662   -3845.5796   -11696.049    10119.494   -9960.1846    3563.7676    25816.428   -12966.737     81.50186 
    8300    810.24822   -113.47801   0.73312962   -112.74488    5318.6296    4.3552441    4.3552441    4.3552441    5318.6296   -9377.9613   -18525.019     43858.87   -4842.7275   -8026.2762    809.87448     82.61093 
    8400    1035.6212   -113.67541    0.9370518   -112.73836   -23425.876    4.3641275    4.3641275    4.3641275   -23425.876   -40505.685   -33706.755    3934.8113   -3974.5179   -719.46955    133.59665    83.117463 
    8500    823.13721   -113.47364   0.74479185   -112.72885    18175.315    4.3270099    4.3270099    4.3270099    18175.315   -468.31826    15000.274     39993.99     2913.333     28097.93    5475.2299    81.014672 
    8600    693.46955   -113.36604   0.62746582   -112.73857   -12293.594    4.3568634    4.3568634    4.3568634   -12293.594   -8747.5377   -32060.936    3927.6915   -5387.8659    3383.6634   -9549.7251    82.703105 
    8700    1067.5771   -113.69296   0.96596618   -112.72699   -5404.5396    4.3506191    4.3506191    4.3506191   -5404.5396   -21205.411   -21935.399    26927.191   -9712.0673   -3956.7689    1054.8269    82.348025 
    8800    754.25741   -113.41294   0.68246795   -112.73048    12280.792     4.342244     4.342244     4.342244    12280.792   -6047.1995    1766.3399    41123.235    1867.3081    14796.653    1140.2923    81.873369 
    8900    703.36805   -113.37177    0.6364222   -112.73535   -13313.464    4.3558223    4.3558223    4.3558223   -13313.464   -8492.4943   -32186.988    739.08962   -4310.2415    12235.057   -12820.357    82.643835 
    9000    798.98814    -113.4538   0.72294126   -112.73085    7700.6994    4.3506291    4.3506291    4.3506291    7700.6994    4419.8964   -21417.531    40099.733   -14453.288    -4136.432    3871.8874    82.348593 
    9100    925.12614   -113.56505   0.83707357   -112.72798    -4450.647    4.3527143    4.3527143    4.3527143    -4450.647   -12970.053   -10506.015    10124.127     1702.105    1817.0383   -1158.8687    82.467057 
    9200    712.16327   -113.37579   0.64438029   -112.73141    3971.9416    4.3405035    4.3405035    4.3405035    3971.9416    17483.823   -17756.259    12188.261    -943.8923    17622.946   -5050.8858    81.774961 
    9300    563.99527   -113.24996   0.51031478   -112.73964    10906.217    4.3493976    4.3493976    4.3493976    10906.217    2572.4011   -26227.768    56374.017   -19333.913   -9541.9315    -738.3081    82.278686 
    9400    920.94557   -113.56498   0.83329091   -112.73169   -7358.2136    4.3557072    4.3557072    4.3557072   -7358.2136   -14323.628   -1878.4701   -5872.5429    50.112335   -6082.0906    5471.9138    82.637284 
    9500    706.52273    -113.3678   0.63927661   -112.72853    25647.159    4.3340825    4.3340825    4.3340825    25647.159    24131.417    548.41898    52261.641    5425.4983    11223.782   -7216.7214    81.412583 
    9600    774.91569   -113.43904      0.70116   -112.73788   -24488.323    4.3615208    4.3615208    4.3615208   -24488.323   -25420.555   -33753.187   -14291.227   -18291.357   -2645.5094   -6625.1016    82.968614 
    9700     677.7885    -113.3452   0.61327728   -112.73193   -6371.9582    4.3526944    4.3526944    4.3526944   -6371.9582   -5242.2652   -14541.812    668.20279    875.83998   -9277.9426   -1818.3464    82.465927 
    9800    938.26208   -113.57223   0.84895925   -112.72327    11383.223    4.3294426    4.3294426    4.3294426    11383.223    1027.4784    17657.982    15464.208    13437.061    2484.0368     -246.873    81.151388 
    9900    820.53634    -113.4759   0.74243852   -112.73347   -23442.281    4.3586613    4.3586613    4.3586613   -23442.281   -19555.519   -31496.104   -19275.219    -8246.449     14639.92   -7855.4672    82.805533 
   10000    701.33357   -113.36941   0.63458136   -112.73483   -182.16161    4.3445348    4.3445348    4.3445348   -182.16161   -5952.6154     1657.612    3748.5186   -2112.9304   -14050.076   -11448.477     82.00302 
   10100    750.41748   -113.41481   0.67899351   -112.73582    7635.5588    4.3461052    4.3461052    4.3461052    7635.5588   -15635.619     8847.257    29695.039    14266.922   -9726.8989    9533.2424    82.091977 
   10200    1093.7988   -113.71988   0.98969216   -112.73019   -8891.7402    4.3544843    4.3544843    4.3544843   -8891.7402   -2807.3569   -9630.4818   -14237.382    5254.0107    18668.346   -1833.8052    82.567701 
   10300    616.38298   -113.28847   0.55771628   -112.73076    25674.891    4.3387346    4.3387346    4.3387346    25674.891    1627.0692    24096.918    51300.684   -2702.7867   -11494.193   -8625.1443    81.675022 
   10400     703.1104   -113.37309   0.63618906    -112.7369   -11229.168    4.3557206    4.3557206    4.3557206   -11229.168   -12764.313   -4317.5807    -16605.61    7466.5054   -16939.454    4843.1709    82.638044 
   10500    1023.6165   -113.65616   0.92618969   -112.72997    15343.999    4.3432615    4.3432615    4.3432615    15343.999    25267.413   -435.64526    21200.231    3955.3261    10944.195   -2097.9668    81.930941 
   10600    868.44629   -113.52016   0.78578845   -112.73437     10079.02     4.345669     4.345669     4.345669     10079.02    12464.974    17573.114     198.9729    4303.8346   -9572.2024   -3921.5403    82.067262 
   10700    524.91666   -113.21326   0.47495563   -112.73831   -13275.727    4.3577812    4.3577812    4.3577812   -13275.727    11747.131   -21862.508   -29711.804    425.85621   -19871.574   -584.95345    82.755387 
   10800    902.47333   -113.54696   0.81657684   -112.73039    11224.081    4.3384585    4.3384585    4.3384585    11224.081    20912.782    4753.1154    8006.3441    758.29068   -5875.8812    12540.458     81.65943 
   10900    966.17465   -113.60579   0.87421513   -112.73158    2775.7503     4.350605     4.350605     4.350605    2775.7503    1254.3346    1298.5544     5774.362    3600.4151    9010.0668    3903.3985    82.347224 
   11000    719.08308   -113.38615   0.65064148   -112.73551   -9928.8405    4.3529782    4.3529782    4.3529782   -9928.8405   -6109.0137   -7448.0554   -16229.453   -8684.2753   -19721.191   -6855.4219    82.482055 
   11100    627.78365   -113.30462   0.56803184   -112.73658   -3392.3065    4.3420804    4.3420804    4.3420804   -3392.3065   -3789.6456   -20324.528    13937.254    1669.7223   -8756.0209     19327.17    81.864115 
   11200    885.72272   -113.53736   0.80142053   -112.73594    8355.2886    4.3468536    4.3468536    4.3468536    8355.2886   -1465.2275    11447.527    15083.566    2268.2644    10089.094    10174.618    82.134393 
   11300    989.37457    -113.6275    0.8952069    -112.7323   -8291.3206     4.361117     4.361117     4.361117   -8291.3206   -31792.699   -10465.068    17383.805   -2113.6078    -10895.49   -8234.8604    82.945573 
   11400    648.15309   -113.31706   0.58646254    -112.7306   -27109.526    4.3580249    4.3580249    4.3580249   -27109.526   -26582.312   -36526.968   -18219.296    -1955.089   -6821.4566     21731.42    82.769272 
   11500    832.77251   -113.47767   0.75351007   -112.72416    9664.8771    4.3295563    4.3295563    4.3295563    9664.8771    11820.711    943.65936    16230.261   -6027.3857    11137.544    9861.4386    81.157784 
   11600    1133.4387   -113.76175    1.0255591   -112.73619    -10495.75    4.3565446    4.3565446    4.3565446    -10495.75   -26693.503   -10501.163    5707.4172    3628.7004   -5267.2126   -7264.9646    82.684954 
   11700    787.23639   -113.44516   0.71230803   -112.73285   -23748.828    4.3658246    4.3658246    4.3658246   -23748.828   -31710.317   -17188.439    -22347.73   -4637.5975   -2125.2122    16325.114    83.214468 
   11800    667.12861   -113.32424   0.60363199    -112.7206    19234.846    4.3245992    4.3245992    4.3245992    19234.846    19849.958   -2036.6617    39891.242   -8545.6308    6785.5304    10719.855     80.87934 
   11900    838.22745   -113.49434   0.75844581    -112.7359   -7667.6056    4.3562723    4.3562723    4.3562723   -7667.6056   -18756.036   -20743.145    16496.363      4501.12    1610.1553   -12316.507    82.669452 
   12000    915.56212   -113.55462   0.82841984    -112.7262    -14936.38    4.3614256    4.3614256    4.3614256    -14936.38   -25580.669   -25918.737    6690.2672    858.81976   -8756.6227   -626.49321     82.96318 
   12100    725.86658   -113.37701   0.65677933   -112.72023    23379.935     4.326198     4.326198     4.326198    23379.935    20870.488    16982.001    32287.316   -4553.7714   -737.49301    18107.939    80.969073 
   12200    747.36963   -113.41115   0.67623575   -112.73491   -20118.755    4.3558522    4.3558522    4.3558522   -20118.755   -6255.6862   -47700.611   -6399.9691    5341.5293    4880.9279   -4061.4135    82.645539 
   12300    852.51393   -113.49865   0.77137252   -112.72728   -13785.638    4.3577824    4.3577824    4.3577824   -13785.638   -16331.165   -6128.3762   -18897.374    1488.8532   -13691.502   -11097.473    82.755454 
   12400    994.62565   -113.62419   0.89995819   -112.72423    3132.9369    4.3386594    4.3386594    4.3386594    3132.9369    11055.068       4790.6   -6446.8572    -1182.825   -10318.916    12729.104    81.670772 
   12500    801.58394   -113.45836   0.72528999   -112.73307   -9093.9788    4.3434486    4.3434486    4.3434486   -9093.9788    11727.712   -26675.226   -12334.423    2262.4147    1713.6237   -2591.2378    81.941525 
   12600    501.04616   -113.19508    0.4533571   -112.74172      7726.68    4.3497599    4.3497599    4.3497599      7726.68    17672.331   -19863.671    25371.381    966.78851   -5581.5277   -20021.526    82.299246 
   12700    1057.4231   -113.69059   0.95677868   -112.73381   -2416.8064    4.3537874    4.3537874    4.3537874   -2416.8064   -9269.3457   -7483.4378    9502.3642    3116.3928   -15912.692    7265.6874    82.528061 
   12800    880.13898   -113.52684   0.79636825   -112.73047    20857.562    4.3382613    4.3382613    4.3382613    20857.562    25803.585   -627.45489    37396.556    -7301.012   -1934.7711   -5202.4067    81.648295 
   12900    483.59577   -113.17794   0.43756761   -112.74037   -9673.1322    4.3535774    4.3535774    4.3535774   -9673.1322    11968.431   -38209.966   -2777.8617    1827.2534   -2349.0286   -23476.244    82.516125 
   13000    747.56439   -113.41187   0.67641197   -112.73546   -9750.6655    4.3510366    4.3510366    4.3510366   -9750.6655   -13251.278   -20752.939    4752.2209    5732.1433   -18271.104     451.8023    82.371732 
   13100     1095.235   -113.71803   0.99099166   -112.72704    19872.217    4.3351632    4.3351632    4.3351632    19872.217    28804.744     10105.84    20706.069   -7114.3263    2021.0828   -4982.9088    81.473497 
   13200    709.73153   -113.37843      0.64218   -112.73625   -21525.029    4.3601492    4.3601492    4.3601492   -21525.029   -1129.8345   -26589.921   -36855.331   -611.54616    10.011643   -19473.567    82.890368 
   13300    488.16548   -113.17881   0.44170238   -112.73711   -443.18279    4.3422192    4.3422192    4.3422192   -443.18279    10354.437   -12871.077    1187.0921    4219.1029   -10332.206   -5939.7542    81.871966 
   13400    980.23227   -113.62175   0.88693476   -112.73481     8241.807    4.3422119    4.3422119    4.3422119     8241.807    7530.1034     10510.43     6684.888    3666.9893    4008.7105    2482.5908    81.871553 
   13500    975.98437   -113.61383   0.88309116   -112.73073   -13662.368    4.3619537    4.3619537    4.3619537   -13662.368    3811.1615   -9613.3421   -35184.925   -4040.1279    2462.2135   -4618.1628    82.993321 
   13600    707.80919   -113.37447   0.64044063   -112.73403    15298.751    4.3291931    4.3291931    4.3291931    15298.751    21182.681    17004.684    7708.8886    4611.3654    172.26718   -5173.8375    81.137362 
   13700    599.34963   -113.29222   0.54230414   -112.74991   -4893.9731    4.3529637    4.3529637    4.3529637   -4893.9731   -9161.4973   -19872.978    14352.556    9686.3194   -7305.3208    7500.2011     82.48123 
   13800    1211.1453   -113.82207    1.0958697    -112.7262    -24332.17    4.3655568    4.3655568    4.3655568    -24332.17     -26436.6   -21711.885   -24848.026    3707.5914    1864.4808   -99.555568    83.199159 
   13900     991.7305   -113.61771    0.8973386   -112.72037    19141.316    4.3272029    4.3272029    4.3272029    19141.316     33882.11    10626.612    12915.225    1798.2039    1567.1457   -4747.6099    81.025514 
   14000    579.92311   -113.26375   0.52472662   -112.73902   -24740.402    4.3572168    4.3572168    4.3572168   -24740.402   -35495.434   -39248.056    522.28357    15778.884    -10455.38    7645.8428    82.723236 
   14100    1046.1621   -113.67698   0.94658946   -112.73039   -22158.084    4.3592226    4.3592226    4.3592226   -22158.084   -21703.379   -37874.551   -6896.3228    11111.013    4751.2883    2343.3568    82.837529 
   14200    1243.3049   -113.84748    1.1249684   -112.72251    18578.278    4.3333245    4.3333245    4.3333245    18578.278    24480.586    15797.732    15456.516   -3640.4684    6503.8894     2488.911    81.369873 
   14300    631.65583   -113.31127   0.57153547   -112.73973   -15917.212    4.3575995    4.3575995    4.3575995   -15917.212   -15648.384   -9595.7237   -22507.529    2262.7129   -10381.056    5671.3439    82.745031 
   14400    500.91145   -113.19389   0.45323521   -112.74065    918.59219    4.3520374    4.3520374    4.3520374    918.59219   -965.28312     5663.171   -1942.1113    9839.3373    4104.3675    9757.3129    82.428587 
   14500    901.02099   -113.54789   0.81526273   -112.73263     20489.43    4.3443176    4.3443176    4.3443176     20489.43    16900.304    47513.408   -2945.4228   -9325.1603    3078.9507    5007.1443    81.990722 
   14600    793.12778   -113.45055   0.71763868   -112.73291    7935.2073    4.3531287    4.3531287    4.3531287    7935.2073   -10438.791    44696.817   -10452.405    -6858.395   -5184.2535    7444.7672     82.49061 
   14700    461.31728   -113.15679   0.41740957   -112.73938    11643.531    4.3440228    4.3440228    4.3440228    11643.531    9307.4937   -1348.5085    26971.608    14787.244    3678.0903     4323.682     81.97403 
   14800    598.04091   -113.28099   0.54111998   -112.73987    5645.3353    4.3529255    4.3529255    4.3529255    5645.3353    6008.5843    1828.4568    9098.9649    1006.6428    3160.0752    1967.6953    82.479061 
   14900    1117.9937   -113.73889    1.0115842    -112.7273   -8798.2077    4.3538751    4.3538751    4.3538751   -8798.2077   -1836.1791   -9752.8962   -14805.548   -5609.0372    1466.3347   -1180.2164    82.533049 
   15000    763.82562   -113.42219   0.69112548   -112.73107    10819.333    4.3333969    4.3333969    4.3333969    10819.333    10673.331   -8440.8229    30225.492    21689.225    332.49243    4510.4107    81.373953 
   15100    538.29166   -113.23014    0.4870576   -112.74309   -20896.163    4.3526282    4.3526282    4.3526282   -20896.163   -21276.376   -44620.126    3208.0126     18960.18    1518.3137   -785.35786    82.462159 
   15200    749.39991   -113.41865   0.67807279   -112.74058   -9832.9324    4.3498572    4.3498572    4.3498572   -9832.9324   -11666.266    7239.0888    -25071.62   -11682.495     8774.082    -7996.036     82.30477 
   15300    938.73431   -113.58483   0.84938653   -112.73544    10570.277    4.3336014    4.3336014    4.3336014    10570.277   -2686.3121    17427.378    16969.765    16136.336   -3683.5142    423.69134    81.385474 
   15400     661.2314   -113.33875   0.59829606   -112.74045    -16979.85    4.3573085    4.3573085    4.3573085    -16979.85   -45912.712   -10090.758    5063.9212    13072.571    975.14551   -5256.1176    82.728455 
   15500    576.30323   -113.25877   0.52145127   -112.73732    3698.4868    4.3465198    4.3465198    4.3465198    3698.4868   -6553.3429    10919.657    6729.1459   -7937.1774    12105.148    -6613.499    82.115473 
   15600    849.31046   -113.50015   0.76847395   -112.73167    6726.6877    4.3438407    4.3438407    4.3438407    6726.6877    2134.1683    9596.0336    8449.8613    5345.1325   -5232.3831    -7086.629     81.96372 
   15700    899.89553   -113.54574   0.81424439    -112.7315   -14456.897    4.3551044    4.3551044    4.3551044   -14456.897   -37826.589   -12605.579    7061.4782     12536.05    -2963.681   -5415.1526    82.602978 
   15800    896.68869   -113.54121   0.81134277   -112.72987    8911.0578    4.3370668    4.3370668    4.3370668    8911.0578    6525.0119   -12921.825    33129.986   -7997.0778    7526.6883   -1247.4908    81.580871 
   15900    773.73589    -113.4387   0.70009249   -112.73861   -10496.345     4.359856     4.359856     4.359856   -10496.345   -2427.6432   -20062.493   -8998.9002   -4552.4272    2136.0075   -7321.9506    82.873646 
   16000     1020.475   -113.65852   0.92334721   -112.73517    -16014.91    4.3525813    4.3525813    4.3525813    -16014.91   -16777.671   -19750.161   -11516.898    12245.807   -4814.4416   -4340.5811    82.459497 
   16100    863.59934   -113.50838   0.78140283   -112.72698    35158.207    4.3216229    4.3216229    4.3216229    35158.207    24862.242    37791.214    42821.165    -2752.459    1107.7225    3379.7563    80.712466 
   16200    676.61533   -113.35399   0.61221577   -112.74178    -13520.36    4.3671726    4.3671726    4.3671726    -13520.36   -20929.921    9388.9977   -29020.155   -12878.867    10021.705     1966.717    83.291572 
   16300    821.57736   -113.48087   0.74338046   -112.73749   -4303.0456    4.3526642    4.3526642    4.3526642   -4303.0456   -7015.2875    13294.689   -19188.538    9586.1404   -4032.1627     -2381.21    82.464206 
   16400    768.99186   -113.41521       0.6958   -112.71941    38034.292    4.3197057    4.3197057    4.3197057    38034.292    15753.953    57397.049    40951.873   -1293.5833   -8667.8663    1471.6089    80.605093 
   16500    694.58384   -113.36018   0.62847406   -112.73171   -27809.543    4.3633133    4.3633133    4.3633133   -27809.543   -42673.471   -23326.395   -17428.762   -22100.608    12295.542    9108.8896    83.070955 
   16600    793.67303   -113.45243   0.71813204    -112.7343    6586.5036    4.3386429    4.3386429    4.3386429    6586.5036    5120.4622   -1268.6305    15907.679   -6109.8518    3134.1544    -455.8409     81.66984 
   16700     955.4208   -113.59689   0.86448482   -112.73241    12938.323    4.3311945    4.3311945    4.3311945    12938.323    11545.338    1571.1242    25698.508    1414.4598   -11789.474   -1080.8135    81.249941 
   16800    747.87786   -113.41042   0.67669561   -112.73373   -25638.227    4.3595202    4.3595202    4.3595202   -25638.227   -43092.098    -29301.85   -4520.7336    -18316.25    3741.8034    3781.5978    82.854498 
   16900    795.23958    -113.4509   0.71954949   -112.73135    13353.445    4.3315339    4.3315339    4.3315339    13353.445    14642.242   -10831.738    36249.831   -14927.489     13324.51   -492.30996    81.269044 
   17000    933.65601   -113.58155   0.84479158   -112.73676   -2488.6035     4.343705     4.343705     4.343705   -2488.6035    14410.033   -5904.4041    -15971.44    8200.1191   -4098.6003   -5662.8733    81.956039 
   17100    839.32741   -113.49809   0.75944108   -112.73865   -2968.1152    4.3426704    4.3426704    4.3426704   -2968.1152     5826.822   -13547.791   -1183.3769   -10893.037   -7221.2958   -7574.0375    81.897494 
   17200    654.32964   -113.33214   0.59205121   -112.74009     12400.99    4.3381221    4.3381221    4.3381221     12400.99    2166.6146     20098.97    14937.385   -16108.116    5240.3862    1754.3664    81.640437 
   17300    713.05008   -113.38226    0.6451827   -112.73708   -21936.918    4.3556949    4.3556949    4.3556949   -21936.918   -9153.2301    -25872.29   -30785.234    13515.445    9698.5075    196.31294    82.636586 
   17400    777.27336   -113.43722   0.70329327   -112.73393    16793.929    4.3237318    4.3237318    4.3237318    16793.929    27111.765    16269.764    7000.2579    571.50519   -9491.0586   -3933.4506    80.830682 
   17500    810.12842    -113.4795   0.73302122   -112.74648   -4965.1551    4.3453168    4.3453168    4.3453168   -4965.1551   -21507.217   -1113.8852    7725.6372   -14942.774   -7621.8553    793.87676    82.047309 
   17600    731.83803   -113.40191   0.66218243   -112.73972   -16251.951    4.3537199    4.3537199    4.3537199   -16251.951   -17437.505   -22444.432    -8873.916    5898.1124    8203.9461    6655.2892    82.524224 
   17700    552.36671   -113.23174   0.49979301   -112.73195    25463.036    4.3240983    4.3240983    4.3240983    25463.036    36165.239     1229.927    38993.943    13022.711    -4631.489    1386.0695    80.851235 
   17800    890.56818   -113.53876    0.8058048   -112.73296    -20311.42    4.3584221    4.3584221    4.3584221    -20311.42   -24069.308   -33378.042   -3486.9106   -7827.7874   -10432.217   -1004.2599    82.791903 
   17900    1089.8884   -113.71849   0.98615397   -112.73234    5499.9409     4.337008     4.337008     4.337008    5499.9409    172.23097   -13273.569    29601.161   -2016.1698    -642.9841    1895.0943    81.577551 
   18000    618.27796   -113.29819    0.5594309   -112.73876    14293.138    4.3280645    4.3280645    4.3280645    14293.138     25371.15   -16032.123    33540.388    14940.871    1491.1425    7408.7117    81.073918 
   18100    547.43004   -113.23429    0.4953262   -112.73896   -35936.626    4.3601417    4.3601417    4.3601417   -35936.626   -25828.311     -44389.5   -37592.066     3837.966   -13518.519   -3170.6121    82.889937 
   18200    1063.8325   -113.69584   0.96257799   -112.73326    19697.338    4.3272439    4.3272439    4.3272439    19697.338    6300.3344    21012.713    31778.965   -6648.7662   -9273.7035   -2044.5801    81.027813 
   18300    1057.1541   -113.69434   0.95653525   -112.73781    -1005.549    4.3437331    4.3437331    4.3437331    -1005.549   -9015.8307    -9075.948    15075.131    5866.8862    6275.1433    3036.9763    81.957632 
   18400    549.62208   -113.24014   0.49730961   -112.74283    -17923.49    4.3505512    4.3505512    4.3505512    -17923.49   -16298.847   -23525.445   -13946.179    5944.4394   -13428.245    -10448.48    82.344169 
   18500    589.12036   -113.27058   0.53304849   -112.73753    26742.248    4.3226455    4.3226455    4.3226455    26742.248    9435.5936    39730.216    31060.933   -2404.6587    -12247.43   -2041.8168    80.769771 
   18600    1042.8227   -113.68065   0.94356792   -112.73709   -10749.099    4.3520538    4.3520538    4.3520538   -10749.099   -29193.812    4045.1998   -7098.6843   -2526.0747    20501.279   -767.44061    82.429518 
   18700    983.86641   -113.62515     0.890223   -112.73493    3579.4099    4.3419525    4.3419525    4.3419525    3579.4099   -10614.731    6522.4744    14830.486    4391.9211   -3237.7003   -7001.1358    81.856882 
   18800    618.33071   -113.29751   0.55947862   -112.73803    8286.5745    4.3293384    4.3293384    4.3293384    8286.5745    7598.3274    23553.051   -6291.6554   -1905.5809   -14955.344   -4967.3596     81.14553 
   18900    494.21938   -113.19102   0.44718008   -112.74384   -12604.486    4.3470039    4.3470039    4.3470039   -12604.486   -30060.128    23689.316   -31442.645   -6176.9395      21277.9   -5.4002481    82.142908 
   19000    1018.5277   -113.65778   0.92158524    -112.7362    7564.5484    4.3421833    4.3421833    4.3421833    7564.5484   -10027.946    16180.976    16540.614    3965.8049    9839.7325   -490.11988    81.869935 
   19100     1095.585   -113.72763   0.99130832   -112.73632    5569.9497    4.3393503    4.3393503    4.3393503    5569.9497    -1853.296    52.933597    18510.211    2817.5928   -13352.575    -3583.619    81.709799 
   19200    467.40457   -113.17066   0.42291747   -112.74775    11384.449    4.3321895    4.3321895    4.3321895    11384.449   -13338.603    33389.854    14102.097   -3674.1105    10691.391    2293.1011    81.305953 
   19300    492.93238    -113.1988   0.44601558   -112.75279   -5539.1215    4.3470029    4.3470029    4.3470029   -5539.1215   -17171.393    3657.0056   -3102.9771   -845.86471    17596.524     6784.862    82.142853 
   19400     1090.019   -113.72577   0.98627208    -112.7395   -4144.5604    4.3442775    4.3442775    4.3442775   -4144.5604   -4510.6236   -20123.206    12200.149     10211.48   -8220.0079   -1076.0786    81.988449 
   19500    943.82716   -113.58986   0.85399465   -112.73586    19426.627    4.3252483    4.3252483    4.3252483    19426.627    3740.5335    23338.188     31201.16    2041.9832    13973.606    207.12716    80.915765 
   19600    572.49512   -113.26318   0.51800562   -112.74518   -22927.487    4.3498465    4.3498465    4.3498465   -22927.487    -22581.51   -10143.113   -36057.838   -326.13412    20733.332    6636.8554    82.304164 
   19700    559.09671   -113.24749   0.50588246    -112.7416   -9589.5982    4.3447114    4.3447114    4.3447114   -9589.5982   -1877.4206   -25844.594   -1046.7798    13003.564   -7806.9631    1934.7094    82.013017 
   19800    953.46288    -113.5955   0.86271325   -112.73279    10174.008    4.3314978    4.3314978    4.3314978    10174.008    3116.6565    -4859.883     32265.25    4432.3473    8617.9545   -3027.7274    81.267015 
   19900    1050.7118   -113.68397   0.95070609   -112.73327   -4794.9057    4.3421928    4.3421928    4.3421928   -4794.9057   -23591.954   -5750.4999    14957.737   -4018.5381    18367.765    4993.1351    81.870472 
   20000    428.68958   -113.13043   0.38788734   -112.74254   -4829.9484    4.3444126    4.3444126    4.3444126   -4829.9484   -14202.186   -26531.302    26243.643    9558.8851   -5226.5626    3968.1844    81.996102 
   20100     480.7394   -113.18174   0.43498312   -112.74676    -15041.21    4.3404129    4.3404129    4.3404129    -15041.21   -1636.5157   -39815.638   -3671.4759    12475.352   -8810.5254   -708.77217    81.769837 
   20200    1205.4625   -113.83204    1.0907278   -112.74131    11272.167       4.3275       4.3275       4.3275    11272.167    10860.292    609.83313    22346.375   -3574.4469    4942.2689   -6321.7919      81.0422 
   20300    1023.1372   -113.67392   0.92575602   -112.74817   -7631.1838    4.3479372    4.3479372    4.3479372   -7631.1838   -16111.694     -21999.9    15218.042    844.46071    1123.7033     1781.725    82.195828 
   20400    292.63635   -113.02103   0.26478352   -112.75625   -16006.825     4.346103     4.346103     4.346103   -16006.825   -6196.6924    -39180.49   -2643.2938    14395.927   -14929.924    248.18482    82.091849 
   20500    640.76921   -113.32561   0.57978145   -112.74583    18490.668    4.3252241    4.3252241    4.3252241    18490.668    22704.895    4641.4318    28125.676    566.55957   -2104.4911   -4683.7375    80.914403 
   20600    1039.1113   -113.67595    0.9402097   -112.73574    495.51152    4.3512272    4.3512272    4.3512272    495.51152    -12522.69   -5341.8831    19351.108   -6524.3032    2882.7979    4378.2262     82.38256 
   20700    873.02675   -113.52598   0.78993295   -112.73605   -4022.0154    4.3447897    4.3447897    4.3447897   -4022.0154   -13738.003    -12598.15    14270.107    5848.7429   -11706.327    881.83362    82.017455 
   20800    510.42192   -113.19872   0.46184048   -112.73688    8791.2285    4.3266504    4.3266504    4.3266504    8791.2285    18476.899    286.12735    7610.6595    5138.9611    -3713.345   -2721.1064    80.994476 
   20900    608.83443   -113.29562   0.55088619   -112.74473   -442.48793    4.3415532    4.3415532    4.3415532   -442.48793    121.08423   -4570.6228    3122.0748   -15009.242     7881.403    2221.9136    81.834299 
   21000    1138.7166   -113.76672    1.0303347   -112.73639    1211.6349    4.3486536    4.3486536    4.3486536    1211.6349   -12004.401    110.72299    15528.582   -4999.2679    3097.2082    232.77044    82.236468 
   21100    1081.5372   -113.71807   0.97859762   -112.73948    11285.802    4.3334435    4.3334435    4.3334435    11285.802    17936.353    2898.1501    13022.902    12465.119   -5706.0076   -3886.8994    81.376575 
   21200    376.94548   -113.09295    0.3410682   -112.75188    9651.8486    4.3303372    4.3303372    4.3303372    9651.8486    21879.216   -3443.4578    10519.788   -14180.551    6597.8528    1027.7273    81.201706 
   21300    671.52037   -113.35989   0.60760574   -112.75229   -13568.114    4.3519635    4.3519635    4.3519635   -13568.114   -23949.096   -23434.151    6678.9064   -19278.842     13693.72    185.88668    82.424389 
   21400    1382.4169   -113.98649    1.2508398   -112.73565    7547.6095      4.34148      4.34148      4.34148    7547.6095   -3330.1025    11328.096    14644.835    6623.7311   -6219.0704     -2216.85    81.830163 
   21500    875.73896   -113.53527   0.79238701   -112.74288    8896.0583    4.3323304    4.3323304    4.3323304    8896.0583    2928.9625    6774.7504    16984.462   -8655.9601    4038.4754    1547.0731    81.313884 
   21600    313.64764   -113.03185   0.28379498   -112.74806   -22112.879    4.3525371    4.3525371    4.3525371   -22112.879   -28839.149   -28045.699   -9453.7894   -19556.672    15917.152    1060.1187    82.456984 
   21700    1023.0267   -113.66732   0.92565608   -112.74166     3040.084    4.3363945    4.3363945    4.3363945     3040.084   -1198.6827    6074.1671    4244.7677    1486.0472   -3705.2401   -1116.0795    81.542941 
   21800    1352.3274   -113.96034    1.2236142   -112.73672    9393.0393    4.3296066    4.3296066    4.3296066    9393.0393    -333.7938    6187.3517     22325.56   -2497.5817   -2228.4297   -3845.5373    81.160609 
   21900    643.69255   -113.33094   0.58242654   -112.74851   -17653.282    4.3499709    4.3499709    4.3499709   -17653.282   -26008.971   -26153.237   -797.63899   -22463.258    15358.224    3054.2398    82.311222 
   22000    427.32907   -113.13341   0.38665632   -112.74675    362.71455     4.340604     4.340604     4.340604    362.71455     7486.734   -2033.2117   -4365.3787   -5172.8157    3572.3711    -729.5926    81.780639 
   22100    1060.7797   -113.69546   0.95981576   -112.73564   -1891.6631    4.3369063    4.3369063    4.3369063   -1891.6631   -2081.2353   -4328.8367    735.08261    5234.8292   -7741.5741   -9821.0037    81.571813 
   22200     922.0675   -113.56936   0.83430605   -112.73506    271.79153    4.3405636    4.3405636    4.3405636    271.79153   -19819.066      4401.88     16232.56   -20497.216    2439.5696    2947.8357    81.778358 
   22300    670.60217   -113.34646   0.60677494   -112.73968   -2029.3442    4.3415718    4.3415718    4.3415718   -2029.3442    -2627.167   -7152.9609    3692.0955   -7785.6249    5654.5274    3107.5883    81.835354 
   22400    505.39451   -113.19856   0.45729157   -112.74127    -6242.892     4.343181     4.343181     4.343181    -6242.892    4251.7146   -11219.238   -11761.152    8211.3332    -4929.224   -11739.567    81.926383 
   22500    807.94146   -113.46993   0.73104241   -112.73889    7812.5993    4.3346645    4.3346645    4.3346645    7812.5993   -7836.9869    6236.3196    25038.465   -12545.794   -7776.7561    3372.6485    81.445383 
   22600    1084.6976   -113.71899   0.98145714   -112.73754    6810.5241    4.3384406    4.3384406    4.3384406    6810.5241   -4823.7077   -12908.632    38163.912   -11146.151    2296.5205    3154.6293     81.65842 
   22700    688.12256   -113.36786   0.62262776   -112.74524   -6780.3907    4.3442732    4.3442732    4.3442732   -6780.3907    87.471035   -29240.332    8811.6887    6988.6433    1351.8222   -12516.648    81.988205 
   22800    341.00517   -113.05951   0.30854865   -112.75096     1729.489    4.3317676    4.3317676    4.3317676     1729.489    -265.5253   -7431.1771    12885.169   -5508.5988    -13300.49   -6390.7034    81.282201 
   22900    909.65706   -113.57055   0.82307683   -112.74747   -702.39394    4.3351529    4.3351529    4.3351529   -702.39394   -11811.604   -12690.244    22394.666    -13557.94    741.49008    4850.1224    81.472916 
   23000    1146.7857   -113.77505    1.0376358   -112.73741   -12824.659     4.352499     4.352499     4.352499   -12824.659   -16523.383   -22322.616    372.02211    5760.0682    9616.9109   -9752.2152    82.454818 
   23100    720.39197   -113.39474   0.65182579   -112.74291   -2162.5362    4.3345369    4.3345369    4.3345369   -2162.5362    1327.8782   -6297.7438    -1517.743     -1236.09   -14209.119   -12940.695    81.438192 
   23200    513.75788   -113.20808   0.46485892   -112.74322    2208.7054    4.3265794    4.3265794    4.3265794    2208.7054   -8686.4379    7680.8458    7631.7082   -16591.002   -398.51593    3525.5705    80.990494 
   23300    910.60204   -113.56614   0.82393186   -112.74221    -13187.89    4.3535094    4.3535094    4.3535094    -13187.89   -34271.416   -2544.7475   -2747.5077    1110.4115    17496.743    4839.0534    82.512254 
   23400    1300.1278   -113.91255     1.176383   -112.73617    10595.855    4.3337213    4.3337213    4.3337213    10595.855   -3038.8193    5843.4009    28982.984    3860.4064   -6446.3551    -1103.693    81.392226 
   23500    693.60555    -113.3729   0.62758888   -112.74531    7717.2047    4.3258325    4.3258325    4.3258325    7717.2047   -15227.759    15077.114    23302.259   -11306.315   -4445.2798   -3658.1037    80.948556 
   23600    286.34443   -113.01084   0.25909045   -112.75175   -19965.597    4.3517787    4.3517787    4.3517787   -19965.597   -47656.793    1940.1901   -14180.188   -6524.3474     18788.87    7982.6362    82.413891 
   23700    1116.7739   -113.75298    1.0104804    -112.7425    9232.5212    4.3335056    4.3335056    4.3335056    9232.5212   -4252.2205    8237.7262    23712.058     4085.909    4529.6314    4341.7191    81.380078 
   23800    1218.3095   -113.84103    1.1023521   -112.73867    8946.7618    4.3313329    4.3313329    4.3313329    8946.7618    -14378.08    7769.3304    33449.036   -9446.7248   -2119.1297   -2351.8402    81.257733 
   23900    556.04373   -113.25043   0.50312005   -112.74731   -16006.282    4.3458662    4.3458662    4.3458662   -16006.282   -41067.149   -2567.5675   -4384.1288   -13042.112    20362.267    8288.8552    82.078433 
   24000    564.42645   -113.25534   0.51070492   -112.74463    4354.9527    4.3341111    4.3341111    4.3341111    4354.9527    4855.1144    4659.9968    3549.7468    5144.3635    4972.7932    8573.5901    81.414195 
   24100    1001.5203   -113.64457    0.9061966   -112.73838   -3364.9949    4.3363016    4.3363016    4.3363016   -3364.9949   -5187.8214   -18134.399    13227.236   -1016.8384   -8144.1144   -5150.4862    81.537699 
   24200    880.82327   -113.53608   0.79698741    -112.7391   -628.50451    4.3370429    4.3370429    4.3370429   -628.50451    -17611.44   -3791.9405    19517.867   -14971.063    11402.027   -3270.6829    81.579522 
   24300    732.11571   -113.40236   0.66243368   -112.73992    4055.8046    4.3399945    4.3399945    4.3399945    4055.8046   -583.37101    2598.8118    10151.973   -1026.4068    11712.278    8161.6731    81.746194 
   24400    803.82053   -113.46617   0.72731371   -112.73886    -9994.933    4.3409092    4.3409092    4.3409092    -9994.933    5499.8348   -29595.573   -5889.0611    835.69841   -4206.8177   -2572.5846    81.797893 
   24500    636.73332   -113.31685   0.57612968   -112.74072    12685.993    4.3272961    4.3272961    4.3272961    12685.993      23613.7   -15398.811    29843.092    -14340.95   -2925.9397    -12704.89    81.030746 
   24600    784.78969   -113.45361    0.7100942   -112.74352    3302.4983    4.3429023    4.3429023    4.3429023    3302.4983   -3018.9816   -10831.553     23758.03   -6588.6418    14674.328    2172.7989    81.910614 
   24700    1025.4855   -113.66504   0.92788085   -112.73716   -6996.1631     4.344216     4.344216     4.344216   -6996.1631   -3442.9825   -24517.857    6972.3502    6815.4541    5473.4906    -682.0699    81.984966 
   24800    683.42094   -113.35685   0.61837363   -112.73848    16676.926    4.3240372    4.3240372    4.3240372    16676.926    41881.769   -13611.517    21760.527   -12342.553   -8581.5801   -10665.538     80.84781 
   24900    533.58716   -113.22907   0.48280087   -112.74627   -12776.494    4.3430924    4.3430924    4.3430924   -12776.494   -18749.037   -36216.362    16635.918   -9638.4288    9376.8375   -2509.6211    81.921368 
   25000    893.60833    -113.5474    0.8085556   -112.73884    -14013.45    4.3452429    4.3452429    4.3452429    -14013.45   -24259.665   -25217.089    7436.4046    19706.756    8814.4799    1215.7364    82.043122 
   25100    1048.9044   -113.68316   0.94907075   -112.73409    11212.764    4.3279544    4.3279544    4.3279544    11212.764    31290.974    1165.4716    1181.8455   -1924.7292   -4531.1203   -8778.3828    81.067731 
   25200    708.14421   -113.38472   0.64074376   -112.74398   -10373.228    4.3377326    4.3377326    4.3377326   -10373.228    2390.1264   -34535.631    1025.8218   -13771.274    2937.4313   -3120.2478    81.618445 
   25300    439.44772   -113.14563   0.39762153   -112.74801   -10248.606    4.3424559    4.3424559    4.3424559   -10248.606   -6859.5771   -31052.105    7165.8633     17427.65    11682.162     5672.509    81.885359 
   25400     958.6545   -113.60863   0.86741074   -112.74122    992.44352    4.3394383    4.3394383    4.3394383    992.44352        18485   -9173.5897   -6334.0797    9854.6362    1294.9063   -5069.8704     81.71477 
   25500    1130.5954   -113.76015    1.0229865   -112.73716    9771.0639    4.3305526    4.3305526    4.3305526    9771.0639    25279.023      816.421    3217.7481    -6535.981   -8408.6977   -6996.7441    81.213822 
   25600    530.82232   -113.22818   0.48029919   -112.74789   -670.56249    4.3392741    4.3392741    4.3392741   -670.56249    12012.161   -24345.171    10321.323    15136.913    8867.1598    5335.1332    81.705492 
   25700     614.8355   -113.29997   0.55631608   -112.74365   -18669.273    4.3483136    4.3483136    4.3483136   -18669.273   -21717.743   -24843.307   -9446.7679    13944.988    10261.703    953.48598    82.217179 
   25800     1013.164   -113.65252   0.91673204   -112.73579    13598.315    4.3236808    4.3236808    4.3236808    13598.315    12744.754    26817.964    1232.2253   -6140.2687    -24241.27   -2919.8424    80.827822 
   25900    985.09931   -113.63209   0.89133856   -112.74075    2371.8113    4.3373274    4.3373274    4.3373274    2371.8113    7595.5453    954.78611   -1434.8976    6089.0084   -7153.4766    329.82267    81.595575 
   26000     798.5923   -113.46402    0.7225831   -112.74144   -17525.819    4.3475731    4.3475731    4.3475731   -17525.819   -16636.067   -30013.774   -5927.6165     10678.66    16809.417    1257.0315     82.17518 
   26100    453.83262   -113.15312   0.41063729   -112.74249    13258.407    4.3244106    4.3244106    4.3244106    13258.407    4770.4535    32813.661    2191.1063   -4306.1061   -22641.137    4731.4033    80.868758 
   26200    909.24437   -113.56668   0.82270341   -112.74398    -4375.727    4.3410506    4.3410506    4.3410506    -4375.727    1455.1054    6939.3896   -21521.676   -9691.5456   -20239.399   -5955.2122    81.805885 
   26300    1309.9556   -113.92012    1.1852753   -112.73484    1005.8716    4.3410435    4.3410435    4.3410435    1005.8716    17552.882   -13196.362   -1338.9054     7523.204    11253.313   -4339.8034     81.80548 
   26400    621.07153   -113.30493   0.56195858   -112.74297    6578.9022    4.3327817    4.3327817    4.3327817    6578.9022    2410.6593    21661.553   -4335.5061    2702.8525   -21019.962    3625.9716    81.339299 
   26500     421.3743   -113.12851   0.38126832   -112.74724   -14007.183    4.3415248    4.3415248    4.3415248   -14007.183   -25939.585    9676.2321   -25758.195   -15010.059   -21012.986   -2833.8212    81.832697 
   26600    1111.5429   -113.74497    1.0057474   -112.73923    11089.288    4.3303176    4.3303176    4.3303176    11089.288    22779.984   -7343.2806    17831.162   -1640.6192    14324.716   -2893.6831      81.2006 
   26700    1047.9824   -113.68758    0.9482365   -112.73935    -3121.741    4.3429321    4.3429321    4.3429321    -3121.741     1549.295    1446.9925   -12361.511    411.01756   -18396.578   -1024.2819    81.912299 
   26800    646.39788   -113.32992   0.58487438   -112.74505   -6403.0418     4.337612     4.337612     4.337612   -6403.0418   -11831.343    7450.1512   -14827.933   -8933.8772   -27630.638    3604.4603    81.611639 
   26900    685.22664   -113.36171   0.62000746    -112.7417    7687.2065    4.3254333    4.3254333    4.3254333    7687.2065    7880.0888   -4766.0643    19947.595   -9847.9684    15106.821    -6461.222    80.926145 
   27000    826.00631   -113.48755   0.74738787   -112.74016   -15599.395    4.3488123    4.3488123    4.3488123   -15599.395   -12390.821   -17935.505   -16471.858    10283.497    1971.9964   -8913.7073    82.245468 
   27100    1001.5619   -113.64234   0.90623422    -112.7361    -5410.245    4.3359247    4.3359247    4.3359247    -5410.245     2766.975   -5484.7285   -13512.982    1104.7089   -21864.038    6506.7874    81.516439 
   27200    727.15911   -113.39564   0.65794885    -112.7377    855.11903    4.3268653    4.3268653    4.3268653    855.11903    -4002.936   -6633.3337    13201.627    -16238.98     1178.782    5623.9988     81.00655 
   27300    560.08523   -113.24966   0.50677689   -112.74288   -17657.637    4.3444112    4.3444112    4.3444112   -17657.637    -21149.64   -29523.012   -2300.2602    8937.9425     16465.77   -8276.3398    81.996021 
   27400    877.34179   -113.53286   0.79383729   -112.73903   -2422.0234    4.3375688    4.3375688    4.3375688   -2422.0234    16422.766   -22246.814   -1442.0225    13201.008   -1446.3647    2002.7113    81.609201 
   27500    963.31161   -113.60707   0.87162459   -112.73545    3912.7815    4.3329597    4.3329597    4.3329597    3912.7815    15526.066   -6559.6097    2771.8887    -12820.52   -8849.5364    14663.009    81.349326 
   27600     585.1653   -113.27115   0.52946986   -112.74168    702.86018     4.337913     4.337913     4.337913    702.86018    4421.5205   -11845.889    9532.9493   -67.427528    9928.0135   -2942.7264    81.628632 
   27700    569.86745   -113.25851   0.51562805   -112.74288   -4510.8336    4.3406221    4.3406221    4.3406221   -4510.8336    4970.9709   -27579.509    9076.0374    19553.525      6772.33    1793.3763    81.781659 
   27800    845.82934   -113.50339   0.76532416   -112.73807     2991.258    4.3369945    4.3369945    4.3369945     2991.258    25576.235   -18474.557    1872.0963   -1682.5286   -5926.0782    26000.905    81.576792 
   27900    1001.7396   -113.64175     0.906395   -112.73535    6213.5177    4.3326848    4.3326848    4.3326848    6213.5177     16974.98   -10544.334    12209.907   -2269.3513    6509.2061    3622.1148     81.33384 
   28000    551.76848   -113.24286   0.49925172   -112.74361    -9491.676    4.3422579    4.3422579    4.3422579    -9491.676   -23949.919   -28290.832    23765.723    18304.985    8371.5098   -1025.1905    81.874155 
   28100    535.79345   -113.22722   0.48479718   -112.74242   -8959.1629    4.3406855    4.3406855    4.3406855   -8959.1629    6917.7594   -31314.496   -2480.7522    2896.0541    3409.0527    24350.782    81.785247 
   28200    1085.3109   -113.71704   0.98201208   -112.73503     4873.371    4.3315084    4.3315084    4.3315084     4873.371    27252.837   -16458.945    3826.2207   -2196.0794   -3294.7048    9942.9462     81.26761 
   28300    1026.6534   -113.66774   0.92893759   -112.73881   -3209.9917    4.3378753    4.3378753    4.3378753   -3209.9917   -15316.584   -14570.533    20257.142    12826.888    2578.9009   -6813.1037    81.626503 
   28400    546.83501   -113.24272    0.4947878   -112.74794   -11948.989    4.3390417    4.3390417    4.3390417   -11948.989    2729.3149   -31502.386   -7073.8958    5894.1392     9210.907    21925.152    81.692365 
   28500     654.9888   -113.34037   0.59264763   -112.74773   -1497.9052     4.334732     4.334732     4.334732   -1497.9052    40662.043   -34573.095   -10582.664    -6946.146    -4848.824    10078.524    81.449188 
   28600      1228.66   -113.84862    1.1117174   -112.73691    382.83362    4.3391374    4.3391374    4.3391374    382.83362    6641.8682   -12922.076    7428.7089   -2162.0964    4064.7925   -17607.607    81.697771 
   28700    940.05014   -113.58944   0.85057712   -112.73886   -775.06689    4.3408877    4.3408877    4.3408877   -775.06689    18335.018   -9830.7013   -10829.517    6493.4214    8374.6607    16366.487    81.796673 
   28800     561.6216    -113.2509   0.50816702   -112.74273   -3128.4198     4.335521     4.335521     4.335521   -3128.4198     33180.91   -33315.634    -9250.536   -9059.9146   -1321.4227    21430.589    81.493671 
   28900    804.47902   -113.46979   0.72790952   -112.74188    2628.1845    4.3329667    4.3329667    4.3329667    2628.1845    24053.524   -24629.527    8460.5561   -12379.153    1878.6595   -21336.545    81.349717 
   29000    1044.3073   -113.68306   0.94491121   -112.73815    2944.2566       4.3394       4.3394       4.3394    2944.2566    24491.398   -7705.9754   -7952.6528    5547.0075    44.317258   -5064.9439    81.712605 
   29100    842.25436   -113.50182   0.76208945   -112.73973   -6753.3148    4.3407682    4.3407682    4.3407682   -6753.3148    14454.052   -20313.387   -14400.609    847.56993    4908.7064    25616.866    81.789922 
   29200    569.06066   -113.25636   0.51489805   -112.74146   -2271.6185    4.3316143    4.3316143    4.3316143   -2271.6185    12760.061   -28505.143    8930.2262   -11748.305   -3549.3535   -7199.8412    81.273571 
   29300    707.36335   -113.38158   0.64003722   -112.74154   -1392.6602    4.3370875    4.3370875    4.3370875   -1392.6602    13676.068   -25692.677    7838.6275   -1373.0485    3216.9959   -17734.568    81.582036 
   29400    960.18033   -113.60531   0.86879134   -112.73652   -13525.386    4.3447709    4.3447709    4.3447709   -13525.386   -6193.7332   -12757.255    -21625.17    9605.6847     15000.92    11112.636    82.016386 
   29500    770.38118   -113.43411   0.69705708   -112.73706    3123.4689     4.332869     4.332869     4.332869    3123.4689    14238.868   -57.820092   -4810.6415   -8284.8005   -6813.2145    1605.8352    81.344213 
   29600    658.10368   -113.33487   0.59546604    -112.7394    -2307.764    4.3345625    4.3345625    4.3345625    -2307.764    18284.875    -34597.41    9389.2428   -5928.1097     2133.152   -14811.311    81.439633 
   29700    690.95482   -113.36387   0.62519044   -112.73868   -7803.4367    4.3453432    4.3453432    4.3453432   -7803.4367    5075.1006   -21631.037   -6854.3737    13686.775     11218.98    442.06516    82.048806 
   29800     896.6993    -113.5459   0.81135237   -112.73455    7099.1737    4.3349875    4.3349875    4.3349875    7099.1737    17444.764    15185.263   -11332.506   -5802.2892   -8711.6291    3589.6062    81.463588 
   29900    844.69397   -113.49967   0.76429686   -112.73538    2811.1561    4.3350362    4.3350362    4.3350362    2811.1561    28118.991   -15986.056   -3699.4665   -4169.7541   -5629.9839    -11784.05    81.466337 
   30000    740.49616   -113.40901   0.67001649     -112.739   -3903.5105    4.3395229    4.3395229    4.3395229   -3903.5105    4284.9197   -19060.748    3065.2971     17775.46    11907.717   -3562.1195    81.719548 
   30100    754.79592   -113.42045   0.68295521   -112.73749    4975.7194    4.3378698    4.3378698    4.3378698    4975.7194    9897.7326    20106.736   -15077.311    6166.7734   -1909.9454    5457.9578    81.626192 
   30200    880.98777   -113.53047   0.79713625   -112.73334   -1473.9462     4.344011     4.344011     4.344011   -1473.9462    25733.362   -365.23413   -29789.967   -6546.2727   -17571.794   -5275.9811    81.973361 
   30300    963.23696   -113.60383   0.87155705   -112.73227    14579.224    4.3295277    4.3295277    4.3295277    14579.224    35059.264   -1321.7515    10000.158    16566.532    3735.4739   -6419.4213    81.156175 
   30400    687.54108   -113.36017   0.62210162   -112.73807    11402.108    4.3350056    4.3350056    4.3350056    11402.108    27353.968    14191.625   -7339.2692    13086.685   -2356.9536    3596.8376    81.464612 
   30500    560.69735   -113.24868   0.50733075   -112.74135    -12975.96    4.3479298    4.3479298    4.3479298    -12975.96   -3890.6044    11369.876   -46407.153   -11432.386   -21119.788   -1477.0817    82.195408 
   30600     993.1086   -113.63337   0.89858553   -112.73478    18742.712    4.3236989    4.3236989    4.3236989    18742.712    29800.045    25479.591    948.49869    5556.4747   -1250.8408   -6587.3251    80.828839 
   30700     1041.608   -113.68042   0.94246881   -112.73796    2467.3499    4.3376801    4.3376801    4.3376801    2467.3499    9113.0613    1338.1002   -3049.1119    12668.237   -3275.0781    5199.9353    81.615486 
   30800    434.70833    -113.1359   0.39333323   -112.74257   -15909.376    4.3485264    4.3485264    4.3485264   -15909.376   -21289.743    10030.234   -36468.618   -2380.8945   -20416.526    4961.5702    82.229252 
   30900    711.57767    -113.3798   0.64385043   -112.73595    13956.633    4.3277613    4.3277613    4.3277613    13956.633    19140.147    30113.452   -7383.6996   -4335.3525    4250.8043   -4743.6615    81.056883 
   31000     1193.943   -113.81058    1.0803047   -112.73027    4063.1591    4.3376916    4.3376916    4.3376916    4063.1591    22339.782   -4194.0384   -5956.2657     1497.462    7342.1776    6249.6883    81.616131 
   31100    673.74237   -113.34814   0.60961625   -112.73853    5415.9236    4.3387711    4.3387711    4.3387711    5415.9236    24804.748    7350.3256   -15907.303    713.15401   -22673.587    10079.468    81.677082 
   31200    536.20447   -113.22842   0.48516907   -112.74326    -5613.606    4.3374717    4.3374717    4.3374717    -5613.606   -11301.199     20782.15   -26321.768   -6935.5693    1824.3993   -1057.2492    81.603723 
   31300    913.64337    -113.5646   0.82668372   -112.73791     4460.271    4.3346386    4.3346386    4.3346386     4460.271    8618.6089    3479.1203    1283.0839   -7860.4278     17987.36    2710.6945    81.443922 
   31400    1018.6035    -113.6561   0.92165384   -112.73445    5258.5117    4.3376355    4.3376355    4.3376355    5258.5117    25742.488   -7078.6586   -2888.2946    5066.8943   -12917.028    12929.825    81.612965 
   31500    706.76136   -113.37731   0.63949253   -112.73781    -19478.35     4.345915     4.345915     4.345915    -19478.35   -24642.468    515.09205   -34307.676    -4047.533   -4809.3698    2841.1534      82.0812 
   31600    672.05743   -113.34425   0.60809169   -112.73616    6063.2091    4.3263862    4.3263862    4.3263862    6063.2091   -1296.3942    13422.205    6063.8166   -13366.982    16627.211   -1545.4623    80.979645 
   31700    893.58716   -113.54603   0.80853644    -112.7375   -3140.6617    4.3391876    4.3391876    4.3391876   -3140.6617    19162.706   -24100.082   -4484.6093    1879.2196   -1902.8049    17844.694    81.700605 
   31800    949.49979   -113.59289   0.85912736   -112.73376   -13904.977    4.3472033    4.3472033    4.3472033   -13904.977   -1276.8947    -10972.72   -29465.316    8888.9268   -4956.4046    9542.7425    82.154217 
   31900    758.28432   -113.41852   0.68611158   -112.73241    12930.122    4.3283193    4.3283193    4.3283193    12930.122    13981.643    30044.294   -5235.5711   -11431.368    13136.182   -5376.9606    81.088242 
   32000    738.14948   -113.40262   0.66789316   -112.73473   -9420.4433    4.3428616    4.3428616    4.3428616   -9420.4433   -2058.2167   -18189.349   -8013.7643    1357.8441    3407.9307    11802.533    81.908308 
   32100    750.23407   -113.41198   0.67882755   -112.73316   -3111.3024    4.3401339    4.3401339    4.3401339   -3111.3024    10630.773   -8517.6418   -11447.039     10723.67   -5572.5147    8865.3971     81.75407 
   32200    872.50558   -113.52088   0.78946139   -112.73142    5040.6669    4.3357345    4.3357345    4.3357345    5040.6669    10603.002    15772.502   -11253.503   -6003.3041    11455.312   -12278.265     81.50571 
   32300    856.73728    -113.5064    0.7751939    -112.7312   -6406.1689    4.3425066    4.3425066    4.3425066   -6406.1689   -9464.0858   -8495.5685   -1258.8525    803.05162    5513.6039    2992.5894    81.888227 
   32400    528.30384   -113.21419   0.47802041   -112.73617    9773.5126    4.3334248    4.3334248    4.3334248    9773.5126    16209.977   -7585.6565    20696.217    16974.681   -5754.7035    14141.349    81.375521 
   32500    669.22653     -113.343   0.60553023   -112.73747   -6879.0823    4.3444256    4.3444256    4.3444256   -6879.0823    1818.7995   -13418.843   -9037.2033    261.93384    8884.2463   -13070.495    81.996838 
   32600    964.41475   -113.60569   0.87262273   -112.73306    4543.1495    4.3358081    4.3358081    4.3358081    4543.1495    -184.4706    8945.9678    4867.9512    -2049.653    10963.775   -14303.649    81.509864 
   32700     880.5379   -113.53209    0.7967292   -112.73536    12889.718    4.3303987    4.3303987    4.3303987    12889.718    13605.867   -11440.422    36503.709    14768.035   -7562.9172    17273.157    81.205164 
   32800    432.39098      -113.13   0.39123644   -112.73876   -16205.098    4.3527865    4.3527865    4.3527865   -16205.098    1512.4333   -39697.991   -10429.736    6354.0483    8410.1257    1270.4261    82.471159 
   32900    935.95251   -113.57729    0.8468695   -112.73042    6673.3098    4.3330776    4.3330776    4.3330776    6673.3098    10238.675    6344.8326    3436.4214   -3895.3605    12815.965   -18570.198    81.355964 
   33000    1164.3322   -113.78066    1.0535123   -112.72714    6296.4419    4.3311006    4.3311006    4.3311006    6296.4419    528.73646   -5740.1722    24100.761    8374.7747   -8913.5039    9204.9046     81.24466 
   33100    642.88572   -113.31875   0.58169651   -112.73705   -18656.454    4.3461455    4.3461455    4.3461455   -18656.454   -1279.6636   -37602.045   -17087.654    13062.525     2747.501    12893.568    82.094258 
   33200     701.4179   -113.37195   0.63465765   -112.73729    3570.5652    4.3325464    4.3325464    4.3325464    3570.5652    15390.555   -7808.7566    3129.8977   -2387.5485     13614.61   -12415.365     81.32605 
   33300    1111.0708   -113.73689    1.0053202   -112.73157   -2016.5788    4.3402648    4.3402648    4.3402648   -2016.5788   -14978.351   -9392.0403    18320.655   -14614.978   -6007.2039    709.29514    81.761469 
   33400    909.18204   -113.55588   0.82264702   -112.73323   -2065.4849    4.3385315    4.3385315    4.3385315   -2065.4849   -720.26677   -7300.4363    1824.2483    12199.042   -6767.9554    10913.067     81.66355 
   33500    707.94669   -113.37501   0.64056504   -112.73444    4091.6195    4.3354301    4.3354301    4.3354301    4091.6195    9869.3835   -5409.2975    7814.7726    5375.0988    9700.8853   -7457.5349    81.488544 
   33600    773.65468   -113.43455   0.70001901   -112.73454    -5332.954    4.3413914    4.3413914    4.3413914    -5332.954   -23888.279   -10960.965    18850.382   -26495.448    404.03085   -5648.4165    81.825151 
   33700    931.24872   -113.57432   0.84261341   -112.73171    7514.1912    4.3326183    4.3326183    4.3326183    7514.1912   -4609.5729    19162.921    7989.2255   -1092.8621   -13529.972    4672.1964    81.330094 
   33800    889.41212    -113.5385   0.80475877   -112.73374   -5318.4231     4.340925     4.340925     4.340925   -5318.4231   -7325.4667   -7710.8031   -918.99961    13611.228    3587.8591   -1981.5778    81.798785 
   33900     442.8994   -113.13988   0.40074469   -112.73914   -6705.0375    4.3396186    4.3396186    4.3396186   -6705.0375   -20219.145   -25632.113    25736.145   -25159.076    3732.0953   -8976.4419    81.724953 
   34000    761.50225   -113.42681   0.68902324   -112.73778   -1413.7966    4.3334842    4.3334842    4.3334842   -1413.7966   -9126.7929    315.20403    4570.1992   -20716.017   -14718.323   -2529.4853    81.378868 
   34100    1139.2436   -113.76305    1.0308115   -112.73224   -3783.3723    4.3393856    4.3393856    4.3393856   -3783.3723   -6890.1384   -2931.8198   -1528.1587    15945.211   -6468.2116    2617.9861    81.711791 
   34200     651.3247   -113.33043   0.58933227    -112.7411    -1175.465    4.3336914    4.3336914    4.3336914    -1175.465   -8255.5006    -24509.89    29238.995   -19214.843    8593.5446   -5784.8305    81.390546 
   34300    426.84803   -113.13136   0.38622107   -112.74514   -9427.9341     4.341304     4.341304     4.341304   -9427.9341    -1724.629   -25660.396   -898.77756    -29936.21   -11446.297   -5723.5596    81.820211 
   34400    1153.8248   -113.77522    1.0440049   -112.73122   -6462.3062    4.3437749    4.3437749    4.3437749   -6462.3062      3568.82   -10510.837   -12444.902    10032.174   -9688.1873    5996.9854    81.959999 
   34500    950.78812    -113.5892   0.86029307   -112.72891    441.95154    4.3330806    4.3330806    4.3330806    441.95154   -479.19779   -28456.241    30261.293   -23586.262     6769.355   -5354.4222    81.356134 
   34600    509.85321   -113.19753    0.4613259   -112.73621   -6994.5023    4.3387868    4.3387868    4.3387868   -6994.5023    83.054007   -37167.045    16100.485   -26804.028   -5700.5882   -6059.3922    81.677969 
   34700    855.14499   -113.50696   0.77375316    -112.7332   -5984.6074    4.3401841    4.3401841    4.3401841   -5984.6074    2112.8349   -14297.939   -5768.7183    10066.034   -15090.629    10695.569    81.756909 
   34800    878.98221   -113.52895   0.79532158   -112.73363    7387.7032    4.3319795    4.3319795    4.3319795    7387.7032     6718.869   -22331.889     37776.13   -18539.038    126.00723      5899.99    81.294127 
   34900    865.94331   -113.51917   0.78352371   -112.73565     4055.893    4.3372429    4.3372429    4.3372429     4055.893    -8707.155     -28198.2    49073.034   -23831.005   -2113.8792   -7437.8212    81.590808 
   35000    764.43215    -113.4267   0.69167427   -112.73503   -3285.8087    4.3430016    4.3430016    4.3430016   -3285.8087   -4194.6866   -23421.063    17758.324    10378.238    -14363.78    3078.3526    81.916234 
   35100    625.62769    -113.3035   0.56608108   -112.73742    -5440.191    4.3358696    4.3358696    4.3358696    -5440.191    6763.2737   -29938.529    6854.6819    -10587.57     -8777.86    13291.813    81.513329 
   35200    875.59823   -113.52711   0.79225968   -112.73485    3020.9544    4.3299464    4.3299464    4.3299464    3020.9544   -6350.6826   -19866.801    35280.347   -25501.442    6264.4127   -519.84252    81.179721 
   35300    943.45533   -113.58962   0.85365821   -112.73597   -11465.034      4.34183      4.34183      4.34183   -11465.034   -18969.007   -16273.439    847.34329    8734.8333    -725.1021    1790.9819    81.849952 
   35400    613.62123    -113.2963   0.55521738   -112.74108    -9145.017    4.3391075    4.3391075    4.3391075    -9145.017    17888.927   -22207.744   -23116.234    2618.7904   -18810.782    12403.991    81.696084 
   35500    843.51775   -113.49887   0.76323258   -112.73563    5648.4549    4.3300522    4.3300522    4.3300522    5648.4549    10589.338   -6643.3989    12999.425   -22475.496     4755.901    2505.5148    81.185673 
   35600    911.87462   -113.55794   0.82508332   -112.73286    -5971.359    4.3443048    4.3443048    4.3443048    -5971.359   -3496.0768   -15090.053    672.05286    3227.9926    15683.893   -4493.0934    81.989999 
   35700    630.49581    -113.3057   0.57048586   -112.73521    -4331.262    4.3400364    4.3400364    4.3400364    -4331.262    25670.137    -19288.67   -19375.254    13414.144   -16721.066    11854.036    81.748564 
   35800    859.04117   -113.50953   0.77727851   -112.73225    15797.108    4.3257389    4.3257389    4.3257389    15797.108     23873.78    2803.9358    20713.609   -9696.8708   -11369.692    7263.6407    80.943302 
   35900    1007.3108   -113.64665   0.91143601   -112.73521    435.67355    4.3405071    4.3405071    4.3405071    435.67355    2479.9304   -5244.8052    4071.8954   -1975.7138    26596.465   -6131.7295     81.77516 
   36000     686.3826   -113.35938    0.6210534   -112.73833   -7025.6126    4.3424701    4.3424701    4.3424701   -7025.6126    1413.6232   -11985.412   -10505.049    12869.921    5397.2861    7323.5889    81.886162 
   36100    795.47023   -113.45468   0.71975818   -112.73492     7744.116    4.3297482    4.3297482    4.3297482     7744.116    8940.4161   -885.41405    15177.346    1490.4011   -30447.429     12612.52    81.168572 
   36200    1011.9884   -113.64759    0.9156684   -112.73192   -2750.3333    4.3404199    4.3404199    4.3404199   -2750.3333   -236.61979    1253.1743   -9267.5544   -6355.4607    16147.221   -2816.4229    81.770233 
   36300    734.54781   -113.39785   0.66463429   -112.73321   -4881.2899    4.3409838    4.3409838    4.3409838   -4881.2899   -1206.0821    309.54042   -13747.328     7364.909    23805.323    493.96593     81.80211 
   36400     596.8686   -113.27661   0.54005925   -112.73655   -2649.9785    4.3339298    4.3339298    4.3339298   -2649.9785    9710.6952   -4864.9458   -12795.685    6446.9715   -31407.693    12377.434    81.403978 
   36500    890.77249   -113.54142   0.80598967   -112.73543   -98.037004    4.3345168    4.3345168    4.3345168   -98.037004    14968.317    5480.9916   -20743.419    -5047.307   -10064.485    5146.2512    81.437059 
   36600     999.3202   -113.63929   0.90420592   -112.73508     3870.564    4.3374151    4.3374151    4.3374151     3870.564    12203.124    7299.2462   -7890.6783    3805.5989    27384.316   -3035.6854    81.600526 
   36700    506.55438   -113.19855   0.45834105   -112.74021   -12693.648    4.3448873    4.3448873    4.3448873   -12693.648   -2189.1569   -8134.1997   -27757.586    11136.954   -22445.429    8637.2037    82.022982 
   36800    716.69532   -113.38474   0.64848099   -112.73626   -18.334641    4.3333074    4.3333074    4.3333074   -18.334641    18057.522   -542.11565    -17570.41   -3087.4207   -29289.642     8330.778     81.36891 
   36900    1320.4498   -113.92502    1.1947707   -112.73025    3792.3051    4.3335303    4.3335303    4.3335303    3792.3051    7862.6441    3976.2632    -461.9921   -10343.688    17222.788   -5760.1841    81.381466 
   37000    765.97358   -113.43441   0.69306899   -112.74134   -8070.5979    4.3424363    4.3424363    4.3424363   -8070.5979     1811.362   -4412.8909   -21610.265    13814.446   -11016.568    3999.8002    81.884247 
   37100    361.83967   -113.07331   0.32740014   -112.74591   -5349.7344    4.3383297    4.3383297    4.3383297   -5349.7344    11603.561    673.24141   -28326.006    7046.0853   -32273.334    10306.262    81.652157 
   37200     1144.717   -113.77064     1.035764   -112.73487   -374.66592     4.337821     4.337821     4.337821   -374.66592    643.29279   -3349.5222    1582.2317   -15977.667    5470.1538   -3861.5865    81.623435 
   37300    1000.2266   -113.63806   0.90502607   -112.73303    5540.1466    4.3362797    4.3362797    4.3362797    5540.1466    15043.447   -3528.7973    5105.7905    6646.9063   -1237.1891    2541.0726    81.536459 
   37400    373.31283   -113.08098    0.3377813    -112.7432   -12366.762    4.3409715    4.3409715    4.3409715   -12366.762   -5441.1319   -9380.8167   -22278.338    12283.174   -28599.807    11650.699    81.801411 
   37500    746.06227   -113.41482   0.67505282   -112.73976   -2274.6425     4.334106     4.334106     4.334106   -2274.6425   -5257.3065    885.17388   -2451.7949   -10793.059   -2922.1783    1859.8149    81.413903 
   37600    1014.2965   -113.65325   0.91775678   -112.73549    6823.7032    4.3335553    4.3335553    4.3335553    6823.7032    9406.4612    4682.6542    6381.9942   -6394.6756    19972.354   -1915.9476    81.382874 
   37700    623.31806   -113.30541   0.56399128   -112.74142   -11637.011    4.3429252    4.3429252    4.3429252   -11637.011   -8558.4203   -2586.0198   -23766.594      11677.1   -20577.278    10123.032    81.911907 
   37800    651.75562   -113.32714   0.58972218   -112.73742    3122.3653     4.334465     4.334465     4.334465    3122.3653    2668.3709    6861.7418   -163.01695    3493.5116   -19721.955     4621.412     81.43414 
   37900    914.67101   -113.55858   0.82761355   -112.73097   -603.69448    4.3383002    4.3383002    4.3383002   -603.69448   -3912.0837    2545.6299    -444.6296    -9306.012    30487.481   -3264.1126    81.650493 
   38000    737.35045   -113.39985   0.66717019   -112.73268     -3794.72    4.3401092    4.3401092    4.3401092     -3794.72    -10472.67   -1444.6746    533.18506    2721.7868   -179.48299    5447.8251    81.752676 
   38100    760.96489   -113.42302   0.68853702   -112.73449    6256.8541    4.3318857    4.3318857    4.3318857    6256.8541    6439.1957    2967.1194    9364.2471    9046.2142   -32061.748    8127.0976    81.288849 
   38200    807.96702   -113.46663   0.73106554   -112.73557    2660.9134    4.3361515    4.3361515    4.3361515    2660.9134   -55.787615    4818.7337    3219.7942     1051.814    17254.401   -1376.6675    81.529233 
   38300     808.5957   -113.46849   0.73163438   -112.73686   -726.89471    4.3396284    4.3396284    4.3396284   -726.89471   -10693.861   -2477.6601    10990.837   -8148.0672    22794.537    1871.0243    81.725509 
   38400    911.77104   -113.55949    0.8249896   -112.73451    1820.9221    4.3359337    4.3359337    4.3359337    1820.9221    4343.0538   -2751.5945    3871.3069    2537.4906   -20276.785    10856.839    81.516948 
   38500    835.38975   -113.49051    0.7558782   -112.73463    4896.8142    4.3322551    4.3322551    4.3322551    4896.8142    7664.9994    2786.0315    4239.4117    11914.085   -1687.6808    3697.3291    81.309647 
   38600    640.73367   -113.31919   0.57974929   -112.73944   -2701.5835    4.3399801    4.3399801    4.3399801   -2701.5835   -9953.4225   -7260.7981    9109.4702   -8147.8734    31214.754   -3848.1948    81.745382 
   38700    901.43798   -113.55077   0.81564003   -112.73513   -4605.0462    4.3399517    4.3399517    4.3399517   -4605.0462    10137.128   -13683.884   -10268.383   -13652.073    2029.1934    11203.988    81.743774 
   38800    992.72896   -113.63069   0.89824202   -112.73245    12974.946    4.3287282    4.3287282    4.3287282    12974.946    31313.685    1449.2705    6161.8817    10272.166   -10159.625    5565.1756    81.111224 
   38900    659.38399   -113.33682   0.59662449    -112.7402   -6028.2649    4.3398287    4.3398287    4.3398287   -6028.2649   -4393.4758   -11655.412   -2035.9072   -753.94562    21222.541   -7621.1806    81.736824 
   39000    558.85638   -113.24679   0.50566499   -112.74112   -6625.0355    4.3415152    4.3415152    4.3415152   -6625.0355    3270.4083   -18205.627   -4939.8882   -26058.332    14750.237    10426.756    81.832153 
   39100    1168.2508   -113.78751    1.0570579   -112.73045    11003.209    4.3328338    4.3328338    4.3328338    11003.209    32352.058   -5247.1143     5904.683   -1023.1949   -7782.9552    4913.1498    81.342231 
   39200    962.00569   -113.60374   0.87044297    -112.7333   -6405.4734    4.3422231    4.3422231    4.3422231   -6405.4734    -4531.975    -8805.245   -5879.2001    3991.1647     19487.05   -6885.2194    81.872187 
   39300    464.23543   -113.16018   0.42004997   -112.74013   -7763.1761    4.3369849    4.3369849    4.3369849   -7763.1761   -13386.973   -9823.4066    -79.14889    -26005.95     18956.88     3693.788     81.57625 
   39400    874.38143   -113.52945   0.79115869   -112.73829    8126.0661    4.3306146    4.3306146    4.3306146    8126.0661    18152.809    -12637.85     18863.24   -10949.315   -10536.323    10707.905    81.217311 
   39500    1111.3584   -113.74114    1.0055805   -112.73556    -1158.695    4.3388211    4.3388211    4.3388211    -1158.695     10397.88   -4741.6684    -9132.297    5647.6627    3405.6542    191.31843    81.679908 
   39600    617.66218   -113.30139   0.55887372   -112.74251   -2794.0931    4.3365531    4.3365531    4.3365531   -2794.0931   -8472.5091   -1402.8826    1493.1124   -19648.034    20414.555   -5997.3645    81.551886 
   39700     702.9329   -113.37592   0.63602846   -112.73989   -5549.4878    4.3359039    4.3359039    4.3359039   -5549.4878   -11123.896   -15777.376    10252.808   -18608.656    1641.2627    12596.644    81.515267 
   39800     963.1163   -113.60537   0.87144787   -112.73392    2429.0409    4.3362992    4.3362992    4.3362992    2429.0409     3938.465   -158.90804    3507.5658    7885.7044   -18358.867    4524.4379     81.53756 
   39900    651.84865   -113.32838   0.58980635   -112.73857   -7155.5851    4.3360575    4.3360575    4.3360575   -7155.5851   -14535.908    3022.1102   -9952.9574   -10518.815    10576.199   -8586.6854    81.523926 
   40000    538.22817   -113.22728   0.48700016   -112.74028   -12162.339    4.3386759    4.3386759    4.3386759   -12162.339   -26166.889   -11212.827    892.69896   -27727.334    20386.325     1331.932    81.671706 
   40100    1052.3059   -113.68422   0.95214849   -112.73207    -825.2125    4.3353459    4.3353459    4.3353459    -825.2125    1347.2353    1287.6804   -5110.5532    4665.9956   -21078.961    3837.1831    81.483799 
   40200    736.76036   -113.40327   0.66663626   -112.73663   -1631.7997    4.3371731    4.3371731    4.3371731   -1631.7997   -11294.702    3401.6219    2997.6812   -395.85418   -2370.7355    -1061.284    81.586866 
   40300    426.96501   -113.13023   0.38632692    -112.7439   -10382.964    4.3365156    4.3365156    4.3365156   -10382.964   -31380.177   -4277.4407    4508.7254   -26730.529    29601.615   -6942.6441    81.549771 
   40400    950.59833   -113.60011   0.86012135   -112.73999    4709.0975    4.3328754    4.3328754    4.3328754    4709.0975   -2461.8432     9254.125    7335.0108   -6070.8847   -55.848614    1457.4849    81.344577 
   40500    1223.5916   -113.84327    1.1071314   -112.73614    285.81888    4.3386462    4.3386462    4.3386462    285.81888   -7122.4934    5949.0249    2030.9251    5376.8155   -10203.008    8729.9047    81.670028 
   40600    410.44118   -113.12024    0.3713758   -112.74887    -3985.847    4.3363253    4.3363253    4.3363253    -3985.847   -30250.218    5438.5488    12854.128   -21576.307    23634.615    -5313.966    81.539032 
   40700    642.49176   -113.32843   0.58134004   -112.74709   -1917.1392     4.334833     4.334833     4.334833   -1917.1392   -10370.169    4230.3592    388.39185   -12570.367    20715.615   -4462.8197     81.45488 
   40800    1362.4169   -113.96656    1.2327434   -112.73382    2184.7626    4.3390482    4.3390482    4.3390482    2184.7626    858.27583    353.83269    5342.1792    12507.518   -9666.8145    1447.3539    81.692734 
   40900    787.08851    -113.4542   0.71217423   -112.74203    795.33167    4.3354602    4.3354602    4.3354602    795.33167   -6039.7162    3204.0833    5221.6279   -16261.405    12225.243      2177.69     81.49024 
   41000    346.40712   -113.06038   0.31343644   -112.74695   -5934.1096    4.3359188    4.3359188    4.3359188   -5934.1096   -13111.106    5376.1715   -10067.394   -21259.057    26936.783   -8755.8801    81.516106 
   41100    1047.9226   -113.68738   0.94818235    -112.7392    2025.1368    4.3346417    4.3346417    4.3346417    2025.1368    1622.2519    4412.3445    40.814109    11676.784   -3458.1741   -10094.526    81.444096 
   41200    1075.5606   -113.71096   0.97318983   -112.73777    6560.1818    4.3344019    4.3344019    4.3344019    6560.1818    18185.577   -789.48002    2284.4479   -1741.9557    2390.3642      13582.8    81.430584 
   41300     424.4546   -113.13113   0.38405544   -112.74707   -2713.4136    4.3380954    4.3380954    4.3380954   -2713.4136     -12611.4    17838.741   -13367.582   -20769.642    26712.376   -4283.3087    81.638927 
   41400    682.34221   -113.35925   0.61739757   -112.74186    4083.8741    4.3346085    4.3346085    4.3346085    4083.8741   -2983.4095    16551.487   -1316.4555   -5404.7148    6729.4092   -15992.763    81.442224 
   41500    1104.1924   -113.73237   0.99909645   -112.73327    2496.3985    4.3369716    4.3369716    4.3369716    2496.3985    12258.326   -7460.7686    2691.6377    8323.2271   -11202.205      7867.09    81.575501 
   41600    612.74224    -113.2949   0.55442205   -112.74048   -6411.1957    4.3366939    4.3366939    4.3366939   -6411.1957   -16884.306    5141.0945   -7490.3758   -10505.057    21015.316    4224.4982    81.559829 
   41700     517.3907   -113.21146   0.46814597   -112.74331    -1161.933    4.3329495    4.3329495    4.3329495    -1161.933   -8604.0548    9194.7588   -4076.5028   -19215.525    21750.065   -13431.334    81.348752 
   41800    1096.8048   -113.72858   0.99241208   -112.73617   -3075.5008    4.3378729    4.3378729    4.3378729   -3075.5008    6864.2462   -9774.3804   -6316.3682    9428.4583   -14940.282   -9716.6422    81.626366 
   41900    829.55281   -113.48939   0.75059681   -112.73879   -1611.4408    4.3358273    4.3358273    4.3358273   -1611.4408   -7333.9306    13675.746   -11176.138     3611.124    7481.4738    9256.3512    81.510946 
   42000    426.99003   -113.13126   0.38634955   -112.74491   -7357.5162    4.3362041    4.3362041    4.3362041   -7357.5162   -6666.9712   -3076.2019   -12329.376   -17429.567    27203.609   -5280.5694    81.532198 
   42100    933.16072   -113.58383   0.84434343   -112.73949   -125.69217    4.3369434    4.3369434    4.3369434   -125.69217    17027.262   -17310.973   -93.366319   -7995.4419   -3924.4604   -17461.989    81.573909 
   42200    1190.4587   -113.81094    1.0771521   -112.73378    8520.4614    4.3331801    4.3331801    4.3331801    8520.4614    15949.766    15233.727   -5622.1091    2930.0409   -209.32275    8288.3856    81.361737 
   42300    526.42294   -113.22176   0.47631854   -112.74545   -8631.3567    4.3407677    4.3407677    4.3407677   -8631.3567    -6831.318    2424.7121   -21487.464   -8773.3163    26020.913    2113.0063    81.789894 
   42400    604.78459   -113.29042   0.54722181    -112.7432   -5481.2811    4.3357659    4.3357659    4.3357659   -5481.2811    4847.7871   -19952.935   -1338.6953   -17036.028    8405.7197   -15412.487    81.507481 
   42500    1216.1642   -113.83455    1.1004109   -112.73414    10560.058    4.3306111    4.3306111    4.3306111    10560.058    19078.835    7011.2612    5590.0771     2890.319   -6274.5271   -3776.2858    81.217114 
   42600    937.60443   -113.58704   0.84836419   -112.73868   -6875.2766    4.3426972    4.3426972    4.3426972   -6875.2766    -1849.765    6302.2997   -25078.365    531.26961    21902.988    3791.3649    81.899012 
   42700    477.04923   -113.17506   0.43164417   -112.74342   -5612.1419    4.3337906    4.3337906    4.3337906   -5612.1419    2959.4414   -13893.733   -5902.1344   -22133.828    15328.554   -8182.3698    81.396134 
   42800    703.03392    -113.3779   0.63611986   -112.74178    7652.3594    4.3306826    4.3306826    4.3306826    7652.3594    14196.463   -3015.6594    11776.274    5261.2558   -8265.5909   -13564.207    81.221135 
   42900    1114.7024   -113.74234    1.0086061   -112.73374   -2736.9512    4.3423386    4.3423386    4.3423386   -2736.9512    7545.7626    -2689.463   -13067.153        16299     7278.044     4237.689     81.87872 
   43000     700.3473   -113.37218   0.63368895   -112.73849   -996.93514    4.3363194    4.3363194    4.3363194   -996.93514    7292.6858    -2705.695   -7577.7962   -22305.821    15899.499   -5408.3133      81.5387 
   43100    401.88458   -113.10556   0.36363361   -112.74193   -2713.3443    4.3318098    4.3318098    4.3318098   -2713.3443    -697.2013   -18675.354    11232.522   -5542.6556   -1247.0856   -20570.909    81.284572 
   43200    883.87036   -113.53679   0.79974448   -112.73705    2126.5307     4.336801     4.336801     4.336801    2126.5307    4903.7385   -285.64337    1761.4969    18802.208   -5629.3859    3355.3568    81.565872 
   43300    1008.8495   -113.64739   0.91282827   -112.73456   -1027.9347    4.3389531    4.3389531    4.3389531   -1027.9347    7315.8535    2450.7698   -12850.427   -8430.2062     7257.442      2548.15    81.687361 
   43400    563.55653   -113.25092   0.50991779   -112.74101    2456.9123    4.3315144    4.3315144    4.3315144    2456.9123    6614.9419   -10847.236    11603.031   -20361.481    3943.7555   -16462.506    81.267946 
   43500    645.06143    -113.3251   0.58366514   -112.74144    1014.0744    4.3348178    4.3348178    4.3348178    1014.0744    9488.0287   -15321.712    8875.9066     8607.963   -7326.9059   -3412.6816    81.454025 
   43600    963.28765   -113.60609   0.87160291   -112.73448   -1221.7796    4.3418591    4.3418591    4.3418591   -1221.7796     5759.563    9488.1709   -18913.073    11956.921    -7266.495    11281.245    81.851599 
   43700    908.97472    -113.5566   0.82245943   -112.73414    3894.3962    4.3311151    4.3311151    4.3311151    3894.3962    15182.149   -4403.9018    904.94111   -17668.516    3618.8202    309.06175    81.245474 
   43800     663.9866   -113.33952   0.60078903   -112.73873    1819.3423      4.33251      4.33251      4.33251    1819.3423    2391.4474   -13040.001    16106.581   -9421.8662   -4007.2539   -12972.647       81.324 
   43900    767.99328   -113.43289   0.69489646     -112.738   -9622.0749    4.3417295    4.3417295    4.3417295   -9622.0749   -6735.2286   -2194.9638   -19936.032    14376.368    -20940.47    10062.783    81.844271 
   44000     921.9245   -113.56819   0.83417666   -112.73401    430.85175    4.3342395    4.3342395    4.3342395    430.85175    15371.293   -1512.3586   -12566.379   -1439.4924   -3834.7377    13307.584     81.42143 
   44100    882.44768   -113.53238   0.79845721   -112.73393   -4305.5905    4.3343842    4.3343842    4.3343842   -4305.5905    2573.2218   -16346.111     856.1176   -20104.818     3589.304   -19286.891    81.429583 
   44200    649.20246   -113.32378   0.58741203   -112.73637   -12685.391    4.3391375    4.3391375    4.3391375   -12685.391   -17594.717   -5774.4366    -14687.02    3016.8553    -20941.47    3232.0115    81.697779 
   44300    759.96758   -113.42572   0.68763464   -112.73809   -6029.8474    4.3333843    4.3333843    4.3333843   -6029.8474    4932.8039   -6984.3355   -16038.011    11765.271   -8834.2096    30214.249    81.373241 
   44400    974.91695   -113.61855   0.88212534   -112.73642    516.56292    4.3329277    4.3329277    4.3329277    516.56292    13229.745   -11322.986   -357.07034   -10099.661    8846.3243   -6598.4415     81.34752 
   44500    789.42261   -113.45369   0.71428617   -112.73941   -4873.9219    4.3386464    4.3386464    4.3386464   -4873.9219   -6202.5266   -5587.5986   -2831.6404   -8599.4463   -12541.381   -15326.478    81.670041 
   44600    582.05134    -113.2678   0.52665228   -112.74115   -1395.6653    4.3382924    4.3382924    4.3382924   -1395.6653    3689.7662   -5251.3015   -2625.4604    7676.4457   -12588.369    25785.944    81.650053 
   44700    948.26002   -113.59137   0.85800559   -112.73337    6426.9742    4.3336175    4.3336175    4.3336175    6426.9742    19625.107     1368.428   -1712.6125    4882.4884    2300.7788    14412.465    81.386381 
   44800    929.17946   -113.57414    0.8407411    -112.7334    7847.6055    4.3350957    4.3350957    4.3350957    7847.6055   -82.672494    12060.612    11564.877   -10584.663   -1892.3372   -20253.305    81.469693 
   44900    518.84017   -113.21126   0.46945749    -112.7418   -2547.8743    4.3376754    4.3376754    4.3376754   -2547.8743    3199.5207   -10245.776   -597.36746   -6790.9306   -14193.727    10632.034    81.615217 
   45000    693.49091   -113.36941   0.62748515   -112.74192    8893.9533    4.3327942    4.3327942    4.3327942    8893.9533    18836.599    13304.919   -5459.6582    11636.254   -6093.5875    28077.145    81.340004 
   45100    1104.9912   -113.73644   0.99981927   -112.73662    8342.2363    4.3340915    4.3340915    4.3340915    8342.2363    6479.6142     3836.631    14710.464   -506.77077    8259.6061   -9751.6561    81.413089 
   45200    680.43203   -113.35759    0.6156692   -112.74192    1019.7297    4.3380245    4.3380245    4.3380245    1019.7297    16448.484     -10551.9   -2837.3946    -14632.33   -9064.0569   -6426.6933    81.634926 
   45300    443.37075   -113.14485   0.40117117   -112.74368   -2674.1358     4.337564     4.337564     4.337564   -2674.1358    17481.481   -10435.908   -15067.981    3583.9087   -11256.701    26347.075    81.608931 
   45400    963.50608   -113.60779   0.87180055   -112.73599    3892.7177    4.3353283    4.3353283    4.3353283    3892.7177    9396.9765   -10712.903    12994.079    14683.404    4343.5022    4530.2224    81.482806 
   45500    1023.4599      -113.66     0.926048   -112.73395    7324.3853    4.3332533    4.3332533    4.3332533    7324.3853    11325.877     773.3708    9873.9084   -10248.429   -4114.7546   -6433.8862     81.36586 
   45600    492.72703   -113.18948   0.44582977   -112.74365   -10065.372    4.3385634    4.3385634    4.3385634   -10065.372   -579.95798    -22795.64   -6820.5173   -7307.9667   -12811.899    20406.526    81.665352 
   45700    558.03162    -113.2494   0.50491873   -112.74448   -5500.4023    4.3348927    4.3348927    4.3348927   -5500.4023    2222.4166   -30340.781    11617.158    30414.491   -4596.5384    14082.887    81.458244 
   45800    1141.3629   -113.77034    1.0327292   -112.73761    9881.2401    4.3307644    4.3307644    4.3307644    9881.2401    6686.2915    3708.0623    19249.366    5221.6756    6431.4596   -4772.7781    81.225739 
   45900    896.13743   -113.55221   0.81084398   -112.74137   -4718.6544    4.3407469    4.3407469    4.3407469   -4718.6544   -2786.8699   -14224.926    2855.8329   -15232.294   -4875.3004    10604.313    81.788716 
   46000    374.06021   -113.08293   0.33845754   -112.74447   -11948.811    4.3378293    4.3378293    4.3378293   -11948.811    881.25904   -37749.732    1022.0411    23869.112    -10975.85    21886.834    81.623907 
   46100    875.41272   -113.53133   0.79209183   -112.73924    1611.5358    4.3315379    4.3315379    4.3315379    1611.5358    11386.123   -12965.011    6413.4957    22230.273     8701.359   -10317.304    81.269267 
   46200    1194.1637   -113.81337    1.0805044   -112.73287     14.20582    4.3374886    4.3374886    4.3374886     14.20582    5995.7313   -1588.1076   -4365.0062    -8078.963    -1844.787   -3844.0838    81.604673 
   46300    642.08439   -113.32477   0.58097145    -112.7438    -7228.705    4.3358847    4.3358847    4.3358847    -7228.705    7968.6786    -23270.63   -6384.1637    10863.583   -12937.732    28611.256    81.514182 
   46400    492.02479   -113.19209   0.44519437    -112.7469   -6247.0298    4.3334287    4.3334287    4.3334287   -6247.0298      10347.4   -23113.364   -5975.1255    30679.536   -1813.6861   -4712.8295    81.375745 
   46500    1093.1333   -113.72669   0.98909002    -112.7376   -1292.3281    4.3370368    4.3370368    4.3370368   -1292.3281    16111.089   -7502.2989   -12485.774   -5132.9056   -121.95177   -23877.712    81.579175 
   46600    987.90865   -113.63013   0.89388051   -112.73625   -1847.5273    4.3372458    4.3372458    4.3372458   -1847.5273    8345.0979   -5905.4715   -7982.2083    6545.2815   -5.1143867    13587.749    81.590974 
   46700    472.52323   -113.16936   0.42754895   -112.74182   -3714.7992    4.3349798    4.3349798    4.3349798   -3714.7992   -1277.9064    -10317.61    451.11902    32192.647   -7304.8747    10935.121    81.463157 
   46800    796.84751   -113.46142   0.72100438   -112.74041     -2513.37    4.3350032    4.3350032    4.3350032     -2513.37    8585.6641   -16334.474    208.69992   -3228.4716    856.05884   -24074.228    81.464479 
   46900    1095.9429    -113.7264   0.99163217   -112.73476      7450.46    4.3347733    4.3347733    4.3347733      7450.46    17381.021    1640.0733    3330.2862    -4849.271    5206.8907   -9376.7981    81.451513 
   47000     790.4018   -113.45482   0.71517216   -112.73965    3081.7052    4.3364037    4.3364037    4.3364037    3081.7052   -5056.1059    2563.3897    11737.832    26603.658   -10567.723    11441.563    81.543458 
   47100    591.03359   -113.27499   0.53477961   -112.74021   -4586.8964    4.3382713    4.3382713    4.3382713   -4586.8964    2388.8598   -25795.697    9646.1481    10824.612   -2479.9431    -11358.75    81.648859 
   47200    889.34806   -113.53919   0.80470082   -112.73449    8635.1637    4.3321408    4.3321408    4.3321408    8635.1637    12468.089    1891.0655    11546.336   -16165.683    3029.4282   -19034.818    81.303212 
   47300    948.35072   -113.59279   0.85808766    -112.7347    4059.1813    4.3367143    4.3367143    4.3367143    4059.1813   -14868.176    6678.8511    20366.869    10513.556   -1352.2217    4376.7354    81.560983 
   47400    755.32881   -113.42017   0.68343738   -112.73673    -1042.883    4.3378287    4.3378287    4.3378287    -1042.883   -842.80849   -20584.264    18298.424    23611.492   -840.86185    15.644079    81.623869 
   47500    643.50021   -113.31996   0.58225251   -112.73771    1344.7412    4.3300778    4.3300778    4.3300778    1344.7412    10199.948   -4791.8302   -1373.8943   -13580.844     652.4804   -19835.082    81.187114 
   47600    696.11939   -113.36914   0.62986345   -112.73928    -6491.311    4.3388578    4.3388578    4.3388578    -6491.311   -25386.482   -4282.6102    10195.159   -10345.744    9703.0131   -526.06628    81.681982 
   47700    1027.2723   -113.66229   0.92949755   -112.73279   -4648.2356    4.3375817    4.3375817    4.3375817   -4648.2356   -19421.306   -12071.043    17547.643    20485.766      2303.48    2528.9796     81.60993 
   47800    647.30113     -113.323   0.58569167   -112.73731    1209.0589    4.3306854    4.3306854    4.3306854    1209.0589    24761.862   -20700.192   -434.49322    -3559.747   -4697.6335    -16397.67    81.221294 
   47900    484.38392   -113.18127   0.43828075   -112.74299   -12726.734    4.3369341    4.3369341    4.3369341   -12726.734   -14252.182   -27709.481     3781.462   -25271.078    10894.166   -4674.4813     81.57338 
   48000    986.12191   -113.62933   0.89226383   -112.73707    3025.9007    4.3359568    4.3359568    4.3359568    3025.9007   -23414.379    -2478.369     34970.45    2110.6245    7044.9799    1255.1697    81.518248 
   48100    960.48601   -113.60715   0.86906792   -112.73808    1452.3545    4.3343682    4.3343682    4.3343682    1452.3545    6827.7225   -15527.513    13056.854    6136.3892    -7277.124   -5988.2156    81.428682 
   48200    387.97908   -113.09724   0.35105163   -112.74619    -5735.384    4.3354662    4.3354662    4.3354662    -5735.384    102.92303   -40806.717    23497.642   -24606.072    3156.4783   -9425.8541     81.49058 
   48300    844.72012   -113.50623   0.76432051   -112.74191    1172.6898    4.3365906    4.3365906    4.3365906    1172.6898   -13315.531   -19491.118    36324.718   -18612.809    8776.4614    4658.4979    81.553999 
   48400    1244.4456    -113.8601    1.1260005    -112.7341    3750.2594    4.3344859    4.3344859    4.3344859    3750.2594   -820.25394    2790.7442     9280.288    8579.6642   -7416.3003    10.857338    81.435314 
   48500    544.23928   -113.23621   0.49243914   -112.74377   -4706.0114    4.3355519    4.3355519    4.3355519   -4706.0114   -234.78954   -33911.762    20028.518   -19509.393   -6581.1952   -11961.553    81.495416 
   48600    644.79828   -113.32632   0.58342704   -112.74289   -14177.833    4.3380418    4.3380418    4.3380418   -14177.833   -12522.423   -39376.101    9365.0243   -24594.709    6080.5475    5934.9393    81.635902 
   48700    1127.7261   -113.75539    1.0203902     -112.735    1801.1148    4.3327873    4.3327873    4.3327873    1801.1148   -857.88808    1135.7233    5125.5092    16678.306   -4615.6405    2440.0328    81.339617 
   48800     890.3603   -113.54422   0.80561671    -112.7386   -6002.3776    4.3353179    4.3353179    4.3353179   -6002.3776   -14931.874   -11316.038    8240.7786   -9199.1835   -8703.1681   -5711.1382     81.48222 
   48900    612.81148   -113.29537   0.55448471   -112.74088   -7814.9216    4.3394811    4.3394811    4.3394811   -7814.9216   -6587.7125    -33186.29    16329.237   -32507.594    1808.2948    5287.3759    81.717185 
   49000    894.93986   -113.54553    0.8097604   -112.73577   -1986.9847    4.3352298    4.3352298    4.3352298   -1986.9847   -1364.6006   -11427.984    6831.6303    18907.638    772.88628    3693.0552    81.477253 
   49100     865.1157   -113.51725   0.78277487   -112.73448    4228.4611     4.333671     4.333671     4.333671    4228.4611   -8536.8594    6914.7249    14307.518    15863.452   -9241.2542   -1846.6727    81.389393 
   49200    820.51078   -113.47796    0.7424154   -112.73554   -3316.8603    4.3393925    4.3393925    4.3393925   -3316.8603   -14069.733   -10748.444    14867.596    -31312.61   -3273.3564   -2104.5582    81.712183 
   49300    707.61428   -113.37695   0.64026428   -112.73668     3622.573    4.3354711    4.3354711    4.3354711     3622.573    12185.748   -21571.685    20253.655    1130.7374    3866.9392    2631.5332    81.490859 
   49400    741.86847   -113.40933   0.67125818   -112.73807    7704.2954    4.3320864    4.3320864    4.3320864    7704.2954    909.79597   -2266.3761    24469.466    35261.893   -6193.1671    3568.4598    81.300148 
   49500     934.2564   -113.58076   0.84533482   -112.73543    2612.2392    4.3386395    4.3386395    4.3386395    2612.2392   -11544.208   -1672.7698    21053.696   -13683.552   -6195.7315   -5173.9919     81.66965 
   49600    790.69488   -113.45165   0.71543734   -112.73621   -142.31939    4.3378053    4.3378053    4.3378053   -142.31939    5495.9652   -21972.627    16049.704   -13222.719    5587.6476    1174.2978    81.622552 
   49700    420.96433   -113.12225   0.38089737   -112.74135   -6587.5675    4.3354988    4.3354988    4.3354988   -6587.5675    -2309.675   -30894.069    13441.042    37080.303   -242.32862     6301.652    81.492421 
   49800    839.91496   -113.49888   0.75997271   -112.73891    959.42544    4.3354848    4.3354848    4.3354848    959.42544    2897.9654   -14091.852    14072.163    7574.4397    -8221.906   -6279.6246    81.491628 
   49900    1178.9604   -113.80094    1.0667481   -112.73419    3423.0543    4.3344541    4.3344541    4.3344541    3423.0543    4617.7576   -7303.9048     12955.31   -10022.919   -1568.9897    2664.8274    81.433521 
   50000    432.79878   -113.13836   0.39160543   -112.74676   -10317.294    4.3390338    4.3390338    4.3390338   -10317.294    1129.0867   -47780.409     15699.44    30067.245    6558.4349    4828.6175     81.69192 
   50100    489.86249   -113.18964   0.44323788    -112.7464   -9346.0429    4.3357169    4.3357169    4.3357169   -9346.0429     10233.15   -38989.411    718.13279    16093.926   -8946.7877   -1894.3114    81.504716 
   50200    1130.2921   -113.75834    1.0227121   -112.73562    6553.7408    4.3329664    4.3329664    4.3329664    6553.7408    7403.1495    1393.2813    10864.792   -10292.914   -10350.148   -2691.2121    81.349699 
   50300    879.68357   -113.53493   0.79595618   -112.73897   -7513.2631    4.3409137    4.3409137    4.3409137   -7513.2631    -9663.186   -25337.908    12461.305    20189.016    8284.7539    2357.3731    81.798145 
   50400    462.94421   -113.16134   0.41888165   -112.74246    -8044.373    4.3372451    4.3372451    4.3372451    -8044.373    7783.0913   -33536.111     1619.901     22542.17   -1546.9133     933.8846    81.590934 
   50500    876.96104   -113.53149   0.79349278     -112.738    401.65316    4.3301179    4.3301179    4.3301179    401.65316    728.60713   -2732.7507    3209.1031    -16469.98   -14375.805   -6517.9437    81.189366 
   50600    928.24628   -113.57647   0.83989674   -112.73658   -1912.1515     4.340265     4.340265     4.340265   -1912.1515   -20185.275   -3515.7445    17964.565   -3884.1067    2938.6852    2530.2015    81.761482 
   50700    741.75073   -113.40756   0.67115165   -112.73641   -11638.084    4.3442518    4.3442518    4.3442518   -11638.084   -14667.308   -19988.322   -258.62148    27004.347    7537.6259    2039.7179    81.986994 
   50800    808.12738   -113.46433   0.73121064   -112.73311     6397.986    4.3279241    4.3279241    4.3279241     6397.986    7092.7372   -2057.0754    14158.296   -4127.5342   -7582.0126   -1061.0115    81.066033 
   50900    889.12292   -113.53973    0.8044971   -112.73523     3962.339    4.3342423    4.3342423    4.3342423     3962.339   -16026.443    4568.1728    23345.287   -25109.579   -4707.8699     1827.505    81.421584 
   51000    793.50592    -113.4555   0.71798083   -112.73751   -13592.221    4.3447599    4.3447599    4.3447599   -13592.221   -35225.699   -6628.7419    1077.7789    14742.388    11682.234    587.74622    82.015767 
   51100    783.96456    -113.4459   0.70934761   -112.73655    7155.5706    4.3281391    4.3281391    4.3281391    7155.5706    4867.1317     5621.393    10978.187    15868.183    4044.9076    7134.4459    81.078113 
   51200    818.65004   -113.47914   0.74073176    -112.7384   -65.564505    4.3362407    4.3362407    4.3362407   -65.564505   -7335.7004   -14037.227    21176.234   -28008.462   -6013.9484   -1794.4019     81.53426 
   51300    817.34304   -113.47379   0.73954916   -112.73424   -10552.466    4.3457514    4.3457514    4.3457514   -10552.466   -31041.459   -11671.676    11055.738   -6977.3731    7917.1002   -4016.1155    82.071931 
   51400    866.06014   -113.51514   0.78362941   -112.73151    7853.3013    4.3275457    4.3275457    4.3275457    7853.3013    152.97715    8953.8658    14453.061    23072.661    10303.831    8570.9636    81.044771 
   51500    696.47061   -113.36781   0.63018124   -112.73763   -9223.3975    4.3366599    4.3366599    4.3366599   -9223.3975    96.010062   -32002.013    4235.8103   -18225.173   -2845.5991    850.53386    81.557909 
   51600    756.90579   -113.42239   0.68486426   -112.73752   -11790.096    4.3409127    4.3409127    4.3409127   -11790.096   -16778.551    -30287.34    11695.605   -28787.901    1494.1377   -6261.2138    81.798091 
   51700    1137.0204   -113.76074       1.0288   -112.73194    6181.6267    4.3320186    4.3320186    4.3320186    6181.6267   -2612.0051    8968.8707    12188.014    14117.968     9033.487    -351.4163    81.296331 
   51800    792.06237   -113.45455   0.71667468   -112.73788    -11606.81    4.3397554    4.3397554    4.3397554    -11606.81   -6132.5664   -29179.068    491.20382   -8728.3069    923.84301    4954.5637    81.732685 
   51900    476.35262   -113.17335   0.43101386   -112.74234   -7322.5245    4.3351162    4.3351162    4.3351162   -7322.5245    3607.8751    -45445.68    19870.232   -32088.089   -3823.6149   -6804.3091    81.470848 
   52000    989.69858   -113.63187   0.89550007   -112.73637   -1249.6298    4.3384752    4.3384752    4.3384752   -1249.6298   -804.03416   -8536.3273    5591.4719    2378.0685    11009.501   -12627.619    81.660373 
   52100    1085.7695   -113.71674   0.98242705   -112.73432   -3728.0106    4.3364382    4.3364382    4.3364382   -3728.0106   -13671.929   -7945.8587    10433.756    -3797.508    8076.3882    6692.8414      81.5454 
   52200    447.00411   -113.14739   0.40445871   -112.74293    5107.5103    4.3287456    4.3287456    4.3287456    5107.5103   -3846.9405   -21582.611    40752.082   -31949.645   -8328.2905   -3408.8648    81.112201 
   52300    647.31831    -113.3286   0.58570721    -112.7429   -12479.108    4.3438472    4.3438472    4.3438472   -12479.108   -9174.4176   -29847.693    1584.7873   -2862.0898     6956.348   -17538.133    81.964089 
   52400    1021.7143   -113.65818   0.92446853   -112.73372    9374.9424    4.3337638    4.3337638    4.3337638    9374.9424   -128.21995    5585.3063    22667.741    9219.0775     8724.953    3441.5667    81.394623 
   52500    635.56565   -113.31332   0.57507316   -112.73825    4136.5042    4.3307994    4.3307994    4.3307994    4136.5042   -21867.234    3490.0131    30786.734   -26584.225   -9085.8647    1760.1535    81.227707 
   52600    517.54497   -113.20799   0.46828556   -112.73971   -10926.025    4.3430571    4.3430571    4.3430571   -10926.025   -15591.518   -16086.819   -1099.7375   -16856.651   -1973.6838   -12582.066    81.919375 
   52700    1030.5543   -113.66355   0.93246717   -112.73109    6502.9078    4.3330892    4.3330892    4.3330892    6502.9078   -2301.7334    4428.2554    17382.201    16587.108     3476.159    795.71851    81.356621 
   52800     749.1421   -113.41344   0.67783952    -112.7356    289.33716     4.336009     4.336009     4.336009    289.33716   -21127.353   -2137.9761    24133.341   -6317.5774   -3352.1021    1974.5414    81.521195 
   52900    557.90646   -113.24527   0.50480549   -112.74046   -4393.5332    4.3347636    4.3347636    4.3347636   -4393.5332   -6865.3598   -10825.125    4509.8853    -23409.39   -5706.4508   -8443.0446    81.450969 
   53000    891.47179   -113.54328   0.80662241   -112.73666    5202.8987    4.3342313    4.3342313    4.3342313    5202.8987    8058.7739   -2931.7334    10481.656    8245.1838   -2435.7944   -8327.5822    81.420965 
   53100     985.7539   -113.62668   0.89193085   -112.73475   -7289.9625    4.3401936    4.3401936    4.3401936   -7289.9625   -29013.375    -11608.29    18751.778     16697.68    5038.2706    1201.8744    81.757445 
   53200    680.72251   -113.35346   0.61593204   -112.73752    8531.5142    4.3300825    4.3300825    4.3300825    8531.5142    418.26058    7178.0924     17998.19   -16787.685   -5713.1555   -5379.1976     81.18738 
   53300    755.98259   -113.42058   0.68402893   -112.73655   -1058.3149    4.3393507    4.3393507    4.3393507   -1058.3149    13190.837   -8691.7943   -7673.9872   -4897.9789   -3957.4475   -17385.782    81.709818 
   53400    917.10917   -113.56267   0.82981965   -112.73285   -1476.3218    4.3382011    4.3382011    4.3382011   -1476.3218   -18698.014     3204.954    11064.095    26721.068    9058.6183    912.05949    81.644898 
   53500    784.36422   -113.44288   0.70970923   -112.73318    11194.912    4.3295265    4.3295265    4.3295265    11194.912    -7732.675    13287.968    28029.445   -7284.8472   -3027.0635    2535.0861    81.156106 
   53600    757.19226   -113.42058   0.68512347   -112.73546   -9005.3885    4.3398161    4.3398161    4.3398161   -9005.3885   -3563.7637   -10358.413   -13093.988   -16563.973    -3641.636   -27356.882    81.736112 
   53700     783.0913   -113.44354   0.70855746   -112.73498    3765.0998    4.3324823    4.3324823    4.3324823    3765.0998    1084.0023    12644.554   -2433.2566    20864.409    6591.8313    -7167.028     81.32244 
   53800    826.08925   -113.48312   0.74746291   -112.73566   -7594.4265    4.3361847    4.3361847    4.3361847   -7594.4265   -22890.817   -8366.3324    8473.8699    4756.4275     2236.474    9187.5127    81.531105 
   53900    629.40007   -113.30648   0.56949441   -112.73699   -7366.4573    4.3376958    4.3376958    4.3376958   -7366.4573   -1013.4862   -17740.109   -3345.7772   -21671.393   -2517.9073   -26327.352    81.616368 
   54000    800.56656   -113.46001   0.72436945   -112.73564    3399.5427    4.3324989    4.3324989    4.3324989    3399.5427    6336.9294    14178.807   -10317.109    1078.6235    1910.7406    -18440.03    81.323374 
   54100    1045.0454   -113.67703   0.94557908   -112.73145   -3868.9547    4.3384398    4.3384398    4.3384398   -3868.9547   -12304.075    4030.3454   -3333.1341    13040.636    7410.9211    11848.546    81.658376 
   54200    538.46013   -113.22682   0.48721004   -112.73961    994.62466    4.3319841    4.3319841    4.3319841    994.62466   -2300.4452    8428.7135   -3144.3943   -16393.443    360.57713   -16603.548    81.294388 
   54300    466.47855   -113.16745   0.42207959   -112.74537    -6813.761    4.3389564    4.3389564    4.3389564    -6813.761    8260.5274   -3374.3802    -25327.43   -16707.176   -903.61072   -26713.073    81.687547 
   54400    1188.8523    -113.8105    1.0756985    -112.7348    9303.3862    4.3324642    4.3324642    4.3324642    9303.3862    6179.7052     24324.55   -2594.0963     10497.78    7734.1293    11034.838    81.321419 
   54500    907.41601   -113.56059   0.82104908   -112.73954     528.5155     4.333556     4.333556     4.333556     528.5155   -4026.0603    9051.7146   -3440.1077    -11475.97   -1311.2147   -11932.401    81.382916 
   54600    316.04213   -113.03282   0.28596156   -112.74686   -23751.941    4.3427179    4.3427179    4.3427179   -23751.941   -326.61062    -41849.32   -29079.891   -22078.873   -804.23013   -34348.749    81.900181 
   54700    923.04952   -113.57258   0.83519461   -112.73738    11059.397    4.3253553    4.3253553    4.3253553    11059.397    19977.751    18833.616   -5633.1757    6227.0154    6086.9048     12474.28     80.92177 
   54800     1117.844   -113.74508    1.0114488   -112.73364   -5762.1265    4.3422423    4.3422423    4.3422423   -5762.1265   -8897.8482   -1648.8989   -6739.6323    2070.9375    2076.5366    3439.8358    81.873272 
   54900     646.4165   -113.32688   0.58489123   -112.74199   -7105.1733    4.3354854    4.3354854    4.3354854   -7105.1733    4445.5528   -17391.885   -8369.1879   -17214.456   -2809.4343   -36117.731    81.491661 
   55000    763.71212   -113.42969   0.69102277   -112.73866    12404.639    4.3274587    4.3274587    4.3274587    12404.639    19355.433    15035.565    2822.9173   -9290.0176   -936.26595   -2989.0074    81.039879 
   55100    1171.8244   -113.79027    1.0602913   -112.72998   -13847.992    4.3467937    4.3467937    4.3467937   -13847.992   -14818.828   -12277.885   -14447.262    14935.145    3954.1823    18402.587    82.130997 
   55200    670.12801   -113.34396    0.6063459   -112.73761    13048.162    4.3246445    4.3246445    4.3246445    13048.162    20069.645   -4129.6839    23204.523    2654.3108    -2726.266   -24292.047    80.881881 
   55300    747.38153   -113.41868   0.67624651   -112.74244   -2957.0456    4.3354147    4.3354147    4.3354147   -2957.0456    5173.6481   -18310.056    4265.2707   -25866.604   -1279.7825   -21620.003    81.487678 
   55400    1165.0971   -113.78623    1.0542044   -112.73202   -5663.9885    4.3426755    4.3426755    4.3426755   -5663.9885   -9458.1733   -11635.335    4101.5431    4198.0352    5183.9114    14880.126    81.897784 
   55500    798.96571   -113.45833   0.72292096   -112.73541    14263.351    4.3244092    4.3244092    4.3244092    14263.351    16202.379   -3524.1202    30111.794    22748.526   -1126.7216   -10901.019    80.868678 
   55600    434.96187   -113.13658   0.39356264   -112.74301   -18767.974    4.3422992    4.3422992    4.3422992   -18767.974    -13750.67    -43319.08    765.82815    -28591.85   -1196.8656   -26703.196    81.876491 
   55700    1047.9672   -113.68349   0.94822277   -112.73527    93.675063    4.3346085    4.3346085    4.3346085    93.675063   -1204.2186   -6884.9654    8370.2092   -18192.458   -1797.1687     2951.199    81.442225 
   55800    1191.4518   -113.81118    1.0780506   -112.73313    6793.5878    4.3290258    4.3290258    4.3290258    6793.5878     12787.24   -4725.2851    12318.808    20634.306   -1785.9335   -3899.0951    81.127952 
   55900    321.85861   -113.03949   0.29122443   -112.74827   -14241.701    4.3395127    4.3395127    4.3395127   -14241.701   -2855.1561   -51177.455    11307.509   -21430.721    1447.1165   -24425.604     81.71897 
   56000    612.38296   -113.30155   0.55409697   -112.74745   -1469.8721    4.3323553    4.3323553    4.3323553   -1469.8721    16009.115   -30273.912    9855.1806   -28924.421    -2949.162   -4426.1838    81.315286 
   56100    1282.2455    -113.8948    1.1602027    -112.7346    3498.2152    4.3357818    4.3357818    4.3357818    3498.2152    20869.623   -6198.6792   -4176.2977    10191.552    1962.2153    13742.554    81.508377 
   56200    755.93131   -113.42614   0.68398253   -112.74215   -469.53314    4.3349691    4.3349691    4.3349691   -469.53314    22597.127   -26820.836    2815.1094   -16827.242    1043.7874   -14593.585    81.462555 
   56300    402.58008   -113.10883   0.36426292   -112.74456   -5344.9109    4.3358777    4.3358777    4.3358777   -5344.9109     10122.95   -39773.723    13616.039   -33467.492   -4682.2732   -14130.976    81.513786 
   56400    1027.2663   -113.66657   0.92949215   -112.73708   -2178.1804     4.334551     4.334551     4.334551   -2178.1804    19217.014   -17010.356   -8741.1991    7755.9753    570.28843     26156.99    81.438983 
   56500    1056.3583   -113.69098   0.95581518   -112.73517    6020.3741    4.3310827    4.3310827    4.3310827    6020.3741    16640.453   -3474.5586    4895.2276   -2845.0996    782.82784    2830.5627    81.243649 
   56600      669.407   -113.34758   0.60569352   -112.74188   -13418.262     4.339532     4.339532     4.339532   -13418.262   -17217.882    -30730.57    7693.6657    -38508.52   -1819.7303   -20228.335    81.720061 
   56700    782.09749   -113.44732   0.70765825   -112.73966   -521.04928    4.3313107    4.3313107    4.3313107   -521.04928     9821.731   -15270.682     3885.803   -4111.8207   -1744.9457    14102.916    81.256484 
   56800    1070.6926   -113.70365   0.96878521   -112.73486    2855.2412    4.3331802    4.3331802    4.3331802    2855.2412    6606.4791   -3700.9204    5660.1649    14189.748   -346.07248    16108.496    81.361743 
   56900    775.81662   -113.44022   0.70197518   -112.73824   -10127.218    4.3395771    4.3395771    4.3395771   -10127.218   -24215.602   -19540.361    13374.308   -26917.488    1529.8055   -11442.019    81.722608 
   57000    744.87587   -113.41156   0.67397934   -112.73758    8307.2964    4.3280589    4.3280589    4.3280589    8307.2964    9584.9765   -4027.4222    19364.335   -20019.435   -1995.8964   -12357.072    81.073606 
   57100    1085.7524   -113.71668   0.98241157   -112.73426   -2392.5079    4.3375954    4.3375954    4.3375954   -2392.5079     2836.859   -4484.5303   -5529.8524     16346.77   -2457.9208    10427.477    81.610703 
   57200    753.63374   -113.42065   0.68190364   -112.73875   -3360.4454    4.3358719    4.3358719    4.3358719   -3360.4454   -24249.371   -3812.3242    17980.359   -4816.8665    3435.5799    5865.8314    81.513461 
   57300    581.66787   -113.26773   0.52630532   -112.74142    3977.5533    4.3281652    4.3281652    4.3281652    3977.5533   -2943.2805   -510.51706    15386.458   -25909.985    130.51994   -27237.118    81.079581 
   57400    1056.8364   -113.69291   0.95624778   -112.73666   -626.51224     4.340185     4.340185     4.340185   -626.51224     9333.757   -431.95827   -10781.335    6095.7942   -1516.6697   -9667.2621    81.756957 
   57500    1074.2068   -113.70849   0.97196492   -112.73652    4334.5667    4.3330487    4.3330487    4.3330487    4334.5667   -16474.002    14499.371    14978.331    8518.5719     948.1678      14884.9    81.354335 
   57600    305.96911   -113.02339   0.27684728   -112.74655    -3464.528    4.3298589    4.3298589    4.3298589    -3464.528   -13974.659   -15750.176    19331.251   -20485.434    2876.6961   -23435.406    81.174802 
   57700    725.00791   -113.40158   0.65600239   -112.74558   -10922.464    4.3398393    4.3398393    4.3398393   -10922.464     -1754.37   -8824.0544   -22188.967   -9190.1254    609.80932   -22453.029    81.737422 
   57800    1297.9613   -113.90839    1.1744227   -112.73397    8556.5363    4.3338854    4.3338854    4.3338854    8556.5363   -774.73187    19738.344    6705.9971    5444.4722   -1137.0829    14177.002    81.401474 
   57900    674.14051   -113.35457    0.6099765   -112.74459    5067.5214    4.3290572    4.3290572    4.3290572    5067.5214   -4280.6017   -1244.6068    20727.773   -12494.781    156.83449   -15600.139    81.129719 
   58000    393.27627   -113.10297   0.35584463   -112.74713   -7690.9462    4.3385641    4.3385641    4.3385641   -7690.9462     265.0758   -8428.8107   -14909.104    -14135.42    1564.3472    -27308.83    81.665395 
   58100    970.42757   -113.61448   0.87806326   -112.73641   -330.85673    4.3375493    4.3375493    4.3375493   -330.85673    5164.4398    4273.8412   -10430.851    5342.9206    1830.8937    17677.195      81.6081 
   58200    978.64508   -113.61901   0.88549864   -112.73351    8041.3804    4.3282162    4.3282162    4.3282162    8041.3804    5298.5795    6715.8624    12109.699   -3521.9075   -648.89179    7962.4477    81.082447 
   58300    594.43101   -113.27704   0.53785367   -112.73919   -4854.1668    4.3361969    4.3361969    4.3361969   -4854.1668    2412.9519   -10088.539   -6886.9138   -19724.679   -799.78389   -34729.258    81.531794 
   58400    655.06444    -113.3305   0.59271607   -112.73778   -8918.1531    4.3384393    4.3384393    4.3384393   -8918.1531    8068.1673   -16190.849   -18631.778    875.44443    4250.2565    6456.5207    81.658343 
   58500    910.53819   -113.55656   0.82387409   -112.73269    869.65323    4.3318985    4.3318985    4.3318985    869.65323    7371.6005   -3906.9635   -855.67725    6484.0129   -863.58935     31171.27    81.289566 
   58600    804.23865   -113.46249   0.72769203    -112.7348   -5122.2975    4.3338906    4.3338906    4.3338906   -5122.2975   -1488.2914   -8646.8234   -5231.7775   -17144.666   -2113.9833   -26031.051     81.40177 
   58700     633.0523   -113.31217   0.57279903   -112.73937   -1672.1679     4.333232     4.333232     4.333232   -1672.1679    22107.622   -14027.509   -13096.617   -7418.2048    6989.1087   -12514.375    81.364665 
   58800    844.54153   -113.50093   0.76415893   -112.73677   -2579.3262    4.3366597    4.3366597    4.3366597   -2579.3262    16126.984   -8188.0475   -15676.915    7339.2614    685.98144    31887.331    81.557898 
   58900    804.13968   -113.46387   0.72760248   -112.73627   -3599.9203    4.3349236    4.3349236    4.3349236   -3599.9203   -3806.3801   -8259.0437    1265.6628    2285.9983   -7092.1756   -5436.0835    81.459986 
   59000    689.22979   -113.36136    0.6236296   -112.73773    3600.8105     4.329665     4.329665     4.329665    3600.8105     17661.52   -6404.7183   -454.37033   -11496.096    -1979.826   -24952.856    81.163897 
   59100    891.59017   -113.54089   0.80672952   -112.73416   -3191.3402       4.3401       4.3401       4.3401   -3191.3402    17413.933   -7445.2991   -19542.654   -7095.8724    1421.9818    13959.829    81.752157 
   59200    848.89156   -113.50377   0.76809492   -112.73567    978.86202    4.3342372    4.3342372    4.3342372    978.86202    5667.5269   -1311.3757   -1419.5651    21784.212   -6116.4551    11190.981    81.421298 
   59300    546.22761     -113.235   0.49423822   -112.74076    6151.5388    4.3256073    4.3256073    4.3256073    6151.5388    15587.068   -10247.689    13115.237   -2961.7385   -5453.3903   -21572.217    80.935915 
   59400    838.28304   -113.49843   0.75849611   -112.73994     -3673.37    4.3401075    4.3401075    4.3401075     -3673.37    12670.543   -10685.873    -13004.78   -20781.484    2324.2226    -8818.379    81.752577 
   59500    1083.8988    -113.7154   0.98073442   -112.73466    2791.7663    4.3356295    4.3356295    4.3356295    2791.7663     6683.595   -1921.7712    3613.4752    23561.473   -1803.8166    10439.611    81.499792 
   59600    520.09088    -113.2116   0.47058916   -112.74101    3889.2362    4.3291122    4.3291122    4.3291122    3889.2362    12390.371   -17831.064    17108.401    13570.605   -7204.2601   -9375.0082    81.132813 
   59700    595.33555   -113.28045   0.53867211   -112.74177   -9640.6387    4.3378795    4.3378795    4.3378795   -9640.6387    5393.6279   -26768.285   -7547.2594   -25071.709   -2587.2369   -21052.617     81.62674 
   59800    1097.8072   -113.72499   0.99331899   -112.73167    3581.8102    4.3348564    4.3348564    4.3348564    3581.8102    8558.0511   -3618.2319    5805.6113    275.36221    1416.5026   -43.569157    81.456198 
   59900    842.42477   -113.49896   0.76224364   -112.73672   -2722.5392    4.3340853    4.3340853    4.3340853   -2722.5392    316.53629   -17230.687    8746.5335    22384.588   -2666.4333    1822.2199    81.412736 
   60000    330.61529   -113.04336   0.29914766   -112.74422   -6254.7259     4.332986     4.332986     4.332986   -6254.7259    14745.219   -31011.268   -2498.1279    -16486.56   -6338.5807   -23884.133    81.350804 
   60100    789.43852   -113.45588   0.71430056   -112.74158   -1351.1141    4.3336796    4.3336796    4.3336796   -1351.1141    13471.441   -16932.555   -592.22769   -18792.523    6396.3262   -7383.8071    81.389881 
   60200     1096.674   -113.72671   0.99229372   -112.73441   -1.4848091    4.3378886    4.3378886    4.3378886   -1.4848091    456.01895   -9461.6541    9001.1807    14454.907    8867.4599     10739.36    81.627253 
   60300     592.7398   -113.27735   0.53632343   -112.74103    2080.6543    4.3316776    4.3316776    4.3316776    2080.6543    12621.829   -21699.861    15319.995   -9864.0764   -10816.564   -22615.783    81.277135 
   60400    443.23744   -113.14307   0.40105055   -112.74202   -3445.7202    4.3357225    4.3357225    4.3357225   -3445.7202    13519.811   -30001.349    6144.3774   -20705.974    2728.0908   -10071.116    81.505036 
   60500     994.8994    -113.6328   0.90020588   -112.73259    -3884.752    4.3384944    4.3384944    4.3384944    -3884.752    481.51013   -11039.873   -1095.8934    5732.8414    12054.065    16014.966    81.661456 
   60600    923.78333   -113.56909   0.83585857   -112.73323    7169.5518    4.3301953    4.3301953    4.3301953    7169.5518    6372.0373   -2959.5801    18096.198   -5174.2958   -9114.5174   -9201.0524    81.193722 
   60700    546.62582   -113.23598   0.49459853   -112.74138   -7347.4842    4.3340116    4.3340116    4.3340116   -7347.4842   -3390.9548    -24755.39    6103.8917   -22200.415   -6933.0238   -14315.173    81.408584 
   60800    708.62747   -113.38114   0.64118103   -112.73996   -6458.2254    4.3375015    4.3375015    4.3375015   -6458.2254     89.97815   -17879.359   -1585.2952     -1330.63    14209.238    14441.406    81.605406 
   60900    965.26288   -113.60619   0.87339014    -112.7328   -3660.9983    4.3368825    4.3368825    4.3368825   -3660.9983   -12668.879    3019.9695   -1334.0853    6058.1212    133.17839     6590.799    81.570468 
   61000    637.20317   -113.31291   0.57655481   -112.73635   -3953.5268    4.3328414    4.3328414    4.3328414   -3953.5268   -19276.123   -4137.9461    11553.488   -20319.463   -19815.661    -14624.57    81.342662 
   61100    694.64515   -113.36592   0.62852953   -112.73739     -1920.75    4.3325826    4.3325826    4.3325826     -1920.75   -5369.2514   -14861.207    14468.209   -15672.766     4385.681    9148.2846    81.328085 
   61200    955.95382   -113.59846    0.8649671   -112.73349   -3583.7519    4.3386766    4.3386766    4.3386766   -3583.7519   -11472.591   -1103.4131     1824.748    15347.545    3809.4304    13862.353    81.671748 
   61300    574.39997   -113.25871   0.51972916   -112.73898    504.43041    4.3337899    4.3337899    4.3337899    504.43041   -28297.356     14450.43    15360.217   -2479.6572    -22070.86   -5223.3936    81.396092 
   61400    618.65534   -113.29876   0.55977235   -112.73899   -158.84124    4.3341603    4.3341603    4.3341603   -158.84124    -16713.13   -7946.0383    24182.644   -27443.604   -5842.5825    961.56958    81.416965 
   61500    976.73614    -113.6165   0.88377139   -112.73273   -3026.1075    4.3380206    4.3380206    4.3380206   -3026.1075   -6207.2123   -8642.8958    5771.7857    7418.7413    3929.3867    10443.007    81.634706 
   61600    710.16283   -113.37966   0.64257025   -112.73709   -1583.0089    4.3313229    4.3313229    4.3313229   -1583.0089   -29937.113    11597.957    13590.129    10891.329    -13891.28    4996.5569    81.257169 
   61700    481.59472    -113.1773   0.43575703   -112.74154   -5859.7667    4.3354327    4.3354327    4.3354327   -5859.7667   -33891.222   -1468.4849    17780.407   -23505.659   -13553.295   -6678.3667     81.48869 
   61800     864.9183   -113.51821   0.78259626   -112.73561   -5609.2171    4.3378878    4.3378878    4.3378878   -5609.2171   -8366.0877   -7846.5935   -614.97028   -5007.4277    6113.7565    44.097601     81.62721 
   61900    861.13531   -113.51448   0.77917333   -112.73531    914.49528    4.3312467    4.3312467    4.3312467    914.49528   -15528.559    6019.3558    12252.689    15427.463    2305.7854    8737.9247    81.252882 
   62000    720.94085   -113.39047   0.65232243   -112.73815   -6561.6413    4.3339631    4.3339631    4.3339631   -6561.6413   -32261.477   -9958.9094    22535.463   -8146.5424   -14903.663   -4489.0924    81.405854 
   62100    674.44266   -113.34811   0.61024989   -112.73786   -5052.3706    4.3371319    4.3371319    4.3371319   -5052.3706   -9671.7204   -3148.9462   -2336.4452   -15555.596    7817.1672   -9464.9908    81.584545 
   62200    745.82787   -113.41148   0.67484073   -112.73664   -3903.4726    4.3343398    4.3343398    4.3343398   -3903.4726    -6942.368     2665.364   -7433.4137    9377.4824    18261.858   -725.76022    81.427079 
   62300    876.25075   -113.52742   0.79285009   -112.73457     290.4314    4.3331086    4.3331086    4.3331086     290.4314    -19709.38   -2460.3512    23041.026    6092.7188   -7706.5438    3349.1882     81.35771 
   62400    817.67748   -113.47578   0.73985177   -112.73593   -1838.9282    4.3345473    4.3345473    4.3345473   -1838.9282   -11611.303   -2649.1198    8743.6383   -15350.585    1171.0132   -9885.8713    81.438776 
   62500    607.33385   -113.28955   0.54952844   -112.74003   -3015.0615    4.3360337    4.3360337    4.3360337   -3015.0615   -725.26494    8491.3822   -16811.302   -1653.1679    21811.413   -16762.587    81.522584 
   62600    885.08118   -113.53679   0.80084005   -112.73595    3125.9432    4.3346247    4.3346247    4.3346247    3125.9432   -3584.2094    4269.7989    8692.2401    11420.634    5229.9194    8691.3386    81.443137 
   62700    905.18926    -113.5536   0.81903426   -112.73456    3609.9623    4.3336027    4.3336027    4.3336027    3609.9623   -7432.1203    4413.6282    13848.379   -2130.6556    -3528.993   -998.40503    81.385545 
   62800    667.87248   -113.34344   0.60430505   -112.73913   -3824.1824    4.3353239    4.3353239    4.3353239   -3824.1824    3304.8011    2326.8307   -17104.179   -10876.123    15811.767   -28244.885    81.482556 
   62900    851.96956   -113.50814   0.77087996   -112.73726   -910.16912    4.3345096    4.3345096    4.3345096   -910.16912   -93.231482    4897.0192   -7534.2951    13048.321    14328.601   -4606.9041    81.436652 
   63000    1005.2634   -113.64446   0.90958345   -112.73487    626.39037    4.3335094    4.3335094    4.3335094    626.39037   -8585.4767   -2544.1795    13008.827    12037.329   -8480.9617    7527.6251    81.380291 
   63100     647.2719   -113.32622   0.58566522   -112.74055   -4713.1984    4.3355772    4.3355772    4.3355772   -4713.1984    3835.8844   -4982.8466   -12992.633   -12292.384    6534.9036    -18710.19    81.496838 
   63200    715.80636   -113.38723   0.64767664   -112.73955   -4980.0627    4.3377229    4.3377229    4.3377229   -4980.0627    6616.5257    2852.1525   -24408.866    2069.2814     19889.34   -17346.084    81.617902 
   63300     1224.243   -113.83969    1.1077208   -112.73197    3241.1132    4.3323068    4.3323068    4.3323068    3241.1132   -5546.1467    5704.3935    9565.0929    14183.755   -3950.1916    8354.4992    81.312556 
   63400    802.25564   -113.46599   0.72589776    -112.7401    4204.4563    4.3311585    4.3311585    4.3311585    4204.4563     11240.79    1889.1031   -516.52419    -2807.697    393.47159   -13207.036    81.247915 
   63500    413.91439   -113.12138   0.37451844   -112.74687   -12021.614    4.3410058    4.3410058    4.3410058   -12021.614    3043.2576    996.55824   -40104.658   -11636.483    18215.882   -25599.719    81.803352 
   63600    1095.8679   -113.73085   0.99156427   -112.73929    5574.3867    4.3326116    4.3326116    4.3326116    5574.3867    6011.1334    15830.053   -5118.0262    4154.6695    7298.3676    8714.5553    81.329718 
   63700    1216.3488   -113.83625    1.1005779   -112.73567     11634.95    4.3296825    4.3296825    4.3296825     11634.95     5123.975    22290.015    7490.8594    6956.5334   -4704.8446   -4770.1787    81.164878 
   63800    391.93098   -113.10251   0.35462739   -112.74788   -15496.463    4.3420257    4.3420257    4.3420257   -15496.463   -2460.2479   -9131.6933   -34897.448   -15195.231     13323.51    -28639.72    81.861025 
   63900    677.75322   -113.35955   0.61324535   -112.74631    167.71956    4.3298427    4.3298427    4.3298427    167.71956    4704.8823    8363.8188   -12565.542   -3938.3177    20272.298    2493.7833    81.173892 
   64000    1254.1591   -113.87058    1.1347895   -112.73579    7494.1816    4.3321271    4.3321271    4.3321271    7494.1816    2716.6705    21035.766   -1269.8911    6142.1597   -12895.354    8708.6139    81.302437 
   64100     787.1943   -113.45413   0.71226994   -112.74186   -12783.696    4.3409274    4.3409274    4.3409274   -12783.696   -4827.4343   -7615.5623   -25908.092   -10480.722   -1479.4843   -21064.322    81.798917 
   64200    445.38833   -113.14734   0.40299672   -112.74435     2080.586     4.328058     4.328058     4.328058     2080.586    11969.953    2702.8186   -8431.0134   -8978.3695    27242.827   -7021.5116    81.073553 
   64300    926.79116   -113.57788   0.83858011    -112.7393   -1319.6907    4.3355029    4.3355029    4.3355029   -1319.6907   -6172.6759    14171.037   -11957.434   -888.73215   -9211.4638    11264.223    81.492648 
   64400    973.46245   -113.61659   0.88080928   -112.73578    1490.5509    4.3363647    4.3363647    4.3363647    1490.5509    444.80337    10139.766    -6112.917    141.21109   -19349.899   -7093.3198    81.541256 
   64500    608.91926   -113.29075   0.55096294   -112.73979     1273.322    4.3319185    4.3319185    4.3319185     1273.322   -1826.2596    5246.5326    399.69297   -11296.429    20809.712   -12718.516    81.290694 
   64600    592.44829   -113.27581   0.53605966   -112.73975   -7964.0964    4.3373762    4.3373762    4.3373762   -7964.0964    -14662.05    10483.009   -19713.248   -5182.2622    8593.9028    2278.2258    81.598331 
   64700    883.08995   -113.53519   0.79903835   -112.73615    8023.8689    4.3299598    4.3299598    4.3299598    8023.8689    5078.2562    24479.977   -5486.6266    11152.726   -26492.042    8887.1742    81.180475 
   64800    861.69845   -113.51742   0.77968287   -112.73774   -103.28643    4.3353177    4.3353177    4.3353177   -103.28643    -6401.575    10549.801   -4458.0854   -9739.9777    6899.8763   -4665.0784    81.482209 
   64900    608.29529   -113.29068   0.55039836   -112.74028   -4638.1923    4.3369391    4.3369391    4.3369391   -4638.1923   -11180.046    14519.509   -17254.039   -11502.006    22620.541   -10054.001    81.573664 
   65000    693.73116   -113.36603   0.62770253   -112.73833    953.71903    4.3316489    4.3316489    4.3316489    953.71903    2671.2021    17521.408   -17331.453    11033.251   -20120.688     6040.835     81.27552 
   65100    906.25185   -113.55576   0.81999572   -112.73577    -3457.077    4.3364393    4.3364393    4.3364393    -3457.077   -6421.9982    7394.0178   -11343.251   -1519.0216   -7690.0884    11953.478    81.545466 
   65200    954.72285   -113.59858   0.86385329   -112.73472   -92.300519    4.3337174    4.3337174    4.3337174   -92.300519    -10083.46    13821.211   -4014.6533   -11855.243    22766.732   -2397.3942    81.392008 
   65300    660.58583   -113.33748   0.59771194   -112.73977   -7232.5415    4.3340082    4.3340082    4.3340082   -7232.5415   -11287.053    4173.5766   -14584.148    6580.1639   -7429.1173   -4166.0633    81.408394 
   65400    618.05998   -113.30212   0.55923366   -112.74289   -6314.8681    4.3337401    4.3337401    4.3337401   -6314.8681   -1408.9025    819.27224   -18354.974    9749.5593   -17308.741    19591.904    81.393289 
   65500     1161.655     -113.787    1.0510899   -112.73591   -478.88188    4.3366302    4.3366302    4.3366302   -478.88188   -6446.5082    9959.2505   -4949.3879    -6376.622     9492.728    8695.6972    81.556237 
   65600    1030.2457   -113.66945   0.93218799   -112.73726   -3586.5251    4.3371729    4.3371729    4.3371729   -3586.5251   -14877.303    12188.284   -8070.5558     4159.437    1552.1264   -14575.141    81.586859 
   65700    271.75498   -112.99264   0.24588962   -112.74675    370.83616    4.3288548    4.3288548    4.3288548    370.83616    9765.8828    15915.288   -24568.662    12221.987   -17485.624    19216.163    81.118342 
   65800    885.07501   -113.54787   0.80083447   -112.74703   -4621.2221    4.3389323    4.3389323    4.3389323   -4621.2221    5050.0961    6671.7653   -25585.528   -3126.0866   -2062.1572    18126.234    81.686188 
   65900    1443.6956   -114.04094    1.3062861   -112.73465    7509.2781    4.3349001    4.3349001    4.3349001    7509.2781   -8539.4679    25584.012    5483.2905   -1552.6678    3042.2443   -10205.729    81.458662 
   66000    544.38843   -113.24264   0.49257409   -112.75007    1440.5332    4.3287463    4.3287463    4.3287463    1440.5332   -936.47453    16842.926   -11584.852    9176.9645   -15408.098    15713.786    81.112244 
   66100    460.28572   -113.16649   0.41647619   -112.75001   -15409.941    4.3396664    4.3396664    4.3396664   -15409.941    5300.9065    -14374.84   -37155.889    4113.9428   -9333.2531    17828.748    81.727656 
   66200    1172.4033   -113.79508    1.0608151   -112.73426    5718.5099    4.3347033    4.3347033    4.3347033    5718.5099    1377.4766    9809.8582    5968.1949   -6631.6767    9574.0648   -8966.9098     81.44757 
   66300    885.35968   -113.53703   0.80109204   -112.73594   -2382.7498    4.3352995    4.3352995    4.3352995   -2382.7498   -5480.2487     8899.053   -10567.054   -3713.8562   -4472.5597    10938.769    81.481181 
   66400    621.32545   -113.30088   0.56218833   -112.73869   -5990.5157    4.3321067    4.3321067    4.3321067   -5990.5157    15253.501   -2212.2799   -31012.768    7160.0277   -16619.842    25642.895    81.301288 
   66500    733.12226   -113.40103   0.66334442   -112.73769    2663.1059    4.3335404    4.3335404    4.3335404    2663.1059    10101.038    4686.4164   -6798.1371   -11160.977    10202.777   -6965.6582    81.382033 
   66600    832.94422    -113.4891   0.75366543   -112.73543   -6582.3716     4.340163     4.340163     4.340163   -6582.3716   -12061.078    1043.9192   -8729.9557   -17621.515    13086.054   -4806.7394    81.755714 
   66700    810.01725    -113.4684   0.73292063   -112.73548    8789.0217    4.3276151    4.3276151    4.3276151    8789.0217    21632.746    12799.635   -8065.3163    8779.7028   -14026.343    25893.673    81.048669 
   66800    696.26758    -113.3684   0.62999754    -112.7384    1223.5071    4.3341862    4.3341862    4.3341862    1223.5071    14612.836   -1983.1137   -8959.2005   -3408.6466   -2052.4245      9033.04    81.418427 
   66900    690.08885   -113.36237   0.62440689   -112.73797   -3376.8569    4.3388626    4.3388626    4.3388626   -3376.8569   -8613.9593   -2375.9602    859.34872   -18358.723    18485.232   -13651.011    81.682252 
   67000    779.63741   -113.44078   0.70543231   -112.73535    8906.7294    4.3299525    4.3299525    4.3299525    8906.7294    14515.454    6882.7734    5321.9608   -152.98616   -992.67706    8275.9378    81.180067 
   67100    756.02963   -113.42016    0.6840715   -112.73609    2504.9974    4.3348984    4.3348984    4.3348984    2504.9974    19831.105   -3657.8804    -8658.233    3604.4997   -15198.717    23272.562    81.458569 
   67200    744.07375   -113.40986   0.67325356    -112.7366    2925.3173     4.334507     4.334507     4.334507    2925.3173    5402.3046   -1736.8138    5110.4611     -12185.5    7438.0747   -4794.7103    81.436505 
   67300    826.33965   -113.48348   0.74768948   -112.73579   -654.51484    4.3343008    4.3343008    4.3343008   -654.51484    5757.9217   -6951.0082   -770.45804   -10397.788    12011.152   -9948.5674    81.424884 
   67400    610.22294   -113.29165   0.55214254   -112.73951   -293.96812    4.3327323    4.3327323    4.3327323   -293.96812    20925.234   -10103.493   -11703.646    8244.6298   -14710.517    20462.382    81.336517 
   67500    775.21985   -113.44046   0.70143522   -112.73902    5233.8566    4.3325965    4.3325965    4.3325965    5233.8566    9717.8627   -1041.2502    7024.9574    -2687.537   -9147.7245    12389.075     81.32887 
   67600    1131.1686   -113.75657    1.0235051   -112.73307   -3980.0498    4.3392044    4.3392044    4.3392044   -3980.0498   -5935.1501   -14109.692    8104.6925   -15329.547    11868.864   -13081.725    81.701553 
   67700    600.18141   -113.28471   0.54305675   -112.74166    2877.6172    4.3294429    4.3294429    4.3294429    2877.6172    24914.327   -19704.557     3423.082    6767.6356   -8025.7182    5697.2094    81.151405 
   67800    497.11638   -113.19715   0.44980135   -112.74735   -74.318169    4.3321197    4.3321197    4.3321197   -74.318169    4067.5017   -11965.796    7675.3399    7222.6975   -18768.983    18730.101    81.302019 
   67900    1215.8414   -113.83616    1.1001189   -112.73604    1196.3529    4.3396775    4.3396775    4.3396775    1196.3529   -11708.947   -3518.0966    18816.102   -8028.3678     2774.799   -2263.1291    81.728282 
   68000    1004.9466   -113.64787   0.90929682   -112.73857    9762.1989    4.3304698    4.3304698    4.3304698    9762.1989    14991.716   -11868.653    26163.534   -32.714508    3121.8618   -444.85306    81.209164 
   68100    378.60337   -113.08888   0.34256829   -112.74631   -4512.1209    4.3366657    4.3366657    4.3366657   -4512.1209    7518.4498   -21439.049    384.23651    9732.6194    -18300.44    19456.737     81.55824 
   68200    915.06427    -113.5644   0.82796939   -112.73643    829.31005    4.3358406    4.3358406    4.3358406    829.31005   -13206.791    4035.6668    11659.055    3824.7484   -3110.4448    3895.6914    81.511697 
   68300    1114.0758    -113.7402    1.0080392   -112.73216    3599.8491    4.3320857    4.3320857    4.3320857    3599.8491    -3826.057    3697.9092    10927.695   -4283.2982    19927.645   -3702.1658    81.300105 
   68400    647.20203   -113.32613     0.585602   -112.74053   -8615.7358    4.3350132    4.3350132    4.3350132   -8615.7358    4103.9776   -24602.355   -5348.8302    4426.1563   -9866.4763    17062.417    81.465038 
   68500    595.82421   -113.28018   0.53911427   -112.74107    319.91292    4.3301377    4.3301377    4.3301377    319.91292     -5733.87   -83.297596    6776.9063    12189.986   -9415.7628     8121.013    81.190482 
   68600    813.60519   -113.47535   0.73616707   -112.73919   -7641.1834    4.3386484    4.3386484    4.3386484   -7641.1834   -22404.724    9933.1055   -10451.932    -1896.333    34349.847   -5396.8063    81.670154 
   68700    979.41285   -113.62051   0.88619333   -112.73432   -1683.9172    4.3341544    4.3341544    4.3341544   -1683.9172    405.35656   -4660.9939   -796.11426   -3313.7801    6061.8966    9314.3682    81.416631 
   68800    729.80647   -113.39754   0.66034423   -112.73719    1391.9036    4.3294795    4.3294795    4.3294795    1391.9036    3411.1832   -3263.5158    4028.0435     9420.529    -13576.91    12415.116    81.153462 
   68900    402.45061   -113.10642   0.36414577   -112.74227   -11874.914    4.3405949    4.3405949    4.3405949   -11874.914    -21689.69    9463.9469   -23398.999    6189.3874    29938.126   -7199.6068    81.780127 
   69000    983.85144   -113.62649   0.89020946   -112.73628    3909.9133    4.3323962    4.3323962    4.3323962    3909.9133   -3192.7175    2999.1815    11923.276    -3896.713    17286.981    -5552.396    81.317592 
   69100    1140.6531   -113.76535    1.0320869   -112.73326    8264.7537    4.3298668    4.3298668    4.3298668    8264.7537    9474.3651   -11504.084     26823.98    1362.0361   -10834.143    6213.3735    81.175242 
   69200    529.21717   -113.22378   0.47884682   -112.74493   -7196.8417    4.3371416    4.3371416    4.3371416   -7196.8417   -19119.588    2096.0804   -4567.0178    8435.2617    24702.699    -1321.248    81.585092 
   69300    572.41248   -113.26398   0.51793084   -112.74605   -906.43643    4.3322808    4.3322808    4.3322808   -906.43643   -9115.2178    2231.3964    4164.5121   -3376.3054    19379.972   -11715.419    81.311094 
   69400    1072.9455   -113.70819    0.9708236   -112.73737    6578.7807    4.3321935    4.3321935    4.3321935    6578.7807    17148.553   -19670.736    22258.525    -6327.525   -12128.948   -6357.0261    81.306176 
   69500    907.99089   -113.56016   0.82156924   -112.73859   -840.12156    4.3353109    4.3353109    4.3353109   -840.12156   -10416.835   -1620.4951    9516.9654    6306.3143    22388.637    3590.8416    81.481822 
   69600    696.53683   -113.37046   0.63024116   -112.74022   -1210.7752    4.3342861    4.3342861    4.3342861   -1210.7752   -10499.746     10083.64    -3216.219    5554.2389    25038.618   -7930.9339    81.424053 
   69700    973.66644   -113.61475   0.88099386   -112.73375    75.115912    4.3343209    4.3343209    4.3343209    75.115912    16242.874   -20069.763    4052.2366   -6791.8419   -11152.618    -11057.16    81.426015 
   69800    776.38208   -113.43976   0.70248682   -112.73728   -1320.6675    4.3325067    4.3325067    4.3325067   -1320.6675   -1967.4725   -11642.842    9648.3122   -4926.9061    7034.4641    7838.9083    81.323815 
   69900    675.28985   -113.35312   0.61101645   -112.74211   -4997.5865    4.3342775    4.3342775    4.3342775   -4997.5865   -17239.664    637.56237    1609.3416      12417.5    31283.674   -508.31218    81.423568 
   70000    1133.2306   -113.76115    1.0253709   -112.73578    1891.5401     4.335331     4.335331     4.335331    1891.5401    17660.789   -12024.251    38.082075    1486.4866    2277.5774   -12368.651    81.482955 
   70100    997.55064   -113.64176   0.90260479   -112.73916    5658.3672    4.3307575    4.3307575    4.3307575    5658.3672    19537.098   -9906.3639    7344.3675   -11640.277   -3944.8507    6780.5712    81.225352 
   70200    381.97788   -113.09333   0.34562161   -112.74771   -7128.9749    4.3362899    4.3362899    4.3362899   -7128.9749   -17945.372   -2446.0419   -995.51114    12063.965    33075.715     6949.524     81.53704 
   70300    906.67377   -113.56121   0.82037748   -112.74084   -2578.3639     4.338948     4.338948     4.338948   -2578.3639    3451.4719   -10869.657   -316.90717    12634.255    8742.5203   -4411.9921    81.687074 
   70400    1255.5015   -113.86747    1.1360042   -112.73147    9194.6395    4.3307234    4.3307234    4.3307234    9194.6395    23629.171    686.47547    3268.2718   -7633.2083    -12439.87    1122.8035    81.223431 
   70500    498.93008   -113.19528   0.45144242   -112.74383   -7185.9109     4.333932     4.333932     4.333932   -7185.9109   -11487.202   -1196.0079   -8874.5231    6205.7341    33288.411    4902.8248    81.404101 
   70600    564.39164   -113.25659   0.51067341   -112.74592   -8047.6707     4.336361     4.336361     4.336361   -8047.6707   -14338.614   -15114.501    5310.1024    17863.403    17816.839    3067.0031    81.541047 
   70700    1159.9833   -113.78415    1.0495773   -112.73457    8530.6886    4.3316759    4.3316759    4.3316759    8530.6886    12624.532    1177.7701    11789.763    495.79465   -23000.349   -2921.2522     81.27704 
   70800     764.6322   -113.43246   0.69185528    -112.7406   -6469.7974    4.3351372    4.3351372    4.3351372   -6469.7974    -12010.13     9037.461   -16436.724   -227.92871     11236.41    4800.7854     81.47203 
   70900    428.82218   -113.13261   0.38800732    -112.7446   -7844.1449    4.3337187    4.3337187    4.3337187   -7844.1449   -12694.101    -10951.41    113.07574    19448.821    29180.922     5405.925    81.392083 
   71000    903.67422    -113.5557   0.81766342   -112.73804    973.58176    4.3336088    4.3336088    4.3336088    973.58176     2794.575   -10646.501    10772.671     10492.26    -8588.349   -4609.4775    81.385891 
   71100    967.05566   -113.61133   0.87501229   -112.73632     905.9661    4.3343164    4.3343164    4.3343164     905.9661   -6886.3545     15110.28    -5506.027   -8740.0145   -12001.386    2442.1422    81.425761 
   71200    508.13453   -113.20185    0.4597708   -112.74208   -3540.4977    4.3318358    4.3318358    4.3318358   -3540.4977   -13068.207    3304.2338   -857.52026     13726.99    25007.313    4409.0764    81.286039 
   71300    614.29951   -113.29774   0.55583111   -112.74191   -7174.9653    4.3377409    4.3377409    4.3377409   -7174.9653   -6183.4389   -20028.365    4686.9083    24871.477    4651.8512    4109.6836    81.618914 
   71400    1082.5575   -113.71285   0.97952078   -112.73333    4012.3648    4.3327557    4.3327557    4.3327557    4012.3648   -2509.9388    6092.9515    8454.0818   -7752.6617   -17636.693    37.426139    81.337835 
   71500    690.87813   -113.36366   0.62512105   -112.73854   -434.88172    4.3321744    4.3321744    4.3321744   -434.88172   -19609.896    12594.979    5710.2721    1937.7787    21318.015    -869.0838    81.305104 
   71600    431.79907   -113.13469   0.39070087   -112.74398   -12673.354    4.3400623    4.3400623    4.3400623   -12673.354    -25074.14   -21274.441    8328.5179    32843.236    14845.111     5940.232    81.750022 
   71700    1116.2573   -113.74523    1.0100131   -112.73522    4140.5672    4.3305297    4.3305297    4.3305297    4140.5672   -74.135877   -3445.7034    15941.541    5331.1914   -7540.0867   -4692.4321    81.212533 
   71800    1044.5344   -113.68244   0.94511664   -112.73732    8944.8475    4.3297031    4.3297031    4.3297031    8944.8475    -8130.943    19172.236     15793.25   -9229.5242    11544.095    32.544647    81.166041 
   71900    321.43806     -113.039   0.29084392   -112.74815   -8487.0278     4.339827     4.339827     4.339827   -8487.0278   -39914.048   -7872.1891    22325.154    29655.244    16137.587    4448.2744    81.736729 
   72000    757.10462   -113.42803   0.68504417   -112.74299   -498.27963    4.3351246    4.3351246    4.3351246   -498.27963   -18761.131   -4604.8022    21871.094    18543.018   -4707.0837   -1887.5299    81.471322 
   72100     1279.701   -113.88965    1.1579003   -112.73175    9123.3049    4.3304583    4.3304583    4.3304583    9123.3049    601.12247    20683.687    6085.1056   -9496.9731   -3382.6991    2266.2898     81.20852 
   72200    604.01233   -113.28932   0.54652305   -112.74279    73.837518     4.336167     4.336167     4.336167    73.837518   -26750.174     322.3161    26649.371    23922.168    17009.485   -1633.3158    81.530104 
   72300    434.26099   -113.13797   0.39292847   -112.74505   -10529.178    4.3366057    4.3366057    4.3366057   -10529.178   -31103.171   -15649.851    15165.487    21360.102   -231.18794    3983.8047    81.554852 
   72400    926.89863   -113.57657   0.83867736   -112.73789    5068.4155    4.3284714    4.3284714    4.3284714    5068.4155    4586.4034    15320.223   -4701.3802   -10035.605   -20344.403    -739.0415    81.096786 
   72500    957.57231   -113.60369   0.86643155   -112.73725   -1500.7197    4.3346908    4.3346908    4.3346908   -1500.7197   -14949.437   -4253.1971    14700.475    17910.657   -240.15709   -4939.1282    81.446863 
   72600     635.0994    -113.3144   0.57465128   -112.73975   -9031.5943    4.3384289    4.3384289    4.3384289   -9031.5943   -30544.298   -16693.443    20142.958    28908.419    6973.6828     2634.099    81.657761 
   72700    641.96275   -113.31839   0.58086139   -112.73753    -1195.721    4.3294561    4.3294561    4.3294561    -1195.721   -5715.3628    11469.456    -9341.256   -9866.1706   -18436.969   -2298.0182    81.152148 
   72800    751.70426   -113.41695   0.68015781    -112.7368   -6943.4508    4.3354347    4.3354347    4.3354347   -6943.4508   -17126.755   -9635.9797    5932.3826     11607.44   -14597.053    2534.6176    81.488805 
   72900     929.2294   -113.57566   0.84078629   -112.73488   -1119.8806    4.3350848    4.3350848    4.3350848   -1119.8806   -17282.205   -19507.895    33430.459    32856.928     9842.761    763.95967    81.469074 
   73000    841.55269   -113.49733   0.76145456   -112.73588    8352.1206    4.3294461    4.3294461    4.3294461    8352.1206   -2134.0881    13547.375    13643.074   -8353.8487   -15275.222   -1675.9918    81.151585 
   73100    529.27794   -113.22004   0.47890181   -112.74113   -5974.3598    4.3383083    4.3383083    4.3383083   -5974.3598    -19118.28   -7726.8999    8922.1007   -1547.9655   -19223.722    4694.7003     81.65095 
   73200    750.30905   -113.41698   0.67889539   -112.73809     787.0952    4.3348333    4.3348333    4.3348333     787.0952   -6745.9998   -23579.828    32687.114    28147.346    8206.6065   -1592.3461    81.454898 
   73300    1089.6747     -113.718   0.98596056   -112.73204    11143.928    4.3289602    4.3289602    4.3289602    11143.928    1582.4462    5731.1485    26118.188    1449.1826   -6975.2431   -790.70921    81.124264 
   73400    827.61018   -113.48678   0.74883908   -112.73794   -3299.8868    4.3372527    4.3372527    4.3372527   -3299.8868   -23553.557    5674.8557    7979.0408   -7218.2845   -19288.415    3033.6759    81.591359 
   73500    515.50919   -113.20963   0.46644355   -112.74319   -5714.9837    4.3327368    4.3327368    4.3327368   -5714.9837   -9227.6903   -16336.214     8418.953     21908.43    2159.3383     2757.591    81.336769 
   73600    840.98735   -113.50253   0.76094303   -112.74159    698.87518    4.3304171    4.3304171    4.3304171    698.87518    6364.6598    -14612.21    10344.175    8356.2181    7354.8561   -2078.2827    81.206199 
   73700     1224.684   -113.84104    1.1081198   -112.73292   -6341.5566    4.3412976    4.3412976    4.3412976   -6341.5566   -15162.996   -5689.7677    1828.0934   -10056.822   -13943.714   -1977.3603    81.819848 
   73800    667.95658   -113.34427   0.60438115   -112.73988   -3026.7291    4.3339071    4.3339071    4.3339071   -3026.7291   -15550.844   -2559.6492    9030.3057    22039.947   -801.63989    3137.4828    81.402699 
   73900    433.74829   -113.13567   0.39246456    -112.7432   -3633.3352    4.3304607    4.3304607    4.3304607   -3633.3352    4982.1456   -18305.997    2423.8457    17466.327    12171.605    588.17484    81.208653 
   74000    1190.8051   -113.81365    1.0774655   -112.73618   -2730.6561    4.3384713    4.3384713    4.3384713   -2730.6561   -1807.0801   -11072.685    4687.7965    -9103.605   -6633.5134   -2492.1885    81.660152 
   74100    1117.9455   -113.74861    1.0115406   -112.73707    7993.0377    4.3315189    4.3315189    4.3315189    7993.0377   -12226.789    6097.0075    30108.895    14699.042   -2446.7033    2.2926679    81.268202 
   74200    397.33537   -113.10707    0.3595174   -112.74756   -5987.2943    4.3339953    4.3339953    4.3339953   -5987.2943   -9880.0019   -17856.081       9774.2    18260.115     12432.66   -302.90488    81.407668 
   74300    772.48491   -113.44119   0.69896058   -112.74223    -4806.906    4.3366018    4.3366018    4.3366018    -4806.906    3121.8854   -12554.649   -4987.9543   -5186.5805    4516.8961   -5765.7415    81.554632 
   74400    1127.9877   -113.75445     1.020627   -112.73383     7516.798    4.3305189    4.3305189    4.3305189     7516.798   -15024.728    10122.728    27452.394    10269.981   -6203.1929   -2121.3083    81.211929 
   74500    806.02197   -113.46753   0.72930562   -112.73823   -6194.2675    4.3364797    4.3364797    4.3364797   -6194.2675   -21180.757    -17366.75    19964.704    20709.283    1176.4412   -95.247883    81.547746 
   74600    811.40849   -113.47044   0.73417945   -112.73626   -1068.8076    4.3329803    4.3329803    4.3329803   -1068.8076    9223.0957   -13155.216    725.69722   -2901.6184    7873.5375    -5786.518    81.350483 
   74700    844.38217   -113.49992   0.76401473   -112.73591   -3923.9912     4.332444     4.332444     4.332444   -3923.9912   -17719.043   -320.12286    6267.1927    1838.7359   -7967.5422    -339.7359    81.320282 
   74800    651.02271   -113.32777   0.58905903   -112.73872   -10307.694    4.3374595    4.3374595    4.3374595   -10307.694   -40598.051   -11290.732      20965.7    22735.923   -13183.721    3052.1059     81.60303 
   74900     953.6034   -113.59751   0.86284039   -112.73467    4403.5566    4.3310803    4.3310803    4.3310803    4403.5566    3715.7723   -3585.0741    13079.972    373.79665    4633.1824   -8587.9936    81.243517 
   75000    960.75765   -113.60333   0.86931371   -112.73402   -3782.1444    4.3351057    4.3351057    4.3351057   -3782.1444   -2155.1635   -9660.0457    468.77589    438.66343   -4508.4012   -3406.3365    81.470255 
   75100    519.24708   -113.20957   0.46982567   -112.73974   -8752.7476    4.3355566    4.3355566    4.3355566   -8752.7476   -39215.934   -10137.071    23094.762    23125.252   -17038.098    2758.4277    81.495677 
   75200    611.03872   -113.29218   0.55288068    -112.7393    1281.5814    4.3314823    4.3314823    4.3314823    1281.5814    -15887.63   -539.40203    20271.777    2383.7691    1615.5459   -4984.9503    81.266143 
   75300    932.03136   -113.57822   0.84332156    -112.7349    232.62524    4.3352196    4.3352196    4.3352196    232.62524    5015.6867   -2374.5204   -1943.2906   -7583.8731    7779.7393   -5138.8683    81.476675 
   75400    813.85381   -113.47305   0.73639203   -112.73665    2611.0632     4.331659     4.331659     4.331659    2611.0632   -12703.089   -5113.5867    25649.865    24448.027   -5291.4145    2206.2828    81.276084 
   75500    667.05471   -113.34228   0.60356512   -112.73871   -5480.4669    4.3357752    4.3357752    4.3357752   -5480.4669   -24226.131   -12648.733    20433.463     15712.19   -3973.0684   -1204.9182    81.508009 
   75600    773.98789   -113.43664    0.7003205   -112.73632   -2495.7732    4.3352395    4.3352395    4.3352395   -2495.7732   -1163.8998    1599.3038   -7922.7237   -16901.722    11395.397   -7295.1023    81.477801 
   75700    740.38532   -113.40565   0.66991619   -112.73573    7264.4373     4.329391     4.329391     4.329391    7264.4373   -258.08471    328.69343    21722.703    20178.117    8422.4158   -1637.3412    81.148485 
   75800    922.94774   -113.57017   0.83510251   -112.73507   -2619.6508    4.3380736    4.3380736    4.3380736   -2619.6508   -16819.525   -15296.729    24257.301    31120.582   -4831.0893    1776.0554      81.6377 
   75900    1043.8245   -113.67731   0.94447435   -112.73284    3376.0228    4.3338564    4.3338564    4.3338564    3376.0228   -1712.4284    6365.9023    5474.5945   -12801.426    4342.7616   -8570.9352    81.399838 
   76000    564.20059   -113.25098   0.51050055   -112.74048    4161.2794    4.3294791    4.3294791    4.3294791    4161.2794    1596.6157   -7616.4443    18503.667     11449.32    13765.226   -8914.6449    81.153444 
   76100    672.76186   -113.35259   0.60872906   -112.74386   -4295.6235    4.3375397    4.3375397    4.3375397   -4295.6235   -15036.197   -20297.852    22447.179    34989.046   -957.93612    7550.9892    81.607559 
   76200    1322.4026   -113.92984    1.1965376   -112.73331     7357.902    4.3337373    4.3337373    4.3337373     7357.902    2803.1554     7376.883    11893.668   -5993.6569    -3275.948    5694.1607    81.393127 
   76300    898.60208   -113.55412   0.81307405   -112.74104   -267.74286    4.3326331    4.3326331    4.3326331   -267.74286   -4427.6024     83.34249    3541.0313     5282.402     13690.24   -10969.693    81.330931 
   76400     325.9146   -113.04405   0.29489438   -112.74916    -7073.654    4.3336772    4.3336772    4.3336772    -7073.654   -8605.3176   -24648.443    12032.798    39038.453    5000.1765     3199.307    81.389745 
   76500    1028.3295   -113.67206   0.93045413   -112.74161    1705.1914    4.3352816    4.3352816    4.3352816    1705.1914    8356.0727   -9050.7498    5810.2514    1503.4745   -2486.3048    13395.106    81.480171 
   76600    1203.3908   -113.82295    1.0888532    -112.7341   -3425.5761     4.338559     4.338559     4.338559   -3425.5761    -14351.42    688.65559    3386.0355   -2411.2378    5301.3685   -4954.5898    81.665106 
   76700    477.69456   -113.17488   0.43222808   -112.74265    605.18437    4.3300319    4.3300319    4.3300319    605.18437   -18514.454   -273.25255     20603.26    37740.943    6454.4591   -1305.4165    81.184532 
   76800    659.39576   -113.33865   0.59663514   -112.74202   -1601.0069    4.3333541    4.3333541    4.3333541   -1601.0069    7321.2275   -20026.812    7902.5637    7976.7713   -78.830289    21277.289    81.371541 
   76900    1083.9314   -113.71535   0.98076395   -112.73459    315.81067    4.3370805    4.3370805    4.3370805    315.81067   -2582.2281   -6352.5471    9882.2072   -12821.422   -2474.3311    7212.3783    81.581643 
   77000    807.56416     -113.469   0.73070103    -112.7383     7022.105    4.3287216    4.3287216    4.3287216     7022.105   -19327.513    8225.6758    32168.152    25444.574    5288.6042   -4847.4725    81.110851 
   77100    526.81022   -113.21861   0.47666896   -112.74194   -1113.6031    4.3353208    4.3353208    4.3353208   -1113.6031   -2970.8895   -15398.435    15028.516    19125.501    1747.2966    19018.451     81.48238 
   77200    732.32078   -113.39883   0.66261923   -112.73621      437.814     4.337582     4.337582     4.337582      437.814    3346.0559   -8884.7997    6852.1858   -13486.158   -4647.0098     13742.76    81.609946 
   77300    908.30045   -113.55363   0.82184933   -112.73178    1678.4978    4.3316719    4.3316719    4.3316719    1678.4978   -18273.894   -7488.6986    30798.086    8154.7407    1130.9357   -8130.3306    81.276811 
   77400    734.95474   -113.39979   0.66500249   -112.73479   -4299.6011    4.3321593    4.3321593    4.3321593   -4299.6011   -8440.9677   -25246.511    20788.676    20513.318    3001.9848    15034.756    81.304249 
   77500    574.70319   -113.25822   0.52000352   -112.73822   -5248.7767    4.3352654    4.3352654    4.3352654   -5248.7767     7943.844   -12869.192   -10820.983   -5512.5063   -3308.5599    25223.643    81.479258 
   77600    844.46797   -113.49964   0.76409236   -112.73554   -9424.4995    4.3356396    4.3356396    4.3356396   -9424.4995   -21518.295     -16515.7    9760.4964   -7087.0618   -5060.4963   -11556.166    81.500361 
   77700    800.42502   -113.45946   0.72424138   -112.73522   -3687.6876    4.3292685    4.3292685    4.3292685   -3687.6876   -9736.5914   -19337.935    18011.463    14060.616    246.03064    5991.5671    81.141598 
   77800    672.34673   -113.34749   0.60835345   -112.73914   -9662.6103    4.3357119    4.3357119    4.3357119   -9662.6103    9932.4496   -18168.707   -20751.573    5340.2509   -1833.8408    43856.495    81.504439 
   77900    1010.3633   -113.64765    0.9141979   -112.73345   -2678.9165    4.3366842    4.3366842    4.3366842   -2678.9165    -11610.44    4157.7896   -584.09935   -11135.861    -3411.287   -5741.2065    81.559281 
   78000    800.06887   -113.45946   0.72391912   -112.73555    3118.6036    4.3300566    4.3300566    4.3300566    3118.6036   -13099.964    9891.1209    12564.653    5100.0128   -157.79684   -2841.3494    81.185922 
   78100    381.52124   -113.09002   0.34520843   -112.74481   -12448.397    4.3360469    4.3360469    4.3360469   -12448.397    4767.6028   -18301.712   -23811.081    10582.628    1546.5736    50758.356    81.523329 
   78200    1130.1438    -113.7627    1.0225779   -112.74012    5952.8159    4.3306478    4.3306478    4.3306478    5952.8159    3722.0766     13703.74    432.63127   -593.69283   -1652.1263    6533.4615    81.219181 
   78300     1204.002    -113.8265    1.0894063    -112.7371    5037.4261    4.3352926    4.3352926    4.3352926    5037.4261   -11324.309    24709.762    1726.8255    213.30066   -4636.4289   -4116.0842     81.48079 
   78400    300.54138   -113.02235   0.27193616   -112.75042   -15886.066    4.3386242    4.3386242    4.3386242   -15886.066   -942.56711    -27247.32    -19468.31    8410.9762    2884.3099    48807.112    81.668789 
   78500    747.43767   -113.42061   0.67629731   -112.74431    8717.9192    4.3261159    4.3261159    4.3261159    8717.9192    3284.1255    11982.425    10887.207    6882.5281    1418.4249    13101.961    80.964465 
   78600    1309.9037   -113.91867    1.1852284   -112.73344    1962.0576    4.3371799    4.3371799    4.3371799    1962.0576   -11575.533    15090.422    2371.2832   -3795.0002    -4584.584   -13127.414    81.587255 
   78700    613.95935   -113.29991   0.55552332   -112.74439   -4993.2356      4.33613      4.33613      4.33613   -4993.2356    4368.7739   -10279.658    -9068.823     4086.317    1084.5014    37853.003    81.528017 
   78800    574.07234   -113.26131   0.51943271   -112.74188    4578.8753     4.327572     4.327572     4.327572    4578.8753   -4913.6444    4433.9745    14216.296    14989.618    2980.8592    21611.677    81.046249 
   78900    1094.3756   -113.72418   0.99021408   -112.73397   -2816.1338    4.3373553    4.3373553    4.3373553   -2816.1338   -16696.209   -703.38654     8951.194    -104.7793    204.65751   -18516.318    81.597154 
   79000    840.40841   -113.49625   0.76041919   -112.73583   -1891.7776    4.3343641    4.3343641    4.3343641   -1891.7776    11107.663   -16233.502   -549.49395   -5509.1242   -1326.2701    18858.528    81.428448 
   79100    579.93419   -113.26294   0.52473664    -112.7382   -6081.7564    4.3330396    4.3330396    4.3330396   -6081.7564   -9001.7839   -17679.252    8435.7672    18016.746    4752.3437    28062.499    81.353822 
   79200    905.69458   -113.55371   0.81949149   -112.73422   -2420.0541    4.3340263    4.3340263    4.3340263   -2420.0541   -25501.445   -3365.9646    21607.248    11563.549    8017.7355   -11464.256    81.409412 
   79300    974.19988   -113.61461   0.88147653   -112.73313    4865.7787    4.3325619    4.3325619    4.3325619    4865.7787     6373.736    -10469.76     18693.36   -13289.438   -1437.1272    3096.6024    81.326919 
   79400    663.87316   -113.33922   0.60068639   -112.73854   -5835.2899    4.3361262    4.3361262    4.3361262   -5835.2899   -543.14928   -29202.805    12240.085    13887.381    1248.1988    22179.979    81.527801 
   79500    811.36418   -113.47244   0.73413936    -112.7383    1179.8731     4.331045     4.331045     4.331045    1179.8731   -21996.911    -9315.569      34852.1    26739.925    7961.8935    95.718671    81.241529 
   79600    1098.1287   -113.72743   0.99360991   -112.73382    8109.0938    4.3326462    4.3326462    4.3326462    8109.0938   -1647.2259   -2216.6102    28191.118   -7118.3355   -378.79988   -3220.7549    81.331666 
   79700    707.78869   -113.38032   0.64042208    -112.7399   -5094.6946    4.3372532    4.3372532    4.3372532   -5094.6946    7951.0557   -29457.684    6222.5447     3861.192   -2899.2243    14963.145    81.591389 
   79800    546.51657    -113.2376   0.49449968    -112.7431   -648.93417    4.3310272    4.3310272    4.3310272   -648.93417    -5413.346   -28168.474    31635.017    36026.774    2848.5792     10108.54    81.240526 
   79900    1234.1406   -113.85009    1.1166763   -112.73342    4245.6412    4.3334677    4.3334677    4.3334677    4245.6412   -1250.7323   -9222.9767    23210.633    5393.0651    5126.2706   -6052.1673    81.377941 
   80000    927.61838   -113.57829   0.83932861   -112.73896    752.86663    4.3359541    4.3359541    4.3359541    752.86663    14725.415   -15450.912    2984.0974   -3092.8146   -1127.1397    7213.3455    81.518095 
   80100      315.333   -113.03268   0.28531992   -112.74736   -4627.6284    4.3319987    4.3319987    4.3319987   -4627.6284    7918.2691   -36437.982    14636.828     38555.03   -3529.3234    11755.013     81.29521 
   80200    911.13065   -113.56542   0.82441016   -112.74101   -2462.9722    4.3337972    4.3337972    4.3337972   -2462.9722   -2025.6261   -21037.217    15673.927    9276.2959    3852.2119   -3002.2064    81.396506 
   80300    1113.5605   -113.74217     1.007573    -112.7346    742.39141    4.3347725    4.3347725    4.3347725    742.39141   -1326.0235   -1719.0947    5272.2924   -19748.179    1494.7162    4458.2972     81.45147 
   80400    581.52853   -113.26727   0.52617924    -112.7411   -4072.9987    4.3338274    4.3338274    4.3338274   -4072.9987    4911.5585   -26230.581    9100.0265    33229.026   -4385.3549    10570.182    81.398204 
   80500    662.20895   -113.33827   0.59918058   -112.73909   -3108.6229    4.3332304    4.3332304    4.3332304   -3108.6229   -2097.2609   -22690.852    15462.244    17706.082    1992.9632     677.0717    81.364573 
   80600    1025.4787    -113.6619   0.92787467   -112.73402   -495.28339    4.3325989    4.3325989    4.3325989   -495.28339   -7793.3112   -4353.0985     10660.56   -37312.883    4037.9359   -4809.2891    81.329006 
   80700     854.2063   -113.50898   0.77290381   -112.73607   -4228.7282    4.3352319    4.3352319    4.3352319   -4228.7282   -6139.4462   -8720.7706    2174.0322     13475.15    2270.3555    8194.4212    81.477371 
   80800     766.2616   -113.43089    0.6933296   -112.73756   -5304.0137    4.3331673    4.3331673    4.3331673   -5304.0137   -1652.1459   -21632.931     7373.036    32988.501   -1894.0274    12143.363    81.361016 
   80900    789.71151   -113.45147   0.71454757   -112.73692    2112.2183    4.3311816    4.3311816    4.3311816    2112.2183   -3886.1241   -9725.3336    19948.113   -35849.023   -1762.6513   -3528.3334    81.249217 
   81000    994.86941   -113.63494   0.90017875   -112.73476   -4756.9797    4.3361962    4.3361962    4.3361962   -4756.9797   -6322.4345   -9886.9635    1938.4588    -12818.19     5904.782   -2393.6231    81.531752 
   81100    905.90563   -113.55485   0.81968245   -112.73517    4040.4042    4.3319972    4.3319972    4.3319972    4040.4042    8158.1802   -4776.8349    8739.8672    33644.131   -200.42409    10529.656    81.295123 
   81200     684.3955   -113.35707   0.61925543   -112.73781    206.09066    4.3329394    4.3329394    4.3329394    206.09066    1563.6123   -23037.045    22091.704   -18962.666    -3583.629    6910.2248     81.34818 
   81300    850.58696   -113.50465   0.76962896   -112.73502   -2609.9242    4.3371521    4.3371521    4.3371521   -2609.9242   -2702.8281   -9304.0989    4177.1544   -28017.735     7442.954   -7624.9431    81.585684 
   81400    986.97811   -113.62475   0.89303853   -112.73171    6314.6883    4.3301838    4.3301838    4.3301838    6314.6883    14460.507    2191.2601    2292.2984     18653.92    4926.7536    170.00383    81.193075 
   81500    716.18874   -113.38497   0.64802262   -112.73694    3182.8259    4.3333971    4.3333971    4.3333971    3182.8259    8111.8078   -14757.522    16194.192   -1025.1725    -4137.662    17188.353    81.373964 
   81600     676.3087   -113.34968   0.61193833   -112.73774   -3107.1644    4.3357017    4.3357017    4.3357017   -3107.1644   -1105.7196   -13711.918    5496.1441   -24731.937    2306.1914   -5203.7841    81.503861 
   81700    801.35895   -113.46098   0.72508642    -112.7359    1404.5818    4.3313481    4.3313481    4.3313481    1404.5818    8086.8345    2157.8348   -6030.9239    1910.7251    9456.5515    -20296.13    81.258587 
   81800    876.20157   -113.52758   0.79280559   -112.73477    -124.2562     4.334007     4.334007     4.334007    -124.2562    7355.4455   -15424.233     7696.019    7397.1805    1135.7772    13924.039    81.408327 
   81900    729.02157    -113.3953   0.65963404   -112.73566   -1016.8455    4.3347705    4.3347705    4.3347705   -1016.8455    435.72001   -13989.643    10503.386   -18685.566   -3113.1861    10084.738    81.451358 
   82000    607.01607   -113.28643    0.5492409   -112.73718   -4027.6851    4.3341059    4.3341059    4.3341059   -4027.6851    2281.6527   -9924.7022   -4440.0056   -7439.8903    14982.159   -31694.404    81.413898 
   82100     881.4607   -113.53288   0.79756417   -112.73531    -723.6685    4.3320945    4.3320945    4.3320945    -723.6685    9216.9573   -7253.2348    -4134.728    7568.6603    10654.294   -5535.5488    81.300604 
   82200    1036.5081   -113.67177   0.93785431   -112.73391    2136.8572    4.3324113    4.3324113    4.3324113    2136.8572    261.81543   -11639.105    17787.861   -11106.639    -6914.275    22740.061    81.318441 
   82300     511.9114   -113.20464   0.46318819   -112.74145   -9976.1202     4.337832     4.337832     4.337832   -9976.1202   -4099.6398   -24349.258   -1479.4632   -10201.902    9914.1262   -27501.696     81.62406 
   82400     706.2923   -113.38008   0.63906812   -112.74101   -2702.6149    4.3317406    4.3317406    4.3317406   -2702.6149    9424.8275   -3159.4445   -14373.228    1257.7762     13708.73   -29538.695    81.280677 
   82500    1272.6468   -113.88295    1.1515176   -112.73143    7523.7236    4.3315945    4.3315945    4.3315945    7523.7236    4049.1156    2924.5988    15597.456   -4047.7975   -2905.5194     18231.77    81.272458 
   82600    682.02454    -113.3589   0.61711014   -112.74179   -10778.227    4.3392533    4.3392533    4.3392533   -10778.227   -2861.8241   -28485.517   -987.33919   -9151.5683    2675.7047   -17008.013     81.70432 
   82700    331.51806   -113.04827   0.29996451    -112.7483   -5123.6564    4.3298744    4.3298744    4.3298744   -5123.6564    12887.748   -5940.9402   -22317.777    -1879.626    18917.332   -36054.574    81.175674 
   82800    1213.9274   -113.83544    1.0983871   -112.73705    3723.0132    4.3326889    4.3326889    4.3326889    3723.0132   -2021.2805    8930.2866    4260.0336    6424.0004    10580.441    8207.2242    81.334075 
   82900     1009.308   -113.65185   0.91324305   -112.73861   -2577.5148    4.3393885    4.3393885    4.3393885   -2577.5148    8189.9942   -16931.277    1008.7389   -9008.6642   -8983.8085   -11657.534    81.711954 
   83000    277.94158   -112.99809   0.25148739   -112.74661   -2811.0663    4.3296963    4.3296963    4.3296963   -2811.0663    18496.624   -13438.964    -13490.86   -5454.1006     18463.93   -37829.314    81.165655 
   83100    811.50126    -113.4755    0.7342634   -112.74124   -1389.2469     4.334761     4.334761     4.334761   -1389.2469   -2108.5152    5277.5375   -7336.7631     3851.067    21272.954    1625.2714    81.450824 
   83200    1252.0075   -113.86507    1.1328427   -112.73222   -1254.2841    4.3366452    4.3366452    4.3366452   -1254.2841    4892.9994   -3238.1237   -5417.7281   -4469.1131   -13648.032    3156.9399    81.557083 
   83300     491.7082   -113.18747   0.44490791   -112.74257   -135.92612    4.3307618    4.3307618    4.3307618   -135.92612    22021.637   -7139.8416   -15289.574   -6480.5319     11186.59   -33474.747    81.225592 
   83400    535.27621    -113.2285   0.48432916   -112.74417   -11619.725    4.3356869    4.3356869    4.3356869   -11619.725   -16187.797    1720.7247   -20392.104   -5742.9533    30201.827   -10623.427    81.503025 
   83500    1188.9478   -113.80915     1.075785   -112.73337    5094.4179    4.3324795    4.3324795    4.3324795    5094.4179    10235.932    6333.6473   -1286.3252    7257.1837   -686.58476    9980.2285    81.322283 
   83600    886.05891   -113.54041   0.80172472   -112.73869   -2845.9122     4.334348     4.334348     4.334348   -2845.9122    13890.887   -7659.1582   -14769.465   -908.82787    1321.4432   -20065.318    81.427545 
   83700    330.77167   -113.04465   0.29928916   -112.74536   -9469.6752    4.3369571    4.3369571    4.3369571   -9469.6752   -10245.871    4658.8454       -22822   -11180.568    33345.882   -17330.972    81.574683 
   83800    1059.4731    -113.6954   0.95863355   -112.73677    3231.8612    4.3300732    4.3300732    4.3300732    3231.8612    111.64803     7297.911    2286.0246    3279.0475    11086.075    9017.8925    81.186855 
   83900    1127.6955   -113.75523    1.0203625   -112.73486    2273.9515    4.3341742    4.3341742    4.3341742    2273.9515    18287.059   -5297.1783   -6168.0265    965.27114   -9480.1502    -2319.159     81.41775 
   84000    476.26678   -113.17505   0.43093619   -112.74411   -6682.4376    4.3358625    4.3358625    4.3358625   -6682.4376   -5395.5582     7133.836   -21785.591   -3070.0144    31986.685   -20379.254    81.512931 
   84100    734.01658   -113.40522   0.66415362   -112.74107     4507.749    4.3325902    4.3325902    4.3325902     4507.749    5509.6268    8595.7672   -582.14701   -11208.479    19732.137    504.25922    81.328516 
   84200    1224.9593    -113.8404    1.1083689   -112.73203     4140.036    4.3333539    4.3333539    4.3333539     4140.036    6628.3898   -1849.1346     7640.853   -282.96492   -15519.652    5947.3467    81.371526 
   84300    667.19135   -113.34328   0.60368875    -112.7396   -1628.2876    4.3344976    4.3344976    4.3344976   -1628.2876    625.98418    10576.498   -16087.345    5995.8275    22003.725    -15987.59    81.435977 
   84400    587.12968   -113.27181   0.53124727   -112.74056   -5652.2447    4.3348933    4.3348933    4.3348933   -5652.2447    -8876.536    3350.9989   -11431.197   -22892.015    23152.702    -7230.959    81.458282 
   84500    988.77576    -113.6281   0.89466508   -112.73344    6213.5374    4.3312275    4.3312275    4.3312275    6213.5374     4086.366    380.50668     14173.74   -8814.0063   -10618.863    8557.9829    81.251801 
   84600    915.55762   -113.56342   0.82841577     -112.735   -3529.2003    4.3343731    4.3343731    4.3343731   -3529.2003   -5077.2231    6639.0128    -12149.39    15420.564     7041.772   -5511.0632    81.428958 
   84700    470.84234   -113.16753   0.42602804    -112.7415   -11123.165    4.3352147    4.3352147    4.3352147   -11123.165   -22524.373   -1046.8988   -9798.2223   -16529.849    23643.495    -13979.76    81.476401 
   84800    753.54459   -113.42091   0.68182298   -112.73909    639.26091     4.330649     4.330649     4.330649    639.26091   -15238.272   -699.88421    17855.939   -27382.004    1336.9571    2712.2575    81.219245 
   84900    1103.4928   -113.73017   0.99846351    -112.7317    101.59802    4.3368496    4.3368496    4.3368496    101.59802     1270.077    3208.9237   -4174.2066    11995.863   -7735.0307    466.07774    81.568617 
   85000     533.7128   -113.22377   0.48291456   -112.74086   -8706.4013    4.3350341    4.3350341    4.3350341   -8706.4013   -24023.403    3098.3617   -5194.1625    -3472.899    15371.213   -11720.669    81.466218 
   85100    432.07145   -113.13575   0.39094732    -112.7448   -1609.9841    4.3290575    4.3290575    4.3290575   -1609.9841   -27416.809    1125.2599    21461.597   -43609.948    12704.431   -2345.1677    81.129739 
   85200    1257.6862   -113.87304    1.1379809   -112.73506     1884.933     4.336993     4.336993     4.336993     1884.933   -898.95267     5936.388     617.3638   -316.95938   -6312.8128    3309.7411    81.576707 
   85300     906.9752   -113.56337   0.82065022   -112.74271    2959.8576     4.334315     4.334315     4.334315    2959.8576   -6865.6121    13653.892    2091.2929    7773.6765    7140.3255   -3804.4173    81.425684 
   85400    187.10923   -112.91995   0.16930037   -112.75065   -6233.5409    4.3310644    4.3310644    4.3310644   -6233.5409   -32098.812   -4731.9638    18130.153   -44137.042    14037.811   -8044.6493     81.24262 
   85500    994.12695   -113.64417   0.89950696   -112.74467   -2996.6046    4.3368333    4.3368333    4.3368333   -2996.6046       -13735    4775.3183   -30.131837   -8932.4282     869.2176   -1816.9577    81.567694 
   85600    1353.0384   -113.96045    1.2242576   -112.73619    8749.3369    4.3308074    4.3308074    4.3308074    8749.3369    4282.6437    16521.715    5443.6518    7510.2859   -2169.8333    2767.9995     81.22816 
   85700      413.107   -113.12324    0.3737879   -112.74946   -4128.6316    4.3346357    4.3346357    4.3346357   -4128.6316    -17722.83    -10728.52    16065.455    -41906.19    11312.226   -6900.3046    81.443757 
   85800     642.1679   -113.32638   0.58104701   -112.74534   -8260.4772    4.3377083    4.3377083    4.3377083   -8260.4772     -22888.9   -951.30744   -941.22443   -13834.044     11892.94   -4521.8985    81.617075 
   85900     1256.752   -113.86826    1.1371356   -112.73112    13230.588    4.3295082    4.3295082    4.3295082    13230.588    14567.609     13984.25    11139.906    11250.649    -10718.58    4590.2691    81.155078 
   86000    786.49748   -113.45034   0.71163945    -112.7387   -4371.8593    4.3360513    4.3360513    4.3360513   -4371.8593   -14523.131   -14095.342    15502.895   -32961.668    2463.4069   -2335.8112    81.523578 
   86100     512.0836    -113.2044     0.463344   -112.74106   -4619.1269    4.3348452    4.3348452    4.3348452   -4619.1269   -15278.053   -1327.2155    2747.8875   -20029.395     19378.74   -10433.889     81.45557 
   86200    1027.1332   -113.66382   0.92937173   -112.73444    4538.7549    4.3310702    4.3310702    4.3310702    4538.7549    6519.1048    6195.6013     901.5586    10463.455   -6002.3366   -2854.5386    81.242944 
   86300    966.08363   -113.60852   0.87413277   -112.73438   -81.757556    4.3358531    4.3358531    4.3358531   -81.757556   -2974.9004   -15081.306    17810.934   -10450.181   -7590.4797    3054.4551    81.512402 
   86400    491.52282   -113.18553   0.44474018   -112.74079    -4772.328    4.3332243    4.3332243    4.3332243    -4772.328    -14760.63    -6338.602    6782.2479   -24555.301    19400.987   -10320.765    81.364226 
   86500    714.39825   -113.38629   0.64640255   -112.73988   -2821.0698    4.3337623    4.3337623    4.3337623   -2821.0698    178.61763    1899.5511   -10541.378    3109.4817    17916.874   -11634.294     81.39454 
   86600    1160.7485    -113.7821    1.0502696   -112.73183    5208.9932    4.3335557    4.3335557    4.3335557    5208.9932    8262.9738   -7237.5262    14601.532     5297.598   -8263.8667    3091.9556    81.382899 
   86700    563.17942   -113.25129   0.50957658   -112.74171   -2207.2382    4.3345161    4.3345161    4.3345161   -2207.2382   -2030.8371   -10480.544    5889.6667   -20984.519    10408.308   -3592.3607    81.437016 
   86800    428.25224   -113.13129   0.38749163    -112.7438   -11320.648     4.335939     4.335939     4.335939   -11320.648    -4582.932   -2947.7528    -26431.26   -5272.7232     33801.88   -17658.201    81.517245 
   86900    1207.4715   -113.82529    1.0925456   -112.73274    3275.6182    4.3310754    4.3310754    4.3310754    3275.6182    10979.077   -1354.5679    202.34524    3109.0772   -5477.2773   -3499.4261    81.243239 
   87000    883.08716    -113.5375   0.79903582   -112.73846   -2801.4969    4.3356315    4.3356315    4.3356315   -2801.4969    1565.7003   -11477.841    1507.6494   -10438.333    3577.5142    3808.8565    81.499902 
   87100    286.77231   -113.00615   0.25947761   -112.74667   -12610.159    4.3355521    4.3355521    4.3355521   -12610.159   -7580.2782   -4960.1482   -25290.051   -11503.465    39378.579   -15276.084    81.495423 
   87200    922.90826   -113.57627   0.83506679    -112.7412    1648.8976     4.330666     4.330666     4.330666    1648.8976    14991.831     5023.913   -15069.051    664.85382     127.1304   -14322.271    81.220202 
   87300    1228.4827   -113.84488    1.1115569   -112.73332   -1630.7708    4.3362181    4.3362181    4.3362181   -1630.7708    2072.1972   -2364.5709   -4599.9389     4337.512    -5981.583    5124.4534    81.532987 
   87400    435.62405   -113.13935   0.39416179   -112.74518   -4109.4341    4.3342069    4.3342069    4.3342069   -4109.4341   -1529.6082    3134.5957    -13933.29   -12485.648    31756.705   -8069.7239    81.419589 
   87500    566.45442   -113.25688   0.51253986   -112.74434    -3241.524    4.3331408    4.3331408    4.3331408    -3241.524    3968.9518    4869.0331   -18562.557   -2931.8575    9192.0216   -20263.493    81.359526 
   87600    1188.7468   -113.80814    1.0756031   -112.73254    2074.0695    4.3352358    4.3352358    4.3352358    2074.0695    9632.4072     5968.517   -9378.7158    2838.8116   -18716.132    3799.8794    81.477592 
   87700    789.57268   -113.45272   0.71442195   -112.73829   -671.84049    4.3330804    4.3330804    4.3330804   -671.84049   -7381.1862    7867.0231   -2501.3584   -9811.4419    20769.102   -2054.4723     81.35612 
   87800    336.23229   -113.04798   0.30423004   -112.74375   -7155.4737    4.3366404    4.3366404    4.3366404   -7155.4737    1453.7147   -2589.6687   -20330.467    -6304.636    24104.973   -22669.708     81.55681 
   87900    1066.4679   -113.70038   0.96496259   -112.73542      2025.29    4.3329426    4.3329426    4.3329426      2025.29     10707.78    70.316321   -4702.2263    -1255.644   -21207.499    -5686.185    81.348361 
   88000    1074.8442   -113.70685   0.97254158   -112.73431     4550.907    4.3320404    4.3320404    4.3320404     4550.907   -392.52467    8807.6985    5237.5473    3983.5784    7180.3436    6010.4114    81.297555 
   88100    410.50693    -113.1176    0.3714353   -112.74616   -9548.1696    4.3352889    4.3352889    4.3352889   -9548.1696    1237.9419     -5329.45   -24553.001   -7305.4439    30696.391   -18188.733    81.480583 
   88200    769.21972   -113.43908   0.69600617   -112.74307    3754.1546    4.3325365    4.3325365    4.3325365    3754.1546    18032.141   -8065.1945    1295.5172   -8130.0604    -4371.703   -19812.956    81.325488 
   88300    1348.0952   -113.95194    1.2197849   -112.73216    1462.2295    4.3360447    4.3360447    4.3360447    1462.2295   -5033.4491   -3064.6139    12484.751    10308.058   -1954.0831    9401.6492    81.523208 
   88400    578.09803   -113.26687   0.52307525   -112.74379   -322.33463    4.3328473    4.3328473    4.3328473   -322.33463    6335.3895   -1942.8288   -5359.5647   -2495.2523    20886.424   -13946.571    81.342995 
   88500    578.32848   -113.26736   0.52328376   -112.74408   -5267.8678    4.3351389    4.3351389    4.3351389   -5267.8678    5510.6163   -23133.154    1818.9342   -11188.967    12937.554   -28298.883    81.472124 
   88600    1290.2878   -113.90061    1.1674795   -112.73313    4571.3701     4.335186     4.335186     4.335186    4571.3701   -168.42903   -8385.5667    22268.106    3512.6713   -5417.5115    5635.4889    81.474781 
   88700    932.27383   -113.58216   0.84354095   -112.73862    3774.8983    4.3299507    4.3299507    4.3299507    3774.8983    606.10755   -4988.9654    15707.553    9454.8032    8332.2268   -7805.2438    81.179962 
   88800    432.38617   -113.13658   0.39123209   -112.74535   -13166.645    4.3376795    4.3376795    4.3376795   -13166.645    200.08998   -25199.052   -14500.973   -10354.397    19066.598    -32767.59    81.615449 
   88900    1068.1406   -113.70359   0.96647605   -112.73711   -842.44095    4.3331819    4.3331819    4.3331819   -842.44095   -3205.4541   -11007.371    11685.502   -11912.276   -7291.6058     1648.996    81.361839 
   89000    1067.4345   -113.69935    0.9658372   -112.73351    2429.2581    4.3335691    4.3335691    4.3335691    2429.2581   -1250.8737   -1863.7609    10402.409    16323.421    2121.1405    1086.0752    81.383654 
   89100    508.72917   -113.20221   0.46030885    -112.7419    -13679.94    4.3371754    4.3371754    4.3371754    -13679.94   -186.13021   -12224.256   -28629.434   -2193.5815    23934.358   -32954.831    81.587001 
   89200    754.78708   -113.42127   0.68294721   -112.73833    2017.8655    4.3304284    4.3304284    4.3304284    2017.8655    3477.9008    800.80035    1774.8955   -15773.098    3044.7853   -12170.707    81.206837 
   89300      1122.34   -113.74718    1.0155168   -112.73166   -968.53946    4.3367968    4.3367968    4.3367968   -968.53946   -4871.3981   -5250.2592    7216.0389    8733.1156   -7446.0651    6077.7057    81.565633 
   89400    534.18955   -113.22445   0.48334593   -112.74111   -2195.4516    4.3339417    4.3339417    4.3339417   -2195.4516    14719.091    6813.4388   -28118.884    5737.9305    14803.933   -22652.294    81.404647 
   89500    530.70396   -113.22149    0.4801921    -112.7413   -98.982483    4.3319285    4.3319285    4.3319285   -98.982483    5431.6583    5135.0165   -10863.622   -9842.3573    17863.416   -20686.273    81.291254 
   89600    1085.2157   -113.71432   0.98192601    -112.7324    608.87591    4.3375063    4.3375063    4.3375063    608.87591    -3093.799   -73.195525    4993.6222   -11548.205   -7968.4352    9724.1163    81.605676 
   89700    736.88426   -113.40412   0.66674837   -112.73737    3633.5121    4.3318971    4.3318971    4.3318971    3633.5121    15641.085    8967.5737   -13708.122    8281.8716    6542.5081   -14051.688     81.28949 
   89800    355.44959   -113.06478   0.32161826   -112.74317    -8375.792    4.3354361    4.3354361    4.3354361    -8375.792    1514.7028    317.57232   -26959.651   -2282.5696    24863.063   -26420.867    81.488884 
   89900    965.61529   -113.60914     0.873709   -112.73543   -94.560373    4.3330967    4.3330967    4.3330967   -94.560373    2994.5048   -102.11817   -3176.0677   -20029.027   -2413.9412     6019.329    81.357043 
   90000    972.14589    -113.6138   0.87961803   -112.73418    6000.1202    4.3321278    4.3321278    4.3321278    6000.1202    13453.601    1113.2005    3433.5594     5056.591   -735.56828   -4361.2834    81.302478 
   90100    408.63884   -113.11283   0.36974501   -112.74309   -9844.5727    4.3376958    4.3376958    4.3376958   -9844.5727      5065.63    227.84507   -34827.193    4611.8062    26246.859   -28051.015    81.616369 
   90200    735.68317   -113.40335   0.66566159   -112.73769      3582.22    4.3309237    4.3309237    4.3309237      3582.22     8490.782    12584.327   -10328.449   -12508.947    9476.3054   -3929.0029    81.234706 
   90300    1074.1994   -113.70324   0.97195818   -112.73129    -1184.279    4.3371775    4.3371775    4.3371775    -1184.279    3712.1026   -6011.4141   -1253.5254   -9183.8447   -6856.9195    10205.174    81.587115 
   90400    592.57046   -113.27474    0.5361702   -112.73857   -5411.4984    4.3349176    4.3349176    4.3349176   -5411.4984    9289.2768   -1136.2118    -24387.56    5996.4306    21319.414   -21408.358    81.459651 
   90500    608.56991   -113.28901   0.55064684   -112.73836    5113.3317    4.3286341    4.3286341    4.3286341    5113.3317    7600.8316    14282.039   -6542.8759   -1594.1838    17085.513   -18753.996    81.105935 
   90600    1035.4087   -113.66971   0.93685953   -112.73285   -5505.0055    4.3389845    4.3389845    4.3389845   -5505.0055   -5619.6956   -13909.975    3014.6538   -20205.699   -8802.0128    17741.594    81.689134 
   90700      774.095   -113.43556   0.70041742   -112.73515   -1264.3416    4.3332203    4.3332203    4.3332203   -1264.3416    12294.134   -5420.2584   -10666.901    343.24173    11195.592   -6946.4651    81.364002 
   90800    655.72831   -113.32998   0.59331675   -112.73666   -2522.0972    4.3327125    4.3327125    4.3327125   -2522.0972   -1694.9682   -200.00255    -5671.321    4931.2826    21340.789   -21506.349      81.3354 
   90900    855.76114   -113.50725   0.77431066   -112.73294   -2257.4948    4.3367509    4.3367509    4.3367509   -2257.4948   -11257.732   -9157.2476    13642.496   -15978.911    -5722.846    8990.3937    81.563046 
   91000    807.02475   -113.46328   0.73021295   -112.73307    2333.3387    4.3323585    4.3323585    4.3323585    2333.3387    1672.0367    458.52177    4869.4577   -7318.9156    1368.4577    4768.1913    81.315465 
   91100    819.34561   -113.47445   0.74136112   -112.73309   -5188.1928     4.336034     4.336034     4.336034   -5188.1928   -5006.2552   -99.696462   -10458.627    5142.8426    21418.496   -13243.111    81.522606 
   91200     765.0305   -113.42533   0.69221568   -112.73311    787.42586    4.3325095    4.3325095    4.3325095    787.42586   -15254.886    1702.3998    15914.763   -4126.7449   -1113.5596   -4131.0466    81.323971 
   91300    497.13512   -113.18938    0.4498183   -112.73956   -295.12111    4.3335957    4.3335957    4.3335957   -295.12111   -16095.106    6293.0664    8916.6758    -12737.13   -11248.702     14953.45    81.385149 
   91400    986.34226   -113.62792   0.89246321   -112.73545     1264.001    4.3356483    4.3356483    4.3356483     1264.001   -5776.5778    8595.3945    973.18632    2238.9995    10609.143     6084.074    81.500851 
   91500    1086.7123   -113.71697   0.98328011   -112.73369    6146.9233    4.3310945    4.3310945    4.3310945    6146.9233   -12947.121    18260.386    13127.504   -3451.6655    1991.2018   -9406.3551    81.244315 
   91600    269.49926   -112.99069   0.24384859   -112.74684   -14303.764     4.337148     4.337148     4.337148   -14303.764   -35517.143   -11666.415    4272.2665   -14127.128   -16524.888    15813.735    81.585454 
   91700    795.42676   -113.46387   0.71971885   -112.74415   -565.80835    4.3321182    4.3321182    4.3321182   -565.80835   -6608.0195    4171.3568    739.23759   -1106.0684   -3933.4613      10710.5    81.301936 
   91800    1383.0837   -113.98262    1.2514432   -112.73118    3216.7356     4.336341     4.336341     4.336341    3216.7356   -6329.6729    15227.528    752.35196   -690.01392    2142.8054   -10910.319     81.53992 
   91900    587.77664   -113.27561   0.53183265   -112.74377    -10739.58    4.3369004    4.3369004    4.3369004    -10739.58   -34839.378    1886.1826    734.45508   -11661.712   -12445.074    7663.9269    81.571478 
   92000    589.32672   -113.27639    0.5332352   -112.74315    6504.6979    4.3270997    4.3270997    4.3270997    6504.6979   -12750.116    19948.961    12315.248   -3465.1816    -12197.41    15335.226    81.019713 
   92100    1200.4179   -113.82041    1.0861634   -112.73425    1537.6568    4.3375634    4.3375634    4.3375634    1537.6568   -3093.2227     19144.23   -11438.037    5734.1431    6961.0719   -6016.6648    81.608895 
   92200     914.6271   -113.56463   0.82757382   -112.73706    6760.9337    4.3330341    4.3330341    4.3330341    6760.9337   -5966.1649    28643.418   -2394.4516    -7586.291   -1364.9446   -10863.174    81.353513 
   92300    739.60571   -113.40765   0.66921079   -112.73844      2534.69    4.3323262    4.3323262    4.3323262      2534.69   -18002.429    17980.245    7626.2539   -6549.9829   -18063.785    14287.351    81.313649 
   92400    876.72796   -113.52783   0.79328188   -112.73454   -2444.0808     4.336836     4.336836     4.336836   -2444.0808   -6703.9395    13977.285   -14605.588    2649.9072    6971.3345   -2614.6109    81.567848 
   92500    884.48396   -113.53398   0.80029968   -112.73368    8255.1753    4.3297828    4.3297828    4.3297828    8255.1753    10669.346    22658.271   -8562.0917   -234.04701     11892.13   -27251.729    81.170522 
   92600    950.42706   -113.59415   0.85996637   -112.73418    -3193.556    4.3370989    4.3370989    4.3370989    -3193.556   -14109.508    10710.002   -6181.1622   -8115.5115   -20997.868    6131.2335    81.582683 
   92700    820.94246   -113.47848   0.74280599   -112.73568   -1176.4492    4.3327517    4.3327517    4.3327517   -1176.4492   -5402.0357    7680.2946   -5807.6065   -3039.9789   -2801.8377   -937.86694     81.33761 
   92800    705.36691   -113.37616    0.6382308   -112.73792    2341.8577    4.3309949    4.3309949    4.3309949    2341.8577    12589.481     5014.994   -10578.902     5616.254    23037.984   -26790.943    81.238709 
   92900    950.45786   -113.59338   0.85999425   -112.73338   -8017.1428    4.3417162    4.3417162    4.3417162   -8017.1428   -11846.971    3201.8318   -15406.289   -4912.3136   -12384.509    1912.2205    81.843518 
   93000    969.15642     -113.609   0.87691309   -112.73209    6963.9142    4.3282708    4.3282708    4.3282708    6963.9142   -1848.4618     15006.49    7733.7147   -8643.2529   -17316.078    2602.8655    81.085515 
   93100    643.95555   -113.32124   0.58266452   -112.73858   -1531.3742    4.3320365    4.3320365    4.3320365   -1531.3742    8391.3303   -7317.3155   -5668.1375   -106.91775    20350.803   -26109.234    81.297335 
   93200    831.19101   -113.48862   0.75207909   -112.73654   -9679.5241     4.339864     4.339864     4.339864   -9679.5241   -2739.7084   -2826.6855   -23472.178    4961.3012    5414.7366   -11626.618    81.738817 
   93300    1074.0724   -113.70322   0.97184327   -112.73138    12176.016     4.328447     4.328447     4.328447    12176.016    9687.3802    16033.196    10807.471   -4691.3596   -23948.655    6412.2488    81.095416 
   93400     732.5982   -113.40059   0.66287025   -112.73772   -4081.9607    4.3360822    4.3360822    4.3360822   -4081.9607    3592.0382   -10091.477   -5746.4428   -11439.679     9108.933    -19143.53    81.525321 
   93500    722.86875   -113.39153   0.65406684   -112.73746   -2409.1005    4.3353852    4.3353852    4.3353852   -2409.1005    11858.917   -3625.3519   -15460.867     3784.551    20541.656   -18695.246    81.486012 
   93600    1138.0553   -113.76093    1.0297363   -112.73119    8010.7402      4.33052      4.33052      4.33052    8010.7402    7790.6017    12116.404    4125.2151   -2026.7207   -14447.312    9246.5528    81.211986 
   93700    800.75257   -113.46203   0.72453775   -112.73749   -3524.7447    4.3358018    4.3358018    4.3358018   -3524.7447    4651.9431   -13282.329   -1943.8482   -18127.578   -6758.5906   -11359.325    81.509509 
   93800    557.76301   -113.24493   0.50467569   -112.74026   -1618.2999    4.3333881    4.3333881    4.3333881   -1618.2999    8955.7282   -2692.5767   -11118.051   -3107.6096    18218.296   -25156.499    81.373456 
   93900    1039.8029   -113.67425   0.94083554   -112.73341   -840.22223    4.3366055    4.3366055    4.3366055   -840.22223   -5405.7841    5533.8418   -2648.7244    4230.6241    9335.5957    4915.3783    81.554844 
   94000    996.88466   -113.63587   0.90200219   -112.73387    3039.1934    4.3314083    4.3314083    4.3314083    3039.1934    2067.5574   -6159.6063    13209.629   -11489.628   -9731.1508   -2417.7075    81.261973 
   94100    343.12105   -113.05507   0.31046313    -112.7446   -1633.2087    4.3314381    4.3314381    4.3314381   -1633.2087     11451.68   -12527.457    -3823.849   -10057.034    11186.797   -24666.718    81.263651 
   94200    707.27551   -113.38163   0.63995775   -112.74167   -8104.1996    4.3394301    4.3394301    4.3394301   -8104.1996   -11197.211    1534.5604   -14649.948    4302.3312    27930.013   -941.46749    81.714307 
   94300    1172.9101    -113.7927    1.0612737   -112.73142     8399.424    4.3297206    4.3297206    4.3297206     8399.424    375.89967    5702.1258    19120.247   -4772.1881   -7688.0063    1643.5262    81.167021 
   94400    557.12515   -113.24643   0.50409854   -112.74233   -7508.6786    4.3340653    4.3340653    4.3340653   -7508.6786   -3348.6615   -15859.039   -3318.3352   -14230.066    4491.5055   -20884.981    81.411611 
   94500    351.93572   -113.06268   0.31843883   -112.74425    -10405.36     4.337381     4.337381     4.337381    -10405.36   -7638.9151    2012.4874   -25589.652    709.18741    36036.739   -11408.767    81.598604 
   94600    1078.3759   -113.70931    0.9757372   -112.73357    7889.7672    4.3299657    4.3299657    4.3299657    7889.7672   -3231.3216    14868.169    12032.454    846.93499   -2728.2617    6926.0165     81.18081 
   94700    857.16451   -113.51091   0.77558046   -112.73533   -4888.0083    4.3369746    4.3369746    4.3369746   -4888.0083   -5176.6558   -10705.566    1218.1969   -10991.313   -5656.2212   -8188.3004    81.575668 
   94800    393.64106   -113.09844    0.3561747   -112.74227    -8418.012    4.3336416    4.3336416    4.3336416    -8418.012   -6496.0898   -198.46216   -18559.484   -7277.7715    37767.952   -17616.682    81.387739 
   94900    869.00241    -113.5249   0.78629164    -112.7386    7492.8885     4.329666     4.329666     4.329666    7492.8885    10069.408    13588.388   -1179.1297    2880.4535    11921.778    2451.0424    81.163951 
   95000    1098.8893   -113.72825   0.99429813   -112.73396    2501.3165    4.3360504    4.3360504    4.3360504    2501.3165     5667.443   -1471.0222    3307.5287   -1684.5554   -19427.202    4838.3112     81.52353 
   95100     424.1053   -113.12795   0.38373939   -112.74421   -4104.9864    4.3344558    4.3344558    4.3344558   -4104.9864   -2195.8114    6554.5258   -16673.673   -8801.0604    27948.886   -12773.554     81.43362 
   95200    706.78455   -113.38109   0.63951351   -112.74157   -2321.6469    4.3327997    4.3327997    4.3327997   -2321.6469   -828.64035    5497.7352   -11634.035    2516.2863    28634.357   -9871.5883     81.34031 
   95300    1255.6658   -113.86769    1.1361528   -112.73154    5035.6086    4.3327121    4.3327121    4.3327121    5035.6086    12358.591   -1507.2213    4255.4558    4024.0454   -19617.273     3923.639    81.335379 
   95400    603.61524   -113.29039   0.54616376   -112.74423   -5289.3592    4.3329433    4.3329433    4.3329433   -5289.3592    -9359.052    9239.1363   -15748.162   -9284.0467    17592.826   -4129.1845    81.348398 
   95500    337.59799   -113.05396   0.30546576   -112.74849   -8591.7282    4.3354914    4.3354914    4.3354914   -8591.7282   -4608.4494    6022.4443   -27189.179   -7109.9183    36668.335   -17857.792    81.492003 
   95600    1211.3024   -113.83044    1.0960119   -112.73443    3223.0467    4.3357141    4.3357141    4.3357141    3223.0467    14458.327   -4950.1638    160.97644    4790.6542   -12401.456   -4484.9679    81.504561 
   95700    945.86499   -113.59295   0.85583852   -112.73711   -1122.5278    4.3331167    4.3331167    4.3331167   -1122.5278   -2417.0429    7019.0785   -7969.6191    1076.6341    14120.468    3522.4731    81.358167 
   95800    224.02637   -112.94937   0.20270377   -112.74666   -9733.9041    4.3322234    4.3322234    4.3322234   -9733.9041   -1601.8746    2566.3514   -30166.189   -9049.3899    37198.621   -17195.021     81.30786 
   95900    790.26164   -113.45761   0.71504534   -112.74256   -4074.7991    4.3357478    4.3357478    4.3357478   -4074.7991    17699.422   -15643.352   -14280.468    1317.2954   -4341.4679   -13471.397    81.506463 
   96000    1160.6243    -113.7845    1.0501573   -112.73434    8007.2771    4.3316315    4.3316315    4.3316315    8007.2771    3550.9542    15654.105    4816.7719    7184.6974    2874.9831    8642.7652     81.27454 
   96100    539.28544   -113.23173    0.4879568   -112.74377    -1464.002    4.3318969    4.3318969    4.3318969    -1464.002    443.10778    13717.973   -18553.087   -7717.5923    29731.189   -11550.773    81.289481 
   96200    476.83954    -113.1748   0.43145443   -112.74335   -12101.146    4.3388325    4.3388325    4.3388325   -12101.146    10785.457   -21273.083   -25815.812   -7247.3602    6334.5687   -21874.039    81.680551 
   96300    1140.5719   -113.76376    1.0320135   -112.73174    2482.1561    4.3317258    4.3317258    4.3317258    2482.1561    3341.2168    7132.1927   -3026.9412    676.43213    -13059.01    3709.8141    81.279849 
   96400    868.52689   -113.52127   0.78586138   -112.73541    3370.8751    4.3306974    4.3306974    4.3306974    3370.8751   -6931.4102    22281.805   -5237.7691   -1214.5658     13785.41     -5158.37    81.221971 
   96500    436.73634   -113.13789   0.39516822   -112.74272   -10767.425     4.337259     4.337259     4.337259   -10767.425     3201.556   -19294.018   -16209.813   -10737.495    17769.387   -25810.007    81.591716 
   96600    907.37668   -113.55848   0.82101349   -112.73747    -603.1699    4.3320048    4.3320048    4.3320048    -603.1699    550.55623    2141.9279   -4501.9938   -4168.6223   -14782.867   -5872.9745    81.295552 
   96700    1093.4922   -113.72345   0.98941472   -112.73404    2151.2823    4.3311716    4.3311716    4.3311716    2151.2823   -12164.947    21963.266    -3344.472     6459.908   -5654.8107     8449.909    81.248651 
   96800    505.82347   -113.19974    0.4576797   -112.74206   -5850.8816    4.3357273    4.3357273    4.3357273   -5850.8816   -905.78183   -4924.3957   -11722.467   -10435.178    16450.797   -27969.633    81.505303 
   96900    644.72687   -113.32311   0.58336243   -112.73974   -2897.4674     4.335451     4.335451     4.335451   -2897.4674   -4250.4814   -3635.1826   -806.73826   -13228.888   -1172.9984   -22144.789    81.489724 
   97000    1132.3366   -113.75544     1.024562   -112.73088    2786.1637    4.3325295    4.3325295    4.3325295    2786.1637   -13782.833    19725.213    2416.1108    1487.5445   -16666.175    13097.507    81.325093 
   97100    659.27219   -113.33473   0.59652333   -112.73821    103.01417    4.3312038    4.3312038    4.3312038    103.01417     2642.719    2913.0935     -5246.77   -1933.0299    4858.0546   -22893.699    81.250465 
   97200    415.92581   -113.11959   0.37633842   -112.74325   -6173.3956    4.3363322    4.3363322    4.3363322   -6173.3956    593.54213   -15912.801   -3200.9278   -13497.981    14018.106   -28015.167    81.539426 
   97300    1010.9791    -113.6492   0.91475515   -112.73444   -437.57212    4.3338411    4.3338411    4.3338411   -437.57212   -15276.226      4666.46    9297.0494   -8010.0874   -14560.206    9893.3421    81.398977 
   97400    893.87245   -113.54379   0.80879458     -112.735    2111.3349    4.3299927    4.3299927    4.3299927    2111.3349   -2058.7862    7387.4223    1005.3687    5843.5197   -8331.5589   -13900.142    81.182325 
   97500    364.27414   -113.07298    0.3296029   -112.74338   -9981.0899    4.3363101    4.3363101    4.3363101   -9981.0899    3984.8636   -20696.433     -13231.7   -13243.196    12250.002   -31593.017    81.538175 
   97600    795.11886   -113.45709   0.71944026   -112.73765    213.70315    4.3345114    4.3345114    4.3345114    213.70315   -2008.1488   -7319.6411    9968.8993   -17141.786    2419.7542    2820.5938    81.436752 
   97700    1080.4107   -113.70898   0.97757827    -112.7314    2795.1073    4.3323725    4.3323725    4.3323725    2795.1073     501.2947    584.71217    7299.3149    10199.568   -5621.2367    -2076.473    81.316258 
   97800    494.94751   -113.18796   0.44783891   -112.74013   -8138.8038    4.3345152    4.3345152    4.3345152   -8138.8038    4502.9343   -16020.901   -12898.445    198.93367     4588.206   -32008.604    81.436967 
   97900    626.36562   -113.30743   0.56674877   -112.74068   -2906.3432    4.3330956    4.3330956    4.3330956   -2906.3432   -6376.5074   -10264.229    7921.7072   -22415.892    13548.268    -3383.258    81.356979 
   98000     1099.592   -113.72785   0.99493394   -112.73291    3088.7282    4.3344366    4.3344366    4.3344366    3088.7282     1660.221   -2391.8989    9997.8625   -2469.7745   -272.42101    7507.1015     81.43254 
   98100    799.39269   -113.46095   0.72330731   -112.73764   -98.548994    4.3321359    4.3321359    4.3321359   -98.548994    12060.607    -12493.73    137.47617    11149.547   -6874.3327    -27337.82    81.302935 
   98200    496.67514   -113.19158   0.44940211   -112.74218   -5947.6482    4.3338369    4.3338369    4.3338369   -5947.6482   -13173.191   -10153.867    5484.1137   -19689.994    11286.551   -11055.323    81.398744 
   98300    957.90876   -113.60229   0.86673598   -112.73556   -5680.0488     4.337157     4.337157     4.337157   -5680.0488   -21156.369   -1517.1075    5633.3304   -13883.563    10897.011    7684.8214     81.58596 
   98400    1073.3709   -113.70276   0.97120854   -112.73155     4813.023    4.3313378    4.3313378    4.3313378     4813.023    17597.988   -7566.0449    4407.1262    16162.333   -3361.4845   -18329.537    81.258006 
   98500    639.22198   -113.31688   0.57838148    -112.7385   -7737.2278    4.3341393    4.3341393    4.3341393   -7737.2278   -8450.4212   -19207.408    4446.1458   -15318.921    6051.7812   -16505.481    81.415784 
   98600    618.79811   -113.30039   0.55990153   -112.74049   -9277.6405    4.3357412    4.3357412    4.3357412   -9277.6405   -29631.146   -2357.3505    4155.5751   -27128.323    16705.669    6535.2362    81.506092 
   98700    1122.6566   -113.74957    1.0158032   -112.73376    2825.5857    4.3311921    4.3311921    4.3311921    2825.5857    2103.6159    3248.5264    3124.6148    7109.8721    1110.0853   -4235.6604    81.249808 
   98800    959.84832   -113.60513   0.86849093   -112.73664    -993.5075    4.3336252    4.3336252    4.3336252    -993.5075    3176.9077   -13976.159     7818.729   -4372.0544   -2598.7119   -18922.242    81.386814 
   98900    458.84075   -113.15827   0.41516876    -112.7431    -7540.195    4.3347191    4.3347191    4.3347191    -7540.195   -30422.569   -6608.5184    14410.502   -25963.861    20149.039    1376.0664    81.448457 
   99000    795.82793   -113.45824   0.72008183   -112.73816   -2078.2827    4.3352949    4.3352949    4.3352949   -2078.2827   -11097.727    5346.5613   -483.68239   -2094.7757    6140.0454    1643.9867     81.48092 
   99100    1124.8428   -113.74883    1.0177814   -112.73105    1486.8502    4.3323635    4.3323635    4.3323635    1486.8502    6308.1713   -6717.7257    4870.1049    134.95081   -12934.898   -14527.081    81.315748 
   99200    545.21578    -113.2326   0.49332269   -112.73928   -2104.7708    4.3320322    4.3320322    4.3320322   -2104.7708   -16240.583   -11338.294    21264.565   -24602.584    18020.448    39.292522    81.297093 
   99300    493.63392   -113.18865   0.44665034     -112.742   -11497.778     4.337548     4.337548     4.337548   -11497.778   -31279.181   -1.6802995   -3212.4728   -11340.715    12216.171      5198.06    81.608028 
   99400    1065.0584   -113.69692   0.96368725   -112.73323    7009.0991    4.3299343    4.3299343    4.3299343    7009.0991     11023.59     4547.434     5456.273    8310.5165   -16095.898   -2223.3461     81.17904 
   99500    795.89341    -113.4576   0.72014109   -112.73746     1856.953    4.3321921    4.3321921    4.3321921     1856.953   -2833.6086   -11403.301    19807.769   -13625.903     7627.814   -2933.4855    81.306098 
   99600    355.26333   -113.06479   0.32144973   -112.74334    -11578.57    4.3387646    4.3387646    4.3387646    -11578.57   -28672.593   -7538.0159    1474.8999    -17814.96    26507.843     3567.169    81.676714 
   99700    1003.7485   -113.64191   0.90821269    -112.7337    4320.3873    4.3304082    4.3304082    4.3304082    4320.3873    973.63721     5909.032    6078.4927    3180.3634   -1283.2218     7545.044    81.205702 
   99800    988.83357   -113.62792   0.89471739    -112.7332    2432.3895    4.3337403    4.3337403    4.3337403    2432.3895    5890.1112   -14893.396    16300.453   -1896.6195   -4999.5792   -2640.9813    81.393301 
   99900    343.67147    -113.0546   0.31096117   -112.74364    -9579.225    4.3348315    4.3348315    4.3348315    -9579.225   -23635.319   -16897.045     11794.69   -15551.869    29895.996    369.38176    81.454796 
  100000    823.76232   -113.48621   0.74535746   -112.74085    2260.4017    4.3324927    4.3324927    4.3324927    2260.4017    6193.6379   -1969.5428      2557.11      -3215.9    13300.695    7239.4458    81.323026 
Loop time of 21.7804 on 1 procs for 100000 steps with 8 atoms

Pair  time (%) = 6.67794 (30.6603)
Kspce time (%) = 5.3316 (24.4789)
Neigh time (%) = 0 (0)
Comm  time (%) = 1.07056 (4.91526)
Outpt time (%) = 0.0241842 (0.111037)
Other time (%) = 8.6761 (39.8345)

Nlocal:    8 ave 8 max 8 min
Histogram: 1 0 0 0 0 0 0 0 0 0
Nghost:    2189 ave 2189 max 2189 min
Histogram: 1 0 0 0 0 0 0 0 0 0
Neighs:    2056 ave 2056 max 2056 min
Histogram: 1 0 0 0 0 0 0 0 0 0

Total # of neighbors = 2056
Ave neighs/atom = 257
Neighbor list builds = 0
Dangerous builds = 0
unfix 20
unfix 21
print "seeds:7185110"
seeds:7185110
