LAMMPS (10 Feb 2015)
# ---- initialize simulations
clear
units metal
dimension 3
boundary p p p
atom_style charge
atom_modify map array
# ---- create atoms
read_data /Users/eugeneragasa/pyflamestk_git/pypospack/tests/tests_integration/workflow/WorkflowLammpsThermalExpansion/param_1902/MgO_NaCl_unit.npt.T1000/lammps.structure
  triclinic box = (0 0 0) to (4.2565 4.2565 4.2565) with tilt (0 0 0)
  1 by 1 by 1 MPI processor grid
  reading atoms ...
  8 atoms
# ---- define interatomic potential
include potential.mod
mass 1 24.305
mass 2 15.999

group Mg type 1
4 atoms in group Mg
group O type 2
4 atoms in group O

set group Mg charge 1.69754800024
  4 settings made for charge
set group O charge -1.69754800024
  4 settings made for charge

variable R_cut equal 10.0

pair_style buck/coul/long ${R_cut}
pair_style buck/coul/long 10
pair_coeff 1 1 0.0 0.5 0.0 ${R_cut}
pair_coeff 1 1 0.0 0.5 0.0 10
pair_coeff 1 2 1340.93810979 0.285979914483 0.0 ${R_cut}
pair_coeff 1 2 1340.93810979 0.285979914483 0.0 10
pair_coeff 2 2 11096.6994948 0.145827000496 3.24328494634 ${R_cut}
pair_coeff 2 2 11096.6994948 0.145827000496 3.24328494634 10

kspace_style pppm 1.0e-5

neighbor 1.0 bin
neigh_modify every 1 delay 0 check yes
# ---- define settings
compute eng all pe/atom
compute eatoms all reduce sum c_eng
# ---- run minimization
reset_timestep 0
fix 1 all box/relax iso 0.0 vmax 0.001
thermo 10
thermo_style custom step pe lx ly lz xy xz yz press pxx pyy pzz pxy pxz pyz c_eatoms
min_style cg
minimize 1e-25 1e-25 5000 10000
PPPM initialization ...
  G vector (1/distance) = 0.353134
  grid = 8 8 8
  stencil order = 5
  estimated absolute RMS force accuracy = 4.09436e-05
  estimated relative force accuracy = 2.84338e-06
  using double precision FFTs
  3d grid and FFT values/proc = 3375 512
Neighbor list info ...
  1 neighbor list requests
  update every 1 steps, delay 0 steps, check yes
  master list distance cutoff = 11
Memory usage per processor = 4.06549 Mbytes
Step PotEng Lx Ly Lz Xy Xz Yz Press Pxx Pyy Pzz Pxy Pxz Pyz eatoms 
       0   -117.43599       4.2565       4.2565       4.2565            0            0            0    33717.192    33717.192    33717.192    33717.192 -3.1023281e-11 -2.4163961e-10 -2.0934262e-10   -117.43599 
       8   -117.45138    4.2835821    4.2835821    4.2835821            0            0            0   -5.0124394   -5.0124394   -5.0124394   -5.0124394 6.8970478e-11 -1.4442567e-10 -9.765937e-11   -117.45138 
Loop time of 0.00874209 on 1 procs for 8 steps with 8 atoms

Minimization stats:
  Stopping criterion = linesearch alpha is zero
  Energy initial, next-to-last, final = 
        -117.435990229     -117.451383044     -117.451383044
  Force two-norm initial, final = 4.86878 0.0018005
  Force max component initial, final = 4.86878 0.000733039
  Final line search alpha, max atom move = 0.00390625 2.86343e-06
  Iterations, force evaluations = 8 25

Pair  time (%) = 0.00238752 (27.3107)
Kspce time (%) = 0.00136685 (15.6353)
Neigh time (%) = 0 (0)
Comm  time (%) = 0.00029397 (3.3627)
Outpt time (%) = 0 (0)
Other time (%) = 0.00469375 (53.6913)

Nlocal:    8 ave 8 max 8 min
Histogram: 1 0 0 0 0 0 0 0 0 0
Nghost:    2189 ave 2189 max 2189 min
Histogram: 1 0 0 0 0 0 0 0 0 0
Neighs:    2344 ave 2344 max 2344 min
Histogram: 1 0 0 0 0 0 0 0 0 0

Total # of neighbors = 2344
Ave neighs/atom = 293
Neighbor list builds = 0
Dangerous builds = 0
unfix 1
# ---- define output variables ----
variable natoms equal "count(all)"
variable tot_energy equal "c_eatoms"
variable length_x equal "lx"
variable length_y equal "ly"
variable length_z equal "lz"
variable tilt_xy equal "xy"
variable tilt_xz equal "xz"
variable tilt_yz equal "yz"
variable tot_press equal "press"
variable press_xx equal "pxx"
variable press_yy equal "pyy"
variable press_zz equal "pzz"
variable press_xy equal "pxy"
variable press_xz equal "pxz"
variable press_yz equal "pyz"

# ---- output ----
print "pypospack:output_section:begin"
pypospack:output_section:begin
print "tot_energy = ${tot_energy}"
tot_energy = -117.45138304358
print "num_atoms = ${natoms}"
num_atoms = 8
print "xx = ${length_x}"
xx = 4.28358206284588
print "yy = ${length_y}"
yy = 4.28358206284588
print "zz = ${length_z}"
zz = 4.28358206284588
print "xy = ${tilt_xy}"
xy = 0
print "xz = ${tilt_xz}"
xz = 0
print "yz = ${tilt_yz}"
yz = 0
print "tot_press = ${tot_press}"
tot_press = -5.01243937142067
print "pxx = ${press_xx}"
pxx = -5.01243937108414
print "pyy = ${press_yy}"
pyy = -5.01243937158826
print "pzz = ${press_zz}"
pzz = -5.01243937158962
print "pxy = ${press_xy}"
pxy = 6.8970477610601e-11
print "pxz = ${press_xz}"
pxz = -1.44425666326158e-10
print "pyz = ${press_yz}"
pyz = -9.76593698696591e-11
print "pypospack:output_section:done"
pypospack:output_section:done
print "pypospack:lammps_sim:done"
pypospack:lammps_sim:done
#------------------------------------------------------------------------------
# RUN THERMOSTAT
# running using an NPT Nose-Hoover style thermostat
#------------------------------------------------------------------------------
variable tempdamp equal 0.1
variable pressdamp equal 1.0
# set initial velocities
velocity all create 1000 1974693 mom yes dist gaussian loop all
# fix for Nose-Hoover style thermostat
fix 20 all npt temp 1000 1000 0.1 aniso 0.0 0.0 1.0 drag 1.0 couple xyz
variable boxx equal lx
variable boxy equal ly
variable boxz equal lz
variable boxp equal press
variable boxt equal temp
# calculate averages every 10000 steps
reset_timestep 0
fix 21 all ave/time 10 10 100 v_boxx v_boxy v_boxz v_boxp v_boxt file lattice.out
thermo_style custom step temp pe ke etotal press lx ly lz press pxx pyy pzz pxy pxz pyz vol
thermo_modify flush yes
thermo 100
run 100000
PPPM initialization ...
  G vector (1/distance) = 0.352856
  grid = 8 8 8
  stencil order = 5
  estimated absolute RMS force accuracy = 4.14735e-05
  estimated relative force accuracy = 2.88018e-06
  using double precision FFTs
  3d grid and FFT values/proc = 3375 512
Memory usage per processor = 3.06549 Mbytes
Step Temp PotEng KinEng TotEng Press Lx Ly Lz Press Pxx Pyy Pzz Pxy Pxz Pyz Volume 
       0         1000   -117.45139   0.90482102   -116.54657    12289.924    4.2835821    4.2835821    4.2835821    12289.924    15107.525    14671.643    7090.6028   -8174.0592   -6216.1075    1928.9246     78.59977 
     100    307.18354   -116.71115   0.27794612    -116.4332    -747.5555    4.3207362    4.3207362    4.3207362    -747.5555    12281.022    7294.7577   -21818.446    4948.1526     5110.396    2531.8567     80.66279 
     200    738.93087   -116.85134   0.66860018   -116.18274   -31275.897    4.3352679    4.3352679    4.3352679   -31275.897   -14123.684   -35184.268    -44519.74    3895.3261    8781.3108    4210.4993    81.479401 
     300    792.28161   -116.68191   0.71687305   -115.96504    27244.111     4.317237     4.317237     4.317237    27244.111    65447.297    30299.493   -14014.458    15108.523    1469.2299   -6406.2371    80.466976 
     400    1088.3449   -116.79233   0.98475737   -115.80758    337.22672    4.3340267    4.3340267    4.3340267    337.22672    1490.9567    38528.705   -39007.981    1296.3089    4350.4375    4287.3691    81.409438 
     500    960.35255   -116.56033   0.86894717   -115.69138   -1459.3681    4.3492103    4.3492103    4.3492103   -1459.3681   -22058.866    46385.749   -28704.988    -7394.844    14519.091   -1363.0649    82.268052 
     600    1270.8233   -116.77642    1.1498676   -115.62655   -26879.185    4.3558865    4.3558865    4.3558865   -26879.185   -45369.106    976.11322   -36244.564    495.98704    4010.1849   -5713.7076    82.647491 
     700    1388.8824   -116.85882    1.2566899   -115.60213   -8201.0923    4.3374127    4.3374127    4.3374127   -8201.0923    4132.0375   -13619.037   -15116.278   -10792.359    6651.5322    3082.1433    81.600391 
     800    1124.4799   -116.62465     1.017453    -115.6072    16849.796    4.3310679    4.3310679    4.3310679    16849.796    8688.8508    58319.981   -16459.443    2353.9931    10970.046    -7440.464    81.242816 
     900    892.97022   -116.43186   0.80797822   -115.62389   -34926.151    4.3621901    4.3621901    4.3621901   -34926.151   -25699.293   -39079.202   -39999.958    11920.344    801.45842    1043.0413    83.006816 
    1000    1088.0931   -116.60391   0.98452947   -115.61938   -27920.121    4.3424842    4.3424842    4.3424842   -27920.121   -35158.309   -22317.562   -26284.492    12467.808   -13021.704   -2505.4973    81.886958 
    1100    887.97601   -116.40841   0.80345935   -115.60495    44157.283    4.3142468    4.3142468    4.3142468    44157.283    23554.451    64125.663    44791.736   -120.59042    18913.166   -10847.449     80.29989 
    1200    784.37782   -116.34444   0.70972153   -115.63472   -4896.4944    4.3528192    4.3528192    4.3528192   -4896.4944    29658.991   -1029.2044    -43319.27    26566.203   -171.45237    3516.6259    82.473019 
    1300    855.00619    -116.3975   0.77362757   -115.62387   -17802.955     4.359889     4.359889     4.359889   -17802.955   -27569.694   -18242.551   -7596.6186    7017.7636   -12422.049    2803.0832    82.875526 
    1400    765.43066   -116.29187   0.69257775    -115.5993    43535.899    4.3280757    4.3280757    4.3280757    43535.899    64235.023    61758.044    4614.6295    2010.5644   -10359.139    13710.595     81.07455 
    1500    1113.0237   -116.61861    1.0070872   -115.61152   -1490.7457    4.3373794    4.3373794    4.3373794   -1490.7457   -23504.241    19873.577   -841.57356    17539.105    1788.1694    188.39042    81.598512 
    1600    353.30087   -115.93499   0.31967405   -115.61532    5423.2072    4.3544397    4.3544397    4.3544397    5423.2072   -8891.5572    1037.7905    24123.388    21303.414   -12676.146    13995.805    82.565161 
    1700    1054.9588   -116.55806   0.95454886   -115.60351    2831.9768    4.3354121    4.3354121    4.3354121    2831.9768   -12583.355    10281.242    10798.044    662.52614   -10392.637   -1320.4306    81.487533 
    1800     911.4903   -116.43344   0.82473558    -115.6087    23502.276      4.33762      4.33762      4.33762    23502.276    15676.175    47748.241    7082.4115   -411.77547    4908.4296    21517.457     81.61209 
    1900    823.14798   -116.36049   0.74480159   -115.61569    3126.2054    4.3441019    4.3441019    4.3441019    3126.2054   -18722.082   -11228.541    39329.239     6099.207    -11936.12    6488.6439     81.97851 
    2000    905.84811   -116.43288   0.81963041   -115.61325    413.24363    4.3418709    4.3418709    4.3418709    413.24363    30445.097   -15978.853   -13226.513   -357.44045   -1992.3611    455.61666    81.852267 
    2100    974.89608   -116.49682   0.88210646   -115.61471    2253.0446    4.3401683    4.3401683    4.3401683    2253.0446   -1333.5273   -14685.858    22778.518   -7133.9821   -1101.3123    16931.397    81.756016 
    2200     1330.668   -116.82117    1.2040163   -115.61716   -3359.1029    4.3261879    4.3261879    4.3261879   -3359.1029   -14176.884   -11823.421    15922.996    7285.8055    191.55009   -3907.1758    80.968506 
    2300    768.87047   -116.33583   0.69569016   -115.64014   -6885.6913    4.3441258    4.3441258    4.3441258   -6885.6913    7106.6105   -34682.589    6918.9047   -22.304733   -7724.5515   -5356.7513    81.979864 
    2400    1013.4473   -116.54385   0.91698845   -115.62686   -24566.617    4.3513313    4.3513313    4.3513313   -24566.617   -40356.443   -5701.9552   -27641.451    -12248.88   -1706.3321   -449.91671    82.388471 
    2500    1052.7226   -116.56245   0.95252553   -115.60993     22617.94    4.3204584    4.3204584    4.3204584     22617.94    27658.419    7250.2074    32945.192    -8023.767    485.91388   -19128.171    80.647236 
    2600    994.03271   -116.51692   0.89942168    -115.6175    9733.1797     4.329785     4.329785     4.329785    9733.1797    44007.329    -6607.337   -8200.4534     15810.94   -1017.8504    4654.7674    81.170643 
    2700    953.84398   -116.47904   0.86305808   -115.61598   -20137.138    4.3571352    4.3571352    4.3571352   -20137.138   -41694.256     16046.74   -34763.898   -8047.5513   -3180.9895   -340.04598    82.718589 
    2800    1161.8088   -116.66555     1.051229   -115.61432    7011.6902    4.3314729    4.3314729    4.3314729    7011.6902    8822.2792   -21384.992    33597.784   -19874.678    -3728.407   -1349.7735    81.265613 
    2900    1145.1562   -116.64529    1.0361614   -115.60913    37103.143    4.3139981    4.3139981    4.3139981    37103.143    42194.525    51949.783    17165.121    23538.048   -3226.9228    4671.1601    80.286006 
    3000    802.99794   -116.35561   0.72656941   -115.62904   -4009.5188    4.3546014    4.3546014    4.3546014   -4009.5188   -7142.5582   -35070.106    30184.108   -1841.8956   -8397.6718   -5018.1849    82.574363 
    3100    1123.9264   -116.64037    1.0169522   -115.62342   -37649.816    4.3453482    4.3453482    4.3453482   -37649.816   -39355.994   -58892.079   -14701.375   -23398.238    4530.5099     5011.342    82.049086 
    3200    995.88356   -116.50832   0.90109638   -115.60722    46386.897    4.2978658    4.2978658    4.2978658    46386.897    60478.071    38278.391    40404.231   -11768.215    2299.5814   -12577.799    79.388674 
    3300    1136.3779   -116.67478    1.0282186   -115.64656   -22180.452    4.3438169    4.3438169    4.3438169   -22180.452   -33600.148   -31644.113   -1297.0967    16520.372   -5045.9716     14861.61    81.962374 
    3400    733.88295   -116.28408   0.66403272   -115.62005   -33737.636    4.3583546    4.3583546    4.3583546   -33737.636   -16815.275   -53735.154   -30662.478   -14477.185   -1271.8293    4109.0023    82.788054 
    3500    873.82569   -116.38755   0.79065585   -115.59689    24815.398    4.3101701    4.3101701    4.3101701    24815.398   -20437.242    29254.609    65628.829   -29761.373    2056.4015    -5468.874    80.072469 
    3600    1148.7053   -116.66262    1.0393727   -115.62325    14082.527    4.3258946    4.3258946    4.3258946    14082.527   -5628.1605     55944.33   -8068.5892    14342.248    6812.1388    12358.316    80.952039 
    3700    953.46798   -116.48675   0.86271787   -115.62404   -10522.015    4.3605622    4.3605622    4.3605622   -10522.015   -32068.589    19881.561   -19379.017    1193.4432   -14469.478    3711.9943     82.91392 
    3800    730.05812   -116.27315   0.66057193   -115.61258    7697.8055    4.3472224    4.3472224    4.3472224    7697.8055   -37588.776    19344.168    41338.024   -10616.823   -4044.7869    14403.685    82.155296 
    3900     1529.739   -116.97466      1.38414   -115.59052   -6232.7366    4.3257997    4.3257997    4.3257997   -6232.7366    -20362.31   -5421.1809     7085.281    5790.2427    11511.543    1205.6943    80.946714 
    4000    1242.4128   -116.73389    1.1241612   -115.60973   -3799.0211    4.3415259    4.3415259    4.3415259   -3799.0211   -10344.556   -796.42049   -256.08716    2834.5498   -8592.2807     3595.536     81.83276 
    4100    904.77552   -116.43233    0.8186599   -115.61367   -18878.906    4.3572337    4.3572337    4.3572337   -18878.906   -62228.191   -3041.1639    8632.6367   -3691.6795   -928.71467   -10621.469    82.724198 
    4200    797.63147    -116.3318   0.72171372   -115.61009     21205.37    4.3326968    4.3326968    4.3326968     21205.37    21370.631    60464.902   -18219.422    2377.4497    13619.575   -2991.2763    81.334517 
    4300    1376.3898   -116.85964    1.2453864   -115.61425    7619.0914    4.3233197    4.3233197    4.3233197    7619.0914   -14268.626    47192.507   -10066.608    5049.4683   -5153.2546   -6828.5207    80.807571 
    4400    690.77718   -116.25763   0.62502971    -115.6326    4987.8002    4.3443664    4.3443664    4.3443664    4987.8002    13933.861    9769.0889   -8739.5489   -11490.136   -1622.5619    12686.831    81.993484 
    4500    1243.5978   -116.74185    1.1252334   -115.61662   -34009.541    4.3468689    4.3468689    4.3468689   -34009.541   -38657.205   -31572.884   -31798.534   -18571.941    10862.931    3046.1029    82.135256 
    4600    1256.9874   -116.75562    1.1373486   -115.61828    8587.6449    4.3219452    4.3219452    4.3219452    8587.6449    30024.132    14752.885   -19014.082    9056.6681   -5916.4577    3280.0049    80.730523 
    4700    1089.5862   -116.61076   0.98588046   -115.62488    39184.639    4.3114088    4.3114088    4.3114088    39184.639    22138.412     72774.16    22641.346   -8376.1065   -592.85724    4503.4003    80.141525 
    4800    867.73512   -116.43082   0.78514497   -115.64568   -35250.985    4.3583443    4.3583443    4.3583443   -35250.985   -22416.919   -26599.255   -56736.781   -12725.813      10246.8    5094.0789    82.787472 
    4900     1034.572   -116.57032   0.93610253   -115.63422   -28859.071     4.341235     4.341235     4.341235   -28859.071   -41050.191   -10360.531   -35166.492   -8015.0341   -393.90281    3564.6455    81.816312 
    5000    1555.2712   -116.99274     1.407242    -115.5855    45020.059    4.2871092    4.2871092    4.2871092    45020.059    36015.675    48817.903      50226.6    16775.941   -3159.6186   -1392.9776    78.794088 
    5100    561.58854   -116.15073   0.50813711   -115.64259   -36620.374    4.3497481    4.3497481    4.3497481   -36620.374   -43970.514   -26496.817   -39393.791   -33090.612    14154.599    3099.3863    82.298578 
    5200    894.05451   -116.43404   0.80895931   -115.62508   -46970.262    4.3443899    4.3443899    4.3443899   -46970.262   -73066.049   -49956.954   -17887.783   -19717.617     19992.24    -3315.536    81.994814 
    5300    1334.7167   -116.80102    1.2076797   -115.59334    51166.069    4.2919196    4.2919196    4.2919196    51166.069     45001.58    45683.894    62812.733    12125.107    -2282.412    -9569.277    79.059624 
    5400    868.91133   -116.42448   0.78620923   -115.63827    8720.3629    4.3321623    4.3321623    4.3321623    8720.3629     20336.23   -29339.387    35164.246   -9082.2161    2710.7446   -3175.3565    81.304417 
    5500    611.16565   -116.17159   0.55299553   -115.61859   -31059.658    4.3589584    4.3589584    4.3589584   -31059.658   -51623.085   -45256.786     3700.898    -21141.49    12106.611    -1756.702    82.822469 
    5600    1076.6832    -116.5666    0.9742056   -115.59239    29798.128    4.3191277    4.3191277    4.3191277    29798.128    38380.341    15690.128    35323.914   -1689.9223    2669.7574   -4265.6571    80.572741 
    5700    1188.5791   -116.68039    1.0754513   -115.60494    17369.358    4.3177682    4.3177682    4.3177682    17369.358    7368.9707    29021.384     15717.72   -1066.8619    5488.7898   -4726.9707    80.496678 
    5800    899.80005   -116.44236   0.81415799    -115.6282   -32355.458    4.3483172    4.3483172    4.3483172   -32355.458   -40727.458   -33433.706   -22905.209   -17106.695    13842.144    1328.9856    82.217384 
    5900    830.51368   -116.37322   0.75146623   -115.62175    14432.362    4.3356374    4.3356374    4.3356374    14432.362    8180.0431    27220.378    7896.6637   -7809.2036   -8369.0308   -82.362158    81.500236 
    6000    1531.4955   -116.99884    1.3857293   -115.61311   -6884.3296    4.3189914    4.3189914    4.3189914   -6884.3296   -5492.4867   -1632.5703   -13527.932    3432.7171    1513.3797   -5052.2028    80.565111 
    6100    757.78037   -116.31319    0.6856556   -115.62754   -4694.0233    4.3331251    4.3331251    4.3331251   -4694.0233   -774.99093   -5199.4351   -8107.6438   -23395.389    2593.0583    6676.2276    81.358639 
    6200    1033.1341   -116.55361   0.93480142   -115.61881   -2726.9117    4.3407361    4.3407361    4.3407361   -2726.9117   -30877.059    53909.276   -31212.952   -11047.006    4433.3728    7959.7269    81.788107 
    6300    1313.2501   -116.80448    1.1882563   -115.61622   -9284.1524    4.3280697    4.3280697    4.3280697   -9284.1524    20154.703   -21512.564   -26494.596    7526.3593   -5670.3172   -5075.9392    81.074213 
    6400    1030.0627   -116.55307   0.93202237   -115.62105    17671.018    4.3117672    4.3117672    4.3117672    17671.018     16121.77     36684.07    207.21584   -26622.313   -4640.4895   -11652.355    80.161512 
    6500    1003.5776   -116.54823   0.90805808   -115.64017   -18366.944    4.3490141    4.3490141    4.3490141   -18366.944    91.547649   -20049.889    -35142.49    2038.7751    7406.4742    14036.937    82.256918 
    6600    1431.5161   -116.91383    1.2952659   -115.61857   -41407.559      4.34308      4.34308      4.34308   -41407.559   -31956.116   -40873.614   -51392.948    12220.197    2841.1376   -1756.2583    81.920671 
    6700    786.66696   -116.30978    0.7117928   -115.59799    40715.803    4.3010981    4.3010981    4.3010981    40715.803    59079.344    27516.305    35551.759   -16915.127   -8259.2312   -13802.841    79.567927 
    6800    642.98988   -116.21563   0.58179075   -115.63384   -2438.3454    4.3360209    4.3360209    4.3360209   -2438.3454   -33876.579    22021.545    4539.9973   -3468.5988    17399.887   -10577.005    81.521863 
    6900     1016.299   -116.53388    0.9195687   -115.61431   -7160.5338    4.3519726    4.3519726    4.3519726   -7160.5338   -16642.348    357.41527   -5196.6684   -2639.4444     14867.96   -4104.5151    82.424905 
    7000    1059.7253   -116.55855   0.95886175   -115.59969     4845.345    4.3341194    4.3341194    4.3341194     4845.345    2029.0644    11604.599    902.37204   -2268.7524   -2341.5272   -8095.1419    81.414659 
    7100     545.6947   -116.10038   0.49375603   -115.60662    9521.4055    4.3232615    4.3232615    4.3232615    9521.4055   -33667.304    35612.083    26619.438   -8725.4471    7338.9984   -19041.983    80.804305 
    7200    1045.8983   -116.56103   0.94635077   -115.61468    9048.8517    4.3298639    4.3298639    4.3298639    9048.8517   -4005.2716     9125.442    22026.385      680.808    8577.4263   -11566.506    81.175084 
    7300     1183.527   -116.68096    1.0708801   -115.61008   -32172.692    4.3575249    4.3575249    4.3575249   -32172.692   -43060.493   -41984.376   -11473.207    567.90927   -9555.0024   -5527.3639    82.740782 
    7400    491.08017    -116.0583   0.44433966   -115.61396    16211.365    4.3214233    4.3214233    4.3214233    16211.365    588.01014    12.552304    48033.533   -33211.776    1316.3782   -14038.939    80.701283 
    7500    1096.9094   -116.59151   0.99250665   -115.59901    23238.873    4.3008033    4.3008033    4.3008033    23238.873    4126.2306    39781.301    25809.086    4932.6318    16573.043   -5648.2236    79.551565 
    7600    922.41907   -116.45151   0.83462416   -115.61688   -23329.017     4.356355     4.356355     4.356355   -23329.017   -27597.868   -43907.503     1518.319   -6143.5875    2331.4013   -2969.0863    82.674161 
    7700    777.32814   -116.30709   0.70334283   -115.60375   -23849.899    4.3427904    4.3427904    4.3427904   -23849.899   -43869.562   -39155.722    11475.586   -30993.572   -7302.3676   -3937.1443    81.904283 
    7800     831.6658   -116.32859    0.7525087   -115.57608    42857.646    4.2887638    4.2887638    4.2887638    42857.646    30598.334    64336.812    33637.792    1426.8519    24352.918   -2103.8118    78.885355 
    7900    1006.8426   -116.53491   0.91101233   -115.62389   -4197.5251    4.3288234    4.3288234    4.3288234   -4197.5251   -19480.098    20336.418   -13448.896   -5083.4777    5367.2707   -14051.241    81.116577 
    8000    653.60134   -116.19633   0.59139223   -115.60493   -26045.088    4.3566728    4.3566728    4.3566728   -26045.088    -35008.31    -23940.97   -19185.982   -18707.328    1618.7586   -6929.5292    82.692256 
    8100    1176.1097   -116.65015    1.0641688   -115.58598    9335.7635     4.309195     4.309195     4.309195    9335.7635   -13811.227    52708.659   -10890.142   -5751.0201    18424.475   -1922.7968     80.01814 
    8200    962.51146   -116.46747   0.87090059   -115.59657    31270.002    4.3097331    4.3097331    4.3097331    31270.002    58270.208    41233.237   -5693.4382    2351.6895    11041.986   -7928.9488    80.048116 
    8300     1134.955   -116.63828    1.0269311   -115.61134   -25198.136    4.3392203    4.3392203    4.3392203   -25198.136   -41939.468   -26680.481   -6974.4579   -4308.2949   -5266.8022    540.49847    81.702454 
    8400    708.17541    -116.2586   0.64077199   -115.61783    3086.8763    4.3318837    4.3318837    4.3318837    3086.8763   -8037.7631    49128.503   -31830.111   -16818.896     14610.08   -530.17087    81.288737 
    8500    1320.4664   -116.80625    1.1947857   -115.61146    5749.6782    4.3126789    4.3126789    4.3126789    5749.6782    24596.924    17903.719   -25251.609    3064.5047    15145.285   -1927.1104    80.212373 
    8600       1110.2   -116.62416    1.0045323   -115.61963     26483.12    4.3100897    4.3100897    4.3100897     26483.12    3023.3874    75863.135    562.83803    3775.1769   -682.24242   -187.29247    80.067992 
    8700    671.98162   -116.25089   0.60802309   -115.64286   -19169.498    4.3413177    4.3413177    4.3413177   -19169.498   -4903.1872   -28200.113   -24405.195    6975.3603    6404.8529   -3153.6871    81.820985 
    8800    1026.2604   -116.56392   0.92858201   -115.63534   -38887.225    4.3327439    4.3327439    4.3327439   -38887.225   -55125.948   -3112.0764    -58423.65    -9145.194    24013.894    497.82054    81.337171 
    8900    1511.6681   -116.97641     1.367789   -115.60862    34208.519    4.2810781    4.2810781    4.2810781    34208.519    42211.897    46489.901     13923.76     8441.368    5409.0319    -3801.837    78.462016 
    9000    689.78864   -116.28497   0.62413526   -115.66084   -13851.818    4.3276835    4.3276835    4.3276835   -13851.818   -644.52302   -24674.352   -16236.579   -834.54477   -4542.8745    1369.4745    81.052512 
    9100    755.53333   -116.32112   0.68362243   -115.63749   -48158.689    4.3392337    4.3392337    4.3392337   -48158.689   -68285.652   -40584.622   -35605.792   -3050.1817    24021.351    1629.2505    81.703209 
    9200    1123.5351   -116.61935    1.0165982   -115.60276    42289.822    4.2914661    4.2914661    4.2914661    42289.822    63535.473    62705.257    628.73406   -14083.127    6256.7275   -9417.5053    79.034566 
    9300    1284.9262    -116.7863    1.1626282   -115.62367   -15139.077    4.3278048    4.3278048    4.3278048   -15139.077   -21609.953   -3424.6974   -20382.579    12901.915   -9608.7563   -2258.5994    81.059324 
    9400    1070.9292   -116.59045   0.96899925   -115.62145   -8692.4178    4.3257208    4.3257208    4.3257208   -8692.4178   -9497.5566    -11787.24   -4792.4566    10236.414    13156.805    7972.7496    80.942284 
    9500    802.54211   -116.34895   0.72615697   -115.62279     20519.65    4.3104594    4.3104594    4.3104594     20519.65    2566.0784     72869.62   -13876.749   -17255.819    7624.6743   -3190.0331    80.088596 
    9600    1140.5035   -116.65702    1.0319515   -115.62506    -28191.74    4.3286467    4.3286467    4.3286467    -28191.74   -13978.924   -20414.737    -50181.56    4300.5269   -3948.6638   -21368.234    81.106643 
    9700    1116.8863   -116.62777    1.0105822   -115.61719    30996.588    4.3063899    4.3063899    4.3063899    30996.588    41936.456     45913.51    5139.7968    -2765.019   -723.29188    656.73156    79.861976 
    9800    1150.1763   -116.67588    1.0407037   -115.63517    -22725.45    4.3288704    4.3288704    4.3288704    -22725.45   -31947.736   -10748.507   -25480.109   -6843.1761      12952.2   -1764.8181    81.119219 
    9900    493.28432   -116.08791   0.44633402   -115.64157   -23828.176    4.3288421    4.3288421    4.3288421   -23828.176    10124.846   -20554.893   -61054.481   -11437.315    2984.3635   -26696.266    81.117625 
   10000    1040.1111   -116.56242   0.94111434   -115.62131    33691.444    4.2987957    4.2987957    4.2987957    33691.444    22687.419    57682.809    20704.104    15522.991   -12115.678   -5567.4512    79.440217 
   10100    1206.1526   -116.71915    1.0913522    -115.6278    -9546.182    4.3397956    4.3397956    4.3397956    -9546.182   -32139.848    24902.164   -21400.862   -3758.6442    457.44225   -370.94397    81.734953 
   10200    701.77808   -116.26606   0.63498355   -115.63108   -7251.4182    4.3260433    4.3260433    4.3260433   -7251.4182   -6537.2674    644.65068   -15861.638   -13352.511    2029.4245   -5335.3174    80.960389 
   10300    857.44629   -116.38986   0.77583542   -115.61402    25442.958    4.2992391    4.2992391    4.2992391    25442.958    14901.518    42053.571    19373.784   -14675.917   -7098.1348   -30141.989      79.4648 
   10400    1380.4755   -116.86981    1.2490833   -115.62073   -24910.291    4.3382785    4.3382785    4.3382785   -24910.291   -29397.489   -18545.141   -26788.244    4804.2235   -3217.6972    4078.3986    81.649268 
   10500     1038.907   -116.55799   0.94002488   -115.61797    23134.263    4.3159384    4.3159384    4.3159384    23134.263   -10754.519    61352.993    18804.315   -509.59557     1971.394    1484.8124    80.394382 
   10600    638.24934   -116.20748   0.57750142   -115.62998    13708.479    4.3150733    4.3150733    4.3150733    13708.479    10351.785    32548.123   -1774.4714   -17654.563    4845.0804   -34819.019    80.346048 
   10700    981.31619   -116.50651   0.88791551   -115.61859   -23445.299    4.3426874    4.3426874    4.3426874   -23445.299   -32557.923   -1545.8849    -36232.09    957.31457   -7569.2872   -8333.1269    81.898452 
   10800    1239.2695   -116.73567    1.1213171   -115.61435    30161.349    4.3060292    4.3060292    4.3060292    30161.349   -10296.547    75707.703    25072.891    9335.5469   -5059.6252    7514.4621     79.84191 
   10900    899.15975   -116.44067   0.81357864    -115.6271    1322.0373    4.3039593    4.3039593    4.3039593    1322.0373    19526.818   -11488.723   -4071.9832    674.09764    2243.2006   -31670.972    79.726824 
   11000    622.71042   -116.20278   0.56344148   -115.63934   -4796.0203    4.3285525    4.3285525    4.3285525   -4796.0203    -27457.99    58855.948   -45786.019   -11119.896   -8232.2719   -17939.591     81.10135 
   11100     1236.855   -116.75007    1.1191324   -115.63093   -8075.3116    4.3266758    4.3266758    4.3266758   -8075.3116   -35533.629    168.22821    11139.466    13797.385   -2011.8415    8479.9454    80.995906 
   11200    1113.7816   -116.63331     1.007773   -115.62553    17178.405    4.3084739    4.3084739    4.3084739    17178.405    5840.6943     27802.32      17892.2    18755.842     7685.831   -172.78048    79.977976 
   11300    819.21534   -116.37501   0.74124325   -115.63376   -22357.798    4.3205598    4.3205598    4.3205598   -22357.798   -123.63923   -23280.782   -43668.974   -12707.493   -5536.1243   -33897.469    80.652913 
   11400    941.42987   -116.47966   0.85182553   -115.62783   -11478.847    4.3159245    4.3159245    4.3159245   -11478.847   -18213.898   -26959.757    10737.115    -3848.342     4174.869   -8033.0205    80.393606 
   11500    1039.4699    -116.5668   0.94053424   -115.62627    19846.611    4.3185348    4.3185348    4.3185348    19846.611    -6884.763    16154.078    50270.519    15741.027     4977.309    17653.839    80.539565 
   11600    984.91834   -116.51827   0.89117481    -115.6271   -4698.7201    4.3275868    4.3275868    4.3275868   -4698.7201    -13729.95    10790.427   -11156.638   -9174.2637    -1048.006   -10655.948    81.047077 
   11700    773.16419   -116.32359   0.69957521   -115.62402    42411.336    4.3019226    4.3019226    4.3019226    42411.336    4745.1566    39831.413     82657.44   -10522.803    6730.8615   -13493.113    79.613693 
   11800    972.08087   -116.52587    0.8795592   -115.64631   -18265.459    4.3320189    4.3320189    4.3320189   -18265.459   -46937.297    3763.9306   -11623.011    15524.234   -1070.6462    4763.8165    81.296345 
   11900    1170.5432   -116.68653     1.059132    -115.6274   -24989.578    4.3299783    4.3299783    4.3299783   -24989.578    -34250.86   -35951.368   -4766.5066    12702.171   -3803.5754   -2743.3009    81.181516 
   12000    1258.0863   -116.74436     1.138343   -115.60602    29714.837    4.2954665    4.2954665    4.2954665    29714.837    38989.029    14985.077    35170.407   -2298.6863   -2806.4189   -34631.117    79.255793 
   12100     836.8989    -116.3863   0.75724371   -115.62905   -15577.635    4.3351538    4.3351538    4.3351538   -15577.635    -33715.32   -24708.686    11691.101    18489.646    -8311.097    1216.7184    81.472964 
   12200    933.13144   -116.45803   0.84431693   -115.61371   -3039.0934    4.3391405    4.3391405    4.3391405   -3039.0934   -47694.748   -30628.357    69205.824    13095.979   -12534.833    12964.156    81.697945 
   12300      1174.04   -116.66803    1.0622961   -115.60573    11084.105    4.3093057    4.3093057    4.3093057    11084.105   -11777.175    13151.833    31877.657   -5535.2306   -4204.9995   -3833.0238    80.024304 
   12400    766.76736   -116.31584   0.69378722   -115.62205    1798.0569    4.3126215    4.3126215    4.3126215    1798.0569   -19628.032    13316.915    11705.287     18929.24   -3359.9641   -9185.8098    80.209173 
   12500    1004.5204   -116.54388   0.90891114   -115.63496   -8552.0395    4.3350912    4.3350912    4.3350912   -8552.0395   -33646.566   -24757.293     32747.74    16695.235   -3465.9777     5396.045    81.469436 
   12600    1379.5848   -116.87318    1.2482773   -115.62491    481.54415    4.3276132    4.3276132    4.3276132    481.54415   -32695.306    16067.782    18072.156   -9810.2207    -7105.365    8024.6261    81.048562 
   12700    779.03131   -116.32766    0.7048839   -115.62278    28803.813    4.2960757    4.2960757    4.2960757    28803.813    -16716.33   -4371.0727    107498.84    16392.958    2821.0427   -30703.816    79.289519 
   12800    872.28259   -116.43752   0.78925962   -115.64826   -27310.596    4.3191396    4.3191396    4.3191396   -27310.596   -32498.439   -37301.287   -12132.062    22349.737    6711.5956   -14850.893    80.573407 
   12900    1367.8838   -116.86317      1.23769   -115.62548   -22871.306    4.3345085    4.3345085    4.3345085   -22871.306   -27008.707   -35360.628   -6244.5824   -9301.1657    4673.6587    5797.4304     81.43659 
   13000    1175.3512   -116.68237    1.0634825   -115.61888   -14792.871    4.3177966    4.3177966    4.3177966   -14792.871   -32074.468   -44315.718    32011.571    21612.942    9177.8055    5944.4973    80.498267 
   13100    454.56968   -116.03824    0.4113042   -115.62693    3127.3449    4.3154631    4.3154631    4.3154631    3127.3449   -26953.727   -48087.151    84422.912    19324.826    7434.2817   -17961.968    80.367824 
   13200    1337.1902   -116.82739    1.2099178   -115.61747   -6594.0028    4.3241638    4.3241638    4.3241638   -6594.0028   -24806.507   -24841.155    29865.654   -9805.1055   -6791.7298    7039.6786     80.85491 
   13300    982.70245   -116.50865   0.88916983   -115.61948   -26295.249     4.337818     4.337818     4.337818   -26295.249   -55482.811   -61028.657     37625.72    29363.402   -3983.5328    2393.4616    81.623269 
   13400    1040.9707   -116.55712   0.94189221   -115.61523   -5379.8059     4.315689     4.315689     4.315689   -5379.8059    5262.8747   -41908.377    20506.084    11722.286   -9204.2531   -1133.7934     80.38045 
   13500    1267.6001   -116.76495    1.1469512     -115.618    10290.066    4.3160562    4.3160562    4.3160562    10290.066    2589.2878   -15531.599     43812.51   -9014.5607   -8623.8848   -19054.964    80.400965 
   13600    1128.0472   -116.63701    1.0206808   -115.61632   -29152.964    4.3423545    4.3423545    4.3423545   -29152.964   -51652.644   -51635.731    15829.484    23359.719   -10698.495    8856.4972    81.879624 
   13700    698.87687   -116.24752   0.63235848   -115.61517    14328.044    4.3193277    4.3193277    4.3193277    14328.044    10157.972   -34444.689     67270.85    16479.505    1310.2941   -4991.6352    80.583935 
   13800    1217.7321   -116.71468    1.1018296   -115.61285    7569.1894    4.3045115    4.3045115    4.3045115    7569.1894    25120.911   -7252.4529      4839.11   -14511.421    3203.2783   -21623.289    79.757514 
   13900    944.57873   -116.47904   0.85467468   -115.62437    12045.443     4.320276     4.320276     4.320276    12045.443    55872.041   -27604.663    7868.9524    8828.7343    10384.614    -3613.783    80.637021 
   14000    980.54347   -116.51579   0.88721634   -115.62857    1274.6522    4.3206481    4.3206481    4.3206481    1274.6522    9623.0797   -6630.3334    831.21041     29149.31   -4339.4791    4550.3067    80.657859 
   14100    728.09249   -116.28631   0.65879338   -115.62751    7617.7658    4.3125441    4.3125441    4.3125441    7617.7658    48552.732   -6555.2026   -19144.232   -5070.7968   -4750.5068   -32290.121    80.204853 
   14200    1260.5973   -116.76663     1.140615   -115.62601    -7575.727    4.3150304    4.3150304    4.3150304    -7575.727     -5758.17   -27838.192    10869.181   -5172.2105    2744.4593   -13309.927    80.343653 
   14300    1191.2326   -116.70545    1.0778523    -115.6276   -7414.7735    4.3195115    4.3195115    4.3195115   -7414.7735   -33019.053   -7166.6795    17941.412    6777.3276    788.87351    11793.518    80.594219 
   14400    614.76911   -116.18567   0.55625601   -115.62941   -8058.0181    4.3210081    4.3210081    4.3210081   -8058.0181    17947.341   -31603.294   -10518.101    19006.359    2175.5012   -39977.971    80.678024 
   14500    929.01612   -116.46944   0.84059331   -115.62885   -7481.8612    4.3125887    4.3125887    4.3125887   -7481.8612    46808.664   -42175.551   -27078.697   -13189.258   -6791.8988    -26299.25    80.207344 
   14600    1342.7599   -116.83786    1.2149574    -115.6229    13908.268    4.3113883    4.3113883    4.3113883    13908.268    34560.648    -4277.802    11441.956   -6749.9851    9078.9646    18045.471    80.140382 
   14700    752.32704   -116.31188   0.68072131   -115.63116   -14396.077    4.3335939    4.3335939    4.3335939   -14396.077    40835.987   -48950.765   -35073.452    3804.2621   -6265.1845   -35503.396    81.385051 
   14800    717.49316   -116.27256   0.64920289   -115.62336   -9316.9505    4.3175078    4.3175078    4.3175078   -9316.9505    33832.346    -46972.05   -14811.147   -2908.6297   -4550.0342   -23553.146    80.482115 
   14900    1372.9304   -116.84858    1.2422563   -115.60633    14509.595    4.2957066    4.2957066    4.2957066    14509.595   -1086.0749    19629.492    24985.368   -22298.429    5405.2007    10875.645    79.269083 
   15000    1078.2307   -116.59741   0.97560575   -115.62181    -10864.83    4.3294162    4.3294162    4.3294162    -10864.83    11924.006   -20365.738   -24152.757   -13021.747   -9205.5187   -15665.273    81.149906 
   15100    888.29917   -116.42729   0.80375176   -115.62354   -7705.9179    4.3222973    4.3222973    4.3222973   -7705.9179    12832.924   -21758.013   -14192.665    18336.165    1033.1004   -33484.197    80.750257 
   15200    1010.4969    -116.5264   0.91431879   -115.61208    24327.863    4.2983066    4.2983066    4.2983066    24327.863    13518.605     33451.52    26013.462   -15815.078   -8030.8076   -3666.1818    79.413104 
   15300    950.96518   -116.48348   0.86045328   -115.62303   -9611.0348    4.3259519    4.3259519    4.3259519   -9611.0348    21453.613   -37830.425   -12456.293   -19309.453    456.40917    5326.1777    80.955258 
   15400    996.91851   -116.52053   0.90203281    -115.6185   -4080.3215    4.3187133    4.3187133    4.3187133   -4080.3215    23429.596   -18755.545   -16915.016    5512.5142    2090.3968   -26434.016    80.549553 
   15500    1053.6905   -116.56982   0.95340131   -115.61642    14616.669    4.3041344    4.3041344    4.3041344    14616.669     30589.51     9674.433    3586.0627    4067.3704    2778.4617   -9584.7714    79.736556 
   15600    771.83302     -116.331   0.69837074   -115.63262   -14633.185     4.322314     4.322314     4.322314   -14633.185   -20447.586    -40009.73    16557.759   -16165.317    8294.4969     10922.02    80.751193 
   15700    1010.4587   -116.54335   0.91428423   -115.62906   -6271.9128    4.3079625    4.3079625    4.3079625   -6271.9128    -1958.707   -11199.493   -5657.5386   -15643.493    2270.7612   -5969.5491      79.9495 
   15800     1211.176   -116.72103    1.0958975   -115.62514    8205.7535    4.3092984    4.3092984    4.3092984    8205.7535    30712.381   -5793.2144   -301.90648     11083.44    2454.2979   -7154.9548    80.023899 
   15900    854.63608   -116.39632   0.77329269   -115.62302    -35273.75    4.3319902    4.3319902    4.3319902    -35273.75   -59571.406    -67870.05    21620.206    5646.6587   -6839.9707    1380.7843    81.294733 
   16000    763.78056   -116.31088    0.6910847   -115.61979    14190.367     4.298834     4.298834     4.298834    14190.367    14980.799   -14889.853    42480.156   -10426.313    1555.3168    10140.508     79.44234 
   16100    1271.0671   -116.77385    1.1500882   -115.62376    11945.809    4.3088121    4.3088121    4.3088121    11945.809    7997.0194    24781.031     3059.377   -2427.1043   -2998.6088    8613.8418    79.996811 
   16200    908.39251   -116.44231   0.82193263   -115.62038   -6204.5705    4.3294575    4.3294575    4.3294575   -6204.5705   -3202.2953   -34542.484    19131.068    15271.965   -3896.5244   -8705.6383    81.152226 
   16300    724.77218   -116.27485    0.6557891   -115.61906    14115.847    4.3005126    4.3005126    4.3005126    14115.847     -22707.4    26804.691    38250.251   -10540.837   -1209.2083    9588.9099    79.535437 
   16400    931.10114   -116.47124   0.84247988   -115.62876    3165.8593    4.3156849    4.3156849    4.3156849    3165.8593    10004.373    4035.6979   -4542.4932   -13693.529    1442.5368    17028.666     80.38022 
   16500    1498.2288   -116.97228    1.3556289   -115.61665   -5085.7515    4.3168546    4.3168546    4.3168546   -5085.7515    -21654.85     6262.869    134.72631    5157.7777    11933.447   -2005.8405    80.445595 
   16600    779.86177    -116.3314   0.70563532   -115.62577    10386.231    4.3062465    4.3062465    4.3062465    10386.231   -3110.0148    10383.673    23885.034    5102.2744    189.80413   -6026.1283    79.853998 
   16700    682.92412   -116.24703    0.6179241   -115.62911    -27394.54    4.3272406    4.3272406    4.3272406    -27394.54   -16154.883   -45038.911   -20989.827   -16085.151     9112.295    22500.445    81.027628 
   16800    1284.3487   -116.77475    1.1621057   -115.61265    10290.014    4.3133236    4.3133236    4.3133236    10290.014    54719.289   -5377.0114   -18472.235   -1600.4039    139.09756     1777.555    80.248353 
   16900    1122.7594   -116.63263    1.0158963   -115.61673   -9073.8498     4.312705     4.312705     4.312705   -9073.8498     4495.334   -22798.136   -8918.7471     8578.478    -531.0219   -11460.091     80.21383 
   17000    595.58002   -116.16177   0.53889332   -115.62288   -19872.142    4.3246535    4.3246535    4.3246535   -19872.142   -16339.107   -29978.449    -13298.87   -15273.656   -3077.0698    9504.4939    80.882386 
   17100    1305.7858   -116.79692    1.1815024   -115.61542   -6347.6219     4.311425     4.311425     4.311425   -6347.6219   -410.64883   -4276.1435   -14356.073   -5489.5221   -12514.199    5858.0257    80.142429 
   17200    1330.8547     -116.824    1.2041853   -115.61982   -2887.0087    4.3161698    4.3161698    4.3161698   -2887.0087   -4198.7822    14566.804   -19029.048    1827.2306   -3291.4725   -22850.803    80.407314 
   17300    970.70279    -116.5012   0.87831228   -115.62288     -20889.2    4.3298049    4.3298049    4.3298049     -20889.2   -30486.735   -15960.369   -16220.496   -17979.036   -7544.6071    7328.0972    81.171763 
   17400    1136.8888   -116.64199    1.0286809   -115.61331   -7988.1659    4.3185272    4.3185272    4.3185272   -7988.1659   -20134.354   -6698.5474    2868.4036   -16117.371   -4821.2968    9955.3137    80.539139 
   17500    1068.0093   -116.57967   0.96635726   -115.61331    11901.611    4.3151728    4.3151728    4.3151728    11901.611    30679.347    11227.932   -6202.4467   -443.42771    -6778.393   -19206.453    80.351607 
   17600    1149.7452   -116.65222    1.0403136   -115.61191   -7621.1626    4.3246708    4.3246708    4.3246708   -7621.1626    659.12574   -18148.508   -5374.1056    -7408.053   -291.28017   -4095.2339    80.883355 
   17700    939.88515   -116.46413   0.85042784   -115.61371    8985.7903    4.3228384    4.3228384    4.3228384    8985.7903   -291.53058   -16491.885    43740.786   -18270.138    129.05193    9811.9836    80.780587 
   17800    918.84239   -116.44522    0.8313879   -115.61384     11704.59     4.312238     4.312238     4.312238     11704.59     32475.85   -6285.6071    8923.5276    7785.3661    7274.4155   -18368.998    80.187773 
   17900    892.81925   -116.42638   0.80784162   -115.61853    22199.284    4.3076524    4.3076524    4.3076524    22199.284    32092.663   -7827.8459    42333.036   -4311.8361    7412.8995   -23881.124    79.932235 
   18000    1105.0647   -116.62236   0.99988573   -115.62248    1643.9375    4.3259711    4.3259711    4.3259711    1643.9375   -4300.8321   -4867.5587    14100.203   -18984.259    5471.3381    3829.0599    80.956336 
   18100    901.69302   -116.43619   0.81587079   -115.62032   -4416.6086    4.3206867    4.3206867    4.3206867   -4416.6086    69.853701    -24503.19    11183.511    2391.3437    8121.3305   -4168.4194    80.660021 
   18200    895.33851   -116.42695    0.8101211   -115.61683    9248.8537    4.2978468    4.2978468    4.2978468    9248.8537      47408.7     5485.973   -25148.112    5583.6777   -8977.3624    -44488.89     79.38762 
   18300    1254.7118   -116.76071    1.1352896   -115.62542    1477.8616    4.3132003    4.3132003    4.3132003    1477.8616   -9371.7905    6179.4501    7625.9252   -2893.9391    5628.7738   -9.7048853    80.241473 
   18400    1158.2495   -116.66874    1.0480085   -115.62073   -17390.263    4.3309898    4.3309898    4.3309898   -17390.263   -16148.774   -28028.793   -7993.2231   -16697.506   -10524.713    2113.8635    81.238422 
   18500    600.95526   -116.16548   0.54375695   -115.62172   -17351.713    4.3153049    4.3153049    4.3153049   -17351.713    4419.3526   -23620.184   -32854.308    9179.4414   -4362.6003   -37028.208    80.358986 
   18600    1082.0214   -116.59797   0.97903574   -115.61894    11358.067    4.3017903    4.3017903    4.3017903    11358.067    14069.585    6699.5323    13305.085       9216.3   -3258.5395   -5384.6519    79.606347 
   18700    1565.7183    -117.0343    1.4166948    -115.6176    4025.4416    4.3174107    4.3174107    4.3174107    4025.4416   -18825.498    12072.438    18829.384   -13080.034   -1549.1465    3712.4321    80.476689 
   18800    677.94452   -116.24237   0.61341845   -115.62895   -16938.947    4.3255915    4.3255915    4.3255915   -16938.947   -4129.8757    -13405.09   -33281.877    6940.5017    5356.1898    -37211.24    80.935027 
   18900    835.94771     -116.387   0.75638305   -115.63062   -13661.668     4.307058     4.307058     4.307058   -13661.668    -200.8829   -18435.541    -22348.58    6214.8642   -4210.8452   -12708.307    79.899148 
   19000    1386.1043   -116.88072    1.2541763   -115.62654    8316.3723    4.3029017    4.3029017    4.3029017    8316.3723   -6372.1409    13719.243    17602.015    8597.5463    3313.2428    22481.839    79.668066 
   19100    1149.3406   -116.67047    1.0399475   -115.63052   -20345.826    4.3240771    4.3240771    4.3240771   -20345.826   -6257.3134    -8472.519   -46307.646   -5758.7351    1237.3939   -30801.868    80.850051 
   19200    767.78955    -116.3191   0.69471212   -115.62439   -27858.799    4.3246339    4.3246339    4.3246339   -27858.799   -15143.236   -32920.041   -35513.121    4090.4784    2528.8153   -25631.554    80.881287 
   19300    1002.5592   -116.52059   0.90713662   -115.61346    3356.2029    4.3018221    4.3018221    4.3018221    3356.2029   -9055.4321   -6333.9533    25457.994    17432.752   -5233.1103    24528.589    79.608116 
   19400    1221.9248    -116.7249    1.1056232   -115.61927   -5138.8497    4.3087599    4.3087599    4.3087599   -5138.8497   -5334.6578    3248.8205   -13330.712   -6702.6285    4923.1109   -14177.449    79.993904 
   19500    839.58714   -116.38501   0.75967609   -115.62533   -11703.789    4.3279767    4.3279767    4.3279767   -11703.789   -5953.1131    -22789.24   -6369.0129    800.55377    1431.2199   -22587.067    81.068985 
   19600    997.29912   -116.52269    0.9023772   -115.62032     -4216.63    4.3142235    4.3142235    4.3142235     -4216.63   -3805.7532   -15467.454    6623.3174    15165.818   -6517.6243    13941.469    80.298593 
   19700    888.57002   -116.42209   0.80399683    -115.6181    19747.757    4.3051248    4.3051248    4.3051248    19747.757    22527.405   -12547.817    49263.683    991.29174    5661.9648    3752.5903    79.791611 
   19800    1059.1814   -116.57841    0.9583696   -115.62004     3105.725    4.3220029    4.3220029    4.3220029     3105.725    19546.616   -25495.869    15266.428    -4650.015    3303.0437   -20946.652    80.733756 
   19900    992.75312   -116.51567   0.89826389   -115.61741    8172.9068    4.3206797    4.3206797    4.3206797    8172.9068    21802.031   -14057.562    16774.251    7687.6441   -9773.4268    3670.0945    80.659629 
   20000    786.99163     -116.335   0.71208657   -115.62291    3605.6385    4.3096637    4.3096637    4.3096637    3605.6385    11668.926   -30635.361    29783.351    7039.6292   -5024.3887    16852.212    80.044253 
   20100    958.67387   -116.49395   0.86742826   -115.62653    10653.865    4.3086949    4.3086949    4.3086949    10653.865    6876.9163   -12713.591    37798.269   -1403.1675    150.58513   -17321.492    79.990281 
   20200    1276.3488   -116.77899    1.1548672   -115.62412     5770.778    4.3198002    4.3198002    4.3198002     5770.778    23210.176   -9079.9255    3182.0839    1918.5869    792.47936    4377.9693    80.610382 
   20300    858.18229   -116.39709   0.77650137   -115.62059   -31976.274      4.33318      4.33318      4.33318   -31976.274   -40398.324   -21565.318    -33965.18    14471.282    -1741.739    16732.319    81.361735 
   20400    883.17302    -116.4155   0.79911351   -115.61639    -581.6265    4.3098552    4.3098552    4.3098552    -581.6265   -24525.225    4120.0885    18660.257   -1545.3267   -1682.1664   -7498.4916    80.054924 
   20500    1666.7349   -117.11766    1.5080968   -115.60956    10594.099    4.3012594    4.3012594    4.3012594    10594.099    15708.796    13259.497    2814.0051   -5326.2157    5759.0944   -6544.2999     79.57688 
   20600    833.45814   -116.37867   0.75413044   -115.62454    -24190.32    4.3354733    4.3354733    4.3354733    -24190.32    1190.6943   -30821.113    -42940.54    98.614128    -382.4893    19169.997    81.490981 
   20700    515.77594   -116.08684   0.46668491   -115.62015   -3813.9624    4.3256014    4.3256014    4.3256014   -3813.9624    10522.794   -5797.3441   -16167.338    4190.2341   -11980.379     3550.031    80.935581 
   20800    1150.0844   -116.64125    1.0406205   -115.60063    29304.321    4.3063157    4.3063157    4.3063157    29304.321    65667.132    19199.221    3046.6086   -6819.2686    4572.2469   -9794.2708    79.857849 
   20900    870.80974   -116.40165   0.78792695   -115.61372    -4294.585    4.3218576    4.3218576    4.3218576    -4294.585     37058.71   -24444.149   -25498.316    -6883.876    83.503727    28718.549    80.725613 
   21000    659.17571   -116.21771   0.59643603   -115.62127    8702.7518    4.3131111    4.3131111    4.3131111    8702.7518   -3092.8704   -1698.0061    30899.132   -303.86046   -17552.403    1427.6231    80.236493 
   21100    1205.3972   -116.70977    1.0906687   -115.61911    14826.419    4.3116395    4.3116395    4.3116395    14826.419   -9721.8233    9709.8856    44491.195    7453.0145   -9692.7192    -6206.324     80.15439 
   21200    893.05142   -116.43072   0.80805169   -115.62267   -6493.7423    4.3260642    4.3260642    4.3260642   -6493.7423   -21618.298   -12856.072    14993.143    -1416.786     16085.35    10274.265     80.96156 
   21300    836.92656   -116.37858   0.75726874   -115.62131     -11352.6    4.3105343    4.3105343    4.3105343     -11352.6   -30596.904   -6534.7523    3073.8576    2400.3753     23971.48    13082.155    80.092771 
   21400    1331.5491     -116.822    1.2048136   -115.61718   -1001.5417    4.3124894    4.3124894    4.3124894   -1001.5417   -7693.1041   -9039.9991    13728.478    12286.509   -4863.6089    295.94623    80.201804 
   21500    1298.4042   -116.78952    1.1748234    -115.6147   -13777.483    4.3294971    4.3294971    4.3294971   -13777.483   -26454.218   -20760.343    5882.1115    1561.8697    8406.2487    9034.3069    81.154454 
   21600    455.75249   -116.03952   0.41237443   -115.62715   -902.08857     4.313059     4.313059     4.313059   -902.08857     -23238.6   -11156.911    31689.245    2782.8412    17288.012    24852.816    80.233582 
   21700    838.24465   -116.38671   0.75846138   -115.62825    16429.823    4.3043932    4.3043932    4.3043932    16429.823    7456.6206   -13631.441    55464.289    2113.9888    6432.6587    9691.2192    79.750942 
   21800    1389.2491    -116.8812    1.2570218   -115.62418    9225.1723    4.3173316    4.3173316    4.3173316    9225.1723    22516.071   -8948.1174    14107.563    4486.5247   -17992.221   -729.18521    80.472263 
   21900    681.64823   -116.25312   0.61676964   -115.63635   -14566.077    4.3218065    4.3218065    4.3218065   -14566.077    18067.251   -19259.989   -42505.494    4843.0598    562.73016    2285.3299    80.722753 
   22000    930.35343   -116.46945   0.84180333   -115.62765   -9802.2526    4.3114026    4.3114026    4.3114026   -9802.2526    -609.4724   -19418.537   -9378.7488   -1502.4172     23791.42    17521.625     80.14118 
   22100     1269.519   -116.76833    1.1486874   -115.61964    15689.682    4.3101817    4.3101817    4.3101817    15689.682    6797.3723   -9232.4018    49504.077    263.33092   -7863.8359   -13651.224    80.073117 
   22200    770.38979   -116.32259   0.69706487   -115.62553   -1967.0415    4.3216506    4.3216506    4.3216506   -1967.0415   -12806.778   -7900.1336    14805.787   -1586.2286   -23197.561   -2459.0553    80.714018 
   22300    831.64861    -116.3751   0.75249314   -115.62261   -11509.005    4.3255071    4.3255071    4.3255071   -11509.005    10891.059   -47883.032    2464.9586    4772.6168    191.13295    24256.104    80.930287 
   22400    1552.8515   -117.02054    1.4050527   -115.61549    3832.6287     4.305063     4.305063     4.305063    3832.6287    18491.428   -7162.5077    168.96542   -2060.9614    2872.0807    6426.5835    79.788178 
   22500    867.94931   -116.41092   0.78533877   -115.62558    27594.329    4.2970692    4.2970692    4.2970692    27594.329    46063.422     16287.41    20432.156   -692.33107   -28757.991     -9633.09    79.344542 
   22600    596.22252   -116.17893   0.53947467   -115.63946   -25857.287      4.33729      4.33729      4.33729   -25857.287   -30271.526   -53743.427    6443.0914    6046.4967   -5846.2927    18553.543    81.593464 
   22700    1313.5719   -116.81281    1.1885474   -115.62426   -3157.6615    4.3173559    4.3173559    4.3173559   -3157.6615    2918.7216   -32740.715    20349.009    2192.7696    14511.914    16937.391    80.473625 
   22800    1161.6223   -116.65217    1.0510602   -115.60111    47672.538    4.2745631    4.2745631    4.2745631    47672.538    41946.432    30156.747    70914.436   -8265.8875   -11590.841   -14956.274    78.104345 
   22900     629.0474   -116.20158   0.56917531   -115.63241   -52852.978    4.3311849    4.3311849    4.3311849   -52852.978   -43634.086   -44306.167    -70618.68    5394.2822   -30633.052    5097.8457    81.249404 
   23000    1282.4713   -116.76112     1.160407   -115.60071   -26877.461    4.3291619    4.3291619    4.3291619   -26877.461   -5926.5585   -41831.904    -32873.92    7712.0894   -5590.1318    11932.654    81.135607 
   23100    1407.5509   -116.86084    1.2735816   -115.58726    12250.953    4.2935581    4.2935581    4.2935581    12250.953    20045.118   -3479.4648    20187.207   -10829.484    5176.8699   -11116.191    79.150203 
   23200    624.52812   -116.18287   0.56508617   -115.61779   -13038.573    4.3100104    4.3100104    4.3100104   -13038.573   -134.56128    -12729.13   -26252.029   -7976.3338   -14103.186   -1489.4279    80.063572 
   23300    1024.5217    -116.5477   0.92700881   -115.62069    745.52901    4.3165877    4.3165877    4.3165877    745.52901    8851.9469   -27161.813    20546.453    9939.2159   -7615.8483    20035.339    80.430674 
   23400     1168.555    -116.6752    1.0573331   -115.61786   -3209.6421    4.3229938    4.3229938    4.3229938   -3209.6421   -11221.089   -24167.076    25759.238   -14414.364    17506.011    4988.6962    80.789301 
   23500    683.64146   -116.24026   0.61857316   -115.62169   -10160.977    4.3109369    4.3109369    4.3109369   -10160.977   -31191.428   -3925.0819    4633.5797   -19174.315    15072.149   -4156.0679    80.115215 
   23600     1043.985   -116.56102   0.94461953    -115.6164    11123.452    4.2990527    4.2990527    4.2990527    11123.452    13360.156    39085.511   -19075.311   -1521.5164   -26836.156    16897.133    79.454466 
   23700    1259.2249   -116.75679    1.1393731   -115.61742    -22670.48    4.3255119    4.3255119    4.3255119    -22670.48   -24592.897   -1745.6624   -41672.879    -13711.09    11732.445    7801.1586    80.930556 
   23800    646.34158   -116.20806   0.58482345   -115.62324   -20544.059    4.3203573    4.3203573    4.3203573   -20544.059   -55655.585    31293.679   -37270.271   -11405.081      30670.7   -4814.3611    80.641575 
   23900    1032.4798   -116.54664   0.93420944   -115.61243      19899.7    4.2910025    4.2910025    4.2910025      19899.7    5455.5743    40272.982    13970.545   -11510.252   -20918.403   -11843.094    79.008953 
   24000    1259.7061   -116.76101    1.1398085    -115.6212     11953.63    4.3113872    4.3113872    4.3113872     11953.63     -4556.06    27237.873    13179.079    9230.6088   -5010.4339   -8064.9795    80.140323 
   24100    466.03907   -116.04313   0.42168195   -115.62144   -28605.926    4.3370342    4.3370342    4.3370342   -28605.926   -88565.285    1927.2482    820.25907   -5067.5969    35157.415   -2268.6993    81.579032 
   24200    806.15947   -116.34597   0.72943003   -115.61654    11374.594    4.3015605    4.3015605    4.3015605    11374.594   -22113.486    15115.657     41121.61   -8848.0571     12152.78   -15539.525    79.593593 
   24300    1580.4719   -117.03512    1.4300441   -115.60508    36649.971    4.2861915    4.2861915    4.2861915    36649.971     29278.81    33364.518    47306.584    5797.4476   -10272.051   -9945.6794    78.743502 
   24400    806.33622    -116.3604   0.72958996   -115.63081   -40163.511    4.3298439    4.3298439    4.3298439   -40163.511   -65362.798   -21971.109   -33156.625     584.1317     37240.16    6281.8422    81.173957 
   24500    627.89553   -116.19953   0.56813307    -115.6314   -22918.452    4.3105582    4.3105582    4.3105582   -22918.452   -39711.365   -11121.507   -17922.484   -5866.4094    35646.163   -1990.2267    80.094103 
   24600    1330.8948   -116.81808    1.2042215   -115.61385    30256.656    4.2901006    4.2901006    4.2901006    30256.656     40504.17     26738.94    23526.858   -5636.6362   -7065.3061   -7954.4146    78.959144 
   24700     1281.786   -116.77854    1.1597869   -115.61875   -22659.618    4.3187227    4.3187227    4.3187227   -22659.618   -30337.418    -7103.817    -30537.62    4895.6019    7756.6478   -2999.9966    80.550079 
   24800    670.41162    -116.2317   0.60660252    -115.6251    8898.2982    4.3049421    4.3049421    4.3049421    8898.2982    3280.6661    25406.859   -1992.6309   -6358.8855    36617.679    5991.6737    79.781452 
   24900     1054.837   -116.57758    0.9544387   -115.62314     12967.59    4.3112712    4.3112712    4.3112712     12967.59    2399.6487    8954.2841    27548.836   -12659.242      2037.39   -6512.9672    80.133855 
   25000    1315.7331   -116.80857     1.190503   -115.61807    -12525.63    4.3164858    4.3164858    4.3164858    -12525.63    -4698.449   -4305.9667   -28572.475    2898.4777   -22728.287   -8396.7107    80.424979 
   25100    809.63814   -116.35313    0.7325776   -115.62055    29784.834    4.2856249    4.2856249    4.2856249    29784.834    38118.787    49356.657    1879.0575   -6862.7069    16849.904    2892.4407    78.712276 
   25200    990.58802    -116.5342   0.89630485   -115.63789   -8083.5036    4.3130408    4.3130408    4.3130408   -8083.5036   -4435.6154   -17704.145   -2110.7503    -10101.62    28394.219    3296.6029    80.232567 
   25300    1241.4302   -116.74121    1.1232721   -115.61794   -10354.914    4.3204535    4.3204535    4.3204535   -10354.914    28187.958   -22967.224   -36285.476   -5755.0928   -19319.392    1351.2454    80.646962 
   25400    961.48256   -116.48523   0.86996962   -115.61526    4564.0152    4.2938037    4.2938037    4.2938037    4564.0152     3013.689    32014.437    -21336.08    1357.0774   -14962.412   -7272.1346    79.163786 
   25500    821.01215   -116.36802   0.74286905   -115.62515   -22538.246    4.3067808    4.3067808    4.3067808   -22538.246   -30633.856   -1592.4142   -35388.467    2682.6805    27185.039    4795.4932    79.883727 
   25600     1296.315   -116.78846    1.1729331   -115.61552   -20912.791    4.3165638    4.3165638    4.3165638   -20912.791   -4172.4561   -29627.038   -28938.879   -1743.6334    4641.4767      12613.8    80.429338 
   25700    1106.0744   -116.61876    1.0007994   -115.61796   -18814.864       4.3111       4.3111       4.3111   -18814.864   -10702.884    5287.4907   -51029.199    7647.0981    -35720.48   -6751.8815    80.124305 
   25800    777.00142   -116.32552   0.70304721   -115.62247   -3855.9904    4.2966677    4.2966677    4.2966677   -3855.9904   -16331.282    25910.978   -21147.667    148.95261    8400.3375   -2623.1922    79.322299 
   25900    1048.8514   -116.57731   0.94902275   -115.62829   -4855.1051    4.3039432    4.3039432    4.3039432   -4855.1051    27168.775   -12057.862   -29676.228   -6373.1257    31097.893     15784.83    79.725929 
   26000    1138.1115   -116.65162    1.0297872   -115.62183   -17777.224    4.3208552    4.3208552    4.3208552   -17777.224   -5922.0691   -11849.331   -35560.272   -4870.7809   -27779.186    11832.058    80.669459 
   26100    990.84397   -116.51614   0.89653645   -115.61961   -7804.7267    4.3048026    4.3048026    4.3048026   -7804.7267   -12118.524    22014.142   -33309.799    -2473.944   -11749.956   -683.62492      79.7737 
   26200    856.24171   -116.39521   0.77474549   -115.62046    8730.5659    4.2953258    4.2953258    4.2953258    8730.5659    17243.534    19075.745   -10127.581   -8172.8248    34970.166    3288.7009    79.248006 
   26300    1253.1659   -116.75498    1.1338909   -115.62109   -12162.728    4.3110716    4.3110716    4.3110716   -12162.728    7755.4539   -27497.111   -16746.526   -7548.9887    1881.9258    21889.874    80.122726 
   26400    999.28093   -116.52824   0.90417039   -115.62407    1755.4905    4.3109351    4.3109351    4.3109351    1755.4905    16695.958    2602.5252   -14032.012    345.74679   -27933.202    3496.5714    80.115111 
   26500    919.06363   -116.45963   0.83158809   -115.62804    413.26867    4.2984568    4.2984568    4.2984568    413.26867   -1574.1442     34193.01    -31379.06    208.20345      10164.9    -9670.958    79.421431 
   26600    1045.7878   -116.57688   0.94625079   -115.63063    4043.2658    4.3028596    4.3028596    4.3028596    4043.2658    16862.619   -1140.9856   -3591.8357    4917.2766    29585.894    10701.219    79.665726 
   26700    1324.7409   -116.82411    1.1986534   -115.62546   -5450.3405    4.3098979    4.3098979    4.3098979   -5450.3405    25407.896   -17569.436   -24189.481      1062.48   -16090.475    7906.8866    80.057303 
   26800    725.98313   -116.28708   0.65688479    -115.6302   -3630.0632    4.3067319    4.3067319    4.3067319   -3630.0632   -774.74586    23491.614   -33607.058   -2063.7072    -12001.56   -1215.5189    79.881003 
   26900     773.9798    -116.3326   0.70031319   -115.63228   -16575.335    4.3052563    4.3052563    4.3052563   -16575.335   -20995.818    17733.777   -46463.965    6691.9264    32660.388   -2819.8457    79.798921 
   27000    1406.6417   -116.89894     1.272759   -115.62618    5324.1632    4.3010879    4.3010879    4.3010879    5324.1632    38843.197   -12169.379   -10701.329   -430.05912    6632.6125    3622.4756    79.567363 
   27100    1302.7064   -116.80835    1.1787161   -115.62963    7158.9469    4.3025013    4.3025013    4.3025013    7158.9469    24564.751    10004.565   -13092.476    1513.7034   -13116.165    6030.2971    79.645829 
   27200    431.42621   -116.03205    0.3903635   -115.64169   -17786.061    4.3125574    4.3125574    4.3125574   -17786.061    -6274.018    25660.451   -72744.617   -1969.6085    20940.347   -12846.166    80.205593 
   27300    806.16016   -116.36837   0.72943065   -115.63894   -9805.3422    4.3036841    4.3036841    4.3036841   -9805.3422    10306.683   -230.50493   -39492.205   -2283.2938     22643.65   -9424.7385     79.71153 
   27400    1680.2724   -117.14521    1.5203458   -115.62486    19556.914    4.2893754    4.2893754    4.2893754    19556.914    48359.938   -2530.9246    12841.729    7614.6833    -9482.745    2192.7122    78.919108 
   27500    972.35681   -116.51996   0.87980888   -115.64015   -12643.972    4.3124843    4.3124843    4.3124843   -12643.972   -1530.3014    6744.2621   -43145.876   -2702.9714    18066.486   -1175.7721    80.201519 
   27600    472.54214   -116.06723   0.42756606   -115.63967   -28880.001    4.3157324    4.3157324    4.3157324   -28880.001   -38694.043    22028.594   -69974.555   -1239.1632    23573.137   -6579.3399    80.382872 
   27700    1029.1309   -116.55997   0.93117931   -115.62879    16173.282    4.2900579    4.2900579    4.2900579    16173.282    45923.975    5024.9054   -2429.0346    9483.8557   -10453.239    1361.2388    78.956786 
   27800    1451.5064     -116.942    1.3133535   -115.62864    4641.7596     4.295963     4.295963     4.295963    4641.7596    39036.731   -7221.9924    -17889.46   -2162.3662     3852.913    22035.802    79.283278 
   27900    723.78774   -116.29178   0.65489836   -115.63688   -13217.804     4.318331     4.318331     4.318331   -13217.804   -5449.0299     6059.181   -40263.563   -978.81232    26043.085     1430.252    80.528164 
   28000    783.75287   -116.34181   0.70915607   -115.63265   -16541.058    4.3095769    4.3095769    4.3095769   -16541.058   -25071.821    27185.109   -51736.463    2463.9683   -3467.8802    -5793.598    80.039413 
   28100    1137.8262   -116.65298    1.0295291   -115.62345    20417.636    4.2868779    4.2868779    4.2868779    20417.636    61589.423    489.40493   -825.92006   -7763.9397   -17031.354    21381.504    78.781334 
   28200    1206.2717     -116.723      1.09146   -115.63154   -3522.7146    4.3031506    4.3031506    4.3031506   -3522.7146    23246.311   -6856.2061   -26958.249    3915.4435    16720.597    12766.793    79.681892 
   28300    751.57141   -116.31167   0.68003761   -115.63163   -20485.028    4.3184264    4.3184264    4.3184264   -20485.028    -22085.19    12765.855   -52135.748    1323.2372    4004.0344   -2734.0432    80.533499 
   28400    781.69234   -116.33752   0.70729165   -115.63023    2773.7711    4.2990985    4.2990985    4.2990985    2773.7711    9746.5504    29525.314   -30950.551   -7961.4622   -22416.558    6262.2588    79.457004 
   28500    1321.8113   -116.81969    1.1960026   -115.62369    9392.6825    4.2959193    4.2959193    4.2959193    9392.6825    48567.115   -11155.462   -9233.6053    10546.335   -1823.7562    23730.162     79.28086 
   28600    1026.1184   -116.55681   0.92845351   -115.62836   -4305.0265    4.3092568    4.3092568    4.3092568   -4305.0265    24789.832   -422.63146    -37282.28   -5713.3772    11243.878    4697.8105    80.021578 
   28700    565.34713   -116.14783   0.51153797    -115.6363   -5844.9293    4.3071298    4.3071298    4.3071298   -5844.9293   -13289.033    30810.994    -35056.75   -3315.6301   -19807.298   -10797.128    79.903144 
   28800    1091.9249   -116.62096   0.98799657   -115.63297    750.72569    4.3013574    4.3013574    4.3013574    750.72569    15021.855    24982.012    -37751.69    6998.6127   -13894.062    14202.482    79.582319 
   28900     1482.469   -116.96558    1.3413691   -115.62421    11009.816    4.2997609    4.2997609    4.2997609    11009.816    33078.475   -3504.0637     3455.037   -7403.3752    7584.4134     1115.263    79.493735 
   29000    610.09314    -116.1913   0.55202509   -115.63928   -14830.549    4.3089951    4.3089951    4.3089951   -14830.549   -8475.7155    11106.245   -47122.176    11815.312   -19163.951   -8934.0323       80.007 
   29100     541.3373   -116.13245   0.48981337   -115.64264    -15320.27    4.3048634    4.3048634    4.3048634    -15320.27   -23188.388    30478.982   -53251.404   -1743.6591   -15550.158   -5476.5493    79.777077 
   29200    1436.7608   -116.92998    1.3000113   -115.62997    13740.602    4.2976432    4.2976432    4.2976432    13740.602    19350.942    25851.857   -3980.9946   -1909.1648    12631.121   -1651.3789    79.376342 
   29300    1190.4874    -116.7077     1.077178   -115.63052   -9273.3591    4.3106702    4.3106702    4.3106702   -9273.3591    171.23684   -14637.786   -13353.528    24991.265   -12086.899    2419.9078    80.100347 
   29400    678.83304   -116.24999    0.6142224   -115.63576   -13097.293    4.3022298    4.3022298    4.3022298   -13097.293   -16144.785    31376.712   -54523.805   -6579.3433   -27733.915   -15759.943    79.630752 
   29500    850.50747   -116.40261   0.76955703   -115.63305    4667.8402    4.2981686    4.2981686    4.2981686    4667.8402    12796.044    23239.993   -22032.516    4187.6293    6874.7051    -164.9828    79.405456 
   29600    1207.2729   -116.71895    1.0923659   -115.62659   -12176.528    4.3102467    4.3102467    4.3102467   -12176.528   -3599.9898   -13514.434   -19415.159    9074.2622    11878.405    15498.463     80.07674 
   29700    919.85479   -116.46264   0.83230394   -115.63033    1354.9108    4.3015117    4.3015117    4.3015117    1354.9108    7734.3902    14271.008   -17940.666   -5871.0814   -27281.174    2675.8907    79.590884 
   29800    972.38569   -116.51002   0.87983501   -115.63018    4128.7993    4.3019988    4.3019988    4.3019988    4128.7993    -9288.277    52467.137   -30792.462     7074.185   -22170.555   -3105.6421    79.617926 
   29900    1293.2709   -116.79595    1.1701786   -115.62578    -4535.716     4.307539     4.307539     4.307539    -4535.716    9260.9438   -248.74341   -22619.348   -11842.241    20148.793    5485.1382    79.925923 
   30000    779.48807   -116.33537   0.70529718   -115.63007    14741.381    4.2988443    4.2988443    4.2988443    14741.381    9934.5607    37955.109   -3665.5279    8996.2331   -8618.0016    14228.618    79.442913 
   30100    746.59124   -116.31406   0.67553144   -115.63853   -9598.0893    4.3023319    4.3023319    4.3023319   -9598.0893   -21507.219    13406.682   -20693.731    2314.9957   -44282.144    664.18501     79.63642 
   30200    1291.2726   -116.79983    1.1683706   -115.63146    723.49897    4.3085617    4.3085617    4.3085617    723.49897    3523.5957    22626.248   -23979.347   -2608.7025    3987.4197   -3738.9115    79.982866 
   30300    1365.6338   -116.86159    1.2356542   -115.62594   -3072.8568    4.3073095    4.3073095    4.3073095   -3072.8568   -2204.8855    9445.1957   -16458.881    9794.7951    10310.586    6606.4971    79.913148 
   30400    461.87584   -116.05546   0.41791497   -115.63755   -11392.903    4.3001886    4.3001886    4.3001886   -11392.903   -35948.482    7913.2017   -6143.4286    5012.3677   -47487.251    11592.417    79.517462 
   30500    809.81335   -116.37234   0.73273614    -115.6396     1276.298     4.300142     4.300142     4.300142     1276.298   -17578.069     11974.54    9432.4233     2959.371   -25649.916    179.99985    79.514877 
   30600    1637.3037   -117.10783    1.4814668   -115.62636    1603.1383    4.3087527    4.3087527    4.3087527    1603.1383   -2740.4944    11278.017   -3728.1074   -12414.656     13976.96   -23345.779    79.993502 
   30700    885.87277   -116.43617    0.8015563   -115.63462    9567.3191    4.3028691    4.3028691    4.3028691    9567.3191     -21467.2    45694.744    4474.4131    10016.197    -32727.33    4442.4252    79.666253 
   30800    725.71872   -116.29039   0.65664555   -115.63375    -1278.088     4.303968     4.303968     4.303968    -1278.088   -29399.284    14417.134    11147.886    906.87187   -37784.131    4300.1143    79.727306 
   30900    1178.5925   -116.69003    1.0664152   -115.62362    920.91354    4.3064608    4.3064608    4.3064608    920.91354    -7759.834    11158.261   -635.68649   -8403.0748    16962.786   -6784.2136    79.865917 
   31000    991.24581   -116.52239   0.89690004   -115.62549    4088.2925     4.300898     4.300898     4.300898    4088.2925   -8738.7901    19824.604    1179.0638   -4294.3293   -13174.084   -8528.2677    79.556824 
   31100    1045.9445   -116.57421   0.94639253   -115.62782   -12671.635    4.3092572    4.3092572    4.3092572   -12671.635   -15387.236    21008.545   -43636.214    4439.9028   -43756.349   -9608.6668    80.021603 
   31200    1125.3844   -116.64364    1.0182715   -115.62537   -4730.2644    4.3076783    4.3076783    4.3076783   -4730.2644   -21121.983   -4593.6337    11524.823    8687.2312    4268.3551     8730.667    79.933674 
   31300    1032.8467   -116.56064   0.93454143    -115.6261   -3954.6071    4.2997363    4.2997363    4.2997363   -3954.6071   -9446.0928    7090.7147   -9508.4431   -12645.139    6712.4612   -9807.1652    79.492372 
   31400    760.01332   -116.32029   0.68767602   -115.63262   -1420.6675     4.309111     4.309111     4.309111   -1420.6675   -4473.1201    38798.051   -38586.933    1494.4406   -30552.607   -11644.665     80.01346 
   31500    1205.8921    -116.7144    1.0911165   -115.62328   -3118.8274    4.3091627    4.3091627    4.3091627   -3118.8274   -6886.2853    15918.065   -18388.262    8061.7714   -10548.043    12187.153    80.016339 
   31600    782.66836   -116.33085   0.70817478   -115.62267    8775.0303    4.3062511    4.3062511    4.3062511    8775.0303   -19532.474     20528.02    25329.545   -3459.5083    9920.3934   -4282.2388    79.854254 
   31700    1027.5148   -116.55265   0.92971698   -115.62293   -13373.869    4.3090498    4.3090498    4.3090498   -13373.869   -33138.394    22448.769   -29431.984   -12704.365   -15143.133     3102.603    80.010047 
   31800     1248.301   -116.74875     1.129489   -115.61926     25717.09    4.2962841    4.2962841    4.2962841     25717.09     15205.27    48772.056    13173.944    4702.9111   -13294.931    1965.0012    79.301058 
   31900    916.03758   -116.46075   0.82885005    -115.6319   -7167.3789    4.3058802    4.3058802    4.3058802   -7167.3789   -24249.958   -7297.5139    10045.335    12421.865    15.589079    4325.6944    79.833621 
   32000    564.38211   -116.14585    0.5106648   -115.63519   -19958.396    4.3134675    4.3134675    4.3134675   -19958.396   -45124.687   -24876.015    10125.514    -9785.371   -200.29407    10962.472    80.256384 
   32100    1359.7016   -116.85543    1.2302866   -115.62514    15122.089    4.2957743    4.2957743    4.2957743    15122.089    1496.9818    53682.356   -9813.0718   -7671.6863   -7506.4283   -16931.909    79.272829 
   32200    1176.5582   -116.69446    1.0645746   -115.62989    10811.656    4.3044842    4.3044842    4.3044842    10811.656    -498.0228    23550.729    9382.2631    14755.734   -90.227948   -1845.1879    79.755997 
   32300    617.93624   -116.19686   0.55912169   -115.63774   -18689.367    4.3114459    4.3114459    4.3114459   -18689.367    -48114.78   -8691.3387    738.01698    11923.221    10988.899    15052.021    80.143597 
   32400    900.51216   -116.44558   0.81480233   -115.63078    5451.8981    4.3028722    4.3028722    4.3028722    5451.8981   -19995.966    26818.344    9533.3158   -22823.894   -145.94598   -8739.2975    79.666428 
   32500    1463.1973   -116.94496    1.3239316   -115.62103    431.68336      4.30794      4.30794      4.30794    431.68336   -108.67593    16968.985   -15565.259    2376.0069   -429.57216   -16737.225    79.948244 
   32600    892.69466   -116.43343   0.80772889    -115.6257    9013.4038    4.3050309    4.3050309    4.3050309    9013.4038   -21062.961    49731.573   -1628.4002    13479.824    11955.178   -6893.0161    79.786392 
   32700    888.84177   -116.43351   0.80424272   -115.62926    1199.2613    4.3018903    4.3018903    4.3018903    1199.2613   -48159.087    29169.299    22587.572   -9572.1279    1924.5661    8335.8319    79.611902 
   32800    1121.9388   -116.64179    1.0151538   -115.62663    3927.9614    4.3053854    4.3053854    4.3053854    3927.9614   -11365.807    19572.862    3576.8289   -12082.261   -703.11119    -7500.301    79.806103 
   32900    1155.6616   -116.67302    1.0456669   -115.62735   -11389.206    4.3074321    4.3074321    4.3074321   -11389.206   -1994.7237    6232.7751    -38405.67    10778.567    5637.9643   -33377.112    79.919974 
   33000    764.33015   -116.32574   0.69158198   -115.63416   -5790.8807     4.301961     4.301961     4.301961   -5790.8807   -35022.773    5371.4916    12278.639    3051.4225    12136.825    4017.1048    79.615827 
   33100    948.42493   -116.48865   0.85815481   -115.63049    4696.1979    4.3028712    4.3028712    4.3028712    4696.1979   -29741.502    23148.878    20681.218   -8143.2036    997.09618   -2444.4361    79.666373 
   33200    1055.2317   -116.57929    0.9547958    -115.6245   -2682.6392    4.3200262    4.3200262    4.3200262   -2682.6392   -9407.8628    32006.776    -30646.83   -6691.0488   -3127.3358   -25299.302    80.623033 
   33300    1103.1162   -116.61643   0.99812269   -115.61831   -4211.3128    4.3106497    4.3106497    4.3106497   -4211.3128   -23474.037    21380.838    -10540.74    2748.9764    13913.491    -7569.382    80.099201 
   33400    739.18981   -116.28972   0.66883447   -115.62089    5027.0336    4.2974629    4.2974629    4.2974629    5027.0336   -23137.657   -8285.0811    46503.839   -9519.3849    1629.2747    3293.5853    79.366351 
   33500     1053.087   -116.57847   0.95285529   -115.62562   -2859.5833    4.3080157    4.3080157    4.3080157   -2859.5833    -19253.49   -2049.2231    12723.963    -12155.52   -6897.1583    8955.0032     79.95246 
   33600    1347.7689   -116.83863    1.2194896   -115.61914    5446.1423    4.3152858    4.3152858    4.3152858    5446.1423    -10822.49    47936.327    -20775.41    3566.9883   -3671.9197   -10841.137    80.357922 
   33700    899.31069   -116.43706   0.81371521   -115.62335    2736.6028    4.3060196    4.3060196    4.3060196    2736.6028   -38067.661    27677.238    18600.231    6385.0521     4180.689    8013.5504    79.841377 
   33800    471.83814   -116.06089   0.42692907   -115.63396   -2223.4497    4.2988709    4.2988709    4.2988709   -2223.4497   -20185.158     -5043.22    18558.029   -1265.8999   -2554.7058    17987.138    79.444383 
   33900    1021.4297   -116.56016   0.92421109   -115.63595   -1109.7138    4.3025517    4.3025517    4.3025517   -1109.7138   -22380.543    18998.842    52.559427   -2924.5671   -27180.787    2103.8073    79.648628 
   34000    1400.1568   -116.89806    1.2668913   -115.63116   -1672.1709    4.3113226    4.3113226    4.3113226   -1672.1709    -13941.41    23066.382   -14141.485    7534.8288   -6859.3301   -4010.9915    80.136717 
   34100    987.57246   -116.52636   0.89357631   -115.63279   -6184.5393    4.3071541    4.3071541    4.3071541   -6184.5393   -21408.984    -14898.76    17754.126   -2885.4266     1646.202   -2349.4506    79.904499 
   34200    708.57445   -116.27281   0.64113305   -115.63168    16827.823    4.2933557    4.2933557    4.2933557    16827.823   -5264.2828    39344.878    16402.875   -7823.3894   -19845.125    10594.969    79.139009 
   34300    938.26032   -116.48155   0.84895765   -115.63259   -3871.3228    4.3100567    4.3100567    4.3100567   -3871.3228   -16490.823    19520.124   -14643.269   -6502.4814   -17911.196   -19386.245    80.066154 
   34400    1138.1841   -116.65366    1.0298529    -115.6238    834.64166    4.3085942    4.3085942    4.3085942    834.64166     6783.382    12749.371   -17028.828     921.2789    1453.0659   -30774.516    79.984676 
   34500    1212.9815   -116.72184    1.0975312   -115.62431   -819.18958    4.2993113    4.2993113    4.2993113   -819.18958   -29098.926     6192.976    20448.382    1662.8532   -453.68837    13505.044    79.468802 
   34600    597.60877   -116.17618   0.54072898   -115.63545   -21213.924    4.3050149    4.3050149    4.3050149   -21213.924   -29004.827   -23475.644   -11161.302   -10538.363   -27095.455   -11611.909    79.785501 
   34700     674.5023   -116.25389   0.61030386   -115.64358   -5848.9634    4.2974629    4.2974629    4.2974629   -5848.9634    7362.3946    8746.1353    -33655.42    4719.6598   -6781.2021   -41315.017    79.366347 
   34800    1459.9934   -116.95978    1.3210327   -115.63875   -3910.0927    4.3088582    4.3088582    4.3088582   -3910.0927   -10891.201    13473.804   -14312.882    152.08425     10216.67   -1291.5782    79.999375 
   34900    1257.1953   -116.77367    1.1375367   -115.63613    8686.8482    4.3056198    4.3056198    4.3056198    8686.8482   -21266.182    49767.689   -2440.9622   -8886.7488   -19740.958    6091.2662    79.819138 
   35000    494.51062   -116.08841   0.44744361   -115.64097   -6574.9027    4.2993556    4.2993556    4.2993556   -6574.9027    4425.9039    13212.447   -37363.059   -1614.0265   -16808.803   -41464.239    79.471262 
   35100    861.44196   -116.41598   0.77945079   -115.63653   -25716.777    4.3117001    4.3117001    4.3117001   -25716.777   -9244.6852    -39534.39   -28371.256    2259.0239    10966.932   -23445.393    80.157775 
   35200     1531.822   -117.01274    1.3860247   -115.62671    472.46803    4.2976364    4.2976364    4.2976364    472.46803   -17946.197    19571.958   -208.35699    7124.9575   -588.14742    15576.339    79.375963 
   35300    1033.6625   -116.57198   0.93527956    -115.6367    2143.5396     4.296156     4.296156     4.296156    2143.5396   -3755.4487    23375.229   -13189.162    771.77856       -24100   -19944.273    79.293962 
   35400    687.05917   -116.26302   0.62166558   -115.64136    -10097.16    4.3104834    4.3104834    4.3104834    -10097.16    1439.2487   -2891.2005   -28839.528   -2201.9421   -1136.9175   -31527.971    80.089933 
   35500    1006.8428   -116.53983    0.9110125   -115.62882   -4702.4037    4.3134331    4.3134331    4.3134331   -4702.4037   -36520.658    17198.122    5215.3253    8446.3037    16752.669    4339.6944    80.254466 
   35600    1110.4757   -116.62772    1.0047817   -115.62294   -2014.5511    4.3043071    4.3043071    4.3043071   -2014.5511   -28496.825    20011.226    2441.9461    9088.5708   -17101.603    12259.442    79.746156 
   35700    994.45825   -116.52351   0.89980672   -115.62371    12684.066     4.291747     4.291747     4.291747    12684.066     16415.41    25109.531   -3472.7443   -4738.7117   -15661.274   -28222.665    79.050085 
   35800    953.50582   -116.49622    0.8627521   -115.63347    -9438.276    4.3109335    4.3109335    4.3109335    -9438.276   -23027.654    10987.372   -16274.546    -558.7234    21901.719   -17998.557    80.115027 
   35900    884.35111   -116.43238   0.80017946    -115.6322   -18670.764    4.3147626    4.3147626    4.3147626   -18670.764   -51053.061   -12764.289     7805.059    -796.0017    5273.9916    12958.942    80.328695 
   36000    1105.7368    -116.6253    1.0004939   -115.62481    24631.796    4.2880192    4.2880192    4.2880192    24631.796    7394.7151    49520.515    16980.159    12296.072   -16871.062   -9799.1195    78.844277 
   36100    1043.0716   -116.57935   0.94379311   -115.63556    8235.6868     4.302188     4.302188     4.302188    8235.6868   -9090.7783    48212.466   -14414.628   -6301.4618    12074.775   -12601.782    79.628428 
   36200    798.67675   -116.35529   0.72265951   -115.63263   -15886.238    4.3168733    4.3168733    4.3168733   -15886.238   -35634.403   -3922.3988   -8101.9118   -10556.724    29315.691   -7322.0024    80.446641 
   36300    1008.6742   -116.53833   0.91266963   -115.62566    4828.1051    4.3000505    4.3000505    4.3000505    4828.1051   -17861.012    322.55346    32022.774    10458.729   -4872.0727    6916.9169    79.509801 
   36400    1204.1306   -116.71333    1.0895227   -115.62381   -3723.7855     4.301095     4.301095     4.301095   -3723.7855   -24544.051    12044.969    1327.7263    11570.376    8278.9634    4197.8473    79.567758 
   36500    1043.0019   -116.57075   0.94373002   -115.62702   -1912.5375    4.3093813    4.3093813    4.3093813   -1912.5375   -8591.5727    25149.648   -22295.688   -3247.7867    38478.335   -8307.4675    80.028516 
   36600    1053.1771   -116.58024   0.95293674    -115.6273    965.63812    4.3088011    4.3088011    4.3088011    965.63812   -22680.036     11449.99    14126.961    3051.2299    4092.6164    3879.2141    79.996194 
   36700    830.03553   -116.38076   0.75103359   -115.62973    861.09552    4.3048163    4.3048163    4.3048163    861.09552   -23634.166     10945.87    15271.583    14019.479   -2717.2647    5250.3854    79.774461 
   36800     890.2465   -116.43552   0.80551374   -115.63001    17697.929    4.2990194    4.2990194    4.2990194    17697.929    14256.942    46576.763   -7739.9185   -1488.5781    29283.392    9441.9002    79.452621 
   36900    1373.1757    -116.8676    1.2424782   -115.62513    4175.0883    4.3097517    4.3097517    4.3097517    4175.0883   -19375.941     38050.59   -6149.3839   -436.21295    11515.159    3843.1283    80.049155 
   37000    926.52532   -116.47072   0.83833958   -115.63238   -14123.539    4.3101793    4.3101793    4.3101793   -14123.539   -34589.613   -28768.494    20987.489    22571.493   -13636.838   -1725.3644    80.072982 
   37100    756.58834   -116.31979   0.68457703   -115.63521   -3832.6886    4.2888077    4.2888077    4.2888077   -3832.6886    -23085.39    -9294.268    20881.592     10687.57    12251.407    8981.6052    78.887776 
   37200    1095.4649   -116.63116   0.99119966   -115.63996    6918.2067    4.2994745    4.2994745    4.2994745    6918.2067   -1781.6174    30686.633   -8150.3952   -11290.956    19113.397    7515.6582    79.477853 
   37300    1144.7279   -116.66476    1.0357738   -115.62899   -13434.782    4.3208107    4.3208107    4.3208107   -13434.782   -27763.786    8226.7816   -20767.342    16011.956   -13292.724   -14006.672    80.666967 
   37400    984.05805   -116.51606    0.8903964   -115.62566    5186.4266    4.2985005    4.2985005    4.2985005    5186.4266   -23519.639    16409.263    22669.656    9932.0783   -6793.0994    1122.9657    79.423851 
   37500     794.0986   -116.34309    0.7185171   -115.62457     14094.33    4.2924146    4.2924146    4.2924146     14094.33    2061.7397    29588.499    10632.752   -11959.068    17468.625    10210.318    79.086977 
   37600    966.68147   -116.50405   0.87467371   -115.62938   -12477.407    4.3090163    4.3090163    4.3090163   -12477.407   -7982.8121    6847.3119   -36296.722   -4406.1449   -6013.7758   -20084.507    80.008181 
   37700    1279.4178     -116.783    1.1576441   -115.62536    343.12322    4.3058252    4.3058252    4.3058252    343.12322   -7625.5143      24338.5   -15683.616    2082.1028   -18385.956   -8421.5866     79.83056 
   37800     1201.557   -116.71298     1.087194   -115.62578   -1226.4049    4.3058082    4.3058082    4.3058082   -1226.4049   -9759.3893    7377.1734   -1296.9988   -4406.1872    13914.014    17274.355    79.829614 
   37900    733.81738   -116.29994   0.66397338   -115.63596   -13609.131    4.2978774    4.2978774    4.2978774   -13609.131   -15473.506   -2092.0495   -23261.837   -9991.8777    11552.206   -7547.5963    79.389318 
   38000    673.67091   -116.25385    0.6095516    -115.6443    9811.7618    4.2980302    4.2980302    4.2980302    9811.7618    19142.655    24934.605   -14641.975    992.12123   -22030.576    -26002.43    79.397783 
   38100    1647.2755   -117.11503    1.4904895   -115.62454   -10927.665    4.3155492    4.3155492    4.3155492   -10927.665    -19623.02    4933.6315   -18093.605    12996.958    1672.2052   -2123.5209    80.372636 
   38200    963.49058   -116.50226   0.87178653   -115.63048    6849.3047    4.3022239    4.3022239    4.3022239    6849.3047    4878.6979    34680.658   -19011.441   -10103.947    14740.081    5375.7724    79.630424 
   38300    568.94175   -116.14823   0.51479045   -115.63344   -3267.3783     4.295819     4.295819     4.295819   -3267.3783    15133.062    2289.5806   -27224.777   -4483.8475   -7027.7934   -27008.606    79.275304 
   38400    1056.9295   -116.58681     0.956332   -115.63048   -3476.3153    4.3056892    4.3056892    4.3056892   -3476.3153   -3268.4648   -7191.4905    31.009328    11989.154   -6621.7339   -12416.864       79.823 
   38500    1289.0137   -116.79405    1.1663266   -115.62773    12017.155    4.3008202    4.3008202    4.3008202    12017.155   -1901.3991    31457.078    6495.7849    15276.696    4483.6419     12811.68    79.552505 
   38600    987.85374   -116.52644   0.89383082   -115.63261     960.7091    4.3049011    4.3049011    4.3049011     960.7091    10336.511    11296.089   -18750.473   -5680.5555     7326.552   -18492.872    79.779177 
   38700    864.35444    -116.4116   0.78208606   -115.62951    1367.5224    4.3056108    4.3056108    4.3056108    1367.5224    923.49021    11528.661   -8349.5846   -3556.0636   -6925.4448   -23250.839    79.818636 
   38800    965.37003   -116.49829   0.87348709   -115.62481    10152.498    4.3034548    4.3034548    4.3034548    10152.498   -7676.0785    4014.8133    34118.758    38011.547   -1137.4057     6767.999    79.698793 
   38900    1118.8802   -116.63706    1.0123864   -115.62468   -1443.5775    4.3037482    4.3037482    4.3037482   -1443.5775   -18641.566    14695.518   -384.68536     14286.09    13514.286   -5775.6114    79.715097 
   39000    1044.7814   -116.57287   0.94534019   -115.62753    5942.6257    4.2967761    4.2967761    4.2967761    5942.6257    19170.782    16217.971   -17560.876   -8121.5796   -855.24272   -27836.251    79.328304 
   39100     837.7422   -116.39289   0.75800674   -115.63488    -9308.076    4.3044996    4.3044996    4.3044996    -9308.076   -12335.175   -21056.575    5467.5214    28648.009   -7770.1335   -3318.5206    79.756855 
   39200    1029.9946   -116.56364   0.93196073   -115.63168     -12774.8    4.3078805    4.3078805    4.3078805     -12774.8   -38821.686   -19471.949    19969.234    19400.653    2471.2766    5987.1343    79.944935 
   39300    1157.5764   -116.67368    1.0473995   -115.62628    7320.5071     4.295466     4.295466     4.295466    7320.5071    15053.931    20601.066   -13693.476   -15140.246    5236.5779   -14748.845    79.255764 
   39400    937.70439   -116.48095   0.84845464    -115.6325   -12366.922    4.3025921    4.3025921    4.3025921   -12366.922   -13083.768    702.05195   -24719.048    11441.707   -14535.606   -21915.774    79.650871 
   39500    823.14553   -116.37631   0.74479937   -115.63151    -7801.717    4.3067293    4.3067293    4.3067293    -7801.717   -26485.212   -4985.6881    8065.7494    34557.431   -10587.644   -124.17289    79.880859 
   39600    1158.2906   -116.67277    1.0480457   -115.62472    335.01755    4.3025151    4.3025151    4.3025151    335.01755    -24210.04    15726.059    9489.0335   -7733.8337    10403.476    1363.6364    79.646597 
   39700    945.70882   -116.48348   0.85569721   -115.62778   -7619.4529    4.3046059    4.3046059    4.3046059   -7619.4529    12085.918   -2792.1114   -32152.166   -18700.317   -7355.0717   -25103.042    79.762764 
   39800    1003.5099   -116.53723   0.90799681   -115.62924    5511.4515    4.2933043    4.2933043    4.2933043    5511.4515   -8456.5412    25533.312   -542.41657    30201.312   -13076.493   -11860.091    79.136165 
   39900     1074.626   -116.60463   0.97234416   -115.63229    3042.3454    4.3054872    4.3054872    4.3054872    3042.3454    -2815.136   -640.04692    12582.219    5354.8891   -1659.6685     11070.99    79.811765 
   40000    935.13868   -116.47747   0.84613313   -115.63134   -11843.258    4.3106616    4.3106616    4.3106616   -11843.258   -13073.726   -7973.9468   -14482.102   -32280.954    4746.8643   -14666.388    80.099869 
   40100    909.23928   -116.44984   0.82269881   -115.62714    15716.288    4.2912868    4.2912868    4.2912868    15716.288    30684.837    30591.442   -14127.415   -2972.4204   -14958.723   -17585.566    79.024657 
   40200    1178.5748   -116.69221    1.0663993   -115.62581    1765.7954    4.3061955    4.3061955    4.3061955    1765.7954    9983.5304    2.9525839   -4689.0967     7871.367   -14556.259    1877.1454    79.851163 
   40300    1095.0971   -116.61707   0.99086688    -115.6262   -3301.8144    4.3079892    4.3079892    4.3079892   -3301.8144   -13704.814   -603.74859     4403.119   -18356.411    13182.822   -1633.8312    79.950984 
   40400    621.02983   -116.19165   0.56192084   -115.62973    7058.9224    4.2953483    4.2953483    4.2953483    7058.9224    10980.528    10546.144   -349.90451   -20001.968   -4577.2633   -17780.132    79.249251 
   40500    997.76443   -116.53641   0.90279822   -115.63362   -8973.9616    4.3027398    4.3027398    4.3027398   -8973.9616    4367.1881   -3319.3443   -27969.729    10508.764   -25674.805   -15839.434    79.659073 
   40600    1408.0736   -116.90109    1.2740546   -115.62703    9968.7682    4.3003969    4.3003969    4.3003969    9968.7682    14589.508    14380.546    936.24991    -3703.034   -865.04318    9055.5308    79.529017 
   40700    928.50218   -116.47532   0.84012828   -115.63519   -10732.109    4.3064691    4.3064691    4.3064691   -10732.109   -23670.412   -10349.048    1823.1341    -31162.71    12099.986   -7503.1333    79.866383 
   40800    431.58814      -116.03   0.39051002   -115.63949   -14785.423    4.3054866    4.3054866    4.3054866   -14785.423    430.30822   -21175.869   -23610.709   -5154.4732   -15238.513   -26406.315    79.811731 
   40900    1319.3832   -116.82166    1.1938056   -115.62786    4056.9264     4.292721     4.292721     4.292721    4056.9264    1177.6655    9080.9689    1912.1447    10752.332   -19280.012    1923.6823    79.103917 
   41000    1164.7841   -116.68277    1.0539212   -115.62885    -5858.348    4.3086601    4.3086601    4.3086601    -5858.348   -14522.972   -10133.923    7081.8513    6547.1305      11622.9    3866.8403    79.988345 
   41100    702.51862   -116.26906   0.63565361    -115.6334   -19449.756    4.3087538    4.3087538    4.3087538   -19449.756   -15808.642   -18135.578   -24405.047   -21410.069    6887.9841   -25535.977    79.993561 
   41200     892.0067   -116.43686    0.8071064   -115.62975    7354.4344    4.2923797    4.2923797    4.2923797    7354.4344    15702.787    8585.8011   -2225.2845    3799.3529   -6225.4958    -15207.93     79.08505 
   41300    1181.0214   -116.69888     1.068613   -115.63027     3223.906     4.302262     4.302262     4.302262     3223.906    2259.6202   -17152.922    24565.019    44475.441   -2379.4834    7626.0184    79.632542 
   41400    1060.5435   -116.58801   0.95960209   -115.62841   -9547.6856    4.3124397    4.3124397    4.3124397   -9547.6856    11001.745   -26865.373   -12779.429    1864.4996    4814.9744   -10096.186    80.199028 
   41500    910.24969   -116.45289   0.82361305   -115.62928    6008.9087    4.2971305    4.2971305    4.2971305    6008.9087    10317.607    14354.419   -6645.3001   -19004.896    10192.186    -25460.28    79.347935 
   41600    853.26531   -116.40276   0.77205239   -115.63071    5697.1273    4.2941502    4.2941502    4.2941502    5697.1273   -7169.2748   -6230.9388    30491.595    32380.572    -7719.679   -2139.2021    79.182952 
   41700    1072.3404   -116.59757    0.9702761   -115.62729   -6769.9454    4.3135664    4.3135664    4.3135664   -6769.9454   -22200.241   -9340.8305    11231.236    36718.163   -1077.3857    998.44106    80.261903 
   41800    1281.4756   -116.78442    1.1595061   -115.62491    300.11201    4.3032553    4.3032553    4.3032553    300.11201   -352.87633    15541.357   -14288.144   -19197.887    9071.5424   -18382.871    79.687707 
   41900    663.40623    -116.2331    0.6002639   -115.63283     6911.021    4.2897022    4.2897022    4.2897022     6911.021    10531.045   -8057.8268    18259.845    12324.099    6517.2624   -19421.656    78.937149 
   42000    770.53498   -116.33775   0.69719624   -115.64056   -21169.497    4.3085915    4.3085915    4.3085915   -21169.497   -53110.852   -22453.183    12055.545    49965.753   -2386.6992    5902.8546    79.984524 
   42100    1251.6848   -116.75927    1.1325507   -115.62672   -8924.7196    4.3159755    4.3159755    4.3159755   -8924.7196   -19293.515    10849.437   -18330.081   -1667.5339   -18759.742     3243.966     80.39646 
   42200    1211.9795   -116.72321    1.0966245   -115.62658    6657.9633    4.2934169    4.2934169    4.2934169    6657.9633     3541.758    6844.0796    9588.0522     3654.639    6473.4269   -22968.261    79.142394 
   42300    678.42276   -116.24799   0.61385117   -115.63414    4151.7256     4.290173     4.290173     4.290173    4151.7256   -31434.524    6207.6828    37682.018    49274.364     990.0531   -2684.5183    78.963143 
   42400    893.03097   -116.44267   0.80803319   -115.63464    -18258.39    4.3145107    4.3145107    4.3145107    -18258.39   -45174.668    432.65918   -10033.162    9669.7893   -17931.973    5394.0506    80.314626 
   42500    1251.4945   -116.75527    1.1323785   -115.62289   -8246.9332    4.3103883    4.3103883    4.3103883   -8246.9332   -7771.6668   -2069.4231    -14899.71   -17000.753   -1960.3006   -11320.394    80.084631 
   42600     856.7382    -116.4006   0.77519473   -115.62541   -4300.3973    4.2940182    4.2940182    4.2940182   -4300.3973   -13270.966   -36300.758    36670.532    45639.683    316.38292   -10071.016    79.175651 
   42700    1015.3325   -116.54801   0.91869415   -115.62931   -3189.4573    4.2980939    4.2980939    4.2980939   -3189.4573   -17843.916   -17654.857    25930.401    35846.437   -2586.8578   -6184.4154    79.401316 
   42800    1491.1708   -116.97352    1.3492426   -115.62428     3294.818    4.3086977    4.3086977    4.3086977     3294.818   -7439.8465    10840.739    6483.5617   -14393.407   -16072.155     7731.792    79.990439 
   42900    793.78939   -116.35488   0.71823733   -115.63664    5650.0661    4.3043912    4.3043912    4.3043912    5650.0661   -10876.809   -20683.345    48510.353    16296.521    -416.3594   -10253.854    79.750827 
   43000     543.3482   -116.13112   0.49163287   -115.63949   -2523.2002    4.2956324    4.2956324    4.2956324   -2523.2002   -861.97078   -30226.685    23519.056    45357.533    9560.5807   -9639.1642    79.264974 
   43100    1234.2695   -116.75134     1.116793   -115.63455    16254.498     4.301767     4.301767     4.301767    16254.498    19803.779    3809.9328    25149.781   -3157.1108   -5404.4721    5596.0676    79.605057 
   43200    1469.4942   -116.95765    1.3296292   -115.62802   -7035.2562     4.312962     4.312962     4.312962   -7035.2562   -23267.732   -2280.6768    4442.6395    1338.9865   -2045.9189   -504.64285    80.228173 
   43300     555.3363   -116.14176   0.50247995   -115.63928   -12055.807    4.3010947    4.3010947    4.3010947   -12055.807   -21498.084   -22807.592    8138.2553    48766.271    6008.3848   -9945.8889    79.567736 
   43400    846.08927   -116.40178   0.76555936   -115.63622    7106.3988    4.2912601    4.2912601    4.2912601    7106.3988    37322.072   -14746.912   -1255.9631    18935.056    7472.4597   -12762.887    79.023181 
   43500    1563.0399   -117.04294    1.4142714   -115.62867   -6090.7926    4.3109052    4.3109052    4.3109052   -6090.7926    -11833.78   -10508.722     4070.124   -20078.976   -7139.5703    9171.1249    80.113449 
   43600    1015.0615   -116.55485     0.918449    -115.6364    1988.3567    4.3029872    4.3029872    4.3029872    1988.3567   -27782.288    10747.896    22999.462    13103.239   -3341.0351   -5267.1492    79.672816 
   43700    552.08334   -116.13961   0.49953661   -115.64008    14378.405    4.2925462    4.2925462    4.2925462    14378.405    14035.565    19501.584    9598.0649    32530.251     10687.91   -19042.134    79.094252 
   43800    1183.3158   -116.70296     1.070689   -115.63227    2705.2355    4.3080764    4.3080764    4.3080764    2705.2355   -8160.3338    13839.666    2436.3746   -4466.8089    2712.0263   -4309.6078    79.955842 
   43900    1328.9885   -116.82943    1.2024967   -115.62693    3340.6305     4.304883     4.304883     4.304883    3340.6305   -26266.609    12464.106    23824.394   -14292.113   -2533.8836    9345.9868    79.778165 
   44000     768.7538   -116.33203   0.69558459   -115.63644   -10084.284    4.2962212    4.2962212    4.2962212   -10084.284   -29978.965   -32316.645    32042.757    20529.293    2424.9363   -5440.7488    79.297575 
   44100    809.96672   -116.37405   0.73287491   -115.64118    369.88436    4.2988338    4.2988338    4.2988338    369.88436   -16515.313    7055.3943    10569.572    25893.063    7096.9485   -25055.079    79.442331 
   44200    1329.7643   -116.83554    1.2031987   -115.63234      6831.59    4.3095656    4.3095656    4.3095656      6831.59   -16332.259    49609.302   -12782.273   -11084.619   -2421.8362   -5304.0052    80.038784 
   44300    1108.8028   -116.63519    1.0032681   -115.63192    1512.8962    4.3042914    4.3042914    4.3042914    1512.8962   -34824.613    27714.666    11648.635    8357.6553   -6573.3523    7127.8165    79.745283 
   44400    699.69817   -116.26831   0.63310161   -115.63521    -8369.127    4.2964629    4.2964629    4.2964629    -8369.127   -29499.784   -9157.1985    13549.601    28383.739    2562.5359   -19530.149    79.310958 
   44500    951.73929   -116.49951   0.86115371   -115.63836   -7153.4101    4.3004264    4.3004264    4.3004264   -7153.4101   -776.93801    1941.9135   -22625.206   -2522.3443   -124.06431   -27686.713    79.530657 
   44600    1224.9831    -116.7432    1.1083905   -115.63481    2109.4831    4.3047529    4.3047529    4.3047529    2109.4831   -8389.3664    43627.345    -28909.53   -2566.0538   -4791.9371    17727.074    79.770936 
   44700    1086.5818   -116.61745   0.98316207   -115.63429   -12.780811    4.3059876    4.3059876    4.3059876   -12.780811   -27722.883    31954.724   -4270.1838    23853.672   -757.45508     10162.18    79.839596 
   44800    883.65528   -116.43734   0.79954987   -115.63779   -4724.5614    4.2986983    4.2986983    4.2986983   -4724.5614   -13509.443   -3876.1975    3211.9558    8196.6839    6597.6448   -25689.457    79.434815 
   44900    790.55454   -116.35526   0.71531036   -115.63995   -7430.0187    4.2982863    4.2982863    4.2982863   -7430.0187   -6739.0066    4739.0363   -20290.086   -9065.7924   -8572.5856    3566.7687    79.411978 
   45000    1116.3531   -116.64413    1.0100998   -115.63403   -11755.205    4.3162331    4.3162331    4.3162331   -11755.205    -14146.16    12806.725   -33926.179    1693.6046   -8682.2501    35913.738    80.410855 
   45100    1407.0747   -116.90007    1.2731507   -115.62692    1496.5936    4.3031172    4.3031172    4.3031172    1496.5936   -7110.3142    22672.165    -11072.07    7041.0496    9242.3142   -12811.123    79.680037 
   45200    772.27207   -116.33168   0.69876799   -115.63291    14349.147    4.2829323    4.2829323    4.2829323    14349.147    1816.0383    53429.305   -12197.903    279.70345   -542.85389    -22586.87    78.564007 
   45300    420.03186   -116.02814   0.38005365   -115.64808   -31564.452     4.308057     4.308057     4.308057   -31564.452   -15119.911   -33691.404   -45882.042   -13823.256    -14029.72    31227.196     79.95476 
   45400    1165.7668   -116.69321    1.0548103    -115.6384   -16814.564    4.3058704    4.3058704    4.3058704   -16814.564   -20611.923   -14037.206   -15794.562   -7779.4631    3620.7105    19695.879    79.833075 
   45500    1356.7424     -116.858    1.2276091   -115.63039   -2946.7278    4.2983531    4.2983531    4.2983531   -2946.7278   -27591.259    36672.435    -17921.36    8417.3409     10295.77   -10877.977    79.415683 
   45600    1023.6898   -116.56248   0.92625604   -115.63623   -9491.4378    4.2977467    4.2977467    4.2977467   -9491.4378   -15308.282    11364.664   -24530.695    -4455.735   -12935.991    12415.633    79.382077 
   45700    830.84032   -116.38944   0.75176178   -115.63768    10261.287    4.2961668    4.2961668    4.2961668    10261.287    -11448.04    33815.539    8416.3629   -9694.1551   -8397.2419     24970.12    79.294564 
   45800    968.55083   -116.51478   0.87636514   -115.63842    -11420.76    4.3119687    4.3119687    4.3119687    -11420.76   -44197.239    1373.8664     8561.094    7761.0762    14041.728    2995.6333    80.172752 
   45900    1069.2075   -116.60556   0.96744144   -115.63812    9856.6661    4.2925332    4.2925332    4.2925332    9856.6661   -30095.409    32089.433    27575.974    10017.437    3170.6008    -12856.44    79.093536 
   46000    872.09256   -116.42925   0.78908768   -115.64017     20283.87    4.2890105    4.2890105    4.2890105     20283.87   -5369.4465    46019.741    20201.315   -730.66064   -24091.737    22436.068    78.898967 
   46100    1065.4792   -116.59942   0.96406796   -115.63535    -25088.97     4.316871     4.316871     4.316871    -25088.97   -28981.759   -39099.421    -7185.729    1023.1615   -6954.6667    22008.271    80.446512 
   46200    1207.4985    -116.7244      1.09257   -115.63183    12881.776    4.2936208    4.2936208    4.2936208    12881.776   -16547.337   -4055.8931    59248.559    12364.905    11318.287   -7145.3054     79.15367 
   46300     990.1388   -116.53108   0.89589839   -115.63518    4229.9913    4.2900482    4.2900482    4.2900482    4229.9913   -16624.858    27915.478    1399.3539     3432.034   -23527.016    5482.0915     78.95625 
   46400    641.58285   -116.22162   0.58051765    -115.6411   -21083.175    4.3100633    4.3100633    4.3100633   -21083.175   -13547.337   -9121.3847   -40580.803   -1988.7408   -21523.656    29817.126    80.066521 
   46500    936.06081   -116.48272    0.8469675   -115.63575    12169.036    4.2983665    4.2983665    4.2983665    12169.036    8660.0134   -14035.239    41882.332    4801.6342    3197.2636    6975.7231    79.416424 
   46600    1229.5636    -116.7442     1.112535   -115.63166    5253.1432    4.3026689    4.3026689    4.3026689    5253.1432   -11126.684    -741.8473    27627.961   -1296.0598   -2346.1843   -20900.669    79.655136 
   46700    1047.8552   -116.57945   0.94812137   -115.63133    6166.7195    4.3011373    4.3011373    4.3011373    6166.7195    4268.0207   -7734.5324     21966.67   -3603.6583   -18351.105    14594.802    79.570103 
   46800    850.17202   -116.40498   0.76925351   -115.63573   -1334.4363    4.2970785    4.2970785    4.2970785   -1334.4363    16173.792   -6804.3731   -13372.727   -2647.8239   -4573.2079    43928.886    79.345053 
   46900    899.99428   -116.45066   0.81433374   -115.63633   -17553.328    4.3061341    4.3061341    4.3061341   -17553.328   -7708.8384   -17765.764   -27185.382    3477.7972    14488.033    -23118.24    79.847745 
   47000    974.43403   -116.51622   0.88168839   -115.63453   -1931.1026    4.2991842    4.2991842    4.2991842   -1931.1026    6044.5072   -20515.138     8677.323    1745.2683     11052.96   -24154.576    79.461757 
   47100    1002.4708   -116.54365   0.90705665    -115.6366   -656.46733    4.2973116    4.2973116    4.2973116   -656.46733    25918.089   -26709.332   -1178.1589    -3790.374   -233.68777    54124.693    79.357967 
   47200    1058.0118   -116.59255    0.9573113   -115.63523    1098.6967    4.3026391    4.3026391    4.3026391    1098.6967    21503.953     -13489.5   -4718.3632    2184.4124   -6846.8526    17033.793     79.65348 
   47300     898.4294   -116.44867    0.8129178   -115.63575   -1331.0641    4.3057467    4.3057467    4.3057467   -1331.0641    5964.0938   -2377.6923   -7579.5938   -266.57588    9537.3049   -33467.638    79.826195 
   47400    863.87572   -116.41563    0.7816529   -115.63398    -4218.168    4.3057781    4.3057781    4.3057781    -4218.168    14684.773   -8827.0443   -18512.233    421.54425    21153.744    4774.7538    79.827945 
   47500    1300.2001   -116.80447    1.1764484   -115.62802    17232.208     4.294898     4.294898     4.294898    17232.208    26753.773     6939.832     18003.02   -6279.9487   -10039.746    27899.519    79.224327 
   47600    1042.2521   -116.57899   0.94305164   -115.63594    15380.303    4.2955952    4.2955952    4.2955952    15380.303    3168.7096    18595.889     24376.31   -6907.8503   -15119.181   -9053.3948    79.262915 
   47700    616.09971   -116.20072   0.55745996   -115.64326   -11765.503    4.3098526    4.3098526    4.3098526   -11765.503   -27318.024     19176.44   -27154.924    5790.9379     9691.378   -26207.356    80.054777 
   47800    1133.4678   -116.65888    1.0255855    -115.6333    4281.4243    4.3013566    4.3013566    4.3013566    4281.4243   -17441.934    11098.814    19187.393    -809.1759    18841.833      628.972    79.582274 
   47900    1513.8388   -116.99601    1.3697531   -115.62626    5558.7673    4.2975076    4.2975076    4.2975076    5558.7673   -17489.423    4644.3378    29521.387   -7150.9802   -9697.6507    5978.6963    79.368824 
   48000    764.69447   -116.32859   0.69191163   -115.63668   -14429.737    4.3048953    4.3048953    4.3048953   -14429.737   -30997.883    15003.653   -27294.981   -6554.0083    445.30682   -17562.049    79.778853 
   48100    755.36517   -116.32111   0.68347028   -115.63764   -2615.4185    4.2990341    4.2990341    4.2990341   -2615.4185   -26281.408    28166.092   -9730.9399    6248.2924    31714.072   -13134.105    79.453432 
   48200    1374.4822   -116.87465    1.2436604   -115.63099    2509.7714    4.3038139    4.3038139    4.3038139    2509.7714   -16771.406    16.186774    24284.533   -5739.2728    6905.3885    12061.985    79.718747 
   48300    1173.6311   -116.69609    1.0619261   -115.63417    5907.4156    4.2987437    4.2987437    4.2987437    5907.4156    605.89434   -7050.0645    24166.417   -10833.987    -10741.44    6744.0685    79.437331 
   48400     662.3896   -116.24089   0.59934403   -115.64155    4425.7552    4.2968718    4.2968718    4.2968718    4425.7552   -3932.9327    19014.046   -1803.8478    5926.7727    20145.446    -21816.26    79.333608 
   48500    909.26838    -116.4601   0.82272514   -115.63737    -18454.23     4.310322     4.310322     4.310322    -18454.23   -19067.154   -1433.5378   -34861.999    428.39309    21964.014   -9459.1854    80.080936 
   48600    1208.5981   -116.72425    1.0935649   -115.63068    8810.7061    4.2958699    4.2958699    4.2958699    8810.7061    31455.176   -6240.8211    1217.7638   -6989.0596   -11136.329     32430.53    79.278125 
   48700    983.71703   -116.52393   0.89008784   -115.63384    4159.3033    4.2988525    4.2988525    4.2988525    4159.3033    21485.366   -6828.8572   -2178.5992   -10108.283    9015.0542     8978.733    79.443367 
   48800    912.07309   -116.45683    0.8252629   -115.63157   -11700.993    4.3113906    4.3113906    4.3113906   -11700.993   -12852.939    1941.2515   -24191.291     3296.615     31327.47   -28754.498    80.140509 
   48900    807.81507   -116.35914   0.73092806   -115.62821    8467.1428    4.3007899    4.3007899    4.3007899    8467.1428    18313.494   -1265.0441    8352.9782    4923.3717    6848.5494    17196.958    79.550825 
   49000    1025.0333    -116.5565   0.92747167   -115.62903   -1835.3446    4.3000007    4.3000007    4.3000007   -1835.3446    23240.759   -20263.995   -8482.7972   -6945.9998   -13398.992     43532.96     79.50704 
   49100    1150.2992   -116.66971    1.0408149    -115.6289    15142.584    4.2946528    4.2946528    4.2946528    15142.584   -3848.5958    25328.494    23947.854    -4918.158    3824.6946    -3508.146    79.210758 
   49200    1078.5337    -116.6131   0.97587998   -115.63722   -1696.6467    4.3011987    4.3011987    4.3011987   -1696.6467   -6313.4355    3085.8547   -1862.3592    63.340326    30266.709    -10321.52    79.573511 
   49300    614.45397   -116.19779   0.55597087   -115.64182   -18406.225    4.3082047    4.3082047    4.3082047   -18406.225    3966.4555   -25242.904   -33942.228    5830.7236   -9298.7496    28712.921    79.962984 
   49400     701.6761   -116.27433   0.63489128   -115.63944    6279.6832    4.2936678    4.2936678    4.2936678    6279.6832   -9827.1418    17940.102    10726.089   -12762.564   -32478.644    17016.333    79.156272 
   49500    1339.7064   -116.84586    1.2121945   -115.63367    4346.5489    4.2983325    4.2983325    4.2983325    4346.5489   -13695.104    1430.3586    25304.392   -14412.828    -4706.438   -9354.1026    79.414537 
   49600     1326.557   -116.83109    1.2002967   -115.63079    5815.2986    4.3026445    4.3026445    4.3026445    5815.2986    6725.5572   -20872.646    31592.985    6604.0615     7957.344    17817.423    79.653783 
   49700    614.86255   -116.19779   0.55634055   -115.64145   -2678.7768    4.3011585    4.3011585    4.3011585   -2678.7768    735.34665   -2100.2196   -6671.4574   -701.38959   -25728.698    23207.783    79.571279 
   49800    618.45895    -116.2014   0.55959465   -115.64181   -16949.668    4.3007681    4.3007681    4.3007681   -16949.668   -28363.887    492.97507   -22978.091   -17790.545   -37334.674   -2338.4672    79.549614 
   49900    1341.1081   -116.84588    1.2134628   -115.63242    9616.9532    4.2936491    4.2936491    4.2936491    9616.9532    234.02268   -6470.1822    35087.019   -19585.756    10350.634    -11269.94    79.155238 
   50000    1283.3429   -116.79413    1.1611956   -115.63293   -7978.8542    4.3057755    4.3057755    4.3057755   -7978.8542   -7739.5871   -10319.167   -5877.8086    9021.4456    1570.0926     20040.23    79.827796 
   50100    702.76211   -116.27981   0.63587392   -115.64394    -15851.57    4.2980608    4.2980608    4.2980608    -15851.57   -11307.464   -7201.8019   -29045.445   -7067.2713   -42613.205    17075.401    79.399483 
   50200    652.15504   -116.23558   0.59008359   -115.64549    10442.865    4.2891493    4.2891493    4.2891493    10442.865   -3605.5532   -4889.2543    39823.402   -34738.874   -11725.681   -10326.898     78.90663 
   50300    1303.2861   -116.81218    1.1792406   -115.63294   -9434.5359    4.3110413    4.3110413    4.3110413   -9434.5359   -8677.3302   -25268.808    5642.5302   -3087.0889     20886.05   -5236.0652    80.121036 
   50400    1248.2582   -116.76171    1.1294502   -115.63226   -222.32266    4.2979939    4.2979939    4.2979939   -222.32266    3272.0551    8478.8399   -12417.863    7555.8566   -19482.786    5351.9551    79.395774 
   50500    574.93402    -116.1605   0.52021238   -115.64029     -310.798    4.2928659    4.2928659    4.2928659     -310.798   -3812.1398   -13756.952    16636.698   -20594.253   -35304.716    9671.4778    79.111925 
   50600    887.26509   -116.43845    0.8028161   -115.63563   -16476.086    4.3080154    4.3080154    4.3080154   -16476.086   -10379.931   -41994.582    2946.2546   -29072.249    2910.9404   -1650.2762    79.952442 
   50700    1392.8042   -116.88826    1.2602385   -115.62802    9120.5094    4.2922783    4.2922783    4.2922783    9120.5094    35321.898   -1269.2304   -6691.1391    3640.9621    9713.0751   -15633.931    79.079444 
   50800    967.06895   -116.51134   0.87502431   -115.63632    -284.9899    4.2976655    4.2976655    4.2976655    -284.9899    7728.4462    4071.0275   -12654.443   -4228.4303   -37031.655   -655.84931    79.377578 
   50900    892.57189   -116.44401    0.8076178   -115.63639   -11102.252    4.3040865    4.3040865    4.3040865   -11102.252    -11270.27   -28067.293    6030.8072   -31694.222    -18397.58    11318.053    79.733894 
   51000    1020.6133   -116.55546    0.9234724   -115.63199    14257.834    4.2933734    4.2933734    4.2933734    14257.834    52057.242    -20027.55    10743.809   -9098.7404    13885.689    1762.9038    79.139987 
   51100    774.57984   -116.33874   0.70085612   -115.63789    -13029.94    4.3024299    4.3024299    4.3024299    -13029.94   -10384.118   -3097.3504   -25608.351    17166.776   -27041.303   -13723.074    79.641865 
   51200    946.31942   -116.49288    0.8562497   -115.63663    1937.8565    4.2974131    4.2974131    4.2974131    1937.8565    -8771.398    11545.385    3039.5825    7722.7073   -27349.025   -4466.4394    79.363592 
   51300    1397.5264   -116.89351    1.2645113     -115.629    9690.4353    4.2992572    4.2992572    4.2992572    9690.4353    25915.651    7176.8428   -4021.1881   -7170.9079    9370.7693    16212.856    79.465807 
   51400    852.38162    -116.4116    0.7712528   -115.64035   -14155.816    4.3044585    4.3044585    4.3044585   -14155.816   -911.57521   -14906.595   -26649.278   -4664.0589   -7586.4757    7094.8925    79.754571 
   51500    456.50463   -116.05518   0.41305499   -115.64213     7913.588    4.2933968    4.2933968    4.2933968     7913.588   -26.840339    17435.416    6332.1883    22240.051   -33560.144   -10398.911     79.14128 
   51600     1311.409   -116.82058    1.1865904   -115.63399   -4667.1624    4.3061129    4.3061129    4.3061129   -4667.1624    1107.2299    -9889.682   -5219.0351    10070.781   -7924.7633   -794.64764    79.846564 
   51700    1345.0824   -116.84595    1.2170588   -115.62889    6176.4995    4.3042562    4.3042562    4.3042562    6176.4995     34060.64   -13532.513   -1998.6281   -6866.8127    8013.7003    24409.305    79.743327 
   51800    789.22549    -116.3477   0.71410781   -115.63359    4159.7913    4.2916428    4.2916428    4.2916428    4159.7913    14981.652   -3505.3074    1003.0293    12156.534   -33361.418    1829.5577    79.044325 
   51900    692.14731   -116.26528   0.62626943   -115.63901   -18194.244    4.3046516    4.3046516    4.3046516   -18194.244   -21012.205   -24315.237   -9255.2895     16646.79   -22650.597    -20204.28    79.765303 
   52000    1343.8172   -116.84683     1.215914   -115.63092    350.01381     4.302158     4.302158     4.302158    350.01381    9851.2354   -18986.699    10185.505    3762.4059    12990.809     7298.953    79.626766 
   52100    1397.9682   -116.89465     1.264911   -115.62974    8249.6773    4.2970904    4.2970904    4.2970904    8249.6773    18266.373    8615.5121   -2132.8537   -9743.4498   -14802.995    9996.7854    79.345716 
   52200    497.75252   -116.09457   0.45037694   -115.64419   -11776.574    4.3027004    4.3027004    4.3027004   -11776.574   -15630.789     673.2236   -20372.158    23095.081   -28784.843   -14459.981    79.656885 
   52300    704.21181   -116.27845   0.63718565   -115.64126    3214.5253     4.298717     4.298717     4.298717    3214.5253    18241.283   -23710.604    15112.897    20913.006   -4271.9629   -24992.993    79.435853 
   52400    1489.3524    -116.9741    1.3475974    -115.6265    9225.2691    4.3056378    4.3056378    4.3056378    9225.2691     12464.82   -784.61416    15995.601   -10223.872     5095.545   -1595.2859    79.820137 
   52500    1104.7959   -116.63299   0.99964256   -115.63335    1417.6362    4.3013144    4.3013144    4.3013144    1417.6362   -16096.888    23450.961   -3101.1642    3270.3478   -18012.781    4837.2665    79.579932 
   52600    459.87663   -116.05568   0.41610604   -115.63957    5554.5084    4.2922337    4.2922337    4.2922337    5554.5084    6027.2168    7384.5283    3251.7802    28711.496   -18669.375   -23849.402    79.076979 
   52700    1057.0691   -116.59458   0.95645831   -115.63812   -10160.141     4.304041     4.304041     4.304041   -10160.141   -12074.108   -17900.472   -505.84253    24482.604    10792.191   -14917.117    79.731366 
   52800    1333.9053   -116.83579    1.2069456   -115.62885    4929.8619     4.302608     4.302608     4.302608    4929.8619   -3484.9131    20405.968   -2131.4695   -11824.714   -11404.327    13176.843    79.651754 
   52900    829.10552   -116.38322    0.7501921   -115.63303   -9525.7533    4.3008791    4.3008791    4.3008791   -9525.7533   -30756.802    17797.331   -15617.789     15469.94   -27892.153    4475.5139    79.555774 
   53000    752.06632   -116.31515   0.68048541   -115.63466    -22708.77    4.3036833    4.3036833    4.3036833    -22708.77   -30998.541   -33916.672   -3211.0963    38383.348    2648.9633   -23875.928    79.711488 
   53100    1295.6075   -116.80193    1.1722929   -115.62964     943.3688    4.2982714    4.2982714    4.2982714     943.3688   -166.40896   -8251.6533    11248.169    4.7022883   -1455.9591   -8194.1909    79.411155 
   53200    1276.8438   -116.78461    1.1553151    -115.6293    1220.9131    4.3038815    4.3038815    4.3038815    1220.9131   -17435.782    32875.803   -11777.282   -10537.776   -14855.492    12201.397    79.722501 
   53300    716.05899   -116.28423   0.64790522   -115.63632   -4418.5219    4.3038199    4.3038199    4.3038199   -4418.5219   -44931.121    30663.508    1012.0472    32382.562   -373.51603   -12070.094    79.719079 
   53400    675.43666   -116.24551   0.61114928   -115.63436    2003.0491    4.2996617    4.2996617    4.2996617    2003.0491   -27596.455   -3310.2618    36915.864    21024.535      4901.24   -20027.644    79.488234 
   53500    1263.4577   -116.76586    1.1432031   -115.62266   -1726.5021    4.3056224    4.3056224    4.3056224   -1726.5021    -24900.98    7691.4805    12029.993   -27566.564   -6646.1919   -4262.5079    79.819283 
   53600    1304.2708   -116.80449    1.1801317   -115.62436   -7405.7565    4.3014404    4.3014404    4.3014404   -7405.7565   -34064.355     6483.759    5363.3269    14285.687   -6360.6557     7887.559    79.586925 
   53700    671.47923   -116.24302   0.60756851   -115.63545   -5445.8447    4.2916149    4.2916149    4.2916149   -5445.8447   -26505.689   -20908.558    31076.713    44141.992     9818.468   -14833.093    79.042785 
   53800    737.73969   -116.31078   0.66752237   -115.64326   -5864.3333    4.3038201    4.3038201    4.3038201   -5864.3333   -27798.452   -5488.9823    15694.435   -28291.867    3195.8742   -10393.756    79.719089 
   53900    1379.6013   -116.87396    1.2482923   -115.62567    -5406.959    4.3142046    4.3142046    4.3142046    -5406.959   -27971.202    3324.2509    8426.0746   -26879.663    500.92378    9736.2034    80.297535 
   54000    1038.3528   -116.56772   0.93952341    -115.6282     15534.59    4.2900189    4.2900189    4.2900189     15534.59     5574.779    13073.097    27955.893    35682.775     4050.152    1392.9622     78.95463 
   54100    524.30311   -116.11315   0.47440047   -115.63875   -10899.252     4.296231     4.296231     4.296231   -10899.252   -4254.6735    -33503.94    5060.8583    4055.2994    5301.8631   -18019.087    79.298115 
   54200    1099.0614   -116.62216   0.99445386   -115.62771   -18170.249    4.3120833    4.3120833    4.3120833   -18170.249   -27460.097   -23177.157   -3873.4937   -31630.009    4840.8735   -13873.997    80.179147 
   54300    1294.2676   -116.79205    1.1710805   -115.62097    273.07357    4.3024552    4.3024552    4.3024552    273.07357   -3349.1429   -8253.2647    12421.628    14883.581   -7330.1759    18263.757     79.64327 
   54400    758.39683   -116.31209   0.68621339   -115.62587   -13241.642    4.2985085    4.2985085    4.2985085   -13241.642    3552.2893    -32183.75   -11093.464    27442.536    4087.6478    -8967.899    79.424298 
   54500    830.90771   -116.37814   0.75182276   -115.62631   -933.52665    4.2978379    4.2978379    4.2978379   -933.52665   -6071.3462    1542.1351    1728.6311   -7904.8949    1483.1129    -29807.27    79.387129 
   54600    1282.7974   -116.78569    1.1607021   -115.62499   -6051.5135    4.3046164    4.3046164    4.3046164   -6051.5135   -30311.212    11192.544    964.12736    -9724.327   -17685.033    16595.248    79.763349 
   54700    786.14082   -116.34351   0.71131673   -115.63219   -4221.2245    4.3009863    4.3009863    4.3009863   -4221.2245    4587.1352    -7592.966   -9657.8427    20091.055   -6499.3268    8217.6281    79.561721 
   54800    697.97605   -116.26715    0.6315434   -115.63561    745.59153    4.2958182    4.2958182    4.2958182    745.59153    26385.143   -38170.383    14022.015    11437.654    960.53795   -33833.824    79.275264 
   54900    1394.3241   -116.88732    1.2616137    -115.6257   -3315.2762    4.3075647    4.3075647    4.3075647   -3315.2762   -8908.0423   -14227.715    13189.929   -7961.1249   -1757.7954    -15309.02    79.927352 
   55000    1202.8977   -116.71234    1.0884072   -115.62393    3607.6562    4.3062454    4.3062454    4.3062454    3607.6562    8371.4963   -5456.2326     7907.705    5712.8582   -9788.3657    15327.103    79.853938 
   55100     403.7328   -115.99625   0.36530592   -115.63094   -667.90673    4.3001551    4.3001551    4.3001551   -667.90673    46026.705   -51237.858    3207.4325    12020.883   -3749.9533   -31824.912    79.515601 
   55200    1088.7137   -116.61344   0.98509101   -115.62835   -6217.5269    4.3005588    4.3005588    4.3005588   -6217.5269    16197.022   -30054.559   -4795.0435    974.85081    9924.1643   -31570.621    79.538003 
   55300    1580.6402   -117.05126    1.4301965   -115.62106    21338.245    4.2955764    4.2955764    4.2955764    21338.245    5731.2043    21916.464    36367.067   -10171.459   -4060.2802    15357.001    79.261873 
   55400    763.32743   -116.33043    0.6906747   -115.63975   -12085.313    4.3070452    4.3070452    4.3070452   -12085.313   -3165.3397   -31624.257    -1466.343    3266.8209   -4023.3729   -18312.992    79.898436 
   55500    544.79596   -116.13331   0.49294283   -115.64036   -18113.078    4.3042194    4.3042194    4.3042194   -18113.078    6226.3253   -38217.023   -22348.537    17449.968    4631.0875    -28689.38    79.741278 
   55600    1199.5486   -116.71115    1.0853768   -115.62578    13135.136    4.2905701    4.2905701    4.2905701    13135.136   -14712.018    16396.429    37720.999   -9925.6958    14015.881    5645.8639    78.985071 
   55700    1173.5114   -116.68853    1.0618178   -115.62671   -14572.677    4.3078794    4.3078794    4.3078794   -14572.677   -28849.689    -27215.55    12347.209   -18980.447    7461.0874   -2440.9862     79.94487 
   55800    893.23612   -116.43553   0.80821881   -115.62731   -14217.449     4.306237     4.306237     4.306237   -14217.449    2243.8101   -39510.928   -5385.2286    15125.158    -9448.368   -43359.852    79.853469 
   55900    960.39529   -116.49166   0.86898584   -115.62267    5917.7011    4.2972245    4.2972245    4.2972245    5917.7011   -4371.5797    2058.7225    20065.961    11990.004    10113.953    -19227.26     79.35314 
   56000    1217.7572   -116.72358    1.1018523   -115.62173   -4269.4801    4.3028498    4.3028498    4.3028498   -4269.4801   -28973.223    8420.9237    7743.8594   -20789.567    17018.584    15420.704    79.665182 
   56100    894.81787   -116.43652   0.80965001   -115.62687    11927.239    4.2977337    4.2977337    4.2977337    11927.239    2860.5971    16788.693    16132.426    -6297.547   -5461.9906   -25327.623    79.381355 
   56200    783.06273   -116.34052   0.70853162   -115.63199    1062.6112    4.3054009    4.3054009    4.3054009    1062.6112   -5094.9598   -9463.2876    17746.081    24215.758   -23.155271    -29500.05    79.806967 
   56300    1125.8992   -116.64661    1.0187372   -115.62787    186.61563    4.3006318    4.3006318    4.3006318    186.61563   -25438.297     21269.16    4728.9842    5597.1794    15900.022    8178.1124     79.54205 
   56400    1270.6252   -116.77418    1.1496884   -115.62449    14930.116    4.2890917    4.2890917    4.2890917    14930.116   -1201.0122    23034.652    22956.708   -21296.877    12431.925    -1269.332    78.903452 
   56500     748.2366   -116.31346    0.6770202   -115.63644   -15959.889    4.3082587    4.3082587    4.3082587   -15959.889   -7682.8278    -49899.84    9703.0018    6177.8779   -3886.3828   -40911.686    79.965989 
   56600    877.49491   -116.42453   0.79397584   -115.63056   -12889.282     4.306573     4.306573     4.306573   -12889.282   -25001.539   -7810.7106   -5855.5966    24297.355    7377.3125   -18924.142    79.872164 
   56700    1356.8084   -116.84738    1.2276688   -115.61971    17859.887    4.2939701    4.2939701    4.2939701    17859.887   -7958.5641    38872.067    22666.157    632.45318    18901.559    16595.147     79.17299 
   56800    1135.0657    -116.6525    1.0270313   -115.62547    864.65947    4.2998362    4.2998362    4.2998362    864.65947    3351.2576    -2.137935   -755.14131   -5832.6489    3476.6759   -34677.661    79.497917 
   56900    762.79583   -116.32339    0.6901937    -115.6332   -6655.5316    4.3027006    4.3027006    4.3027006   -6655.5316    -8179.239   -8295.8727    -3491.483    18068.822   -2019.5414   -36785.989    79.656896 
   57000    985.48703   -116.52453   0.89168937   -115.63284   -716.64069    4.2980743    4.2980743    4.2980743   -716.64069   -15636.478   -7891.3764    21377.932    21285.544    18019.801     11424.52    79.400227 
   57100    1086.1544   -116.61351   0.98277532   -115.63073    2998.1935    4.2951303    4.2951303    4.2951303    2998.1935    3685.0502    11931.813   -6622.2822   -8300.5748     15814.48    4558.4078    79.237186 
   57200    828.77333   -116.38452   0.74989153   -115.63463   -17195.888    4.3043029    4.3043029    4.3043029   -17195.888    10855.657   -40324.375   -22118.946    5085.0516   -5022.5341   -39831.635    79.745924 
   57300    901.76889   -116.44684   0.81593944    -115.6309   -8227.4813    4.3011938    4.3011938    4.3011938   -8227.4813   -3470.4804   -40370.039    19158.075    28798.982   -4163.0475     -19012.9    79.573237 
   57400    1333.6438    -116.8306    1.2067089   -115.62389    5699.3235    4.2951953    4.2951953    4.2951953    5699.3235   -8535.6236    8949.2079    16684.386    9515.6379    9978.9672    14666.017    79.240784 
   57500    1029.2314   -116.56093   0.93127022   -115.62966   -13348.388    4.3027726    4.3027726    4.3027726   -13348.388    13119.178   -27977.816   -25186.526   -5544.4025    8399.5831   -17060.707    79.660894 
   57600    644.84921   -116.21962   0.58347312   -115.63615   -2820.5095    4.2949759    4.2949759    4.2949759   -2820.5095    14100.237   -30487.857    7926.0909    16636.755   -8505.7066   -28849.033    79.228641 
   57700     1096.421   -116.62738   0.99206474   -115.63532    1520.5725     4.300706     4.300706     4.300706    1520.5725    -32669.94    13995.071    23236.586    22726.196   -16192.064    6118.5653    79.546168 
   57800     1306.363   -116.81066    1.1820247   -115.62864   -4378.6752    4.3045901    4.3045901    4.3045901   -4378.6752    -16493.66   -9463.5328    12821.167   -7539.1687   -1668.3507    256.62441    79.761883 
   57900    864.07444   -116.41653   0.78183272    -115.6347    4325.8953    4.2876876    4.2876876    4.2876876    4325.8953    29542.785   -23409.897    6844.7979   -8333.9944     8418.767    -17784.67    78.825986 
   58000    672.35106   -116.24947   0.60835737   -115.64111   -15923.595    4.3020442    4.3020442    4.3020442   -15923.595   -23094.302   -11218.108   -13458.375    23082.861   -20298.499   -5970.0103    79.620443 
   58100    1230.5234   -116.74178    1.1134034   -115.62837   -17127.507    4.3066708    4.3066708    4.3066708   -17127.507   -45334.102   -2579.4823   -3468.9362    4013.7078   -28220.442    4098.2539    79.877605 
   58200    1179.2715   -116.69029    1.0670297   -115.62326     1733.523    4.2933621    4.2933621    4.2933621     1733.523    7659.3134    -14419.29    11960.546   -18702.309     7427.024   -7735.6083    79.139363 
   58300    851.53415   -116.40023   0.77048599   -115.62974   -11823.743    4.2989411    4.2989411    4.2989411   -11823.743   -3519.0795   -39739.831    7787.6825     6979.714   -3010.4317    -16019.66    79.448276 
   58400    872.63234   -116.42047   0.78957608   -115.63089   -2029.7274    4.3017609    4.3017609    4.3017609   -2029.7274    -28164.21   -4657.1928    26732.221    13241.182   -27521.507   -1942.6001     79.60472 
   58500    1136.5851   -116.65973    1.0284061   -115.63133    5929.8825    4.2965552    4.2965552    4.2965552    5929.8825   -23307.213    9809.0904     31287.77   -15227.586   -5727.5063    3083.4586    79.316068 
   58600    1085.0159   -116.61371   0.98174518   -115.63197    5210.5495    4.2972011    4.2972011    4.2972011    5210.5495   -10501.132   -19278.532    45411.313   -8220.1753    13600.369   -7615.0714    79.351847 
   58700    1016.9163   -116.55239   0.92012726   -115.63227   -7207.0067    4.3027334    4.3027334    4.3027334   -7207.0067   -7598.9116   -24588.771    10566.663    24570.395   -11171.573   -7833.4184     79.65872 
   58800    1012.7101   -116.54729    0.9163214   -115.63097     -1832.27    4.2998128    4.2998128    4.2998128     -1832.27   -16314.405   -970.68732    11788.282   -5521.9113   -11687.455    2677.7798    79.496619 
   58900    937.78221   -116.47915   0.84852505   -115.63063    2096.1968    4.2987098    4.2987098    4.2987098    2096.1968   -33048.877    6504.2288    32833.239   -30700.413    17783.495   -1995.8013    79.435455 
   59000    988.45116   -116.52407   0.89437138    -115.6297    291.78444     4.302299     4.302299     4.302299    291.78444   -23878.872    -5587.636    30341.862    24454.281    13094.458   -8445.5957    79.634596 
   59100    1070.3424    -116.5951   0.96846831   -115.62663    8475.3296    4.3003263    4.3003263    4.3003263    8475.3296   -866.21032   -7150.2452    33442.444    28859.842   -7742.3921   -11358.138    79.525101 
   59200    1151.6654   -116.66765     1.042051    -115.6256    1775.3315    4.3010924    4.3010924    4.3010924    1775.3315   -17491.377     9832.084    12985.287   -34962.912    12209.454   -2113.7032    79.567609 
   59300    722.02625   -116.28806   0.65330452   -115.63476   -8712.1325    4.2982907    4.2982907    4.2982907   -8712.1325   -46324.803    975.18361    19213.221   -5322.4587    17364.986    1189.8121    79.412221 
   59400    675.19786   -116.25049   0.61093321   -115.63955    3599.8185    4.2922794    4.2922794    4.2922794    3599.8185   -11032.232   -9909.3358    31741.024    52859.799    -216.7683   -17634.235    79.079505 
   59500    1356.4698   -116.86229    1.2273624   -115.63493   -930.23986    4.3037204    4.3037204    4.3037204   -930.23986   -10181.825    -4449.696    11840.801    1013.5977   -4681.5482   -6877.7638    79.713551 
   59600    1286.0412   -116.79615    1.1636371   -115.63251    2809.7011    4.3034536    4.3034536    4.3034536    2809.7011   -28532.715    4664.8406    32296.978   -17883.725    6430.1975    1489.7849    79.698724 
   59700    448.99375   -116.04519   0.40625898   -115.63894    13957.589    4.2952901    4.2952901    4.2952901    13957.589    -29193.32    12656.684    58409.401    43038.324    12952.652   -1648.7793    79.246028 
   59800    832.23556   -116.38544   0.75302423   -115.63242   -6385.2212     4.309378     4.309378     4.309378   -6385.2212   -37975.412    4637.2224    14182.527    16635.996    -9798.345   -11375.168    80.028335 
   59900    1363.9105   -116.85833    1.2340949   -115.62424    16804.264    4.2948039    4.2948039    4.2948039    16804.264   -1913.9619     38169.08    14157.674   -12247.305    -17661.16   -9280.3525     79.21912 
   60000    1047.6111   -116.57799   0.94790055   -115.63009    21537.602    4.2893507    4.2893507    4.2893507    21537.602   -1253.0305    21355.162    44510.675    41090.819    5406.5129    10031.159    78.917745 
   60100    898.73684   -116.44426   0.81319598   -115.63106    -18869.32    4.3108271    4.3108271    4.3108271    -18869.32   -48912.134   -14768.734    7072.9092    28080.646    9218.7614   -5756.8348    80.109095 
   60200    929.27368   -116.47362   0.84082635   -115.63279    3351.7441    4.2924306    4.2924306    4.2924306    3351.7441   -7755.4995     35508.29   -17697.559   -17347.243   -21656.066   -10778.566    79.087863 
   60300    997.10631   -116.53437   0.90220275   -115.63216    5026.4016    4.2932463    4.2932463    4.2932463    5026.4016    -14834.08    5734.7353    24178.549    13518.548   -18232.726   -9386.4475    79.132959 
   60400    1257.6496   -116.76263    1.1379478   -115.62468   -12330.381    4.3106369    4.3106369    4.3106369   -12330.381   -37888.694   -26514.564    27412.114    31721.374    7406.5257    4251.7781     80.09849 
   60500    826.95024   -116.37826   0.74824196   -115.63002     17106.62    4.2898009    4.2898009    4.2898009     17106.62   -12716.095    26379.769    37656.187   -3841.5258    5999.2253    4105.7316    78.942594 
   60600    584.26811   -116.16782   0.52865807   -115.63916   -10932.654    4.2960721    4.2960721    4.2960721   -10932.654   -43259.878    8586.0654     1875.852    -18799.35   -26711.437   -16533.906    79.289318 
   60700    1324.8188   -116.82757    1.1987239   -115.62885   -8292.6757     4.301056     4.301056     4.301056   -8292.6757   -26509.207   -9917.1697    11548.349    6016.2106   -11274.368    2648.5101    79.565593 
   60800    1210.7501   -116.72458    1.0955121   -115.62907    5400.6039     4.297248     4.297248     4.297248    5400.6039   -2854.8941    10551.503    8505.2024    8014.6357    12219.145    25174.176    79.354446 
   60900    525.46647   -116.10987   0.47545311   -115.63441   -30571.554    4.3086032    4.3086032    4.3086032   -30571.554   -60330.709   -273.47694   -31110.477     -16469.7   -17498.013   -78.696772    79.985178 
   61000    982.06759   -116.52085   0.88859539   -115.63226    7513.1634    4.2883257    4.2883257    4.2883257    7513.1634   -37270.905    22203.879    37606.516   -16450.768   -22281.711   -8427.9521    78.861182 
   61100    1306.8487   -116.81164    1.1824642   -115.62918    23267.662    4.2898014    4.2898014    4.2898014    23267.662    9930.1291    19558.945    40313.913    1739.2269    5464.6382    20613.891    78.942624 
   61200      850.923    -116.4035   0.76993301   -115.63357   -13103.664    4.3121777    4.3121777    4.3121777   -13103.664   -25205.703   -6763.2703   -7342.0193    3105.2651   -4337.5644    25640.393    80.184413 
   61300    989.08227   -116.52321   0.89494242   -115.62827   -4805.8919    4.3004021    4.3004021    4.3004021   -4805.8919   -43133.181    32743.488   -4027.9829   -14578.733   -25572.476   -11860.853    79.529305 
   61400    1205.3814   -116.71108    1.0906544   -115.62043    10847.516    4.2866364    4.2866364    4.2866364    10847.516   -4886.9671    19627.589    17801.925   -2858.0042   -3457.1268    11317.544    78.768024 
   61500    693.00664   -116.25873   0.62704697   -115.63168   -10433.914     4.303091     4.303091     4.303091   -10433.914    1153.6792   -34164.181    1708.7608    19116.895    5394.1499    41222.147    79.678583 
   61600    862.60134   -116.41061   0.78049982   -115.63011   -11044.143    4.3073303    4.3073303    4.3073303   -11044.143   -31658.714    6857.5817   -8331.2985    1798.5365   -16566.364   -1944.1298    79.914306 
   61700    1337.9345   -116.83037    1.2105912   -115.61978    5227.8774    4.2943207    4.2943207    4.2943207    5227.8774   -16809.827    30599.328    1894.1307   -5757.3206   -19536.137   -5848.9061    79.192385 
   61800     829.4889   -116.37994   0.75053899    -115.6294   -11182.936    4.2960768    4.2960768    4.2960768   -11182.936    10092.011   -31038.355   -12602.465    14328.696    6697.0438    53785.661    79.289581 
   61900      830.696   -116.38278    0.7516312   -115.63115   -12783.807    4.3024511    4.3024511    4.3024511   -12783.807   -7346.5913   -9593.9356   -21410.895    11236.166   -6064.6645    22058.444    79.643041 
   62000    1202.2452   -116.71196    1.0878167   -115.62414    291.92054    4.3034736    4.3034736    4.3034736    291.92054   -30431.517    22712.191    8595.0883   -3956.7906   -25751.418   -21918.778    79.699837 
   62100     786.1048   -116.34046   0.71128415   -115.62917    3413.1281    4.2943164    4.2943164    4.2943164    3413.1281    3068.1442   -8435.4549    15606.695   -3609.6911   -7574.6164    33148.798    79.192147 
   62200    781.04022   -116.34014    0.7067016   -115.63344    6695.8903     4.289628     4.289628     4.289628    6695.8903    21511.775   -14864.925     13440.82    9627.9081    7007.6537    52160.519    78.933052 
   62300    1389.1853   -116.88421    1.2569641   -115.62725   -5097.9325     4.307807     4.307807     4.307807   -5097.9325   -19989.312   -3963.3309    8658.8455    10676.082   -15432.098   -9952.7523    79.940839 
   62400    1094.9167   -116.61831   0.99070362   -115.62761   -14628.651    4.3072973    4.3072973    4.3072973   -14628.651    -12312.53    -8914.101   -22659.322   -10384.017   -23936.999    16309.199     79.91247 
   62500    574.09518   -116.14652   0.51945338   -115.62707     13624.49    4.2873151    4.2873151    4.2873151     13624.49     29344.46   -8810.4282    20339.438    3286.8199    4347.1436    58596.691    78.805442 
   62600    1145.0872   -116.66181     1.036099   -115.62571    838.21854    4.3003294    4.3003294    4.3003294    838.21854   -2198.5872   -21647.227     26360.47    18929.355     1556.514    1523.8177    79.525275 
   62700    1198.7873   -116.70548    1.0846879   -115.62079    4444.3748    4.3026233    4.3026233    4.3026233    4444.3748   -2917.2695    7076.7584    9173.6354   -1350.8855   -12704.061   -8815.8685    79.652603 
   62800    557.15867     -116.133   0.50412887   -115.62887    342.39348    4.2997592    4.2997592    4.2997592    342.39348    24723.957   -2798.3169    -20898.46   -1062.2884    -13827.82     59372.32    79.493643 
   62900     1212.048   -116.72048    1.0966865   -115.62379   -13243.699    4.3023239    4.3023239    4.3023239   -13243.699   -589.01575   -27330.758   -11811.323    3746.5496    9039.8399     23702.72    79.635974 
   63000    1381.6464    -116.8698    1.2501427   -115.61966    18417.457    4.2891886    4.2891886    4.2891886    18417.457    17474.413    24198.296    13579.662    11914.518   -1043.7002     -18512.1    78.908798 
   63100    595.69654   -116.17562   0.53899875   -115.63662   -13474.535     4.305127     4.305127     4.305127   -13474.535    17718.732   -16624.465   -41517.872   -1666.1333   -23140.828    41768.015    79.791733 
   63200    776.55161    -116.3382   0.70264021   -115.63556   -16916.476    4.3060756    4.3060756    4.3060756   -16916.476     1820.856   -28942.658   -23627.628   -3921.4694   -5905.1808     37873.72    79.844492 
   63300    1429.7268   -116.91266    1.2936468   -115.61901    32276.419    4.2798275    4.2798275    4.2798275    32276.419    25271.996    22440.361      49116.9    9668.1761    4230.5305   -16854.252    78.393274 
   63400    884.64533   -116.43456   0.80044568   -115.63411   -5966.8184    4.3040287    4.3040287    4.3040287   -5966.8184    29551.065   -23799.539   -23651.981    1133.1373    2403.7552    33228.205    79.730683 
   63500    927.47621   -116.46387   0.83919997   -115.62467   -17884.504     4.312398     4.312398     4.312398   -17884.504     22783.66    -24125.42   -52311.751   -2274.0181   -11859.871     47079.71    80.196701 
   63600    1344.1625   -116.82731    1.2162265   -115.61108     28089.34    4.2844324    4.2844324    4.2844324     28089.34    36460.224    25579.747     22228.05    -1848.171    285.74649   -11498.274    78.646588 
   63700    673.66731   -116.23764   0.60954834   -115.62809   -9510.0431    4.2953406    4.2953406    4.2953406   -9510.0431   -6249.5304   -8468.1788    -13812.42    3403.5519    18939.403    20799.804    79.248822 
   63800    674.29672   -116.24426   0.61011784   -115.63414    -14806.79    4.3040721    4.3040721    4.3040721    -14806.79    21304.473    -19740.04   -45984.805     8915.594    3348.4899    55415.546    79.733092 
   63900    1641.4344   -117.10832    1.4852043   -115.62311    11448.906    4.2973682    4.2973682    4.2973682    11448.906    22403.885   -52.933405    11995.767   -5945.2654   -2291.4827   -2327.6897    79.361104 
   64000    1160.5496   -116.68605    1.0500897   -115.63596   -2757.1777    4.2970259    4.2970259    4.2970259   -2757.1777   -3939.0816   -17299.889    12967.438    -3351.613    6248.3671   -111.15722    79.342141 
   64100    308.05601   -115.92589   0.27873555   -115.64715   -1958.1366    4.2916448    4.2916448    4.2916448   -1958.1366    25266.457   -30333.253    -807.6145    5379.5597    16092.189    58932.915    79.044435 
   64200    1128.4145   -116.65888    1.0210131   -115.63787    1756.6468    4.3073198    4.3073198    4.3073198    1756.6468    24494.187   -9296.2398   -9928.0064    5867.9603    310.20285    13952.532    79.913724 
   64300    1534.0574   -117.00935    1.3880473    -115.6213    691.74783    4.3070726    4.3070726    4.3070726    691.74783    5519.5474   -1221.8563   -2222.4476   -7374.5523   -10531.563   -14255.785    79.899964 
   64400    651.58364   -116.21862   0.58956657   -115.62905    17459.601    4.2817202    4.2817202    4.2817202    17459.601    48897.244    13606.213   -10124.653   -3703.4107    10227.275        54036    78.497324 
   64500    646.80546   -116.22311   0.58524317   -115.63787   -2169.0397    4.2964373    4.2964373    4.2964373   -2169.0397    16347.021    1965.3699    -24819.51    5305.9893    11702.264     34912.58     79.30954 
   64600    1314.3845   -116.81109    1.1892827   -115.62181   -1959.7322    4.3075352    4.3075352    4.3075352   -1959.7322   -14190.339    26802.772   -18491.629    480.39112   -10600.588   -22208.411    79.925709 
   64700    910.79068   -116.45007   0.82410255   -115.62597   -3900.1879    4.2976069    4.2976069    4.2976069   -3900.1879     36759.02   -10787.215   -37672.369    1778.5485   -9403.7373    41871.768    79.374327 
   64800     893.2203   -116.43472    0.8082045   -115.62651   -10707.865     4.294016     4.294016     4.294016   -10707.865    32882.331    -28511.06   -36494.867   -6374.6471    14306.286    52442.269    79.175529 
   64900     1423.438   -116.90749    1.2879566   -115.61953    5375.3819    4.2949432    4.2949432    4.2949432    5375.3819   -9927.0128    31641.843   -5588.6846    6419.2362   -5224.1086   -18737.522    79.226829 
   65000    657.46647   -116.22876   0.59488948   -115.63387   -12932.754     4.304207     4.304207     4.304207   -12932.754    6788.3024    4598.2102   -50184.775    10084.357    -20921.51    33301.959    79.740593 
   65100    637.93341    -116.2096   0.57721556   -115.63238   -8143.2273    4.3027868    4.3027868    4.3027868   -8143.2273    42046.015   -13059.419   -53416.278    1675.3543   -1809.3308    55406.204    79.661686 
   65200    1642.3582   -117.09998    1.4860402   -115.61394    9090.1054    4.2964917    4.2964917    4.2964917    9090.1054    4218.1856    20859.543    2192.5877    7255.4152   -811.73817   -18264.346    79.312556 
   65300    922.43988   -116.46458   0.83464299   -115.62994   -3974.7747    4.2969976    4.2969976    4.2969976   -3974.7747    3441.2276   -7078.3412   -8287.2105    2101.4186   -11195.236    24805.787    79.340571 
   65400    366.97367   -115.97469   0.33204549   -115.64265   -13098.803    4.2975093    4.2975093    4.2975093   -13098.803    25281.646   -34096.751   -30481.304    2440.6693   -16573.371    74097.454     79.36892 
   65500      1386.15   -116.88852    1.2542177    -115.6343    9318.6213    4.2969131    4.2969131    4.2969131    9318.6213    11893.518   -451.08181    16513.428   -3858.9722    1353.9269   -7243.3015     79.33589 
   65600    1423.3522   -116.91829    1.2878789   -115.63041    5013.7121    4.3012945    4.3012945    4.3012945    5013.7121    16401.191   -16388.707    15028.652    1912.1796    1885.3418    314.95197    79.578829 
   65700    289.56199   -115.90174   0.26200177   -115.63974   -15128.761    4.3068727    4.3068727    4.3068727   -15128.761     34775.36   -48665.793   -31495.851    2841.6795   -9028.8958    70590.777    79.888838 
   65800    1198.3918   -116.70634    1.0843301   -115.62201    641.50525    4.3007344    4.3007344    4.3007344    641.50525    9961.9268   -14552.153    6514.7422   -343.20032   -15261.667    2685.8142    79.547746 
   65900    1518.2444   -116.98596    1.3737394   -115.61222    9211.4863    4.2955011    4.2955011    4.2955011    9211.4863    15475.506    43.352986      12115.6   -540.32251   -519.43099    546.03986    79.257708 
   66000    695.19343   -116.25713   0.62902563   -115.62811   -4882.8944    4.2971979    4.2971979    4.2971979   -4882.8944    51213.957   -38742.978   -27119.662    739.05874    8576.7475    70024.123    79.351669 
   66100    935.62771   -116.47099   0.84657562   -115.62441   -8679.6031    4.3012226    4.3012226    4.3012226   -8679.6031    7171.9569   -18205.193   -15005.573    5678.9797   -18618.917    14260.905    79.574837 
   66200    1168.6683   -116.67838    1.0574356   -115.62094   -7442.9778    4.3007643    4.3007643    4.3007643   -7442.9778    -19123.55    4958.9883   -8164.3713   -4144.2846   -18209.947   -13148.841    79.549405 
   66300      853.041   -116.39724   0.77184942   -115.62539    -4792.482     4.294122     4.294122     4.294122    -4792.482    41015.525   -21845.767   -33547.204   -3042.6647    4899.9508    55306.463    79.181394 
   66400    1116.0118   -116.63221     1.009791   -115.62242   -1723.8606    4.2950406    4.2950406    4.2950406   -1723.8606     11444.81    6263.0274    -22879.42   -2815.2022    4402.8368    28158.962    79.232218 
   66500    986.41872   -116.51445   0.89253239   -115.62192   -7878.6032    4.3067702    4.3067702    4.3067702   -7878.6032   -26025.431    21519.043   -19129.421     519.6748   -21408.615   -18981.668    79.883135 
   66600    854.76072   -116.39521   0.77340546   -115.62181   -8098.9984    4.3014567    4.3014567    4.3014567   -8098.9984    20455.306    -10427.77   -34324.531     2457.799   -15189.925    26444.222    79.587829 
   66700    1138.1482   -116.64594    1.0298204   -115.61612    7055.6249    4.2898954    4.2898954    4.2898954    7055.6249    27995.294    9355.6111   -16184.031   -2708.5682    17473.678    31290.917    78.947812 
   66800    939.75588   -116.47216   0.85031087   -115.62185   -5598.1271    4.2994412    4.2994412    4.2994412   -5598.1271   -19744.258    16486.702   -13536.826    7164.8003    3658.2464   -5227.3538     79.47601 
   66900    1052.6107   -116.57441    0.9524243   -115.62198   -7556.7957    4.3025597    4.3025597    4.3025597   -7556.7957    2426.9989   -8939.1209   -16158.265     3281.484   -17019.264    -7603.235    79.649071 
   67000     1173.937   -116.68012    1.0622028   -115.61791    3099.9286    4.2965462    4.2965462    4.2965462    3099.9286    36347.904    -4624.624   -22423.494    111.43076    9673.9829    9290.6908    79.315574 
   67100    844.64235   -116.38672   0.76425015   -115.62247   -6133.8471    4.3009659    4.3009659    4.3009659   -6133.8471   -16205.001    13272.896   -15469.436    1076.5687     33946.04    10078.954    79.560593 
   67200    1169.4952   -116.67747    1.0581838   -115.61929   -6217.4875    4.2997835    4.2997835    4.2997835   -6217.4875    -20424.26    1325.9296    445.86751    4468.9565    7378.2153   -9969.6493    79.494993 
   67300    1286.0046   -116.78071     1.163604   -115.61711    3090.0024    4.2966338    4.2966338    4.2966338    3090.0024    36475.063   -10964.507   -16240.549    6935.1475   -10884.373    -16870.91    79.320421 
   67400    813.12236   -116.36055    0.7357302   -115.62482   -10578.834    4.3016458    4.3016458    4.3016458   -10578.834   -8733.0271    7201.0811   -30204.556   -7602.0749    37549.047    2767.8163    79.598327 
   67500    976.55406   -116.50623   0.88360663   -115.62262   -4884.5695    4.3015082    4.3015082    4.3015082   -4884.5695   -20091.965    9900.7534   -4462.4972   -4304.7015      27576.6    2867.6672    79.590691 
   67600    1203.7131   -116.70377    1.0891449   -115.61462    446.02994    4.3007383    4.3007383    4.3007383    446.02994    30650.808   -12791.922   -16520.796    2430.5766   -17926.511   -26930.966    79.547961 
   67700    804.46173   -116.34709   0.72789387   -115.61919    -9827.911    4.3023407    4.3023407    4.3023407    -9827.911    4371.7708    6130.6713   -39986.175    1758.6345     25601.04   -13100.773    79.636911 
   67800    1028.4215   -116.54784   0.93053735    -115.6173    3414.0764    4.2973134    4.2973134    4.2973134    3414.0764   -13549.723    29056.086   -5264.1344   -11484.999    32442.125    11232.298    79.358065 
   67900    1072.3747   -116.58748   0.97030716   -115.61717    8542.0691      4.29574      4.29574      4.29574    8542.0691    19089.751    5293.7598    1242.6971   -18664.332   -11181.124   -18372.095    79.270932 
   68000    736.42757   -116.29102   0.66633514   -115.62468    1844.6421    4.3027916    4.3027916    4.3027916    1844.6421    23549.752    5607.0866   -23622.912    5329.9635    3950.8017    -26456.01    79.661949 
   68100    1161.7318   -116.66902    1.0511593   -115.61786    7090.5962    4.3012003    4.3012003    4.3012003    7090.5962   -10161.436    28677.516    2755.7086    -9182.581    23630.131    5852.5828    79.573601 
   68200    1039.0149   -116.55912   0.94012252     -115.619    16782.659    4.2947009    4.2947009    4.2947009    16782.659    28126.502     4070.688    18150.786   -21494.853    5049.9266    1792.1351    79.213419 
   68300    657.31047   -116.22108   0.59474833   -115.62633   -10042.944    4.3010334    4.3010334    4.3010334   -10042.944    10918.013   -28894.233   -12152.613   -4989.9705   -13017.004   -25460.536    79.564339 
   68400    1157.0433   -116.66716    1.0469171   -115.62024    4160.5876    4.2981223    4.2981223    4.2981223    4160.5876    7489.5596    12410.501   -7418.2976    7484.0119   -6552.5773   -13893.656     79.40289 
   68500    1324.9397   -116.81727    1.1988332   -115.61843    604.28991    4.2993002    4.2993002    4.2993002    604.28991   -1839.3496   -2994.6234    6646.8428   -13876.302    9578.3191    10868.808    79.468191 
   68600    631.90832   -116.19867   0.57176393    -115.6269   -14616.973    4.3002399    4.3002399    4.3002399   -14616.973   -1920.2365   -35215.933   -6714.7485   -22399.569   -4370.7197   -12946.672    79.520306 
   68700    1037.6862   -116.56306   0.93892025   -115.62414    7831.9352    4.2917711    4.2917711    4.2917711    7831.9352    18974.861    28983.079   -24462.134    11018.654   -25735.551   -21330.539    79.051419 
   68800    1326.4649   -116.81849    1.2002133   -115.61828    -1950.037    4.3039956    4.3039956    4.3039956    -1950.037   -2381.4718     9406.554   -12875.193   -13898.875   -10429.681     1217.114    79.728842 
   68900    764.20335   -116.31844   0.69146725   -115.62698    316.44304    4.2975694    4.2975694    4.2975694    316.44304    6288.0076   -15777.063    10438.385   -28033.366    7119.9402    6912.3737    79.372249 
   69000     904.3616   -116.44439   0.81828538    -115.6261     8188.603    4.2932048    4.2932048    4.2932048     8188.603    37627.436    10440.786   -23502.413   -2884.2505     -13321.2   -14844.207    79.130665 
   69100    1466.0565   -116.94322    1.3265188    -115.6167    2145.6337    4.3015941    4.3015941    4.3015941    2145.6337    28892.855    3416.6978   -25872.652    -788.6735   -15470.012   -4306.6498    79.595459 
   69200    599.46243   -116.17501    0.5424062   -115.63261   -3386.9204    4.2963042    4.2963042    4.2963042   -3386.9204    689.38436   -23275.359    12425.214   -25384.294    7845.6756    12258.334    79.302171 
   69300     640.6928   -116.21642   0.57971231   -115.63671   -15606.317    4.3014055    4.3014055    4.3014055   -15606.317   -5037.9103    -41412.59   -368.45078    -10627.09     6410.231   -2610.3607    79.584988 
   69400    1809.1775   -117.25598    1.6369818     -115.619    9684.5466    4.2978918    4.2978918    4.2978918    9684.5466    37190.662    2483.1395   -10620.161    15288.819    415.38993   -4494.7856    79.390117 
   69500    993.00688   -116.53146    0.8984935   -115.63297     6226.172    4.2940495    4.2940495    4.2940495     6226.172    27323.077   -19261.275    10616.714   -29507.397    177.02754    8922.6564    79.177385 
   69600    326.83962   -115.93553   0.29573135    -115.6398   -12413.408    4.3027495    4.3027495    4.3027495   -12413.408    4685.4287   -50349.177    8423.5243   -20759.227    6162.1228    10166.518    79.659612 
   69700    1442.1013   -116.92454    1.3048435    -115.6197    3132.9493     4.300621     4.300621     4.300621    3132.9493    18165.601    78.466386   -8845.2192    14482.791    7985.9403   -2939.4254    79.541453 
   69800    1109.2852   -116.62675    1.0037046   -115.62304    5791.4129    4.2946521    4.2946521    4.2946521    5791.4129    19455.305    17104.769   -19185.835   -12289.109    -15766.82    4816.0292    79.210721 
   69900    422.18173   -116.01675    0.3819989   -115.63475   -22029.105     4.299618     4.299618     4.299618   -22029.105   -15850.724   -39099.464   -11137.126   -38731.198    -5139.258     14206.51    79.485813 
   70000    1271.3934   -116.77834    1.1503834   -115.62795    270.22386    4.2983485    4.2983485    4.2983485    270.22386    2903.1478   -2680.9543    588.47812   -362.32267    6262.0814    4275.4539    79.415425 
   70100     1501.957    -116.9823    1.3590023   -115.62329   -918.41718    4.2998109    4.2998109    4.2998109   -918.41718    7969.9554    15009.151   -25734.357     14788.37   -17053.922   -4346.2302    79.496509 
   70200    408.34681   -116.00958   0.36948077    -115.6401   -11593.043    4.2951173    4.2951173    4.2951173   -11593.043    7258.1928   -25001.295   -17036.026   -32770.256   -14330.239    7628.7681    79.236465 
   70300    816.18492   -116.37792   0.73850127   -115.63942    5839.5177    4.2969414    4.2969414    4.2969414    5839.5177    28371.018   -13115.966    2263.5006   -24261.211    2040.9323    16226.622    79.337463 
   70400    1628.8507   -117.09236    1.4738183   -115.61854   -2190.8217    4.3061027    4.3061027    4.3061027   -2190.8217   -7635.0823    24275.799   -23213.181    5373.7699    11040.788   -6811.0893    79.845999 
   70500    807.84548   -116.35839   0.73095557   -115.62743    6843.1253    4.2949587    4.2949587    4.2949587    6843.1253    14067.096    17678.962   -11216.682   -9981.7847   -1612.2201   -4061.2669    79.227685 
   70600    751.63889   -116.30785   0.68009866   -115.62775   -9633.8234    4.2976094    4.2976094    4.2976094   -9633.8234   -302.18002   -26002.106   -2597.1845   -32004.013    -11239.01    5518.8288    79.374467 
   70700    1110.8982   -116.62697     1.005164   -115.62181   -2165.0328    4.2978803    4.2978803    4.2978803   -2165.0328   -19049.104    29381.945   -16827.939   -4100.8483    29907.891    4760.8661    79.389476 
   70800    1044.9249   -116.57002   0.94547004   -115.62455   -3822.8843    4.2953163    4.2953163    4.2953163   -3822.8843   -24004.673    18986.796   -6450.7758    21289.711    25736.259   -6733.5974    79.247477 
   70900    1003.6969    -116.5317   0.90816606   -115.62353   -15265.659    4.3031471    4.3031471    4.3031471   -15265.659   -8781.5087   -30130.238   -6885.2305   -21010.445   -18198.009   -79.914199    79.681696 
   71000    960.33619   -116.49265   0.86893236   -115.62371   -7468.3069    4.2942306    4.2942306    4.2942306   -7468.3069   -13527.807    10276.282   -19153.396    -15698.23    27506.079    9736.8815    79.187403 
   71100    775.23931   -116.32958   0.70145282   -115.62812   -5065.6341    4.2957982    4.2957982    4.2957982   -5065.6341   -16911.228    26868.709   -25154.383    19556.506    56084.871   -2938.9277    79.274152 
   71200    1313.3996   -116.80992    1.1883916   -115.62153   -4523.0381    4.3032413    4.3032413    4.3032413   -4523.0381    1767.6194   -18431.756    3095.0225    9930.9387   -12440.083   -1621.6339    79.686932 
   71300    1026.0482   -116.55481   0.92838996   -115.62642    4136.2494    4.2935376    4.2935376    4.2935376    4136.2494    18565.117    4488.9821   -10645.351   -14497.999    12371.026    502.81948    79.149068 
   71400    422.92381   -116.02062   0.38267035   -115.63795   -9247.5281    4.2996306    4.2996306    4.2996306   -9247.5281   -23868.168    49262.138   -53136.554   -11109.862    71134.124    4867.9971    79.486509 
   71500    1469.2005   -116.95231    1.3293635   -115.62295   -2888.1196    4.3031898    4.3031898    4.3031898   -2888.1196    638.68611    3260.0902   -12563.135    16676.923   -1413.3196   -605.50949    79.684069 
   71600    1343.5947   -116.83701    1.2157127    -115.6213    9342.2072    4.2944237    4.2944237    4.2944237    9342.2072    23159.957    6068.6239    -1201.959   -375.07098    6601.8329    724.06461    79.198085 
   71700     277.6058   -115.88948   0.25118356   -115.63829   -23924.481    4.3000438    4.3000438    4.3000438   -23924.481   -54048.991    38813.493   -56537.944   -15197.128    72788.637    2343.1078     79.50943 
   71800    1012.9197   -116.54773   0.91651106   -115.63122   -6072.7321    4.2974145    4.2974145    4.2974145   -6072.7321   -5090.1424    12536.506    -25664.56   -6129.9903   -331.67083    4788.8071    79.363669 
   71900    1523.7371   -117.00027    1.3787094   -115.62156    319.17964    4.2996258    4.2996258    4.2996258    319.17964    15172.847   -876.21729   -13339.091    5230.5342   -12927.189    286.77523    79.486245 
   72000    798.31418   -116.35492   0.72233145   -115.63259   -10127.242    4.2970061    4.2970061    4.2970061   -10127.242    -29538.93    32614.424   -33457.221   -132.60149    67329.274   -653.02697    79.341043 
   72100    858.08163   -116.40503   0.77641029   -115.62862    5039.3673    4.2927338    4.2927338    4.2927338    5039.3673   -215.27267    16852.862   -1519.4877   -14108.835    20555.049    5026.1313    79.104627 
   72200    1152.1784   -116.66386    1.0425152   -115.62135   -17029.633    4.3087453    4.3087453    4.3087453   -17029.633   -10815.843   -23116.199   -17156.857    -7850.631   -34581.424    3185.7587    79.993091 
   72300    903.03946   -116.43703   0.81708908   -115.61994   -3848.5537    4.2991219    4.2991219    4.2991219   -3848.5537   -16693.712    18514.419   -13366.368    8913.9665    34525.197   -1.2241665    79.458303 
   72400     1137.828   -116.64476    1.0295306   -115.61523    6641.6446    4.2898679    4.2898679    4.2898679    6641.6446   -8991.9121    22066.964    6849.8816   -14258.957    37696.259   -2779.0963    78.946296 
   72500     885.0853   -116.42138   0.80084378   -115.62054   -17388.831    4.3042473    4.3042473    4.3042473   -17388.831   -24926.159   -23867.029   -3373.3047   -20950.785   -26988.173    4377.0612    79.742833 
   72600    785.98933   -116.33736   0.71117966   -115.62618   -8506.5148    4.2990333    4.2990333    4.2990333   -8506.5148   -19927.702    13880.951   -19472.793   -2290.9597   -3636.3276    3977.0766    79.453392 
   72700    1431.5504   -116.91454    1.2952969   -115.61925    8375.8391    4.2961241    4.2961241    4.2961241    8375.8391   -3854.0212     36816.96   -7835.4219    2317.2597    26342.644   -4090.7688      79.2922 
   72800    900.26319   -116.44131   0.81457706   -115.62673   -4501.0443    4.3018187    4.3018187    4.3018187   -4501.0443   -21480.871     8499.741   -522.00311   -17239.374   -3431.8829    2110.2165    79.607924 
   72900    415.89218   -116.00993   0.37630798   -115.63362   -5153.7411    4.3020997    4.3020997    4.3020997   -5153.7411    1545.3226    7341.6781   -24348.224   -17007.368   -28334.182    10508.596    79.623526 
   73000    1461.0017   -116.94125     1.321945    -115.6193    4537.9898    4.3027951    4.3027951    4.3027951    4537.9898    12872.263    11116.655   -10374.948    9864.8968   -4537.5387    1423.1358    79.662146 
   73100    1349.8807   -116.84436    1.2214005   -115.62296    16139.869    4.2901008    4.2901008    4.2901008    16139.869    17683.247    4396.8998    26339.459    3177.3956    11382.859   -545.15411    78.959155 
   73200    385.56182   -115.98963   0.34886444   -115.64076   -10150.248    4.2965988    4.2965988    4.2965988   -10150.248   -277.18713   -29509.216   -664.34084   -17244.151   -29683.618    4124.7481    79.318483 
   73300    925.33724   -116.47064   0.83726458   -115.63337   -10284.486    4.3052466    4.3052466    4.3052466   -10284.486    879.30513   -13517.491   -18215.272   -8712.2131   -24486.758    6984.4005    79.798386 
   73400    1387.5992   -116.87509    1.2555289   -115.61956    7469.5878    4.2969093    4.2969093    4.2969093    7469.5878    7293.4677     9624.643    5490.6529     12201.92    26251.753   -1072.1726    79.335681 
   73500    732.24154   -116.28902   0.66254753   -115.62647    -14042.47    4.3010389    4.3010389    4.3010389    -14042.47   -23187.666   -26983.984      8044.24    -10796.48    -4400.344   -9798.9539     79.56464 
   73600    1006.9513   -116.53349   0.91111068   -115.62238   -1947.8091    4.2929728    4.2929728    4.2929728   -1947.8091    2373.9274   -7684.7217    -532.6331   -18152.727   -31563.646    2891.5555    79.117839 
   73700    1127.7923   -116.64342    1.0204502   -115.62297    3900.6312    4.2963601    4.2963601    4.2963601    3900.6312   -1281.5342    35792.098    -22808.67    5929.4898    32128.229    651.50345    79.305263 
   73800    777.63166   -116.32981   0.70361747    -115.6262   -19982.501    4.3090058    4.3090058    4.3090058   -19982.501   -38963.581   -9418.8062   -11565.116    2186.1099    35211.689   -4036.3998    80.007601 
   73900    1193.9168   -116.70078     1.080281    -115.6205    10596.214    4.2881529    4.2881529    4.2881529    10596.214    19334.014    -10024.67    22479.298   -15079.286   -22623.362   -3425.6513    78.851648 
   74000    904.06508     -116.444   0.81801709   -115.62598    10183.276    4.2934876    4.2934876    4.2934876    10183.276    9739.0586    38600.143   -17789.374   -7584.7561    27688.807   -658.49198    79.146304 
   74100    904.87048   -116.44388   0.81874583   -115.62514   -11015.871    4.3069959    4.3069959    4.3069959   -11015.871   -16534.956    22940.906   -39453.562    7285.7165    53039.682     3125.911    79.895695 
   74200    1321.1123   -116.81171    1.1953702   -115.61634     15840.97    4.2948402    4.2948402    4.2948402     15840.97    39630.773   -12498.219    20390.356   -3980.1796   -15852.408   -1947.7772    79.221132 
   74300    781.24328   -116.33363   0.70688534   -115.62674   -596.51752    4.2950162    4.2950162    4.2950162   -596.51752   -8727.1491    5255.9831    1681.6134   -16222.306    21617.707   -711.52026     79.23087 
   74400    632.38322   -116.20662   0.57219363   -115.63442     -2053.44     4.295141     4.295141     4.295141     -2053.44    3950.0958    29849.503   -39959.919    2136.1164    59200.544   -2765.8385    79.237776 
   74500    1355.8827   -116.85145    1.2268312   -115.62462    4796.9638    4.3018644    4.3018644    4.3018644    4796.9638    20666.431    10049.587   -16325.126    715.68623   -17699.343    19.556024    79.610461 
   74600    1101.2945   -116.62251   0.99647442   -115.62604   -5098.1037    4.3007406    4.3007406    4.3007406   -5098.1037   -11057.873     4173.725    -8410.163     -13485.2   -7095.0702    2539.1362    79.548089 
   74700    665.59393   -116.23312   0.60224338   -115.63088    1300.4979    4.2871737    4.2871737    4.2871737    1300.4979    -7685.879    23613.665   -12026.292   -7046.8342    61265.277   -24.064799    78.797643 
   74800    945.61542   -116.48544    0.8556127   -115.62983   -9823.0514    4.3006027    4.3006027    4.3006027   -9823.0514   -13577.802    16488.974   -32380.326    186.71254   -3640.6573   -2828.2025    79.540438 
   74900    1168.4821   -116.68033    1.0572672   -115.62306    -5480.581    4.3016468    4.3016468    4.3016468    -5480.581   -16071.496     20513.16   -20883.407    2574.9261   -52087.809   -118.03848    79.598385 
   75000    990.74158   -116.51965   0.89644381   -115.62321    3051.5351    4.2905539    4.2905539    4.2905539    3051.5351   -11220.166     30111.83   -9737.0583   -4847.0536    42313.865    4398.6237    78.984175 
   75100    791.52579   -116.34225   0.71618917   -115.62606   -12303.331    4.3011492    4.3011492    4.3011492   -12303.331   -25384.277    19458.835   -30984.552   -10159.532    30804.959   -6705.3541    79.570765 
   75200    1002.3713    -116.5308   0.90696657   -115.62384   -5917.5496    4.2987303    4.2987303    4.2987303   -5917.5496   -11736.761    17107.628   -23123.515    3722.1227   -56130.852   -11196.111    79.436592 
   75300    1089.8707   -116.60791   0.98613791   -115.62177     9175.271     4.290338     4.290338     4.290338     9175.271    -5716.703    40547.143   -7304.6275    3814.1856    770.86869    6008.4274    78.972255 
   75400    918.66241   -116.45738   0.83122505   -115.62616   -4173.5457    4.3000349    4.3000349    4.3000349   -4173.5457   -18013.031    22086.709   -16594.315   -4062.2164    49569.193    2223.6389    79.508934 
   75500    869.37626   -116.41261   0.78662991   -115.62598    -2765.854     4.300662     4.300662     4.300662    -2765.854    -10167.78    12396.243   -10526.025   -14429.055   -25331.506   -9390.3602    79.543724 
   75600    1118.6942   -116.63251     1.012218   -115.62029    6780.7251     4.297264     4.297264     4.297264    6780.7251   -9113.1136    33232.808   -3777.5191    5395.8716   -23680.179   -3023.7512    79.355332 
   75700    915.64074   -116.45048   0.82849099   -115.62199   -5498.2374    4.2989462    4.2989462    4.2989462   -5498.2374   -18938.262    1946.4278    497.12219    20585.297    33931.079    9666.4628    79.448558 
   75800    912.50487   -116.44971   0.82565359   -115.62405   -5534.9625    4.2944393    4.2944393    4.2944393   -5534.9625   -14580.142   -3794.3016     1769.556   -25743.126    5147.2424    194.95321    79.198947 
   75900    1122.2176   -116.63904    1.0154061   -115.62364    -1639.415    4.2972547    4.2972547    4.2972547    -1639.415   -19246.689    17914.692   -3586.2482   -12692.228   -24150.445   -9229.5459    79.354816 
   76000    1031.0756   -116.55803   0.93293886   -115.62509   -9692.6552    4.3007421    4.3007421    4.3007421   -9692.6552   -23257.614   -12749.138    6928.7869    37726.946    8377.4936    11025.799    79.548174 
   76100    760.05331   -116.31474   0.68771221   -115.62703    -1994.306    4.2956305    4.2956305    4.2956305    -1994.306   -12655.655   -4491.7467    11164.483   -3157.3816    20962.186    11431.368    79.264868 
   76200    1080.5438   -116.60014   0.97769874   -115.62244   -1554.8987    4.3007108    4.3007108    4.3007108   -1554.8987    -25832.87    19993.522    1174.6512   -36903.063   -7414.4862    -6936.908    79.546435 
   76300    1241.2995   -116.74481    1.1231538   -115.62165    3119.4026    4.2945997    4.2945997    4.2945997    3119.4026   -7410.4484    -4781.453    21550.109    23060.632   -4161.8982    1735.7923     79.20782 
   76400    688.94924   -116.25392   0.62337575   -115.63054    7672.5302    4.2915623    4.2915623    4.2915623    7672.5302     4130.986    7112.7903    11773.814    36718.039    13945.989    14390.685    79.039881 
   76500    941.52037   -116.48113   0.85190742   -115.62923   -13797.737    4.3065144    4.3065144    4.3065144   -13797.737    -20683.25   -7158.8243   -13551.138   -37502.671    9907.5657    3547.7265    79.868901 
   76600      1363.98   -116.85558    1.2341578   -115.62142    11336.723    4.2927414    4.2927414    4.2927414    11336.723    13072.138     -4366.76    25304.791   -9206.7162   -3494.2031   -6824.5331    79.105046 
   76700    804.48923    -116.3561   0.72791876   -115.62818    6483.0082    4.2932003    4.2932003    4.2932003    6483.0082    3209.9875     2035.768    14203.269    54657.119    639.53127    5624.8313    79.130416 
   76800    771.99947   -116.32372   0.69852134    -115.6252   -23116.379    4.3101678    4.3101678    4.3101678   -23116.379   -16516.435   -20059.955   -32772.747   -504.51516    20711.827    12585.771    80.072342 
   76900    1313.6522   -116.80635    1.1886201   -115.61773    11728.722    4.2874898    4.2874898    4.2874898    11728.722    15196.508    5695.0096    14294.648   -23455.173    6942.4132    1522.6455    78.815073 
   77000    906.69737    -116.4459   0.82039883    -115.6255    7249.0092    4.2910862    4.2910862    4.2910862    7249.0092   -13070.866   -5890.8762     40708.77     44170.19   -14863.092   -2467.5512    79.013578 
   77100    821.67195   -116.36832   0.74346605   -115.62485   -23643.779    4.3083288    4.3083288    4.3083288   -23643.779   -25747.394   -29538.894   -15645.049    27318.237    11536.798    12497.161    79.969892 
   77200    1054.7392   -116.57501   0.95435023   -115.62066    18156.635    4.2882428    4.2882428    4.2882428    18156.635    22419.251    11467.107    20583.547   -20250.976    28097.497    20446.006    78.856608 
   77300     1026.844   -116.55353      0.92911   -115.62442     1348.741    4.2970156    4.2970156    4.2970156     1348.741   -15553.031   -15610.034    35209.288    32093.223   -7112.2122   -491.90499    79.341573 
   77400    905.20123   -116.44233   0.81904509   -115.62328   -11739.989    4.3033948    4.3033948    4.3033948   -11739.989   -27928.018   -27919.711    20627.763    39503.509   -14329.794   -3193.1181    79.695458 
   77500      1073.82   -116.58959   0.97161491   -115.61797    15745.486    4.2886743    4.2886743    4.2886743    15745.486    24417.677    16166.564    6652.2162   -15726.491    28219.535    13158.805    78.880415 
   77600    888.88495   -116.42887   0.80428178   -115.62458   -16600.677    4.3006692    4.3006692    4.3006692   -16600.677   -17944.396   -14254.832   -17602.805    21302.809    20201.206    11220.614    79.544125 
   77700    896.67588   -116.43685   0.81133118   -115.62552   -3565.3071    4.2954337    4.2954337    4.2954337   -3565.3071   -12100.053   -22902.451    24306.583     50614.33   -14703.828   -1885.7347    79.253976 
   77800    1334.6507   -116.82821      1.20762   -115.62059    5116.8249    4.2936199    4.2936199    4.2936199    5116.8249    7170.2748    16602.783   -8422.5825   -6926.4696    5291.1375    1190.6018    79.153619 
   77900    877.60104   -116.42027   0.79407187   -115.62619    -20021.83    4.3048362    4.3048362    4.3048362    -20021.83   -23757.332   -1225.8441   -35082.314    1123.1991    31594.211    12627.704    79.775563 
   78000    550.97911   -116.13142   0.49853748   -115.63288    9.5880896    4.2865972    4.2865972    4.2865972    9.5880896   -8945.4442   -10742.408    19716.617    65748.632    6296.0932    6334.0235    78.765862 
   78100    1405.8398   -116.90149    1.2720334   -115.62946    7057.2865    4.2940997    4.2940997    4.2940997    7057.2865    7000.1638   -3332.5321    17504.228    14078.484   -8370.9135   -3999.0743    79.180161 
   78200    1332.3146   -116.83161    1.2055063   -115.62611   -6858.8617    4.3063932    4.3063932    4.3063932   -6858.8617   -3460.6743    5466.6004   -22582.511   -16750.038    11315.425     3906.583    79.862156 
   78300    183.47179    -115.8069   0.16600913    -115.6409   -2410.0545    4.2899672    4.2899672    4.2899672   -2410.0545   -1231.1523   -24341.069    18342.058    62035.748    21496.167     9911.102    78.951778 
   78400    941.63419   -116.49405    0.8520104   -115.64203     -4478.99    4.2950238    4.2950238    4.2950238     -4478.99    2075.5785   -29961.652    14449.104    32245.618   -2083.5397    10450.201    79.231287 
   78500    1736.7507   -117.19247    1.5714485   -115.62102    9363.1479    4.3000642    4.3000642    4.3000642    9363.1479    36522.593    283.96344   -8717.1128   -18324.242    -10340.83     61.11428    79.510563 
   78600    718.76215   -116.28899    0.6503511   -115.63863   -9785.4024    4.2976495    4.2976495    4.2976495   -9785.4024   -7234.5959   -34267.464    12145.852    53320.938    10449.405   -1047.9809     79.37669 
   78700     583.0859   -116.16614   0.52758837   -115.63856   -12045.111    4.2949279    4.2949279    4.2949279   -12045.111   -19725.492   -30745.014    14335.174    39122.324    12470.543    13742.412    79.225984 
   78800    1328.8216   -116.82634    1.2023457     -115.624    13512.111    4.2932906    4.2932906    4.2932906    13512.111    43768.729    7798.9221    -11031.32   -21084.108   -4700.2073    9124.6089    79.135413 
   78900    1022.4003   -116.55163   0.92508928   -115.62654   -12670.838    4.3039213    4.3039213    4.3039213   -12670.838   -22334.551   -12550.931   -3127.0307    32523.649   -18135.875   -3413.6049    79.724711 
   79000    780.94225   -116.33578   0.70661296   -115.62917    508.17729    4.2927771    4.2927771    4.2927771    508.17729   -9776.0475   -16159.115    27459.695    50834.096    9284.7981    3251.6196    79.107017 
   79100    1136.6115   -116.65198    1.0284299   -115.62355    11329.891    4.2899148    4.2899148    4.2899148    11329.891    30534.757     8434.252   -4979.3346   -10082.253    18804.243     17545.68    78.948888 
   79200    1004.8375   -116.53372   0.90919805   -115.62452   -10424.908     4.303587     4.303587     4.303587   -10424.908   -24851.552    15231.637   -21654.808    5709.8675   -18780.184    4945.0478    79.706137 
   79300    889.93696   -116.43213   0.80523366    -115.6269    7594.5991    4.2916186    4.2916186    4.2916186    7594.5991   -12074.843    274.78758    34583.852    48177.239    -15099.13   -4278.2975    79.042989 
   79400    1025.4094   -116.55456   0.92781194   -115.62675   -713.61121    4.2949086    4.2949086    4.2949086   -713.61121    8917.5564   -9331.3742   -1727.0159    6283.5704    23460.021    10033.529    79.224915 
   79500    913.67583    -116.4536   0.82671309   -115.62689   -8028.4501    4.2988779    4.2988779    4.2988779   -8028.4501   -8488.4999    18741.693   -34338.544   -10831.479    14639.609    13598.113    79.444772 
   79600    1087.7567   -116.60838   0.98422514   -115.62415    6462.7978    4.2897624    4.2897624    4.2897624    6462.7978    191.81293   -3976.0058    23172.586    29006.297   -22425.637    -813.2799    78.940473 
   79700    1122.7212   -116.63821    1.0158617   -115.62234   -15489.918    4.3039647    4.3039647    4.3039647   -15489.918    -21282.04   -28176.448    2988.7331    25703.858    7173.7556   -5132.0987    79.727124 
   79800    635.79096    -116.2057   0.57527702   -115.63043   -12433.798    4.2948635    4.2948635    4.2948635   -12433.798   -1879.1538   -1770.3347   -33651.904   -9708.3551    33744.558    14512.773    79.222416 
   79900    1019.7483   -116.55271   0.92268968   -115.63002    6033.1567    4.2870951    4.2870951    4.2870951    6033.1567    19918.019    -13063.63    11245.081    1168.2292   -1700.4132    14985.638    78.793312 
   80000    1587.1687   -117.05454    1.4361036   -115.61844   -10118.972    4.3071027    4.3071027    4.3071027   -10118.972   -17934.633   -26891.891    14469.609    20199.856   -4412.5543    -5651.287    79.901639 
   80100    686.93203   -116.26037   0.62155054   -115.63882   -4714.9983    4.2932476    4.2932476    4.2932476   -4714.9983    6599.3881    -7328.241   -13416.142    663.53975    29458.103    1329.9356     79.13303 
   80200    431.54087   -116.03331   0.39046725   -115.64284   -1576.2367    4.2908441    4.2908441    4.2908441   -1576.2367    35281.256   -26926.108   -13083.859   -15236.252    19380.863    15797.444    79.000203 
   80300    1470.6811   -116.95519    1.3307032   -115.62448   -7160.8763    4.3038107    4.3038107    4.3038107   -7160.8763   -3976.6762   -27205.437    9699.4839   -14268.612   -11745.669    4032.1243    79.718565 
   80400    1168.9659   -116.68464    1.0577049   -115.62693    7689.9948    4.2916577    4.2916577    4.2916577    7689.9948    11806.197    21660.359   -10396.572    3570.7109   -3708.4159   -3741.5229    79.045149 
   80500    545.46208   -116.12655   0.49354555     -115.633   -10321.712    4.2993462    4.2993462    4.2993462   -10321.712    12364.168   -2425.8644    -40903.44   -5733.4268    28997.355    12398.208    79.470742 
   80600    1204.5591   -116.71121    1.0899104    -115.6213   -4420.4682    4.3008882    4.3008882    4.3008882   -4420.4682    8273.6548   -19969.808   -1565.2509   -20899.227    -215.0461     7651.492    79.556278 
   80700    1152.1286   -116.66358    1.0424701   -115.62111    7497.7264    4.2904631    4.2904631    4.2904631    7497.7264    5892.0922    24222.443   -7621.3565    1821.7091   -20820.118   -4533.2095    78.979159 
   80800    394.50661    -115.9923   0.35695787   -115.63534    -16800.23    4.2991113    4.2991113    4.2991113    -16800.23   -13042.498    20796.942   -58155.135    6978.7535     18822.06    3011.1035    79.457714 
   80900    1138.6239   -116.66008    1.0302508   -115.62983    4118.0316    4.2963485    4.2963485    4.2963485    4118.0316    28068.373   -248.42876    -15465.85    5564.2111    24093.833    8744.4222    79.304625 
   81000    1630.0152    -117.0962     1.474872   -115.62133    11748.124    4.2936484    4.2936484    4.2936484    11748.124    26486.064    13726.181   -4967.8731    755.29886   -22235.535   -650.74614    79.155197 
   81100    494.67951   -116.08744   0.44759642   -115.63985   -19049.797    4.2999515    4.2999515    4.2999515   -19049.797   -21412.537    28325.893   -64062.747   -1605.6953   -4458.6721   -3401.7358    79.504307 
   81200    620.98896   -116.19967   0.56188387   -115.63778     251.9369     4.292535     4.292535     4.292535     251.9369    2840.0772    26808.282   -28892.549    11691.137    32795.071    3845.6178    79.093633 
   81300    1582.5013   -117.05395    1.4318804   -115.62207    9518.8173    4.2960898    4.2960898    4.2960898    9518.8173    29437.151   -4075.8152    3195.1156   -418.93562   -5743.5946   -1301.9111    79.290298 
   81400    879.35293   -116.42868   0.79565701   -115.63302   -5535.8386    4.2976407    4.2976407    4.2976407   -5535.8386    13382.416    489.01965   -30478.951   -12602.729   -1701.4989   -9160.7019    79.376201 
   81500    430.45496   -116.02904   0.38948469   -115.63956   -2457.9212     4.293491     4.293491     4.293491   -2457.9212    8452.7975    36041.053   -51867.614     2052.211    29341.888   -2912.8106    79.146492 
   81600    1444.7005   -116.93427    1.3071954   -115.62707    8658.0488    4.2962559    4.2962559    4.2962559    8658.0488    24500.063    16982.803    -15508.72   -2166.3893    4805.0213     4065.625    79.299498 
   81700     1364.363   -116.86167    1.2345043   -115.62717    10157.823    4.2945911    4.2945911    4.2945911    10157.823    43835.777   -12791.927   -570.38013   -8254.1032   -3449.7204   -5872.9187    79.207344 
   81800    413.20278   -116.01279   0.37387456   -115.63892   -19935.188    4.3006913    4.3006913    4.3006913   -19935.188   -9953.3513    921.94387   -50774.158   -3686.8911    33469.201   -9449.7856    79.545353 
   81900    921.52013   -116.46654   0.83381078   -115.63273   -1841.6053    4.2933626    4.2933626    4.2933626   -1841.6053   -10522.819    25683.597   -20685.594   -260.97575    16818.476    2326.3846     79.13939 
   82000    1398.2933   -116.88861    1.2652052   -115.62341     13810.89    4.2905136    4.2905136    4.2905136     13810.89    37073.998   -8215.9283    12574.602    13690.789   -19345.547    2320.8725     78.98195 
   82100    690.43486   -116.25696   0.62471997   -115.63224   -21964.398    4.3048376    4.3048376    4.3048376   -21964.398    6478.5209   -26135.245   -46236.469    2854.2295    32028.289   -4157.3912    79.775641 
   82200    828.22116    -116.3839   0.74939191   -115.63451    -828.6205    4.2914233    4.2914233    4.2914233    -828.6205   -942.63316    19566.903   -21110.131   -4351.3903    40777.221   -4887.5642      79.0322 
   82300    1600.9807   -117.07093     1.448601   -115.62233    20895.254    4.2898373    4.2898373    4.2898373    20895.254    19903.289    6017.1789    36765.293    13283.862   -11598.675   -581.31853    78.944604 
   82400    905.70725   -116.45425   0.81950295   -115.63475   -10755.527    4.3053627    4.3053627    4.3053627   -10755.527    1808.2657   -28239.787   -5835.0607    10095.372    11129.051    3020.3355    79.804843 
   82500      308.675   -115.91999   0.27929562   -115.64069   -5290.7213    4.2976692    4.2976692    4.2976692   -5290.7213    8080.1102   -5293.5411   -18658.733   -726.97485    49398.141   -5700.6755    79.377781 
   82600    1398.8737   -116.89174    1.2657303   -115.62601    8080.3025    4.2942365    4.2942365    4.2942365    8080.3025    5420.2248    5461.9098    13358.773   -5927.5942    3769.5972   -5118.6018    79.187728 
   82700    1371.9034   -116.86745     1.241327   -115.62613    6242.4963    4.2948114    4.2948114    4.2948114    6242.4963    8023.0982    2466.4339    8237.9569    1379.1275   -21136.718    1715.3011    79.219534 
   82800    616.10883   -116.19445   0.55746822   -115.63698   -9863.3321    4.2965046    4.2965046    4.2965046   -9863.3321   -5322.4124    3690.4165       -27958    12043.662    38453.524    1055.8502    79.313268 
   82900    938.01118   -116.48069   0.84873222   -115.63196   -9044.1186     4.298828     4.298828     4.298828   -9044.1186   -2912.5373    -7846.419     -16373.4   -13791.372    26836.482    992.27626    79.442009 
   83000    1205.5202   -116.71467    1.0907801   -115.62389    2954.6903    4.2962988    4.2962988    4.2962988    2954.6903    3276.5631   -3741.6138    9329.1217   -19462.536   -31623.914    -2858.913     79.30187 
   83100    913.54911   -116.45215   0.82659844   -115.62555   -6303.2663    4.2977836    4.2977836    4.2977836   -6303.2663   -7444.6986    18190.521   -29655.621    5286.9492     7272.327    2164.0532    79.384122 
   83200    948.10229   -116.48351   0.85786288   -115.62564   -4116.8944    4.2966759    4.2966759    4.2966759   -4116.8944    2105.7802     10456.77   -24913.233    1449.7308    38155.365    4996.3586    79.322752 
   83300    1080.1077   -116.60116   0.97730413   -115.62386    4344.0674    4.2940851    4.2940851    4.2940851    4344.0674    15412.323   -16404.565    14024.444   -29475.694   -7409.9211    1396.8814    79.179354 
   83400    955.99214   -116.49259   0.86500178   -115.62759   -1757.1402    4.2963862    4.2963862    4.2963862   -1757.1402   -6646.3195    11830.113   -10455.214   -17959.246   -22970.793   -209.73888    79.306713 
   83500     905.2676   -116.44964   0.81910515   -115.63054   -1941.4741    4.2962334    4.2962334    4.2962334   -1941.4741    -2101.804    38999.908   -42722.526    11497.102    22118.228    4403.1274     79.29825 
   83600    1103.4235   -116.62553   0.99840074   -115.62713    2501.4058    4.2957444    4.2957444    4.2957444    2501.4058    5021.8624    11756.472   -9274.1176   -13916.812    26868.967    8407.2755    79.271174 
   83700    1165.0061   -116.67785     1.054122   -115.62373    6338.1475    4.2964754    4.2964754    4.2964754    6338.1475    6515.7255     7925.592    4573.1251   -27597.894   -21444.438    478.29567    79.311649 
   83800    783.77502   -116.33831   0.70917611   -115.62913   -5083.0706    4.2974388    4.2974388    4.2974388   -5083.0706   -8147.8499    42732.593   -49833.954    1642.0639   -2354.4854    1271.7012    79.365013 
   83900     811.3859    -116.3655   0.73415901   -115.63134   -2736.9381    4.2940426    4.2940426    4.2940426   -2736.9381   -6881.5679    41093.854   -42423.101    4543.9397    30495.229    1702.1374       79.177 
   84000    1394.2341   -116.88466    1.2615324   -115.62313    10451.545    4.2917086    4.2917086    4.2917086    10451.545    16859.194    8438.9917    6056.4485   -5653.5665    4291.6331    1677.6956    79.047965 
   84100    1119.2574   -116.64227    1.0127276   -115.62954   -6719.2844    4.2998911    4.2998911    4.2998911   -6719.2844   -471.20271    15890.985   -35577.636   -7306.2448   -24076.804    1003.0573    79.500957 
   84200    501.22481   -116.09266   0.45351874   -115.63914    -9570.165    4.2935877    4.2935877    4.2935877    -9570.165   -24666.598    57770.335   -61814.232   -1360.9186    8817.1285   -3366.2272     79.15184 
   84300    1037.8454    -116.5723   0.93906432   -115.63323    7401.1846    4.2909201    4.2909201    4.2909201    7401.1846    8771.0474    26979.538   -13547.032     22343.51    23660.745    172.45753    79.004401 
   84400    1483.9463   -116.96438    1.3427058   -115.62168   -5098.2041    4.3045129    4.3045129    4.3045129   -5098.2041    14915.666   -14857.426   -15352.853    13337.762   -11823.119    1081.9793    79.757592 
   84500    814.43052   -116.37089   0.73691385   -115.63397   -3066.1044     4.292812     4.292812     4.292812   -3066.1044     5626.782    34689.297   -49514.392   -9419.4061   -4378.0197   -3023.7517    79.108947 
   84600    584.11998    -116.1645   0.52852403   -115.63598    4687.5607     4.287802     4.287802     4.287802    4687.5607   -679.96499    49896.202   -35153.555    10140.282     22069.08   -2316.4903    78.832295 
   84700    1364.4212   -116.86054     1.234557   -115.62598   -3478.7269    4.3031252    4.3031252    4.3031252   -3478.7269    18692.429   -20049.903   -9078.7061    18691.143    8051.7961    2176.4394    79.680483 
   84800    1182.4335   -116.69813    1.0698907   -115.62824    7950.1162    4.2947837    4.2947837    4.2947837    7950.1162    39023.317   -3214.5613   -11958.407   -3716.4266   -9635.7675    7565.1378    79.218002 
   84900     415.4855   -116.01521   0.37594001   -115.63927   -3877.5867     4.289703     4.289703     4.289703   -3877.5867   -17309.456    53929.247   -48252.551   -7600.1386    14367.904   -1274.5414    78.937193 
   85000    1058.8453    -116.5928   0.95806548   -115.63473   -5995.3145    4.2977003    4.2977003    4.2977003   -5995.3145   -5210.5501     18537.71   -31313.103    219.08339    9971.5207   -1244.0638    79.379505 
   85100    1564.8605   -117.03944    1.4159186   -115.62352    7067.7835    4.2980743    4.2980743    4.2980743    7067.7835     44062.13   -20051.421   -2807.3585    4672.3581   -2202.3396    11567.819    79.400229 
   85200    719.44996   -116.28835   0.65097344   -115.63737   -889.86908    4.2938849    4.2938849    4.2938849   -889.86908    2913.5541    24432.729    -30015.89   -6331.8575    12184.259    5754.7083    79.168279 
   85300    604.87186   -116.18312   0.54730077   -115.63582    101.25327    4.2936451    4.2936451    4.2936451    101.25327   -69.417769    40188.856   -39815.679    -6498.814    13214.359   -3807.4697    79.155017 
   85400    1241.8821   -116.75003     1.123681   -115.62635    357.81887    4.2982314    4.2982314    4.2982314    357.81887    29727.221    -14173.25   -14480.514     10434.67   -7597.3831    3377.9423    79.408938 
   85500    1142.8355   -116.66049    1.0340615   -115.62643     7785.471    4.2919721    4.2919721    4.2919721     7785.471     29123.77   -1418.1896   -4349.1672    13118.945    3365.5452    9167.2909    79.062522 
   85600    836.53445   -116.38807   0.75691395   -115.63115   -3099.6859     4.296079     4.296079     4.296079   -3099.6859   -10277.292    35630.457   -34652.223   -1689.6008    24008.367    852.19606    79.289701 
   85700    989.95844    -116.5237    0.8957352   -115.62796   -10080.394    4.2999577    4.2999577    4.2999577   -10080.394    881.42466    6744.9575   -37867.565   -3153.2713   -2442.2604   -3546.7367    79.504653 
   85800    1142.5488   -116.65832    1.0338022   -115.62452    19791.657    4.2865497    4.2865497    4.2865497    19791.657      44594.5    1345.1567    13435.315     14330.85   -11973.105    478.62679    78.763243 
   85900    948.11691   -116.48812    0.8578761   -115.63025    6833.4497    4.2956473    4.2956473    4.2956473    6833.4497    13422.782    16533.234   -9455.6665    12566.313    34058.706    1512.6374      79.2658 
   86000    773.05472   -116.32955   0.69947616   -115.63007   -13728.731    4.3040618    4.3040618    4.3040618   -13728.731   -17402.052    21245.603   -45029.743   -6697.2412      32334.6    1637.6576    79.732523 
   86100    1161.3458   -116.67526    1.0508101   -115.62445    15777.153    4.2864012    4.2864012    4.2864012    15777.153    23617.947    20843.834    2869.6774   -4033.6066   -29852.837   -6339.3498    78.755057 
   86200    1081.0588   -116.60482   0.97816476   -115.62666    4445.7152    4.2930151    4.2930151    4.2930151    4445.7152    8140.1099    17617.922   -12420.886    6756.3715    14426.742   -5961.1603    79.120175 
   86300    753.15891    -116.3114   0.68147401   -115.62993   -15020.224    4.3041655    4.3041655    4.3041655   -15020.224   -23970.372    25554.216   -46644.515     5474.771    71443.762     3552.451    79.738286 
   86400    1273.2006   -116.77402    1.1520186     -115.622    6425.6177    4.2929675    4.2929675    4.2929675    6425.6177    3812.6387    18081.332   -2617.1175   -1551.2522   -10753.708   -540.93587    79.117545 
   86500    1135.7764   -116.65258    1.0276744    -115.6249    4076.5608    4.2902298    4.2902298    4.2902298    4076.5608   -1747.7165    14480.267    -502.8683   -8033.5995   -16073.946   -9171.5539    78.966279 
   86600    327.89751   -115.93771   0.29668856   -115.64102   -12384.579    4.2973932    4.2973932    4.2973932   -12384.579   -43820.707    29377.029   -22710.059   -277.25987    73836.669   -7065.6879    79.362489 
   86700    1127.7396   -116.65812    1.0204025   -115.63771   -421.60899    4.2985566    4.2985566    4.2985566   -421.60899   -21903.028    6527.2541    14110.947    10153.483    24026.377    1345.9384    79.426959 
   86800    1644.1203   -117.11337    1.4876346   -115.62574    17839.234    4.2904953    4.2904953    4.2904953    17839.234    4654.5037    7477.0608    41386.137    -747.8276   -12490.779    3966.9384    78.980936 
   86900    604.06659   -116.18753   0.54657214   -115.64096    -14155.28     4.298648     4.298648     4.298648    -14155.28   -48910.889    32015.693   -25570.646   -8118.2084    68989.709   -6654.7391    79.432029 
   87000    781.12082   -116.33868   0.70677454    -115.6319   -17989.795     4.301231     4.301231     4.301231   -17989.795   -34454.114    6997.3988    -26512.67    2741.6519    28708.639   -5821.0736    79.575302 
   87100    1364.9468   -116.85479    1.2350325   -115.61976    8559.0438    4.2906612    4.2906612    4.2906612    8559.0438    13203.317   -4362.3983    16836.212     12731.46   -24926.989    6847.8264    78.990102 
   87200    870.75352   -116.41624   0.78787608   -115.62837   -6613.0394    4.2943587    4.2943587    4.2943587   -6613.0394   -31687.289     26795.48    -14947.31    568.03761    43058.554    9543.5011    79.194489 
   87300    832.91226   -116.38313   0.75363652   -115.62949   -3795.2049    4.2965636    4.2965636    4.2965636   -3795.2049   -24061.582    12853.137   -177.16938   -10583.996    43945.722   -8034.0936    79.316536 
   87400    1112.9731   -116.63189    1.0070414   -115.62484    -4738.781     4.300721     4.300721     4.300721    -4738.781    4788.2994   -28224.536    9219.8935   -4556.8358   -13617.856   -8935.5852    79.547002 
   87500    1088.5889   -116.61155   0.98497814   -115.62657   -2755.7469    4.2948554    4.2948554    4.2948554   -2755.7469   -1558.7558     8632.046   -15340.531     8755.986    640.01218    10860.808     79.22197 
   87600    895.45335   -116.43918   0.81022501   -115.62895    9125.7695    4.2855717    4.2855717    4.2855717    9125.7695    3024.6103      33091.8    -8739.102    -6422.294    32089.451    2092.6345    78.709347 
   87700    806.92371   -116.36459   0.73012153   -115.63447   -11604.145    4.3019128    4.3019128    4.3019128   -11604.145    3096.7669   -33142.803   -4766.3976   -29783.886    7652.8054   -22670.027    79.613148 
   87800    1173.3198    -116.6896    1.0616444   -115.62795   -1503.7364    4.2995514    4.2995514    4.2995514   -1503.7364    18230.191   -19970.329   -2771.0709    -7119.176   -11040.464   -16657.296     79.48212 
   87900    1208.5704   -116.71624    1.0935399    -115.6227     19158.01    4.2874588    4.2874588    4.2874588     19158.01    18864.594    40713.861   -2104.4249    6807.2379    4424.2643    9205.2335    78.813369 
   88000    743.12074   -116.30341   0.67239127   -115.63101   -10047.698    4.2992918    4.2992918    4.2992918   -10047.698   -9982.5361   -9820.4779   -10340.081   -23496.131     15637.63   -12111.768    79.467725 
   88100    892.67212   -116.43676   0.80770849   -115.62905   -1828.9457    4.2989565    4.2989565    4.2989565   -1828.9457    14703.381    -27904.21     7713.992   -22740.754    1037.6669   -35475.899    79.449133 
   88200    1285.2584   -116.78553    1.1629288   -115.62261    12667.663    4.2923515    4.2923515    4.2923515    12667.663    15681.247    23055.951   -734.21059     8169.823   -14214.313   -3522.4413    79.083493 
   88300      982.497   -116.51933   0.88898393   -115.63035    802.43166    4.2936952    4.2936952    4.2936952    802.43166   -8390.2877    29410.117   -18612.534    4179.7128    8122.1946    5559.7629    79.157785 
   88400    692.76571   -116.26265   0.62682898   -115.63582    2515.7572    4.2935372    4.2935372    4.2935372    2515.7572    14391.456     5787.445   -12631.629   -16749.766    15850.029   -33794.762    79.149047 
   88500    1188.4563   -116.70442    1.0753403   -115.62908    4214.6112    4.2994912    4.2994912    4.2994912    4214.6112    26370.496    -705.8179   -13020.844   -1309.7964   -2728.6283   -21904.924    79.478781 
   88600    1187.9474   -116.70055    1.0748798   -115.62567     2174.719    4.2977877    4.2977877    4.2977877     2174.719    3024.6249    23552.129   -20052.597    15802.543   -4101.3701    14900.227    79.384345 
   88700    741.05194   -116.30142   0.67051937    -115.6309    1481.1473    4.2902804    4.2902804    4.2902804    1481.1473    1867.2039    30717.819   -28141.581   -4319.8359    17713.508   -17874.246    78.969074 
   88800    1020.0129   -116.55316   0.92292908   -115.63023   -2867.5643    4.2942195    4.2942195    4.2942195   -2867.5643    24061.179   -4830.6912   -27833.181   -9071.8725    11482.465   -30565.156    79.186785 
   88900    1244.0618   -116.75199    1.1256533   -115.62633   -7911.7885     4.299348     4.299348     4.299348   -7911.7885    20643.567   -19338.346   -25040.587    6810.0837   -10668.821    21968.949    79.470838 
   89000    844.84133   -116.39485   0.76443019   -115.63042   -12864.268    4.2966224    4.2966224    4.2966224   -12864.268   -17333.372    9247.5961   -30507.029    7301.9823    16858.525    11952.476    79.319793 
   89100     1085.597   -116.60933     0.982271   -115.62705   -3225.1993    4.2908829    4.2908829    4.2908829   -3225.1993   -5143.6442    21285.335   -25817.289   -7290.8287    19238.936   -23775.575    79.002347 
   89200     1224.573   -116.73325    1.1080194   -115.62523   -5204.3132    4.2952334    4.2952334    4.2952334   -5204.3132    31541.399   -21123.617   -26030.721    2615.3596   -6356.8981    20546.414    79.242889 
   89300    734.36176   -116.29697   0.66446596   -115.63251   -11680.297     4.299027     4.299027     4.299027   -11680.297   -1083.6509   -11875.875   -22081.365    16739.522    6312.5538    36915.687     79.45304 
   89400    961.15829    -116.5017   0.86967622   -115.63202    980.14906    4.2940647    4.2940647    4.2940647    980.14906   -18254.288    42554.899   -21360.163    1276.0435      26497.4   -8188.8745    79.178224 
   89500    1335.3935   -116.83464    1.2082921   -115.62635    12531.258    4.2906493    4.2906493    4.2906493    12531.258    24642.091    24529.044    -11577.36   -8977.8553    6997.5637    5045.3188    78.989441 
   89600     989.0452   -116.52749   0.89490888   -115.63258    7338.6525    4.2959043    4.2959043    4.2959043    7338.6525    32232.516    4277.2461   -14493.804    15000.385   -5074.8306    35793.649    79.280029 
   89700    584.71418   -116.16354   0.52906167   -115.63448   -11013.804    4.3035622    4.3035622    4.3035622   -11013.804   -12104.426    3721.8872   -24658.874    19848.149    26377.205    8246.8571    79.704759 
   89800    1104.2863    -116.6275   0.99918146   -115.62832    2274.0833    4.2935281    4.2935281    4.2935281    2274.0833   -3860.7409    24033.009   -13350.018   -3301.9535     21699.74   -12437.736    79.148544 
   89900     1478.365   -116.95937    1.3376557   -115.62171    16043.176    4.2882032    4.2882032    4.2882032    16043.176    32649.003    10808.443    4672.0827   -5317.2083   -9569.4994    13811.395    78.854422 
   90000    905.86791   -116.45523   0.81964832   -115.63558   -13956.804    4.2988872    4.2988872    4.2988872   -13956.804    -17973.31   -15540.662    -8356.439    20914.509    9999.4119    21820.768    79.445289 
   90100    503.82638   -116.09841    0.4558727   -115.64253   -8098.3245    4.2949806    4.2949806    4.2949806   -8098.3245   -30902.271    16056.301    -9449.003    17258.481    34632.148   -4824.8112    79.228899 
   90200    1300.0935   -116.80855    1.1763519    -115.6322    7035.8602     4.295493     4.295493     4.295493    7035.8602    22325.895    9879.2031   -11097.518   -9014.1912    1779.5683   -20413.389    79.257257 
   90300     1363.898   -116.85851    1.2340836   -115.62443    733.23055    4.2997704    4.2997704    4.2997704    733.23055    3425.7088   -4542.2929    3316.2757    8297.3915   -6897.9507   -2057.3524    79.494263 
   90400    588.14622   -116.16445   0.53216706   -115.63228    6110.0195    4.2925546    4.2925546    4.2925546    6110.0195   -9751.0005    20534.705    7546.3538     26027.71    35797.205    11452.705    79.094721 
   90500     772.5822   -116.33078   0.69904861   -115.63173   -8021.3829    4.2999478    4.2999478    4.2999478   -8021.3829    9573.0592   -1961.1229   -31676.085    4505.8887    18573.188   -21463.007    79.504107 
   90600    1347.9252   -116.84542     1.219631   -115.62579    6344.4301    4.2922003    4.2922003    4.2922003    6344.4301    31716.314    318.70044   -13001.725   -4871.9388   -10775.841   -34266.631    79.075133 
   90700    1132.1517   -116.65461    1.0243947   -115.63022    16063.249     4.286269     4.286269     4.286269    16063.249    5847.4674     27942.27    14400.009    11918.262    17051.734    6502.6121     78.74777 
   90800    624.51859   -116.20184   0.56507755   -115.63676   -17646.862     4.306045     4.306045     4.306045   -17646.862   -39887.673    3280.8171    -16333.73    23060.284    41032.429   -6960.0535    79.842788 
   90900    1051.9966    -116.5783    0.9518686   -115.62643    3331.5858    4.2978324    4.2978324    4.2978324    3331.5858    12958.912     5367.292   -8331.4465   -4788.3554    1434.8994   -34221.646    79.386821 
   91000    1272.0163   -116.76731    1.1509471   -115.61637    13021.817    4.2918113    4.2918113    4.2918113    13021.817    7604.9116     18999.26    12461.278    1891.3101    734.47515   -3841.5087    79.053639 
   91100    748.49689   -116.30391   0.67725571   -115.62665   -12752.474    4.3000386    4.3000386    4.3000386   -12752.474   -50751.289    11017.936    1475.9295    27278.937    40314.517    11868.831     79.50914 
   91200    772.36871   -116.33015   0.69885544   -115.63129    4457.7222    4.2894515    4.2894515    4.2894515    4457.7222   -1083.0328    13975.227     480.9725    9662.9738    19243.153   -27418.172    78.923311 
   91300    1382.2386    -116.8777    1.2506786   -115.62702    5224.9372    4.2935869    4.2935869    4.2935869    5224.9372    26187.008   -973.35141   -9538.8452   -7461.5512   -11973.979   -25400.167    79.151794 
   91400    904.92347   -116.45231   0.81879377   -115.63352   -13602.908    4.3018239    4.3018239    4.3018239   -13602.908   -18984.874    720.80322   -22544.654    9935.3201    19466.481    16554.323    79.608214 
   91500    541.52067   -116.12621   0.48997928   -115.63623   -2881.9925    4.2928957    4.2928957    4.2928957   -2881.9925   -12416.713    20568.465   -16797.729    23209.948    38923.154    3837.9927    79.113577 
   91600     1479.389   -116.96293    1.3385823   -115.62435    5830.3994    4.2977832    4.2977832    4.2977832    5830.3994    22756.758   -617.07897    -4648.481    1947.2063    -5014.923    -17687.42    79.384096 
   91700    1261.1108   -116.76947    1.1410795   -115.62839    165.21997    4.2977087    4.2977087    4.2977087    165.21997    15170.383    3628.9164   -18303.639   -8394.8298   -2308.8263   -1042.8742    79.379968 
   91800    307.26422   -115.92009   0.27801913   -115.64207    -1487.407    4.2889278    4.2889278    4.2889278    -1487.407   -14205.169    32187.347   -22444.399    17822.304    39701.718    17464.684    78.894405 
   91900    1017.0078   -116.56078   0.92021001   -115.64057   -3944.4017    4.2982065    4.2982065    4.2982065   -3944.4017   -3553.4658    1726.6804    -10006.42    18400.372    15434.012    10939.356    79.407554 
   92000     1634.083   -117.10605    1.4785526   -115.62749    9094.0469    4.2963437    4.2963437    4.2963437    9094.0469    16578.141    5680.9905    5023.0094   -18934.239   -10982.533   -2802.3595    79.304356 
   92100    736.38881   -116.30728   0.66630007   -115.64098    4964.5246     4.291002     4.291002     4.291002    4964.5246   -13408.854    37310.469    -9008.042   -7473.8958    24201.329    2075.0816    79.008926 
   92200    557.78293   -116.14438   0.50469372   -115.63969   -8647.3506    4.2989548    4.2989548    4.2989548   -8647.3506   -5931.9227    9012.5034   -29022.633    23761.345    33834.815    18751.021    79.449037 
   92300    1242.2563   -116.74954    1.1240196   -115.62552    9695.6858     4.296988     4.296988     4.296988    9695.6858    34106.226    1402.7538   -6421.9228   -427.12633   -5628.3791    7571.0311    79.340041 
   92400    1113.5173   -116.63195    1.0075339   -115.62442    7287.5332    4.2944251    4.2944251    4.2944251    7287.5332    535.74699     18504.21    2822.6431    -23692.08    8550.9023   -10077.846    79.198161 
   92500    751.66882   -116.31058   0.68012575   -115.63046   -5100.0714    4.2952495    4.2952495    4.2952495   -5100.0714    -13520.07    17507.163   -19287.307    9523.3559      39782.7    8908.6617    79.243781 
   92600    842.10831   -116.39348    0.7619573   -115.63153    3514.9833    4.2916171    4.2916171    4.2916171    3514.9833    14555.915    6759.7677   -10770.733    19792.146    8929.6897    15476.769    79.042908 
   92700    1152.8631   -116.67247    1.0431347   -115.62933   -643.65513    4.2963523    4.2963523    4.2963523   -643.65513    14910.941   -11491.539   -5350.3674   -16355.873   -7579.5884   -13073.392    79.304833 
   92800     1019.489   -116.55201   0.92245505   -115.62955   -4967.4326     4.297695     4.297695     4.297695   -4967.4326   -19162.739    12091.806   -7831.3653   -9522.3667    25366.472    -8552.763    79.379209 
   92900    704.85767   -116.26896   0.63777003   -115.63119   -7053.3728    4.2937921    4.2937921    4.2937921   -7053.3728   -26212.398     4288.559     763.7208     34202.93    27479.972    10948.245    79.163145 
   93000    995.33757   -116.52888   0.90060235   -115.62828   -3030.1643    4.2962703    4.2962703    4.2962703   -3030.1643    9772.0201   -21813.561     2951.048     4312.011   -7003.5989    7328.9166    79.300294 
   93100    1276.0683   -116.77706    1.1546134   -115.62245   -2344.8968    4.2982991    4.2982991    4.2982991   -2344.8968    2047.6514    2007.8939   -11090.236   -15396.008    857.60219   -11400.246     79.41269 
   93200    839.20849    -116.3899   0.75933347   -115.63057   -9168.4455    4.2945471    4.2945471    4.2945471   -9168.4455   -37912.976    9657.5602    750.07898    28116.573    32956.397   -91.010292     79.20491 
   93300    718.39725   -116.28544   0.65002093   -115.63542   -6230.5577    4.2905316    4.2905316    4.2905316   -6230.5577   -12850.524   -11088.512    5247.3635    32700.609    11599.367    15513.677    78.982942 
   93400    1340.3534   -116.84085    1.2127799   -115.62807    856.63698    4.2974708    4.2974708    4.2974708    856.63698    24254.671   -4897.9513   -16786.809   -8019.3951   -9890.2564     3375.298    79.366787 
   93500    1142.2414   -116.66192     1.033524   -115.62839   -6682.1152    4.3006699    4.3006699    4.3006699   -6682.1152   -20566.961    9706.8192   -9186.2041    8250.9437    20409.254   -7566.8488    79.544165 
   93600     638.0623   -116.20901   0.57733218   -115.63168   -2856.6162    4.2941457    4.2941457    4.2941457   -2856.6162   -32552.515    3752.1414    20230.525    43648.657    28050.524    719.76225    79.182705 
   93700    1138.3518   -116.65443    1.0300046   -115.62442   -1073.9931    4.2971256    4.2971256    4.2971256   -1073.9931    13834.391   -10054.176    -7002.195    3098.2447    637.81001    17553.298    79.347666 
   93800    1174.2972   -116.68527    1.0625288   -115.62274    5376.2499    4.2949622    4.2949622    4.2949622    5376.2499    23716.241    1681.2182   -9268.7096   -8466.8766   -4261.0657    4421.8761    79.227878 
   93900    860.24165   -116.40719   0.77836472   -115.62883    4947.4372    4.2921621    4.2921621    4.2921621    4947.4372   -15646.907    9467.2989     21021.92     32140.84    23098.483   -13008.688    79.073023 
   94000    979.24034   -116.51617   0.88603723   -115.63013   -3836.5513    4.2969655    4.2969655    4.2969655   -3836.5513   -12956.146    3638.9768   -2192.4846    18321.414    17386.788    15469.662    79.338798 
   94100    949.49705   -116.48931   0.85912488   -115.63019    5908.6096    4.2915024    4.2915024    4.2915024    5908.6096    35289.381   -4219.6241   -13343.928   -8665.6232   -8647.2518    30976.487     79.03657 
   94200    938.66716    -116.4804   0.84932577   -115.63107   -489.23233    4.2966836    4.2966836    4.2966836   -489.23233    12032.021     639.3781   -14139.096    3138.5511    4652.7478   -12342.143    79.323181 
   94300    1271.7304   -116.77307    1.1506884   -115.62238   -6371.0752    4.3000323    4.3000323    4.3000323   -6371.0752   -17666.945    12055.894   -13502.174    12873.656    17168.281   -9921.0798    79.508791 
   94400    962.52623   -116.49826   0.87091396   -115.62735    1798.7086    4.2880054    4.2880054    4.2880054    1798.7086    22837.251    5318.1237   -22759.249    755.37469     3235.966    54220.461    78.843512 
   94500    617.13697   -116.19415    0.5583985   -115.63576   -12024.442    4.2933182    4.2933182    4.2933182   -12024.442     29737.84    -23861.28   -41949.886   -9614.6779   -8152.4832     7563.185    79.136937 
   94600    1233.4632   -116.74495    1.1160634   -115.62889   -4449.0372    4.2972473    4.2972473    4.2972473   -4449.0372    1165.4661    5630.3615   -20142.939    -1338.982   -640.07301   -48778.613    79.354406 
   94700    1302.2339   -116.80519    1.1782886    -115.6269    3882.3851    4.2944027    4.2944027    4.2944027    3882.3851     10070.43    4865.9394   -3289.2143    3954.0769    3811.1364    35558.706    79.196924 
   94800     769.1311   -116.33162   0.69592598    -115.6357    -3521.739    4.2915467    4.2915467    4.2915467    -3521.739    29635.344   -17445.311    -22755.25   -2015.1538   -1514.5567    47653.573    79.039016 
   94900    775.00842   -116.33612   0.70124391   -115.63487    8567.7023    4.2911648    4.2911648    4.2911648    8567.7023     20221.94    17507.623   -12026.456   -7151.8666   -5494.1319   -46622.846    79.017919 
   95000    1244.0591   -116.75274    1.1256508   -115.62709   -4389.3935    4.3013097    4.3013097    4.3013097   -4389.3935   -4320.4052   -1232.9067   -7614.8686     173.8721   -3853.6724   -21336.651    79.579672 
   95100    1225.4658   -116.73579    1.1088272   -115.62697    9937.5169    4.2895951    4.2895951    4.2895951    9937.5169    20381.595    15880.028   -6449.0719    8787.5267    942.22039    52309.193    78.931235 
   95200    812.29543   -116.36675   0.73498198   -115.63176    2822.9633    4.2899231    4.2899231    4.2899231    2822.9633    35583.256   -823.79262   -26290.574   -5731.0487    2478.0963   -16067.563    78.949343 
   95300    829.14392   -116.38091   0.75022685   -115.63069   -18561.891    4.3030907    4.3030907    4.3030907   -18561.891   -2636.4051   -21783.669   -31265.598   -6088.6408   -5667.4452   -53906.598    79.678566 
   95400    1297.7233    -116.7985    1.1742073   -115.62429    9373.5225    4.2905049    4.2905049    4.2905049    9373.5225   -1809.2328    25215.961    4713.8391    19251.599   -9365.8512    18463.408     78.98147 
   95500    1166.1789   -116.68208    1.0551832    -115.6269    4188.2087    4.2912489    4.2912489    4.2912489    4188.2087    25878.332   -2488.4415   -10825.264    4095.0744    2096.2622     892.6698    79.022563 
   95600    775.18592   -116.33454   0.70140451   -115.63313   -8670.6806    4.2972046    4.2972046    4.2972046   -8670.6806    24664.553   -12156.748   -38519.846   -13058.513    1486.7768   -51770.005    79.352041 
   95700    934.91276   -116.47775   0.84592871   -115.63182    4078.6599    4.2927612    4.2927612    4.2927612    4078.6599   -1594.4132    21567.166   -7736.7731    11767.925   -13816.428   -9043.1283    79.106138 
   95800    1188.9418   -116.70343    1.0757795   -115.62765    3072.7233    4.2943282    4.2943282    4.2943282    3072.7233     -9642.32    11392.072     7468.418    30690.029   -10732.851    8933.6752    79.192797 
   95900    1104.5676    -116.6273   0.99943602   -115.62786    4935.7286    4.2932356    4.2932356    4.2932356    4935.7286    28888.507    4292.0895   -18373.411   -3137.5406    3333.8311   -42206.856    79.132366 
   96000    919.84561   -116.46159   0.83229564   -115.62929   -3048.2447    4.2963974    4.2963974    4.2963974   -3048.2447    11572.499   -4045.7438   -16671.489   -11545.459    -1640.035   -33274.895    79.307331 
   96100    934.70495   -116.47358   0.84574068   -115.62784    -6437.402    4.2964949    4.2964949    4.2964949    -6437.402   -31496.307    1362.8759    10821.225    33561.256   -14727.691    15541.077    79.312732 
   96200    1129.3656   -116.64795    1.0218737   -115.62608    2667.8555     4.290561     4.290561     4.290561    2667.8555    2537.1998   -3250.1216    8716.4885    19221.075   -3947.1813   -10066.718    78.984568 
   96300    1090.0973    -116.6152   0.98634292   -115.62886    -1784.532    4.2928081    4.2928081    4.2928081    -1784.532     16698.65   -13653.762   -8398.4839    -19590.26    7285.7474   -33044.232    79.108731 
   96400    868.50182   -116.41966    0.7858387   -115.63382    -3516.049    4.2933457    4.2933457    4.2933457    -3516.049   -25546.963    4878.4028    10120.414   -1979.5217    532.66205   -7211.7901     79.13846 
   96500    1170.5073   -116.68782    1.0590996   -115.62872    1459.6277    4.2975513    4.2975513    4.2975513    1459.6277   -17689.208    6092.7779    15975.313    25150.978   -3003.4246    13944.145    79.371249 
   96600    1051.6516   -116.57913    0.9515565   -115.62757   -2983.8541    4.2959063    4.2959063    4.2959063   -2983.8541      22511.4   -20140.284   -11322.679    2971.1921    2216.5054    4486.7451    79.280138 
   96700    708.98138   -116.27339   0.64150125   -115.63188    4011.0906    4.2887269    4.2887269    4.2887269    4011.0906    -536.9718    6962.3687    5607.8747   -29771.224    15676.948   -18574.269    78.883319 
   96800    1173.9443   -116.69094    1.0622094   -115.62873   -1902.8308    4.2971312    4.2971312    4.2971312   -1902.8308   -19416.949   -1460.8211    15169.278   -8883.5262    5734.2338   -3885.4924    79.347975 
   96900    1259.5258   -116.76692    1.1396454   -115.62727    3026.2525    4.2945233    4.2945233    4.2945233    3026.2525    27057.012    -15226.97   -2751.2841    9697.6989   -8822.0107     38257.54    79.203596 
   97000    702.15688   -116.27029    0.6353263   -115.63496    1976.9972    4.2896958    4.2896958    4.2896958    1976.9972    23645.639    -16119.69   -1594.9572   -12765.754      9000.45    12629.153    78.936792 
   97100    854.52597   -116.40666   0.77319306   -115.63347   -11664.471    4.2977941    4.2977941    4.2977941   -11664.471   -22818.663    -22694.49    10519.742   -33760.388    10652.577   -27585.801    79.384702 
   97200    1161.3738   -116.67766    1.0508354   -115.62682    3834.1479    4.2928852    4.2928852    4.2928852    3834.1479    18693.905   -14721.423    7529.9615   -7905.9718    -617.1999    23779.427    79.112995 
   97300    1182.5343   -116.69643    1.0699819   -115.62645     1903.127     4.293603     4.293603     4.293603     1903.127    36472.291    -17503.26    -13259.65    11425.705   -1795.9957    38498.926    79.152685 
   97400    792.91007    -116.3483    0.7174417   -115.63086    -11642.01    4.2971541    4.2971541    4.2971541    -11642.01   -2668.1489    -30200.99   -2056.8928   -31450.789    7022.5053   -21809.806    79.349241 
   97500    694.49532   -116.26302   0.62839396   -115.63462    2065.0742    4.2891493    4.2891493    4.2891493    2065.0742    6211.8683   -17009.676     16993.03   -22669.894    12668.966   -13193.464    78.906627 
   97600    1351.5289   -116.85059    1.2228918    -115.6277    3275.4193    4.2972263    4.2972263    4.2972263    3275.4193    22903.272   -5093.9948   -7983.0193    15198.442   -619.07934    29895.175    79.353243 
   97700    1271.1415   -116.78007    1.1501555   -115.62992    808.41111    4.2959211    4.2959211    4.2959211    808.41111    17330.335   -17297.694    2392.5925   -17986.576   -5540.6523    1792.7918    79.280959 
   97800    434.25683   -116.03464    0.3929247   -115.64172    890.01861     4.287296     4.287296     4.287296    890.01861    5539.1071   -26081.045    23211.994   -33948.714    7552.3036   -33107.017    78.804389 
   97900    1023.0772   -116.56391   0.92570174   -115.63821   -7739.1325    4.2989965    4.2989965    4.2989965   -7739.1325   -2079.5138   -20365.009   -772.87506    7910.8635    17107.362   -4622.4826    79.451349 
   98000    1536.8763   -117.01357    1.3905979   -115.62297    5219.2309    4.2987359    4.2987359    4.2987359    5219.2309    10158.632    7813.6702   -2314.6096    7321.3357   -9578.6412    7522.2336    79.436903 
   98100    678.21348   -116.24726   0.61366181    -115.6336    -3932.351      4.29249      4.29249      4.29249    -3932.351   -1884.1325   -10217.098    304.17795   -30793.637   -22680.742   -20632.347    79.091149 
   98200    688.70143   -116.26046   0.62315153   -115.63731   -8568.0431    4.2920051    4.2920051    4.2920051   -8568.0431     6582.526   -27949.907   -4336.7477   -13397.576    15813.117   -27866.469    79.064346 
   98300    1397.6535    -116.8928    1.2646263   -115.62817    8758.0909    4.2911123    4.2911123    4.2911123    8758.0909    11838.767    13237.288    1198.2177     12696.07    4803.5407    4361.1123    79.015015 
   98400    934.10053   -116.47936   0.84519379   -115.63416   -5394.6165    4.3005217    4.3005217    4.3005217   -5394.6165   -11509.375    8271.9597   -12946.435   -6139.1074    -38353.76      8357.09     79.53594 
   98500    657.41646   -116.22857   0.59484423   -115.63372   -12321.459     4.299442     4.299442     4.299442   -12321.459    6838.3657   -29648.446   -14154.298   -26404.079   -9594.4477   -32855.034    79.476051 
   98600    1331.6033   -116.82748    1.2048627   -115.62261    9817.5484    4.2887042    4.2887042    4.2887042    9817.5484    17268.736    2266.9793    9916.9304   -5857.0638    12578.763   -15041.913    78.882064 
   98700     1277.165   -116.78178    1.1556057   -115.62617    1836.7704     4.292398     4.292398     4.292398    1836.7704   -10784.858    32720.882   -16425.713    10147.155   -28113.262    19963.519    79.086064 
   98800    572.05628   -116.15668   0.51760854   -115.63908   -5822.7105    4.2947674    4.2947674    4.2947674   -5822.7105    5938.3171     9960.715   -33367.163   -10999.958   -29430.722   -10870.436    79.217103 
   98900    838.42387   -116.39694   0.75862353   -115.63832   -1268.3609    4.2972429    4.2972429    4.2972429   -1268.3609    11251.053   -5438.0624    -9618.073   -22896.288    8094.6457   -33395.614    79.354161 
   99000    1440.8086   -116.92903    1.3036739   -115.62536    3799.5358     4.294978     4.294978     4.294978    3799.5358   -12639.229      26282.1   -2244.2634    1371.3017   -4799.4757    224.64514    79.228755 
   99100    899.49098   -116.44468   0.81387834    -115.6308    6551.3493    4.2901164    4.2901164    4.2901164    6551.3493   -10933.952    46626.618   -16038.618    8893.1049   -32913.478      6222.59    78.960015 
   99200    856.54589   -116.40554   0.77502072   -115.63052   -12869.582    4.2999861    4.2999861    4.2999861   -12869.582   -2759.5202   -22615.515   -13233.711   -15485.704   -8731.9149   -26224.647     79.50623 
   99300    1311.2211   -116.81039    1.1864204   -115.62397    2622.3258    4.2927678    4.2927678    4.2927678    2622.3258   -6135.5994   -1774.3976    15776.974    -8027.307    11661.236   -12184.975    79.106504 
   99400    731.10694   -116.29532   0.66152092    -115.6338    346.13156    4.2860672    4.2860672    4.2860672    346.13156   -42487.969    34805.813    8720.5505    19054.938    -17046.81    8274.5778    78.736646 
   99500    585.02195   -116.17133   0.52934016   -115.64199   -18237.064    4.2991318    4.2991318    4.2991318   -18237.064    -39967.97   -3618.4329   -11124.789    12490.456   -26076.096   -2845.9036    79.458851 
   99600    1576.0921   -117.05399    1.4260813   -115.62791       3017.5    4.2947959    4.2947959    4.2947959       3017.5    4803.4235   -8432.4579    12681.534   -5595.4605    5890.6311   -16137.294     79.21868 
   99700    1076.6931   -116.60677   0.97421455   -115.63255    3654.7116    4.2908755    4.2908755    4.2908755    3654.7116   -25658.695    18196.017    18426.813    971.53857   -5058.4627   -1541.0969    79.001936 
   99800    368.73662   -115.97458   0.33364064   -115.64094   -18869.008    4.2983487    4.2983487    4.2983487   -18869.008   -58609.802    14944.531   -12941.753    19572.719   -21579.192    10017.944     79.41544 
   99900    1115.6095   -116.64181    1.0094269   -115.63238    3849.0333    4.2924536    4.2924536    4.2924536    3849.0333   -14499.656     6969.587    19077.169   -1968.3526   -2007.4476   -2857.4448    79.089138 
  100000     1302.425   -116.80605    1.1784615   -115.62758    10234.688    4.2902481    4.2902481    4.2902481    10234.688   -16791.079   -180.40014    47675.542   -33422.871    2322.2963   -4189.7515     78.96729 
Loop time of 23.2761 on 1 procs for 100000 steps with 8 atoms

Pair  time (%) = 7.46797 (32.0842)
Kspce time (%) = 5.6383 (24.2235)
Neigh time (%) = 0 (0)
Comm  time (%) = 1.1409 (4.90158)
Outpt time (%) = 0.0279961 (0.120278)
Other time (%) = 9.00097 (38.6704)

Nlocal:    8 ave 8 max 8 min
Histogram: 1 0 0 0 0 0 0 0 0 0
Nghost:    2189 ave 2189 max 2189 min
Histogram: 1 0 0 0 0 0 0 0 0 0
Neighs:    2344 ave 2344 max 2344 min
Histogram: 1 0 0 0 0 0 0 0 0 0

Total # of neighbors = 2344
Ave neighs/atom = 293
Neighbor list builds = 0
Dangerous builds = 0
unfix 20
unfix 21
print "seeds:1974693"
seeds:1974693
