LAMMPS (10 Feb 2015)
# ---- initialize simulations
clear
units metal
dimension 3
boundary p p p
atom_style charge
atom_modify map array
# ---- create atoms
read_data /Users/eugeneragasa/pyflamestk_git/pypospack/tests/tests_integration/workflow/WorkflowLammpsThermalExpansion/param_5262/MgO_NaCl_unit.npt.T200/lammps.structure
  triclinic box = (0 0 0) to (4.2565 4.2565 4.2565) with tilt (0 0 0)
  1 by 1 by 1 MPI processor grid
  reading atoms ...
  8 atoms
# ---- define interatomic potential
include potential.mod
mass 1 24.305
mass 2 15.999

group Mg type 1
4 atoms in group Mg
group O type 2
4 atoms in group O

set group Mg charge 1.695400086
  4 settings made for charge
set group O charge -1.695400086
  4 settings made for charge

variable R_cut equal 10.0

pair_style buck/coul/long ${R_cut}
pair_style buck/coul/long 10
pair_coeff 1 1 0.0 0.5 0.0 ${R_cut}
pair_coeff 1 1 0.0 0.5 0.0 10
pair_coeff 1 2 1303.37543516 0.290482854228 0.0 ${R_cut}
pair_coeff 1 2 1303.37543516 0.290482854228 0.0 10
pair_coeff 2 2 9936.88636401 0.22003654812 26.9596347598 ${R_cut}
pair_coeff 2 2 9936.88636401 0.22003654812 26.9596347598 10

kspace_style pppm 1.0e-5

neighbor 1.0 bin
neigh_modify every 1 delay 0 check yes
# ---- define settings
compute eng all pe/atom
compute eatoms all reduce sum c_eng
# ---- run minimization
reset_timestep 0
fix 1 all box/relax iso 0.0 vmax 0.001
thermo 10
thermo_style custom step pe lx ly lz xy xz yz press pxx pyy pzz pxy pxz pyz c_eatoms
min_style cg
minimize 1e-25 1e-25 5000 10000
PPPM initialization ...
  G vector (1/distance) = 0.353118
  grid = 8 8 8
  stencil order = 5
  estimated absolute RMS force accuracy = 4.08652e-05
  estimated relative force accuracy = 2.83793e-06
  using double precision FFTs
  3d grid and FFT values/proc = 3375 512
Neighbor list info ...
  1 neighbor list requests
  update every 1 steps, delay 0 steps, check yes
  master list distance cutoff = 11
Memory usage per processor = 4.06549 Mbytes
Step PotEng Lx Ly Lz Xy Xz Yz Press Pxx Pyy Pzz Pxy Pxz Pyz eatoms 
       0   -115.99413       4.2565       4.2565       4.2565            0            0            0    97842.713    97842.713    97842.713    97842.713 -3.9648682e-11 -1.4130262e-10 -2.4072873e-11   -115.99413 
      10   -116.09248     4.299065     4.299065     4.299065            0            0            0    39915.456    39915.456    39915.456    39915.456 -6.718901e-11 1.6759609e-10 -1.4910019e-10   -116.09248 
      20   -116.11494    4.3319944    4.3319944    4.3319944            0            0            0    7.4200549    7.4200549    7.4200549    7.4200549 -9.9303313e-12 -1.50322e-10 -3.7717238e-11   -116.11494 
      22   -116.11494    4.3320008    4.3320008    4.3320008            0            0            0  0.022500426  0.022500427  0.022500425  0.022500427 -1.5011423e-10 -9.5142159e-11 1.463096e-10   -116.11494 
Loop time of 0.0141921 on 1 procs for 22 steps with 8 atoms

Minimization stats:
  Stopping criterion = linesearch alpha is zero
  Energy initial, next-to-last, final = 
        -115.994127563     -116.114943198     -116.114943198
  Force two-norm initial, final = 14.1285 3.9258e-05
  Force max component initial, final = 14.1285 8.20487e-06
  Final line search alpha, max atom move = 0.5 4.10243e-06
  Iterations, force evaluations = 22 41

Pair  time (%) = 0.00377393 (26.5917)
Kspce time (%) = 0.00226116 (15.9325)
Neigh time (%) = 0 (0)
Comm  time (%) = 0.000428677 (3.02053)
Outpt time (%) = 2.7895e-05 (0.196553)
Other time (%) = 0.00770044 (54.2586)

Nlocal:    8 ave 8 max 8 min
Histogram: 1 0 0 0 0 0 0 0 0 0
Nghost:    2189 ave 2189 max 2189 min
Histogram: 1 0 0 0 0 0 0 0 0 0
Neighs:    2344 ave 2344 max 2344 min
Histogram: 1 0 0 0 0 0 0 0 0 0

Total # of neighbors = 2344
Ave neighs/atom = 293
Neighbor list builds = 0
Dangerous builds = 0
unfix 1
# ---- define output variables ----
variable natoms equal "count(all)"
variable tot_energy equal "c_eatoms"
variable length_x equal "lx"
variable length_y equal "ly"
variable length_z equal "lz"
variable tilt_xy equal "xy"
variable tilt_xz equal "xz"
variable tilt_yz equal "yz"
variable tot_press equal "press"
variable press_xx equal "pxx"
variable press_yy equal "pyy"
variable press_zz equal "pzz"
variable press_xy equal "pxy"
variable press_xz equal "pxz"
variable press_yz equal "pyz"

# ---- output ----
print "pypospack:output_section:begin"
pypospack:output_section:begin
print "tot_energy = ${tot_energy}"
tot_energy = -116.114943197766
print "num_atoms = ${natoms}"
num_atoms = 8
print "xx = ${length_x}"
xx = 4.33200077919323
print "yy = ${length_y}"
yy = 4.33200077919323
print "zz = ${length_z}"
zz = 4.33200077919323
print "xy = ${tilt_xy}"
xy = 0
print "xz = ${tilt_xz}"
xz = 0
print "yz = ${tilt_yz}"
yz = 0
print "tot_press = ${tot_press}"
tot_press = 0.0225004262556315
print "pxx = ${press_xx}"
pxx = 0.0225004265502418
print "pyy = ${press_yy}"
pyy = 0.0225004253807009
print "pzz = ${press_zz}"
pzz = 0.0225004268359518
print "pxy = ${press_xy}"
pxy = -1.50114228566484e-10
print "pxz = ${press_xz}"
pxz = -9.5142158828828e-11
print "pyz = ${press_yz}"
pyz = 1.46309599907844e-10
print "pypospack:output_section:done"
pypospack:output_section:done
print "pypospack:lammps_sim:done"
pypospack:lammps_sim:done
#------------------------------------------------------------------------------
# RUN THERMOSTAT
# running using an NPT Nose-Hoover style thermostat
#------------------------------------------------------------------------------
variable tempdamp equal 0.1
variable pressdamp equal 1.0
# set initial velocities
velocity all create 200 2861629 mom yes dist gaussian loop all
# fix for Nose-Hoover style thermostat
fix 20 all npt temp 200 200 0.1 aniso 0.0 0.0 1.0 drag 1.0 couple xyz
variable boxx equal lx
variable boxy equal ly
variable boxz equal lz
variable boxp equal press
variable boxt equal temp
# calculate averages every 10000 steps
reset_timestep 0
fix 21 all ave/time 10 10 100 v_boxx v_boxy v_boxz v_boxp v_boxt file lattice.out
thermo_style custom step temp pe ke etotal press lx ly lz press pxx pyy pzz pxy pxz pyz vol
thermo_modify flush yes
thermo 100
run 100000
PPPM initialization ...
  G vector (1/distance) = 0.352343
  grid = 8 8 8
  stencil order = 5
  estimated absolute RMS force accuracy = 4.23631e-05
  estimated relative force accuracy = 2.94196e-06
  using double precision FFTs
  3d grid and FFT values/proc = 3375 512
Memory usage per processor = 3.06549 Mbytes
Step Temp PotEng KinEng TotEng Press Lx Ly Lz Press Pxx Pyy Pzz Pxy Pxz Pyz Volume 
       0          200   -116.11495    0.1809642   -115.93399    2375.6386    4.3320008    4.3320008    4.3320008    2375.6386    3130.1117    996.53829    3000.2658    333.18841   -1384.3634    580.16498    81.295326 
     100    121.79053   -116.01784   0.11019863   -115.90764   -802.53321    4.3390586    4.3390586    4.3390586   -802.53321   -305.74202   -5008.4757    2906.6181   -64.284584    337.62301   -39.345741    81.693317 
     200    187.48685   -116.02861   0.16964204   -115.85897   -2226.7656     4.338241     4.338241     4.338241   -2226.7656   -772.03827   -4354.9321   -1553.3264     3.549359    1965.1618   -1329.8178     81.64715 
     300     199.9842   -115.99771   0.18094991   -115.81676    7820.6994    4.3336725    4.3336725    4.3336725    7820.6994    9132.6575    4404.7272    9924.7133    267.90059    839.78775     -434.704     81.38948 
     400    232.89997   -115.99433   0.21073278    -115.7836   -3784.7081    4.3449589    4.3449589    4.3449589   -3784.7081   -2186.0583   -7894.1122   -1273.9539    2113.7032   -194.27821   -239.20391    82.027036 
     500    230.80114   -115.97281   0.20883373   -115.76398    -2588.812     4.339973     4.339973     4.339973    -2588.812   -2214.7543   -4024.3981   -1527.2836    1586.2446    997.18029   -348.73498    81.744977 
     600    204.26413   -115.93695   0.18482248   -115.75213    9244.4447    4.3322569    4.3322569    4.3322569    9244.4447    6138.5857    6241.4045    15353.344    -1216.871    1781.7116    -59.16756    81.309747 
     700    345.55103    -116.0618   0.31266183   -115.74914   -12551.218    4.3479071    4.3479071    4.3479071   -12551.218   -13048.715   -15214.402   -9390.5362   -1523.0895   -1081.9924    754.15132    82.194121 
     800    161.87795   -115.89836   0.14647057   -115.75189   -717.15021    4.3432964    4.3432964    4.3432964   -717.15021    -1802.289   -7496.1838    7147.0222    264.15296    982.22187   -43.387656    81.932912 
     900    222.31689   -115.95131   0.20115699   -115.75015    9277.7127    4.3294263    4.3294263    4.3294263    9277.7127    8962.5607    5815.4758    13055.101    1886.8824    1090.1834   -872.13871    81.150473 
    1000    198.18985   -115.93228   0.17932634   -115.75295   -3686.7528     4.344792     4.344792     4.344792   -3686.7528   -4500.6071    -7389.065    829.41376    418.74751    1051.8987   -608.03006    82.017585 
    1100    182.45832   -115.91742   0.16509213   -115.75233    -6379.519     4.348937     4.348937     4.348937    -6379.519   -6775.7488   -10786.524   -1576.2844    505.80864    222.14761   -363.85896    82.252545 
    1200    181.26618   -115.91531   0.16401345   -115.75129    11566.517    4.3288748    4.3288748    4.3288748    11566.517    11423.138    10208.171    13068.241    1297.5683    5.6125932    115.72342    81.119464 
    1300    131.14223   -115.87251   0.11866025   -115.75385    1295.1956    4.3395983    4.3395983    4.3395983    1295.1956   -6432.3782   -1026.8304    11344.796    647.26359    582.43988   -43.074577    81.723808 
    1400    262.27106   -115.98638   0.23730837   -115.74907   -17873.227    4.3539608    4.3539608    4.3539608   -17873.227   -19075.594   -20138.335   -14405.753   -886.21499   -639.54957    1159.5559    82.537923 
    1500    112.24565    -115.8534   0.10156223   -115.75183    11823.089    4.3321422    4.3321422    4.3321422    11823.089    12449.536    4227.5809    18792.151   -676.59167     2257.379   -1740.0245    81.303291 
    1600    161.99879   -115.89917   0.14657991   -115.75259     2964.458     4.333648     4.333648     4.333648     2964.458    1109.1668   -1036.0655    8820.2728    149.64954    113.63647   -477.59025      81.3881 
    1700    180.18965   -115.91188   0.16303938   -115.74885   -16047.563     4.354448     4.354448     4.354448   -16047.563   -18831.859   -19846.516   -9464.3138    769.70078    9.1609807   -540.94059    82.565634 
    1800    133.51325   -115.87251   0.12080559   -115.75171    5133.7007    4.3382244    4.3382244    4.3382244    5133.7007    4437.0712   -442.80483    11406.836    1766.8426    275.42252   -63.888893    81.646214 
    1900    158.05105   -115.89312   0.14300791   -115.75011    8570.4869    4.3298183    4.3298183    4.3298183    8570.4869      4489.29    9508.5798    11713.591    927.48684    2060.9069   -5.2500648     81.17252 
    2000    95.068371   -115.83777   0.08601986   -115.75175   -8688.9643    4.3499551    4.3499551    4.3499551   -8688.9643   -18167.568   -11383.252    3483.9279   -332.71828    402.26821     282.7441    82.310325 
    2100    250.04961   -115.97768   0.22625014   -115.75143   -7688.6469    4.3449026    4.3449026    4.3449026   -7688.6469   -9315.2152   -7254.7949   -6495.9306   -627.78108   -200.35065    794.74656    82.023848 
    2200    80.772482   -115.82415  0.073084639   -115.75106    16569.146    4.3299916    4.3299916    4.3299916    16569.146    17266.119    9907.7704    22533.548   -139.81599    1925.3439   -1773.2308    81.182262 
    2300    160.91722   -115.89903   0.14560129   -115.75343   -5943.3421    4.3428571    4.3428571    4.3428571   -5943.3421   -5249.0586   -10370.987   -2209.9811   -230.41624   -847.95265    -32.72623    81.908058 
    2400    203.73316   -115.93509   0.18434204   -115.75074   -10424.778    4.3487865    4.3487865    4.3487865   -10424.778   -14025.211   -15435.419   -1813.7029    441.98043   -1134.9636   -715.07298    82.244005 
    2500    162.76091   -115.89852   0.14726949   -115.75125    9586.1574    4.3352229    4.3352229    4.3352229    9586.1574    11890.442    3078.8366    13789.194    1531.8388    673.51419    210.53839    81.476862 
    2600    193.52479   -115.92685    0.1751053   -115.75174    573.95568    4.3362824    4.3362824    4.3362824    573.95568   -2449.3886   -1206.4547    5377.7103    1557.6341    3078.6576   -1038.7095    81.536614 
    2700    132.91605   -115.87156   0.12026523    -115.7513   -8036.2449    4.3482739    4.3482739    4.3482739   -8036.2449   -12921.782   -10564.373   -622.57957   -776.86471     365.2144    334.42096     82.21493 
    2800    263.94389   -115.99001   0.23882198   -115.75119    -2698.453    4.3419189    4.3419189    4.3419189    -2698.453   -1281.9349   -4573.6135   -2239.8107   -1351.8683   -1535.2421    614.25311    81.854983 
    2900    101.11225   -115.84333  0.091488492   -115.75184     13916.45    4.3323831    4.3323831    4.3323831     13916.45     15322.36    6733.0713     19693.92    90.652559    752.26898   -2535.6992    81.316851 
    3000    196.25907    -115.9303   0.17757933   -115.75272   -7422.0591    4.3446471    4.3446471    4.3446471   -7422.0591   -7336.2842   -10069.932   -4859.9613    1.0880261    1036.6503   -429.22281    82.009376 
    3100    255.44806   -115.98265   0.23113478   -115.75152   -9010.3523    4.3468915    4.3468915    4.3468915   -9010.3523    -10593.97   -13102.165    -3334.922   -77.047692   -966.00778   -198.81635    82.136537 
    3200    200.73024   -115.93345   0.18162494   -115.75183    9990.5454    4.3341486    4.3341486    4.3341486    9990.5454    11584.308    3810.0395    14577.289     760.0495    867.39728    571.03304    81.416305 
    3300     245.0942   -115.97426   0.22176638    -115.7525    -851.0681    4.3386751    4.3386751    4.3386751    -851.0681   -1587.7948   -2933.6934    1968.2838    1118.4953    2394.5884   -770.58655     81.67166 
    3400    173.36092   -115.90902    0.1568606   -115.75216   -6845.2218    4.3478212    4.3478212    4.3478212   -6845.2218   -4142.8869   -10874.775   -5518.0032   -426.64569     1103.562   -326.96272    82.189253 
    3500     275.5008   -116.00168   0.24927892   -115.75241    1427.3677    4.3397047    4.3397047    4.3397047    1427.3677    6360.4981   -1889.0979   -189.29713   -989.12849   -1125.4198    361.93083     81.72982 
    3600    138.06141   -115.87694   0.12492086   -115.75202    14073.292    4.3337541    4.3337541    4.3337541    14073.292    17303.571     7956.212    16960.093   -716.18582   -859.29634    -1191.279    81.394078 
    3700    224.66926    -115.9552   0.20328547   -115.75192   -8423.4011    4.3455399    4.3455399    4.3455399   -8423.4011   -5802.3796   -9868.7452   -9599.0783    329.30501   -58.725016    152.22418    82.059944 
    3800    278.86628   -116.00411   0.25232407   -115.75179   -8032.5695    4.3459722    4.3459722    4.3459722   -8032.5695   -6170.3407   -9290.1791   -8637.1886    485.56742    731.93802   -478.00014    82.084436 
    3900    202.43403   -115.93427   0.18316657   -115.75111    11271.109    4.3328943    4.3328943    4.3328943    11271.109    14808.787    3738.2333    15266.306     1761.786    1566.6944    -723.9272    81.345639 
    4000    233.45564   -115.96383   0.21123557    -115.7526   -3506.9631    4.3408201    4.3408201    4.3408201   -3506.9631   -1516.3742   -7755.5951   -1248.9201    922.74606    193.64636   -190.84498    81.792854 
    4100    161.17712   -115.89779   0.14583645   -115.75195   -7037.1492    4.3493095    4.3493095    4.3493095   -7037.1492    302.87625   -11901.296   -9513.0283    -728.0368    -547.7181    8.7843051    82.273682 
    4200    274.91328   -116.00005   0.24874731    -115.7513    2868.9754    4.3358655    4.3358655    4.3358655    2868.9754    7998.6394    1130.7444    -522.4575   -905.90807    305.23089   -94.596658      81.5131 
    4300    135.06051   -115.87477   0.12220559   -115.75256    9057.2746    4.3361644    4.3361644    4.3361644    9057.2746    7567.2623    4656.3974    14948.164   -18.305864    2249.2726   -1608.4686    81.529958 
    4400    205.20906   -115.93767   0.18567747   -115.75199   -9873.6245    4.3486081    4.3486081    4.3486081   -9873.6245    -3537.074   -9776.0096    -16307.79    772.83244   -839.97454    910.70303    82.233883 
    4500    238.20302   -115.96771    0.2155311   -115.75218     -1527.69     4.340179     4.340179     4.340179     -1527.69    1653.7556   -1231.6553   -5005.1703    361.68722   -893.68512    912.09574    81.756619 
    4600    161.33173   -115.89745   0.14597634   -115.75147    9385.4751    4.3352099    4.3352099    4.3352099    9385.4751    15667.321    2382.0424    10107.062     1517.369    1292.7616   -872.22147    81.476132 
    4700    182.21975   -115.91692   0.16487626   -115.75204   -4678.9498    4.3445205    4.3445205    4.3445205   -4678.9498   -41.157592   -9611.9856    -4383.706    239.57122     642.0162   -164.82092    82.002209 
    4800    167.10642   -115.90302    0.1512014   -115.75182   -2462.0861    4.3436233    4.3436233    4.3436233   -2462.0861    6631.7797   -6892.0915   -7125.9465   -181.09136   -620.95486   -44.172709    81.951419 
    4900    263.56387   -115.98924   0.23847813   -115.75076   -145.99054    4.3374272    4.3374272    4.3374272   -145.99054     3308.813   -132.21616   -3614.5684   -996.01625   -142.23203    848.59377    81.601209 
    5000     123.1042   -115.86412   0.11138727   -115.75273    2312.8851    4.3398639    4.3398639    4.3398639    2312.8851   -1267.6281   -1936.1265     10142.41    582.63514    2372.5344   -995.86504    81.738813 
    5100    188.15918   -115.92252   0.17025038   -115.75227   -5371.3619    4.3451526    4.3451526    4.3451526   -5371.3619    2162.7929   -7169.0814   -11107.797     1034.178    199.62407    651.11983    82.038005 
    5200    190.69596   -115.92463   0.17254572   -115.75209    1827.2464    4.3398033    4.3398033    4.3398033    1827.2464    4781.9496    642.51748    57.272007    818.24388   -2162.5689    1246.7347    81.735389 
    5300     151.6768   -115.88976   0.13724036   -115.75252    3740.7323    4.3375753    4.3375753    4.3375753    3740.7323    7261.5759   -875.42332    4836.0442    2103.7083    576.64196   -265.04456     81.60957 
    5400    171.26313    -115.9076   0.15496248   -115.75263   -3130.5285    4.3440536    4.3440536    4.3440536   -3130.5285   -1401.1943   -9072.0409    1081.6496   -210.28601    1598.7359    187.26523    81.975775 
    5500    218.32729   -115.94952   0.19754712   -115.75197   -1640.3741     4.342068     4.342068     4.342068   -1640.3741    3734.1236   -4943.4528   -3711.7931   -372.67312    384.57952   -1268.1169    81.863414 
    5600    247.71847   -115.97573   0.22414087   -115.75159   -1193.2306    4.3388385    4.3388385    4.3388385   -1193.2306   -113.30004   -2808.1947   -658.19705   -1410.1401    586.98734    689.88302    81.680889 
    5700     158.0311    -115.8956   0.14298986   -115.75261    55.431993    4.3415751    4.3415751    4.3415751    55.431993   -1511.9299   -5547.5499    7225.7758    1429.0102    1176.3944   -150.28926    81.835542 
    5800    181.84305   -115.91688   0.16453542   -115.75234    310.05306    4.3420123    4.3420123    4.3420123    310.05306     9533.992   -4982.2901   -3621.5427    469.48807   -284.96566    1560.7007    81.860265 
    5900    201.38663   -115.93412   0.18221885    -115.7519    1895.2692    4.3410686    4.3410686    4.3410686    1895.2692    2392.9166   -1078.1271    4371.0182    971.83358   -2689.3539    652.25022    81.806902 
    6000    189.42595   -115.92346   0.17139658   -115.75206   -34.082017    4.3399151    4.3399151    4.3399151   -34.082017   -86.438379   -1749.5626    1733.7549    780.50199    54.561924   -1008.3182    81.741705 
    6100    193.16401   -115.92723   0.17477886   -115.75245   -1355.4871     4.340989     4.340989     4.340989   -1355.4871   -3620.1424   -4235.4002    3789.0812   -13.056948    983.11315    1466.5678      81.8024 
    6200    247.70196   -115.97625   0.22412594   -115.75213   -2226.4572    4.3435956    4.3435956    4.3435956   -2226.4572    1187.0674   -6989.4206   -877.01847   -597.08049    2045.8722   -520.11331    81.949851 
    6300    245.63894   -115.97426   0.22225928     -115.752   -1066.0297    4.3398334    4.3398334    4.3398334   -1066.0297   -1738.0219   -3904.1608    2444.0937   -1583.4103   -113.27292   -284.36972    81.737091 
    6400    171.68606   -115.90818   0.15534515   -115.75283    993.93335    4.3397644    4.3397644    4.3397644    993.93335     1498.682   -4723.4521    6206.5702    1316.1105     -328.848   -1195.2834    81.733192 
    6500     201.4471   -115.93475   0.18227357   -115.75248    151.89812    4.3431412    4.3431412    4.3431412    151.89812    7541.9829   -6857.3308    -228.9577    1164.3157   -1375.9423    1453.0667    81.924129 
    6600    225.60831   -115.95603   0.20413514    -115.7519    1778.6331    4.3414802    4.3414802    4.3414802    1778.6331   -2244.8992   -618.08608    8198.8847    1533.6171   -1269.9141    1784.4075    81.830175 
    6700    218.50371   -115.94973   0.19770675   -115.75202   -99.943966    4.3394948    4.3394948    4.3394948   -99.943966   -2699.0482    245.36745    2153.8489   -306.72277    2277.1379   -126.12829    81.717962 
    6800    190.32478   -115.92452   0.17220986   -115.75231    -769.0641    4.3411102    4.3411102    4.3411102    -769.0641   -1334.7558   -1245.8042    273.36777   -489.81182   -455.75991   -40.945279    81.809256 
    6900    243.08934   -115.97156   0.21995234   -115.75161   -1351.7621    4.3434929    4.3434929    4.3434929   -1351.7621    3051.1174   -6335.1746   -771.22915    -1061.131    807.47083   -1238.9124    81.944036 
    7000    229.68132   -115.95951   0.20782048   -115.75169    987.69797    4.3406851    4.3406851    4.3406851    987.69797    2911.1989   -3877.9645    3929.8595   -419.96858    600.56468    574.28868    81.785221 
    7100    174.98712   -115.91081   0.15833202   -115.75248    574.66131    4.3386063    4.3386063    4.3386063    574.66131    4469.6752   -4262.1201    1516.4289    243.15594    547.77719   -124.81746    81.667777 
    7200    226.60693   -115.95715   0.20503871   -115.75211   -3459.0075    4.3436604    4.3436604    4.3436604   -3459.0075    3644.6325   -7624.5348   -6397.1204    311.49559    -1643.372    1006.5087    81.953516 
    7300    233.07828   -115.96275   0.21089412   -115.75186    1012.6499    4.3426277    4.3426277    4.3426277    1012.6499   -2992.4364   -4173.2779    10203.664    843.31028   -1442.0414    526.72679    81.895076 
    7400    237.32765   -115.96678   0.21473905   -115.75205   -62.841062    4.3377515    4.3377515    4.3377515   -62.841062    215.69589    1533.0435   -1937.2626    83.016521    3476.1374    241.73314    81.619515 
    7500    148.30926   -115.88723   0.13419334   -115.75304   -40.120873    4.3417641    4.3417641    4.3417641   -40.120873    4288.8215   -1585.2133   -2823.9708   -912.23191    1361.2153    852.69828    81.846229 
    7600    249.84063   -115.97802   0.22606105   -115.75196   -2526.2172    4.3444131    4.3444131    4.3444131   -2526.2172    81.890598   -6653.3495   -1007.1926   -2136.3393    84.824618   -1326.4048    81.996128 
    7700    198.39626   -115.93192    0.1795131    -115.7524    6043.7444     4.338645     4.338645     4.338645    6043.7444     9789.163   -390.25063     8732.321   -650.21365   -990.15258   -769.50826    81.669959 
    7800    192.24279   -115.92625   0.17394531   -115.75231    139.84709    4.3389005    4.3389005    4.3389005    139.84709    3219.0554   -4048.3159    1248.8017     999.6546    1206.3997    43.222415     81.68439 
    7900    239.22972   -115.96814   0.21646007   -115.75168   -7186.8323    4.3446906    4.3446906    4.3446906   -7186.8323   -1126.9248   -9570.4729   -10863.099    1769.9041   -485.31223    839.97955     82.01184 
    8000    240.05954   -115.96921   0.21721091     -115.752    1668.2679    4.3420779    4.3420779    4.3420779    1668.2679   -1193.5632   -5036.1033     11234.47   -245.27945   -1095.2367    370.97641    81.863973 
    8100    242.95937   -115.97168   0.21983474   -115.75185    2344.8756    4.3368442    4.3368442    4.3368442    2344.8756    7216.6649    984.74533   -1166.7835   -157.53177    1211.5573   -619.90281    81.568312 
    8200    126.68131   -115.86795   0.11462392   -115.75332   -1604.2175    4.3423022    4.3423022    4.3423022   -1604.2175    2299.1244   -3736.9812   -3374.7956   -843.66169   -848.61058   -140.30179    81.876665 
    8300    241.74719   -115.97068   0.21873794   -115.75195   -4143.5472    4.3457549    4.3457549    4.3457549   -4143.5472   -2258.2427   -6918.4594   -3253.9395   -666.63993    757.10928   -776.47004    82.072126 
    8400    200.01207   -115.93307   0.18097512    -115.7521    9401.0562    4.3362534    4.3362534    4.3362534    9401.0562    12059.499    2679.9964    13463.673   -965.07078   -920.99666   -580.24305    81.534978 
    8500    201.45328   -115.93502   0.18227916   -115.75274   -1377.6505    4.3396989    4.3396989    4.3396989   -1377.6505   -593.72106   -3295.6331   -243.59722    40.039355    959.33352    773.06094    81.729492 
    8600    235.61909   -115.96509   0.21319311    -115.7519   -10219.583    4.3474095    4.3474095    4.3474095   -10219.583   -8130.2496   -12378.004   -10150.495    913.41661   -353.03274    742.87379    82.165904 
    8700    223.87467   -115.95443   0.20256651   -115.75186    5480.9844    4.3389238    4.3389238    4.3389238    5480.9844    1029.8582    -2216.021    17629.116    687.52463   -980.79397     895.4555    81.685705 
    8800    226.67439   -115.95674   0.20509975   -115.75164    3801.2958    4.3369119    4.3369119    4.3369119    3801.2958    7965.7257    113.56682    3324.5948    352.27391    1545.1945    -449.1251    81.572127 
    8900    112.96402   -115.85467   0.10221222   -115.75246   -4913.0929    4.3459354    4.3459354    4.3459354   -4913.0929   -6003.6305   -8152.8768   -582.77135   -1369.8862   -899.15417   -32.077052    82.082353 
    9000    212.40305   -115.94428   0.19218674    -115.7521   -2233.1706     4.342659     4.342659     4.342659   -2233.1706   -2713.6521   -2498.6255   -1487.2342   -1079.8557    692.08554    -937.2411    81.896848 
    9100    190.61541   -115.92396   0.17247283   -115.75149    8811.8651    4.3360111    4.3360111    4.3360111    8811.8651    6987.4387    5199.8138    14248.343    -1274.141    952.42059    255.57872    81.521312 
    9200    151.35552   -115.88963   0.13694966   -115.75268   -4331.8319     4.342986     4.342986     4.342986   -4331.8319   -7975.5045   -4971.0422   -48.949155    1221.9775    956.44642    1476.8266     81.91535 
    9300    207.74134   -115.93995   0.18796873   -115.75198   -10379.993    4.3458674    4.3458674    4.3458674   -10379.993   -14441.487   -10197.093   -6501.3999    791.85039    -1532.163    -95.76157    82.078499 
    9400    171.08406   -115.90647   0.15480045   -115.75167    7709.8906    4.3371558    4.3371558    4.3371558    7709.8906    1227.2919    998.80708    20903.573    1162.2155    -1510.696   -130.22517    81.585893 
    9500    219.79542   -115.95111   0.19887552   -115.75224    -960.3901    4.3395745    4.3395745    4.3395745    -960.3901    1104.1551   -3862.6772   -122.64816    404.74368    943.46467   -710.66668    81.722464 
    9600    81.190592   -115.82628  0.073462954   -115.75281   -4400.6913    4.3466066    4.3466066    4.3466066   -4400.6913   -8146.9119   -8842.5643    3787.4021   -777.02356   -399.39631    386.51733    82.120392 
    9700    186.40402   -115.92075   0.16866228   -115.75209    1288.0986      4.33966      4.33966      4.33966    1288.0986    -725.9973    848.37781    3741.9152    -1307.862    1871.0329   -362.67774    81.727294 
    9800    167.23131   -115.90286    0.1513144   -115.75154    7197.9202    4.3373089    4.3373089    4.3373089    7197.9202    1860.4623    4598.7394    15134.559   -1259.3083     1001.669    736.96416     81.59453 
    9900    114.33102    -115.8557   0.10344911   -115.75225   -3935.0302    4.3453656    4.3453656    4.3453656   -3935.0302   -11271.678   -3994.4483    3461.0353    555.94703    1164.0645    1507.7496    82.050072 
   10000    205.50615   -115.93816   0.18594628   -115.75221   -7220.9945    4.3426595    4.3426595    4.3426595   -7220.9945   -12701.179   -6027.2324   -2934.5716    545.42731   -1994.2624    607.50375    81.896875 
   10100    156.92844   -115.89366   0.14199215   -115.75167    6484.6825    4.3377357    4.3377357    4.3377357    6484.6825    315.49296    2234.4068    16904.148    1366.0662   -1609.5738    109.67068    81.618623 
   10200    234.03891   -115.96338   0.21176333   -115.75162   -5546.0826    4.3428189    4.3428189    4.3428189   -5546.0826   -4267.4908   -7693.3062   -4677.4508    422.01563    2059.5982   -284.61917    81.905894 
   10300    81.545375   -115.82651  0.073783969   -115.75272   -1566.8931    4.3438376    4.3438376    4.3438376   -1566.8931   -4195.4003     -8303.53     7798.251    180.10098    481.59565     775.9087    81.963546 
   10400    200.27522    -115.9332   0.18121323   -115.75199    732.96537    4.3398035    4.3398035    4.3398035    732.96537   -1205.3435   -1972.8162    5377.0558   -1225.0572    1403.9112   -37.183929    81.735399 
   10500    196.24831   -115.92936   0.17756959   -115.75179    3424.0137    4.3395508    4.3395508    4.3395508    3424.0137    341.78961   -332.12777    10262.379   -966.37044    146.76806    1486.6465    81.721125 
   10600    152.39511   -115.89046    0.1378903   -115.75257   -2186.7726    4.3440866    4.3440866    4.3440866   -2186.7726   -7559.6294   -3515.2877    4514.5995   -354.14629     270.9751    492.20694    81.977644 
   10700     244.4957   -115.97347   0.22122484   -115.75225   -5099.3961    4.3419575    4.3419575    4.3419575   -5099.3961   -8283.0926   -4989.3866   -2025.7091    93.047976   -2605.5839   -990.73576    81.857168 
   10800    181.65647    -115.9165    0.1643666   -115.75214    6595.9246    4.3384198    4.3384198    4.3384198    6595.9246    1950.0067    1053.8747    16783.893    2085.6993   -197.35635   -1146.3805    81.657242 
   10900    282.32153   -116.00724   0.25545046   -115.75179   -4493.9769    4.3430123    4.3430123    4.3430123   -4493.9769   -1910.2401   -9247.2414   -2324.4493    1253.1969    1400.2535    139.60075     81.91684 
   11000     138.4175   -115.87802   0.12524306   -115.75277    899.37614     4.342548     4.342548     4.342548    899.37614    2333.9415   -7182.6581     7546.845     371.6455    1578.5776   -190.66768    81.890568 
   11100    260.35762   -115.98781   0.23557705   -115.75224    171.24821    4.3398514    4.3398514    4.3398514    171.24821    4781.4721   -5150.7806     883.0531   -1839.6053    648.88227   -266.36073    81.738107 
   11200    259.02582   -115.98626   0.23437201   -115.75189    1983.0433    4.3406935    4.3406935    4.3406935    1983.0433    2751.5661   -2672.2209    5869.7846   -841.83465   -698.44503    289.08966      81.7857 
   11300    191.69491   -115.92607   0.17344958   -115.75262    153.91952    4.3423846    4.3423846    4.3423846    153.91952   -1625.6207   -2406.4105    4493.7898   -444.33262    68.225034   -215.38981    81.881327 
   11400    274.01796   -116.00034   0.24793721    -115.7524   -4235.4367    4.3424563    4.3424563    4.3424563   -4235.4367   -4469.1182   -6400.1129    -1837.079    507.31446   -978.65383   -802.42515    81.885382 
   11500    205.83846   -115.93843   0.18624696   -115.75218    6984.0265    4.3388609    4.3388609    4.3388609    6984.0265    2662.2294    1871.1296     16418.72    676.65353    502.39424   -611.79969    81.682151 
   11600    318.81552   -116.04043   0.28847098   -115.75196   -3867.8618      4.34162      4.34162      4.34162   -3867.8618   -408.00319   -8067.1165   -3128.4657    1271.0961    663.40523    925.22978    81.838081 
   11700    159.71066   -115.89769   0.14450956   -115.75318   -314.12439    4.3443077    4.3443077    4.3443077   -314.12439    1899.2964   -9607.0054    6765.3359    1143.6989   -589.74479     361.2669    81.990162 
   11800    269.71719   -115.99632   0.24404578   -115.75228    621.50138    4.3389378    4.3389378    4.3389378    621.50138    5176.0232   -5923.2885    2611.7694   -499.91829   -909.78509    -707.6583    81.686499 
   11900    264.80258    -115.9914   0.23959894    -115.7518     1746.023    4.3400315    4.3400315    4.3400315     1746.023    1192.9284   -4719.8696    8765.0102    -317.4952   -934.63785   -194.81686    81.748284 
   12000    184.43465   -115.91938   0.16688034    -115.7525   -2650.0118    4.3446819    4.3446819    4.3446819   -2650.0118    -3994.693   -7009.3038    3053.9613   -1697.7332   -1199.7331   -804.23971    82.011346 
   12100    268.01064   -115.99485   0.24250166   -115.75235   -4007.9903    4.3409811    4.3409811    4.3409811   -4007.9903   -3335.0582   -4058.1657   -4630.7471   -68.401343    -526.1034    -1393.202    81.801954 
   12200    176.98939   -115.91247   0.16014372   -115.75232    7967.1345    4.3383423    4.3383423    4.3383423    7967.1345    3070.6739     3984.486    16846.243    1274.3439     102.9636   -59.520639     81.65287 
   12300    286.25581   -116.01087   0.25901027   -115.75186    -6019.282    4.3434963    4.3434963    4.3434963    -6019.282   -5138.5042   -7955.6733   -4963.6684    2122.2702   -174.00826    1048.6348    81.944226 
   12400    111.18027   -115.85381   0.10059824   -115.75321    2215.7388    4.3430372    4.3430372    4.3430372    2215.7388     2418.976    -5298.614    9526.8543    754.54977   -1953.7305   -390.12349    81.918247 
   12500    225.42183   -115.95578   0.20396641   -115.75181     3015.411    4.3382868    4.3382868    4.3382868     3015.411    4564.0612   -3955.0493    8437.2211   -557.38163   -420.23617   -729.17434    81.649737 
   12600    236.41019   -115.96557   0.21390891   -115.75166   -760.46223    4.3411345    4.3411345    4.3411345   -760.46223   -4368.7549   -4221.3144    6308.6827   -421.87964    99.879707   -565.70727     81.81063 
   12700    147.82495    -115.8862   0.13375512   -115.75244   -3170.8237    4.3452713    4.3452713    4.3452713   -3170.8237   -7337.6043   -7845.1083    5670.2414   -1026.7982    706.43234   -610.49404    82.044732 
   12800    226.52636    -115.9571   0.20496581   -115.75214   -2191.3848    4.3389324    4.3389324    4.3389324   -2191.3848   -4709.2727   -1013.6431   -851.23855   -141.88922   -1011.8465    437.40897    81.686195 
   12900    116.32961   -115.85775   0.10525747   -115.75249      6257.91    4.3392554    4.3392554    4.3392554      6257.91   -3999.7235     4490.037    18283.416   -248.48624   -852.10911    749.00279    81.704437 
   13000    235.56531    -115.9648   0.21314444   -115.75165   -9223.3362     4.345986     4.345986     4.345986   -9223.3362   -13113.496   -8716.5862   -5839.9262    1783.6658   -276.29924    1350.8879    82.085221 
   13100     60.73679   -115.80813  0.054955924   -115.75318    3636.8514    4.3399353    4.3399353    4.3399353    3636.8514    3464.8136    394.33159    7051.4089    1176.1511   -3180.6291   -334.47942    81.742846 
   13200    184.40917   -115.91887   0.16685729   -115.75201    978.77195    4.3391245    4.3391245    4.3391245    978.77195    500.47239    -3343.228    5779.0715    1018.6176    476.04105   -989.18349     81.69704 
   13300    195.65517   -115.92883   0.17703291    -115.7518   -3343.0458    4.3435665    4.3435665    4.3435665   -3343.0458   -7607.4541   -6573.6355    4151.9522   -220.42251    599.69296    143.26054    81.948199 
   13400    126.39181   -115.86674   0.11436196   -115.75238   -1245.7854    4.3426475    4.3426475    4.3426475   -1245.7854   -6480.8928   -6792.7114    9536.2481   -1289.3871    568.65887   -898.17634    81.896197 
   13500     204.0111   -115.93644   0.18459353   -115.75184   -1781.8626    4.3396857    4.3396857    4.3396857   -1781.8626   -5533.4631   -3092.0265    3279.9018   -635.64684   -1558.6029    171.27973    81.728747 
   13600    132.84918   -115.87224   0.12020473   -115.75203    3321.8066    4.3411298    4.3411298    4.3411298    3321.8066   -5594.2083     341.6919    15217.936   -42.512078   -480.68419    94.355928     81.81036 
   13700    238.93821   -115.96759   0.21619632    -115.7514   -6625.9199    4.3441344    4.3441344    4.3441344   -6625.9199   -10302.271   -5536.7357   -4038.7529    1413.3886   -607.93424    683.71879    81.980348 
   13800     65.88621   -115.81272  0.059615228    -115.7531    4784.0443    4.3401503    4.3401503    4.3401503    4784.0443    6225.0278    143.91399    7983.1912    1216.6388   -404.54994    -2312.355    81.754995 
   13900    176.56417   -115.91249   0.15975897   -115.75273    960.79654    4.3396848    4.3396848    4.3396848    960.79654   -259.43049   -2508.2264    5650.0466    1850.9336    1038.0786   -817.01265    81.728693 
   14000    202.10354   -115.93474   0.18286753   -115.75187   -1886.6902    4.3439416    4.3439416    4.3439416   -1886.6902   -4355.3185   -5267.3518    3962.5996    80.331699    969.06907   -259.26261    81.969434 
   14100    168.14247   -115.90422   0.15213884   -115.75208   -1185.8024    4.3416196    4.3416196    4.3416196   -1185.8024   -3529.8362   -7002.5145    6974.9436    -968.0842    471.04078    -492.3827    81.838057 
   14200    244.79528   -115.97334   0.22149592   -115.75184   -4016.6364     4.340197     4.340197     4.340197   -4016.6364   -4235.6523   -4662.5503   -3151.7066   -1302.8108   -2825.7491    871.26112    81.757634 
   14300    188.40892   -115.92286   0.17047635   -115.75239    2232.4586     4.341877     4.341877     4.341877    2232.4586   -5247.8461   -3505.7439    15450.966   -72.486457    192.08094   -191.03682     81.85261 
   14400    275.07256   -116.00106   0.24889144   -115.75217   -3691.2746     4.342508     4.342508     4.342508   -3691.2746   -4075.8534   -5785.3132   -1212.6574    928.49535    349.31794    122.40816    81.888306 
   14500     124.5837   -115.86614   0.11272595   -115.75341    4764.8595    4.3411359    4.3411359    4.3411359    4764.8595    4617.6331   -2374.8518    12051.797    740.57452    788.50217   -1657.4393    81.810709 
   14600    208.76525   -115.94162   0.18889518   -115.75272    3348.1661    4.3393818    4.3393818    4.3393818    3348.1661    5971.1946   -2696.7046    6770.0083    1518.5942    426.64547   -341.50999    81.711579 
   14700    253.03578   -115.98066   0.22895209   -115.75171   -962.84503    4.3430956    4.3430956    4.3430956   -962.84503    593.46797   -4899.8861     1417.883    1151.7184    1388.5173   -50.047328    81.921553 
   14800    207.12968   -115.93995   0.18741529   -115.75253   -501.56428     4.342597     4.342597     4.342597   -501.56428   -437.14813   -8082.0425    7014.4978    733.34784   -623.08776    -906.1963    81.893338 
   14900    277.35094   -116.00319   0.25095296   -115.75223   -2295.7736    4.3388687    4.3388687    4.3388687   -2295.7736    1659.7309   -5861.7389   -2685.3128   -828.93476   -832.12128   -173.62368    81.682595 
   15000    231.39891   -115.96139    0.2093746   -115.75201    310.40352    4.3424507    4.3424507    4.3424507    310.40352   -3947.3423   -7876.0513    12754.604    -918.3612    141.45574   -148.66546    81.885062 
   15100    304.50429   -116.02707   0.27552188   -115.75155   -5814.6183    4.3444528    4.3444528    4.3444528   -5814.6183   -2076.1576   -10546.265    -4821.432    -981.1132    466.68967   -340.04159    81.998374 
   15200    182.67763   -115.91783   0.16529056   -115.75254    4279.1923    4.3386214    4.3386214    4.3386214    4279.1923    7890.8552   -3215.8075    8162.5293     1715.305    827.53072   -1936.2641    81.668627 
   15300    211.06343   -115.94398   0.19097463     -115.753    3191.7699    4.3401493    4.3401493    4.3401493    3191.7699    5555.6013   -3248.4447    7268.1531    2532.6147   -263.45147    82.156347    81.754942 
   15400    273.84366   -116.00001   0.24777949   -115.75223   -2275.5755    4.3443189    4.3443189    4.3443189   -2275.5755    738.63984   -6079.1262   -1486.2402    1033.7195   -517.64325    595.04248    81.990792 
   15500    185.32153   -115.92063   0.16768282   -115.75294     4457.479     4.340852     4.340852     4.340852     4457.479    1344.1902   -3344.7996    15373.046   -486.22832   -853.56222   -418.71231    81.794655 
   15600    270.90929    -115.9972   0.24512442   -115.75208   -767.47641    4.3381415    4.3381415    4.3381415   -767.47641   -1162.5481   -1466.4408    326.55965   -31.774478   -241.03983    786.76895    81.641531 
   15700    211.55832   -115.94336   0.19142241   -115.75193   -1576.1261    4.3443966    4.3443966    4.3443966   -1576.1261   -4477.9094    -8775.965    8525.4961    262.80622    128.35294   -501.25164    81.995193 
   15800    292.89677   -116.01688   0.26501915   -115.75186   -4477.0261    4.3431793    4.3431793    4.3431793   -4477.0261   -1713.9997   -8667.7039   -3049.3748   -891.79614   -685.00268     225.2985    81.926285 
   15900    165.85735   -115.90301   0.15007122   -115.75294    5361.6366    4.3364414    4.3364414    4.3364414    5361.6366    7088.3342   -1701.0158    10697.591   -356.96779   -832.44439   -55.181956    81.545584 
   16000    173.67965   -115.91038   0.15714899   -115.75323   -1938.2641    4.3437887    4.3437887    4.3437887   -1938.2641   -1132.6429   -7321.8852    2639.7358    1089.9941    420.80203    866.66385    81.960776 
   16100    249.23135   -115.97745   0.22550976   -115.75194   -3804.8065    4.3442865    4.3442865    4.3442865   -3804.8065   -3351.7183   -6645.7042   -1416.9969    2755.1462   -133.16087    324.83946    81.988961 
   16200    146.64252   -115.88476   0.13268523   -115.75208    7277.6599    4.3376159    4.3376159    4.3376159    7277.6599     2888.887    2763.8159    16180.277     1039.632   -39.077021   -823.96325     81.61186 
   16300    224.69136   -115.95527   0.20330546   -115.75197   -4725.7918    4.3414859    4.3414859    4.3414859   -4725.7918   -10315.267   -3048.5622   -813.54669    245.49752    371.70093    260.88947    81.830495 
   16400    156.63126   -115.89367   0.14172326   -115.75195    -1696.102    4.3444676    4.3444676    4.3444676    -1696.102   -8271.6071   -5753.8135    8937.1145    -1038.576    614.26496   -720.88194    81.999214 
   16500    233.04744   -115.96259   0.21086622   -115.75172    942.69997     4.340494     4.340494     4.340494    942.69997    1771.8934   -4182.2949    5238.5014   -932.89131   -1805.0445   -70.594986    81.774423 
   16600    134.80666   -115.87431    0.1219759   -115.75233    3200.5254     4.338774     4.338774     4.338774    3200.5254    825.51661   -4051.5462    12827.606    377.95883   -732.28228   -524.69107    81.677245 
   16700    147.05808   -115.88547   0.13306124   -115.75241   -4837.9561    4.3440059    4.3440059    4.3440059   -4837.9561   -5415.5712   -7698.2332   -1400.0639    760.82569    682.17388    1457.0197    81.973075 
   16800    224.55752   -115.95499   0.20318437   -115.75181   -3392.9941    4.3435269    4.3435269    4.3435269   -3392.9941   -1554.9299   -6337.0523   -2286.9999    1104.1671    1928.1283    -488.2242    81.945958 
   16900    119.69048   -115.86064   0.10829846   -115.75235    6953.2159    4.3368003    4.3368003    4.3368003    6953.2159   -773.35124    3398.0713    18234.928    880.07702   -1575.1765   -577.73287    81.565834 
   17000     193.4476   -115.92756   0.17503545   -115.75253     -7388.01    4.3436224    4.3436224    4.3436224     -7388.01   -13346.032   -3879.6452   -4938.3528     1134.103   -462.56994   -223.29807    81.951366 
   17100    120.78362   -115.86179   0.10928756   -115.75251   -196.64621    4.3442451    4.3442451    4.3442451   -196.64621   -6630.5194   -2369.4888    8410.0695   -1225.3573    213.28373   -288.66178    81.986614 
   17200    217.82653   -115.94869   0.19709402    -115.7516    3430.3154    4.3380326    4.3380326    4.3380326    3430.3154      3932.08    1070.6015    5288.2648   -1725.8987   -981.54902    49.382824    81.635381 
   17300    123.02877    -115.8637   0.11131901   -115.75238    2256.0632    4.3413097    4.3413097    4.3413097    2256.0632     141.9109   -5158.8136    11785.092   -882.49823    -721.8278    521.77057    81.820534 
   17400    147.12982   -115.88552   0.13312615    -115.7524   -4571.7916    4.3436539    4.3436539    4.3436539   -4571.7916   -5492.3354   -7753.2914   -469.74797    1092.5525    2052.8683     1126.939     81.95315 
   17500    232.41836   -115.96208   0.21029702   -115.75178   -1607.1434    4.3417042    4.3417042    4.3417042   -1607.1434    286.80973   -5688.8967    580.65667    1294.7816    2468.4046   -1059.8506    81.842843 
   17600    159.40406   -115.89613   0.14423215    -115.7519    5135.1107    4.3393061    4.3393061    4.3393061    5135.1107   -852.31756   -1750.0173    18007.667    739.31394   -1447.2014   -187.82967    81.707301 
   17700    204.50882   -115.93719   0.18504387   -115.75215   -7355.3337    4.3422211    4.3422211    4.3422211   -7355.3337   -10118.181   -5604.8174    -6343.003    1404.9595   -686.19917   -352.62657    81.872078 
   17800    146.84936   -115.88529   0.13287239   -115.75242   -2133.6087    4.3447424    4.3447424    4.3447424   -2133.6087   -3616.7578   -2709.3548   -74.713362   -414.04566    4.9629009    616.00137    82.014778 
   17900    224.68487     -115.955   0.20329959    -115.7517    4272.7224    4.3384412    4.3384412    4.3384412    4272.7224    8114.5466    354.98052      4348.64   -1156.7584    961.66805   -416.77739    81.658452 
   18000     144.8674   -115.88397   0.13107907   -115.75289    3724.4698    4.3395208    4.3395208    4.3395208    3724.4698    4389.0733   -2052.3349    8836.6712    -1684.776   -159.85301    1153.2932    81.719428 
   18100    165.59561   -115.90252   0.14983439   -115.75269   -5138.5365    4.3465331    4.3465331    4.3465331   -5138.5365   -3464.1265   -10219.916   -1731.5667   -43.534572    1087.6495    593.17071    82.116224 
   18200    283.01125   -116.00758   0.25607453    -115.7515    -381.5499    4.3393599    4.3393599    4.3393599    -381.5499    2910.0841   -3368.8889   -685.84491    766.73325    1866.8823   -805.50243    81.710337 
   18300    198.97354   -115.93184   0.18003544   -115.75181     6845.976    4.3384813    4.3384813    4.3384813     6845.976    3718.3057    -2686.454    19506.076    1704.1754    -375.5596    41.453432     81.66072 
   18400    246.45254   -115.97534   0.22299543   -115.75234   -8622.3326    4.3451881    4.3451881    4.3451881   -8622.3326    -6718.584   -10517.377   -8631.0365    363.62953   -524.38355    182.97267     82.04002 
   18500    168.79619   -115.90572   0.15273034   -115.75299   -344.65012    4.3421626    4.3421626    4.3421626   -344.65012    372.44591   -2848.7265    1442.3302   -987.15197    1341.5687     1085.467    81.868768 
   18600    252.41572   -115.98005   0.22839105   -115.75166    5189.5381    4.3383216    4.3383216    4.3383216    5189.5381    9571.9087    1098.4821    4898.2236   -1384.2292    757.96179    180.33193    81.651698 
   18700    153.26502   -115.89166   0.13867741   -115.75298    2704.0559    4.3412266    4.3412266    4.3412266    2704.0559    5656.8662   -2817.1282    5272.4296   -547.36319    1831.9095    876.59115    81.815836 
   18800    204.34317   -115.93731   0.18489399   -115.75241   -7371.5335    4.3456291    4.3456291    4.3456291   -7371.5335   -5964.1276   -7733.0269   -8417.4461   -332.63367    117.46589    472.70855    82.064998 
   18900    274.08611   -115.99944   0.24799887   -115.75145     851.7423     4.339546     4.339546     4.339546     851.7423    4614.9482   -1755.8501   -303.87118   -345.44063    268.50606   -638.81002    81.720853 
   19000     231.9632   -115.96214   0.20988518   -115.75225    4314.1168    4.3379987    4.3379987    4.3379987    4314.1168    1444.1402   -2575.7746    14073.985    1618.2234   -720.46419    789.91855     81.63347 
   19100    224.61305   -115.95537   0.20323461   -115.75214    -6905.466    4.3466931    4.3466931    4.3466931    -6905.466   -1140.2631   -12377.463   -7198.6717    1086.6098    1943.3729    16.594508    82.125292 
   19200      187.502   -115.92186   0.16965575    -115.7522    2560.4075    4.3407824    4.3407824    4.3407824    2560.4075    4670.7959    -3556.359    6566.7855    158.90606    82.930981    362.31107    81.790723 
   19300    266.37906   -115.99233   0.24102538   -115.75131     4727.833    4.3368485    4.3368485    4.3368485     4727.833    7546.8035    1503.8895     5132.806     -2054.69   -1542.4779    608.03913    81.568554 
   19400    162.04442   -115.89917    0.1466212   -115.75255    922.31406    4.3449378    4.3449378    4.3449378    922.31406    1395.1827   -5348.6396    6720.3991   -527.32352    607.56312    922.49247    82.025839 
   19500    208.89972    -115.9416   0.18901686   -115.75259   -3341.9771    4.3423465    4.3423465    4.3423465   -3341.9771   -4420.5292   -2063.0745   -3542.3276   -451.97429    1746.1562    196.69217    81.879169 
   19600    242.34643   -115.97101   0.21928014   -115.75173    1606.4686    4.3384821    4.3384821    4.3384821    1606.4686   -425.30258    1801.5434     3443.165    633.19741    1330.1867   -1812.2879    81.660762 
   19700    221.32976   -115.95271   0.20026382   -115.75244   -832.75334    4.3421752    4.3421752    4.3421752   -832.75334   -4196.7935   -5189.1064    6887.6398    1103.2816   -1606.2583    1621.5417    81.869481 
   19800    182.28801   -115.91773   0.16493802   -115.75279   -3469.0829     4.343332     4.343332     4.343332   -3469.0829    5082.9415   -7886.4491   -7603.7412    999.15182    2826.0945    534.01595     81.93493 
   19900    202.06269   -115.93541   0.18283057   -115.75258    429.41895    4.3411849    4.3411849    4.3411849    429.41895   -949.66163   -5011.2307    7249.1492    146.24311    1148.7237    408.65216    81.813477 
   20000    251.30361     -115.979   0.22738479   -115.75162   -96.511685    4.3396404    4.3396404    4.3396404   -96.511685    2131.9389   -3731.7304    1310.2565   -1182.2473   -517.80663    430.31255    81.726184 
   20100    183.40383   -115.91805   0.16594764    -115.7521   -456.34157     4.342567     4.342567     4.342567   -456.34157   -2114.7791   -4268.6922    5014.4466    35.002426   -967.22355    102.44668    81.891642 
   20200    190.16492   -115.92429   0.17206522   -115.75222   -171.19991    4.3432639    4.3432639    4.3432639   -171.19991   -2591.9394   -2129.2152    4207.5549   -840.80676    1306.8797    619.56138    81.931075 
   20300    230.14757   -115.95966   0.20824235   -115.75142    2016.5605    4.3388839    4.3388839    4.3388839    2016.5605   -1549.4357    1340.9466    6258.1705    1261.3069    1873.3875   -1458.3839    81.683454 
   20400    174.13947   -115.90969   0.15756505   -115.75212     2017.442    4.3414657    4.3414657    4.3414657     2017.442    465.72926   -2390.6036    7977.2003     1337.016    -45.61401    1448.3105    81.829355 
   20500    173.14841   -115.90934   0.15666832   -115.75267   -920.23082    4.3431011    4.3431011    4.3431011   -920.23082     7247.927   -4434.5105   -5574.1089    1085.1542     361.3082    -247.6376    81.921862 
   20600    184.80633   -115.91963   0.16721666   -115.75242    1323.1039    4.3405415    4.3405415    4.3405415    1323.1039     -2928.32   -3741.3227    10638.954   -198.43313    252.41782    729.41298    81.777104 
   20700    273.40944    -115.9989   0.24738661   -115.75151   -4565.8587    4.3412602    4.3412602    4.3412602   -4565.8587   -5595.9315   -5959.5378   -2142.1067    -966.4219    -1119.526    766.54663    81.817735 
   20800    148.05512   -115.88712   0.13396338   -115.75316   -822.97083    4.3411628    4.3411628    4.3411628   -822.97083    860.56538   -4355.3689     1025.891    242.57026     935.2232    819.05283    81.812227 
   20900    206.63141   -115.93979   0.18696444   -115.75282   -3883.7138    4.3434436    4.3434436    4.3434436   -3883.7138   -5387.3761   -4185.9807   -2077.7847   -558.56004    1330.9791    251.64625    81.941243 
   21000    186.00262   -115.92039   0.16829908   -115.75209    2644.0605    4.3407838    4.3407838    4.3407838    2644.0605    2291.8899   -2060.5882    7700.8799    823.68124    1474.7614   -1900.2016    81.790802 
   21100    164.99559   -115.90147   0.14929147   -115.75218    2059.0716    4.3387165    4.3387165    4.3387165    2059.0716    5204.2691    712.16918    260.77655    1201.4916    -113.7395    2037.0555    81.674001 
   21200     164.3945   -115.90107    0.1487476   -115.75232    -2985.589    4.3445206    4.3445206    4.3445206    -2985.589    2287.0643    -5143.773   -6100.0583    1367.8988    712.70557   -73.227849    82.002212 
   21300    169.86726   -115.90577   0.15369947   -115.75207     2839.907    4.3421545    4.3421545    4.3421545     2839.907    -1557.468   -2086.0682    12163.257   -47.227918   -477.24867    189.14448    81.868309 
   21400    280.39361   -116.00479   0.25370603   -115.75109   -855.53317    4.3377523    4.3377523    4.3377523   -855.53317   -896.92762   -2737.0124    1067.3405   -891.10886   -459.06967     820.1559    81.619562 
   21500    122.37242   -115.86339   0.11072514   -115.75266   -425.85909    4.3430364    4.3430364    4.3430364   -425.85909    5641.4273   -6888.3877    -30.61683   -250.62903    725.52559    216.68132    81.918203 
   21600    218.78393   -115.95024    0.1979603   -115.75228   -4966.4797    4.3439621    4.3439621    4.3439621   -4966.4797   -1549.6226   -7011.2704   -6338.5461    -625.2744   -16.053768    290.91585    81.970595 
   21700    175.89528    -115.9115   0.15915375   -115.75234    6067.5701    4.3389419    4.3389419    4.3389419    6067.5701    10504.221   -2195.3502    9893.8392    1204.5967     868.8528   -1620.2506    81.686728 
   21800    203.21939   -115.93671   0.18387717   -115.75283   -1676.8439    4.3399085    4.3399085    4.3399085   -1676.8439    938.73711   -1593.7344   -4375.5343    1705.1841   -130.06819    1272.6346    81.741335 
   21900     173.0581   -115.90949    0.1565866   -115.75291   -6563.5873    4.3445386    4.3445386    4.3445386   -6563.5873   -2097.6392    -5336.471   -12256.652    646.83513    2236.4562    -435.6228    82.003235 
   22000    189.35016   -115.92412   0.17132801    -115.7528    2625.5467    4.3424261    4.3424261    4.3424261    2625.5467   -2514.0283   -585.70623    10976.375   -448.49966   -628.83485    146.17937    81.883672 
   22100     274.3564   -115.99963   0.24824343   -115.75139    2634.0505    4.3366211    4.3366211    4.3366211    2634.0505    7142.4878    214.90023    544.76342   -1117.4285    123.68813    1339.1195    81.555723 
   22200    129.42432    -115.8699   0.11710585    -115.7528   -1193.7794    4.3433149    4.3433149    4.3433149   -1193.7794    4356.9141   -5527.3353   -2410.9169    358.63985    1818.0411    43.180283    81.933962 
   22300    241.85401   -115.97097   0.21883459   -115.75214   -5746.3701    4.3460777    4.3460777    4.3460777   -5746.3701   -1270.8728   -10315.938   -5652.2997   -296.31996    1001.6215    242.17434    82.090418 
   22400    219.24057   -115.94987   0.19837347   -115.75149    10551.704    4.3356736    4.3356736    4.3356736    10551.704    13999.789    2384.4727     15270.85    520.03943   -912.75956   -796.71798    81.502274 
   22500    246.31747   -115.97494   0.22287323   -115.75207   -1361.4974    4.3405529    4.3405529    4.3405529   -1361.4974   -414.94596   -3926.4191    256.87286    512.96986   -661.38587    824.33534    81.777751 
   22600    211.68723   -115.94355   0.19153905   -115.75201   -9764.2553    4.3475796    4.3475796    4.3475796   -9764.2553   -6629.8422   -9816.1782   -12846.745    682.02589    1789.6785   -223.73551    82.175553 
   22700    188.07307   -115.92314   0.17017246   -115.75297    7040.4888    4.3389358    4.3389358    4.3389358    7040.4888    7017.9581    2552.6452    11550.863   -86.403898    718.26836   -1417.4892    81.686382 
   22800    294.73321    -116.0183    0.2666808   -115.75162    2804.4955    4.3373793    4.3373793    4.3373793    2804.4955    9030.9923   -1222.3817    604.87591   -1757.9755   -1592.8673    1964.0496    81.598504 
   22900    104.68597   -115.84818  0.094722069   -115.75346   -2875.3497    4.3449798    4.3449798    4.3449798   -2875.3497   -407.26008   -5692.0643   -2526.7249   -381.58172     674.2958   -342.97913    82.028218 
   23000    277.08496   -116.00343    0.2507123   -115.75272   -8781.3826    4.3454761    4.3454761    4.3454761   -8781.3826   -6570.6448   -10660.419   -9113.0837   -830.47082    1670.7007   -556.99728    82.056331 
   23100    223.39933   -115.95361    0.2021364   -115.75147    11225.215    4.3347662    4.3347662    4.3347662    11225.215    11905.428    3072.3268    18697.891     1889.359     471.2026   -943.25623    81.451116 
   23200    249.64422   -115.97895   0.22588334   -115.75306   -3504.6095    4.3412309    4.3412309    4.3412309   -3504.6095   -4833.1246   -4958.1629     -722.541    664.53778   -387.81616    809.35309    81.816076 
   23300     201.8588   -115.93499   0.18264608   -115.75235   -10960.666    4.3496408    4.3496408    4.3496408   -10960.666   -13539.947   -12656.907   -6685.1436    39.424199    947.07586    30.804562    82.292486 
   23400    162.68941    -115.8994    0.1472048   -115.75219    11776.317    4.3359726    4.3359726    4.3359726    11776.317    15393.145    5590.5388    14345.268     -986.525    235.85544   -1757.5697    81.519142 
   23500    273.95565   -115.99913   0.24788083   -115.75125    3977.8097    4.3369277    4.3369277    4.3369277    3977.8097    6018.4376    1466.2004    4448.7912   -1032.3029   -51.456534    1759.0716    81.573019 
   23600    82.325246    -115.8267  0.074489612   -115.75221   -4821.0387    4.3491816    4.3491816    4.3491816   -4821.0387   -8417.3141   -6955.2521    909.45017    344.00772    668.58589   -407.04078    82.266428 
   23700     269.0161     -115.996   0.24341142   -115.75259   -5750.3359    4.3413313    4.3413313    4.3413313   -5750.3359   -6757.0659   -4468.3014   -6025.6405    -567.4808   -468.65584     432.5252    81.821756 
   23800    173.51454   -115.90826   0.15699961   -115.75127    12172.276    4.3345265    4.3345265    4.3345265    12172.276    13309.233    5479.5081    17728.087    1135.3391    428.78364   -627.60296    81.437606 
   23900    219.86775   -115.95195   0.19894096   -115.75301   -9467.0567    4.3456362    4.3456362    4.3456362   -9467.0567   -12279.099    -9870.232   -6251.8392    159.90886   -91.572361    214.90109    82.065402 
   24000    148.62801   -115.88753   0.13448174   -115.75305   -8867.2845    4.3469069    4.3469069    4.3469069   -8867.2845   -11587.893   -9612.7516   -5401.2094    1344.7298    1421.2883    153.46798    82.137412 
   24100    134.08262   -115.87313   0.12132077   -115.75181     11612.66    4.3353821    4.3353821    4.3353821     11612.66    15478.709    4478.1977    14881.072   -1303.1408   -1066.5849   -1734.0291    81.485836 
   24200     245.7402   -115.97473    0.2223509   -115.75238   -1290.8513    4.3388965    4.3388965    4.3388965   -1290.8513   -2693.9434   -2231.0785    1052.4681   -770.80437    474.35571     1974.752    81.684167 
   24300    67.260927   -115.81326    0.0608591    -115.7524   -6922.7991    4.3502449    4.3502449    4.3502449   -6922.7991   -18447.089   -7564.1442    5242.8361   -27.693374    1709.1399   -499.49339    82.326776 
   24400    234.73478   -115.96453   0.21239296   -115.75214   -1306.9595    4.3389873    4.3389873    4.3389873   -1306.9595   -2464.7059   -1665.8941    209.72145    467.14458    692.52171   -358.29712    81.689295 
   24500    135.06764   -115.87358   0.12221203   -115.75136    11890.785    4.3343271    4.3343271    4.3343271    11890.785    10869.335    6934.2229    17868.797    1178.6195   -574.09831   -175.84988    81.426364 
   24600    194.92368   -115.92795   0.17637104   -115.75158   -11759.771    4.3494905    4.3494905    4.3494905   -11759.771   -14988.012   -13732.084   -6559.2173   -23.467982    206.98903   -289.52505    82.283955 
   24700    130.75832   -115.87136   0.11831288   -115.75305    -3468.852    4.3433693    4.3433693    4.3433693    -3468.852   -4925.2259   -4935.1943   -546.13586    853.56717    1662.1225   -511.01394    81.937042 
   24800    155.80283    -115.8923   0.14097367   -115.75132    11535.281    4.3338326    4.3338326    4.3338326    11535.281     16561.14    5284.9428     12759.76   -1056.8252    -307.5352   -2174.8854    81.398502 
   24900    250.78855   -115.97855   0.22691875   -115.75163   -6920.2309     4.344717     4.344717     4.344717   -6920.2309   -8794.9699   -7203.5147   -4762.2083   -170.97254    825.48537    1475.7003    82.013335 
   25000    99.690162   -115.84236  0.090201754   -115.75216   -6548.6787    4.3469939    4.3469939    4.3469939   -6548.6787   -14781.413   -5641.5361    776.91348   -610.89363    1178.4496   -398.26107    82.142343 
   25100    224.33164   -115.95502   0.20297998   -115.75204    2830.6872    4.3374508    4.3374508    4.3374508    2830.6872    5924.5758    898.25238    1669.2336    879.88299    109.72579   -601.83499    81.602544 
   25200    156.24351   -115.89375   0.14137241   -115.75238    8877.4669    4.3379246    4.3379246    4.3379246    8877.4669     8545.101    2721.1085    15366.191    469.39547   -1853.4467    802.74554    81.629283 
   25300    194.93544   -115.92808   0.17638168    -115.7517   -9834.4428    4.3481441    4.3481441    4.3481441   -9834.4428   -8817.7571   -13053.357   -7632.2147    750.29597     552.5881   -737.36245    82.207564 
   25400    167.53883   -115.90513   0.15159265   -115.75354   -755.85593    4.3423435    4.3423435    4.3423435   -755.85593   -4197.4198   -3753.1622    5683.0143    397.50895    1480.3128   -283.57107    81.879002 
   25500    211.26531   -115.94282   0.19115729   -115.75167    9708.3411    4.3340781    4.3340781    4.3340781    9708.3411    15251.376    1085.5119    12788.135   -1753.4062    153.93012   -2358.3745    81.412331 
   25600    269.79341   -115.99519   0.24411474   -115.75107   -8546.9544    4.3468372    4.3468372    4.3468372   -8546.9544   -12240.707   -10292.642   -3107.5133    313.58304    47.348806    904.53319     82.13346 
   25700    143.38599   -115.88219   0.12973865   -115.75245   -4695.0032    4.3460299    4.3460299    4.3460299   -4695.0032   -5407.7003   -8819.4381    142.12887   -362.09223    1689.6229   -312.66007    82.087709 
   25800    223.67046   -115.95385   0.20238174   -115.75146    6572.0875    4.3343184    4.3343184    4.3343184    6572.0875     14695.47    3040.1032    1980.6888    1477.8324   -744.02878   -1409.8654    81.425878 
   25900    197.03828   -115.93015   0.17828437   -115.75187    3909.2756    4.3425769    4.3425769    4.3425769    3909.2756    5673.6407    -3922.633     9976.819   -617.43329   -1559.8687    1228.2326    81.892202 
   26000    217.91831   -115.94866   0.19717706   -115.75148    -8950.785    4.3478547    4.3478547    4.3478547    -8950.785   -3844.3769   -10375.943   -12632.035    651.20191    468.11221   -1405.0611     82.19115 
   26100    202.25307   -115.93563   0.18300283   -115.75263    1853.7733    4.3376119    4.3376119    4.3376119    1853.7733    1677.1332    962.18988     2921.997   -89.607663    1857.8703   -591.74271    81.611633 
   26200    241.76901   -115.97086   0.21875768    -115.7521    4741.0401     4.339376     4.339376     4.339376    4741.0401    10064.669   -3484.5589    7643.0106   -507.98448    438.86082   -1701.2011    81.711249 
   26300    254.95627   -115.98227   0.23068979   -115.75158   -5992.5818    4.3465394    4.3465394    4.3465394   -5992.5818   -3988.5913    -10143.47   -3845.6844   -207.05127   -224.39006    713.74382     82.11658 
   26400    177.58215   -115.91401   0.16068006   -115.75333   -549.97886    4.3421405    4.3421405    4.3421405   -549.97886    2617.4278   -6299.1374     2031.773   -899.74073    1646.5319   -428.62214    81.867514 
   26500    214.27349   -115.94583   0.19387916   -115.75195    5848.7756    4.3365928    4.3365928    4.3365928    5848.7756    13832.535    1756.4323    1957.3598    840.32645    357.63045   -1333.6016    81.554124 
   26600    233.83536   -115.96319   0.21157914   -115.75161   -1122.6061    4.3444414    4.3444414    4.3444414   -1122.6061   -2874.7422   -8534.1795    8041.1035   -1295.9409   -465.30288    1874.2646    81.997733 
   26700    235.31895   -115.96512   0.21292153    -115.7522    -5243.263    4.3456255    4.3456255    4.3456255    -5243.263   -970.59099   -6567.6735   -8191.5246    1298.9329    92.873116   -1105.0655    82.064797 
   26800    183.51649   -115.91787   0.16604958   -115.75182    4400.2352    4.3362939    4.3362939    4.3362939    4400.2352    6365.4326    2287.1491    4548.1237    -1682.851    2041.2357   -693.32267     81.53726 
   26900    245.71382   -115.97411   0.22232703   -115.75179    -1185.674    4.3424746    4.3424746    4.3424746    -1185.674    4386.7617    -6751.764   -1192.0198   -1377.6909    429.88506   -1320.9167    81.886418 
   27000    207.67164   -115.93962   0.18790566   -115.75171   -1560.1503    4.3465086    4.3465086    4.3465086   -1560.1503    5914.7108   -10301.069   -294.09228    195.77341    875.26884    944.34695    82.114833 
   27100    214.94433   -115.94674   0.19448615   -115.75226     1497.879     4.337579     4.337579     4.337579     1497.879    5676.7525   -1224.1786    41.062957    592.19836    469.88801   -675.23904    81.609778 
   27200    206.77917   -115.93941   0.18709814   -115.75231    23.535131     4.340853     4.340853     4.340853    23.535131    6339.6855   -4717.8647   -1551.2154    960.39331   -126.78774   -1983.6564    81.794716 
   27300    262.93901   -115.98973   0.23791275   -115.75181   -4476.8772    4.3462456    4.3462456    4.3462456   -4476.8772   -7141.7019   -9772.9238     3483.994   -1625.3769   -361.12882    1142.6203    82.099931 
   27400    215.00224   -115.94727   0.19453854   -115.75273    2254.6259    4.3396342    4.3396342    4.3396342    2254.6259    10541.695   -2348.8001   -1429.0171    170.68861    790.41087   -789.56101    81.725834 
   27500    141.36019   -115.88093   0.12790567   -115.75302    3728.0028    4.3396971    4.3396971    4.3396971    3728.0028    4679.4917   -988.88028    7493.3969   -1167.6749   -225.88344   -1026.9758    81.729388 
   27600    256.31663   -115.98364   0.23192067   -115.75172     -6184.23    4.3453743    4.3453743    4.3453743     -6184.23   -3117.1713    -9476.276   -5959.2427   -249.58426   -178.30223   -1188.5013    82.050566 
   27700    183.09471   -115.91805   0.16566794   -115.75238    4344.5062    4.3413254    4.3413254    4.3413254    4344.5062    8404.4766   -3395.2011    8024.2429   -752.47415    1389.4238   -134.00122    81.821422 
   27800    230.35375   -115.96044   0.20842892   -115.75201   -234.29577    4.3389519    4.3389519    4.3389519   -234.29577   -667.94922   -2203.9526    2169.0146    321.44137    2280.9333   -688.42011    81.687296 
   27900    194.60529   -115.92822   0.17608295   -115.75214   -5269.6802    4.3447938    4.3447938    4.3447938   -5269.6802    -4308.331   -9111.7756   -2388.9341   -215.76466   -937.66283   -866.74752    82.017688 
   28000    223.83751   -115.95436   0.20253288   -115.75182    -322.4522    4.3433589    4.3433589    4.3433589    -322.4522    2007.0449   -6749.4258    3775.0242   -779.58895   -2070.8139    1037.0588     81.93645 
   28100    197.56969   -115.93094    0.1787652   -115.75217    4717.7794    4.3378377    4.3378377    4.3378377    4717.7794    14700.308   -899.38854    352.41827    2.1578765    1529.0938    -1404.665    81.624382 
   28200    106.96217   -115.84995  0.096781617   -115.75317    238.89556    4.3432427    4.3432427    4.3432427    238.89556   -1840.9537   -3296.0938    5853.7342   -1472.5565    490.06765   -1203.8703    81.929878 
   28300    287.68694   -116.01216   0.26030519   -115.75185   -8839.6846    4.3456084    4.3456084    4.3456084   -8839.6846    -10391.25   -9476.6364   -6651.1675   -562.52252    707.07637    410.73511    82.063824 
   28400    134.74356    -115.8744   0.12191881   -115.75248    9332.3363    4.3372623    4.3372623    4.3372623    9332.3363    13530.972    5057.9652    9408.0722    1030.4144   -669.99177   -59.284234    81.591903 
   28500    212.45275   -115.94481   0.19223171   -115.75258   -4845.0844     4.342583     4.342583     4.342583   -4845.0844    -6896.872   -5708.5285   -1929.8527         1477    2364.7105   -845.88587    81.892547 
   28600    140.15361   -115.87926   0.12681393   -115.75244   -3933.0748    4.3464368    4.3464368    4.3464368   -3933.0748   -3619.2093   -10482.442    2302.4272    9.3434487   -549.83273   -1296.2583    82.110766 
   28700    184.84667   -115.91902   0.16725315   -115.75177    5040.6631    4.3383727    4.3383727    4.3383727    5040.6631    10406.178   -593.10226    5308.9139   -253.04779    -1443.873     915.2476    81.654585 
   28800     199.6048    -115.9328   0.18060662   -115.75219   -907.69254    4.3403454    4.3403454    4.3403454   -907.69254    4459.9756   -5034.0699   -2148.9833   -56.661857    921.33594   -923.84393    81.766022 
   28900    96.246188   -115.83981  0.087085574   -115.75273   -4292.3913    4.3466581    4.3466581    4.3466581   -4292.3913   -8941.1844   -8163.5877    4227.5983   -620.17763    810.73519   -2440.2075    82.123309 
   29000    294.98763   -116.01846   0.26691101   -115.75155   -5563.3629    4.3415937    4.3415937    4.3415937   -5563.3629   -7110.4316   -5716.9866   -3862.6706   -167.37324    1253.0921    462.22414    81.836589 
   29100    86.278727    -115.8305  0.078066805   -115.75244    10461.084    4.3376985    4.3376985    4.3376985    10461.084    18027.281    3555.6158    9800.3554    660.40534   -351.47689   -1164.4334    81.616522 
   29200    195.71459   -115.92947   0.17708667   -115.75239   -8555.8446    4.3456451    4.3456451    4.3456451   -8555.8446   -6353.6262   -8401.5475    -10912.36    1357.3298    1559.4111   -704.14724    82.065906 
   29300     129.4605    -115.8704   0.11713858   -115.75326    714.31699    4.3440777    4.3440777    4.3440777    714.31699    554.52642   -6030.5522    7618.9768    426.54836    -1021.707   -761.87597    81.977136 
   29400    207.94242   -115.94008   0.18815068   -115.75193    6647.8849    4.3367024    4.3367024    4.3367024    6647.8849    12463.975    2295.0762    5184.6034   -161.35497    -530.2867    637.40679    81.560311 
   29500    222.17663   -115.95352   0.20103008   -115.75249   -5892.4097    4.3435539    4.3435539    4.3435539   -5892.4097     -5315.22   -7363.7066   -4998.3025   -644.58164    701.73143    -824.7089    81.947488 
   29600    126.07692   -115.86711   0.11407704   -115.75303   -4042.6898    4.3472891    4.3472891    4.3472891   -4042.6898   -7655.7489   -8708.0207    4235.7002   -832.75326    500.39941   -797.83437    82.159082 
   29700    298.63881   -116.02149   0.27021467   -115.75127    1378.8734    4.3374435    4.3374435    4.3374435    1378.8734    4821.7006   -3677.6812    2992.6007    106.21297    1829.7281    803.64328    81.602128 
   29800    111.02572    -115.8531    0.1004584   -115.75264    8070.5678    4.3401912    4.3401912    4.3401912    8070.5678    14204.367    546.28875    9461.0481    1726.6201    -291.2983   -1310.1996    81.757309 
   29900    214.64808   -115.94642   0.19421809    -115.7522   -10965.318    4.3482194    4.3482194    4.3482194   -10965.318   -7513.7421   -12214.537   -13167.676    509.71478    1041.3363   -356.22421    82.211834 
   30000    188.62126    -115.9235   0.17066848   -115.75283    3060.7843     4.340024     4.340024     4.340024    3060.7843     165.8728   -1461.2756    10477.756   -328.55502   -1045.5211   -312.15406     81.74786 
   30100     259.3905   -115.98635   0.23470197   -115.75164    4599.4741    4.3383062    4.3383062    4.3383062    4599.4741    8472.7253    2239.7063    3085.9906    175.74744     1308.422     553.7938    81.650831 
   30200    221.47463   -115.95245    0.2003949   -115.75205   -7592.3357     4.346533     4.346533     4.346533   -7592.3357   -7388.7984   -11484.052   -3904.1563   -457.63393    1994.2725    -2326.386    82.116221 
   30300    156.13004   -115.89449   0.14126974   -115.75322   -661.11766    4.3439008    4.3439008    4.3439008   -661.11766    4883.0104   -5635.6825   -1230.6809   -1317.3278   -1859.0549     -1167.63    81.967125 
   30400    295.89132   -116.01894   0.26772868   -115.75121    4382.0156    4.3371292    4.3371292    4.3371292    4382.0156    10749.084   -3409.0334    5805.9966    -479.7255    527.12162    831.64538    81.584389 
   30500    167.03483   -115.90394   0.15113663    -115.7528    3105.0704    4.3426869    4.3426869    4.3426869    3105.0704    8923.3088   -4505.6216    4897.5239     836.8377    -413.8786   -1209.7505    81.898425 
   30600    247.93777   -115.97665   0.22433931   -115.75231   -9965.3161    4.3481158    4.3481158    4.3481158   -9965.3161   -7444.6187   -12122.738   -10328.592    1459.0592    2510.9507   -664.45147    82.205959 
   30700    225.70771   -115.95586   0.20422508   -115.75164    5429.2569    4.3377933    4.3377933    4.3377933    5429.2569    3253.2378    1660.1417    11374.391   -325.43211    -1878.503   -133.91529    81.621876 
   30800    256.77855   -115.98438   0.23233863   -115.75204    2956.8542    4.3395147    4.3395147    4.3395147    2956.8542    9239.0918   -754.12625    385.59716   -1322.1869   -51.555497    664.24809    81.719083 
   30900    181.88434   -115.91673   0.16457277   -115.75215   -5474.8468      4.34912      4.34912      4.34912   -5474.8468   -4494.5826   -10870.896   -1059.0614   -1950.0906    2503.5555   -1225.4735    82.262932 
   31000    181.04208   -115.91647   0.16381068   -115.75266    2597.6766    4.3401477    4.3401477    4.3401477    2597.6766    12675.773   -3217.3537   -1665.3899   -1259.3529    37.564773    919.36188    81.754849 
   31100    262.94331   -115.98901   0.23791664   -115.75109    3836.4602    4.3374059    4.3374059    4.3374059    3836.4602    8839.1339   -1946.1603     4616.407    633.66488    422.84707    306.37537    81.600005 
   31200    219.89572   -115.95092   0.19896627   -115.75195   -5802.6738    4.3478156    4.3478156    4.3478156   -5802.6738    -5572.376   -10694.232    -1141.413    1134.1675   -1281.2338   -108.97616    82.188937 
   31300    234.51592    -115.9646   0.21219493    -115.7524   -5120.3171     4.344027     4.344027     4.344027   -5120.3171    792.47709   -10069.462   -6083.9664   -308.16941    2981.1208  -0.92448269    81.974266 
   31400    218.15568   -115.94901   0.19739184   -115.75162    6451.5021       4.3368       4.3368       4.3368    6451.5021    8551.5917    1655.4577    9147.4569   -789.36176   -1175.9599    713.32646    81.565815 
   31500    233.02174   -115.96328   0.21084296   -115.75244   -2234.1106    4.3441167    4.3441167    4.3441167   -2234.1106    6181.8192   -7271.6814   -5612.4697    144.83223    995.52124   -130.06018    81.979346 
   31600    141.75054   -115.88088   0.12825887   -115.75262   -910.28609    4.3465554    4.3465554    4.3465554   -910.28609    2249.6457   -7525.4131    2544.9091   -1400.2984    485.75288   -1270.5089    82.117486 
   31700    231.80868   -115.96159   0.20974537   -115.75184    4032.9545    4.3384656    4.3384656    4.3384656    4032.9545     8639.637     1620.285    1838.9414   -1560.9876   -215.84453    1012.7979     81.65983 
   31800    218.27889   -115.94935   0.19750333   -115.75185    2132.4768    4.3400509    4.3400509    4.3400509    2132.4768    1513.6147   -972.33536     5856.151   -12.014462    1672.1316   -402.16376    81.749378 
   31900     242.9108   -115.97118    0.2197908   -115.75139   -9610.9842    4.3487986    4.3487986    4.3487986   -9610.9842   -13123.617   -11630.234   -4079.1015    1485.8183   -478.63423   -31.931474    82.244693 
   32000    180.31251   -115.91574   0.16315055   -115.75259    2958.3091    4.3410378    4.3410378    4.3410378    2958.3091     10139.78   -3564.3185    2299.4654    1567.3201    1803.8775   -432.91237    81.805161 
   32100    199.00532   -115.93199   0.18006419   -115.75192    5767.3753    4.3370967    4.3370967    4.3370967    5767.3753     8825.253   -2018.5122    10495.385    -376.6811   -2470.4277    1810.7328    81.582559 
   32200    227.07217   -115.95701   0.20545968   -115.75155   -8129.7816    4.3480404    4.3480404    4.3480404   -8129.7816   -3344.1211   -11440.613   -9604.6106    -650.5904    1731.4654   -646.75542    82.201686 
   32300    129.16045   -115.86962   0.11686709   -115.75275    1241.1786    4.3438649    4.3438649    4.3438649    1241.1786    1764.0319   -4778.7415    6738.2453   -1931.8792    1101.2261   -334.05101    81.965091 
   32400     259.4906   -115.98609   0.23479255    -115.7513     2270.879    4.3369114    4.3369114    4.3369114     2270.879    4579.6094    1687.7366     545.2911   -236.56134   -855.85203     1727.679      81.5721 
   32500    166.14302    -115.9024    0.1503297   -115.75207   -1015.7504     4.345216     4.345216     4.345216   -1015.7504   -7025.6577   -3440.8017    7419.2083    1124.9339    360.54549    111.63971    82.041595 
   32600    218.80368   -115.94959   0.19797817   -115.75161   -7211.2327     4.346128     4.346128     4.346128   -7211.2327   -7804.1925   -8173.0322   -5656.4734    1732.6698   -1130.0229     1387.309    82.093268 
   32700     119.6588   -115.86088   0.10826979   -115.75261    8029.1239    4.3381922    4.3381922    4.3381922    8029.1239    16968.832    181.42938    6937.1104    606.96271    979.19546   -49.945705    81.644396 
   32800    181.86218   -115.91706   0.16455272    -115.7525    1621.9509    4.3420131    4.3420131    4.3420131    1621.9509    1441.6034   -5133.1507    8557.3999    234.18873   -1934.1118    955.56594    81.860311 
   32900    229.53787   -115.95948   0.20769069   -115.75179   -8381.0786    4.3466681    4.3466681    4.3466681   -8381.0786   -8623.8099    -10907.89   -5611.5358    785.36225    1478.4328   -854.39186    82.123879 
   33000     129.5836   -115.86976   0.11724997   -115.75251    2973.5195    4.3411705    4.3411705    4.3411705    2973.5195    1957.7484   -2547.7109     9510.521   -1651.0415    2125.3781    329.09371    81.812666 
   33100    255.17646   -115.98226   0.23088902   -115.75137   -2109.7173    4.3400792    4.3400792    4.3400792   -2109.7173   -2096.5894   -2038.3644   -2194.1982   -292.76035   -137.52401    742.57522     81.75098 
   33200    128.08809     -115.868    0.1158968    -115.7521   -618.19574    4.3455008    4.3455008    4.3455008   -618.19574   -5726.4005   -6815.1822    10686.995    1223.0137    59.844969   -29.922847    82.057729 
   33300    195.21761   -115.92887   0.17663699   -115.75224   -3084.5824     4.343864     4.343864     4.343864   -3084.5824    1221.0913   -4079.8235   -6395.0149    2420.3596   -1457.6479    341.27319    81.965039 
   33400    93.619134   -115.83749   0.08470856   -115.75278    8227.4772    4.3385926    4.3385926    4.3385926    8227.4772    16873.013    1530.1672    6279.2518      1498.41    1643.5334    118.83619    81.667004 
   33500    196.01119   -115.92952   0.17735504   -115.75216   -2271.8581    4.3441776    4.3441776    4.3441776   -2271.8581   -1534.3295   -7155.0298     1873.785    693.14938   -1457.3356    783.98285    81.982793 
   33600    247.03483   -115.97552    0.2235223     -115.752   -6608.0038    4.3455471    4.3455471    4.3455471   -6608.0038   -10838.319   -7222.6715   -1763.0204   -117.95094    2257.4316   -1137.2195    82.060352 
   33700    145.38656   -115.88419   0.13154881   -115.75264    4855.9806    4.3395143    4.3395143    4.3395143    4855.9806    8368.4718   -1668.0086    7867.4785   -718.69809    947.63344    697.81059    81.719062 
   33800    268.47225   -115.99477   0.24291933   -115.75185   -5084.1343    4.3427929    4.3427929    4.3427929   -5084.1343   -3817.5594   -7329.7119   -4105.1315   -235.12024   -414.15434    774.46561    81.904423 
   33900    132.02642   -115.87168   0.11946028   -115.75222    803.87006    4.3458126    4.3458126    4.3458126    803.87006     2320.074   -8662.0102    8753.5464    389.35856   -336.38373   -162.23806    82.075398 
   34000    220.32428   -115.95119   0.19935404   -115.75183     1060.727    4.3403744    4.3403744    4.3403744     1060.727    8884.3194   -2351.9636   -3350.1747    1573.5617    -2045.313    934.71791     81.76766 
   34100    140.69889   -115.87976   0.12730731   -115.75246    4475.9159    4.3408535    4.3408535    4.3408535    4475.9159    7515.2712   -755.35967    6667.8362     1324.662    1743.8832    810.44875    81.794744 
   34200    239.60329   -115.96872   0.21679809   -115.75193   -6773.7359    4.3465817    4.3465817    4.3465817   -6773.7359   -7880.2719   -7967.3313   -4473.6046    1889.0543    -891.0997   -156.83963     82.11898 
   34300    253.67389   -115.98147   0.22952947   -115.75194   -1892.8629    4.3418564    4.3418564    4.3418564   -1892.8629   -5289.1107   -2676.2951    2286.8171   -765.50932    2623.1564   -72.500617    81.851451 
   34400    165.61202   -115.90242   0.14984924   -115.75257    5196.4057    4.3396151    4.3396151    4.3396151    5196.4057    11616.713   -1742.5098    5715.0137   -2647.2822    26.248646   -476.73862    81.724756 
   34500    245.99658   -115.97439   0.22258288   -115.75181   -5861.4776    4.3462106    4.3462106    4.3462106   -5861.4776   -572.56628   -10009.745   -7002.1211   -556.00823   -597.19226   -19.445169    82.097948 
   34600    187.66138   -115.92228   0.16979996   -115.75248    1900.9586    4.3426879    4.3426879    4.3426879    1900.9586    8327.6767   -8397.3031    5772.5023    2469.6094    194.56741   -446.13003    81.898483 
   34700    241.42708   -115.97061   0.21844829   -115.75216    3035.8218    4.3388164    4.3388164    4.3388164    3035.8218    10754.009    12.698466   -1659.2419    1471.4855   -886.78261    495.20112    81.679641 
   34800    201.52261    -115.9346   0.18234189   -115.75225   -2005.7697    4.3457531    4.3457531    4.3457531   -2005.7697   -3518.8815   -7526.5043    5028.0767    138.67317   -182.80119   -2.5307327    82.072022 
   34900    257.89087   -115.98525   0.23334508    -115.7519   -4010.1505    4.3445816    4.3445816    4.3445816   -4010.1505   -748.62791   -5722.6791   -5559.1444    162.00564   -681.91281   -759.52298    82.005671 
   35000    199.46928     -115.932   0.18048399   -115.75152    6082.3043    4.3379116    4.3379116    4.3379116    6082.3043    8414.4019     3053.709     6778.802   -769.06797    1704.7297    231.12694    81.628554 
   35100     186.7849   -115.92173    0.1690069   -115.75272   -836.77767    4.3441745    4.3441745    4.3441745   -836.77767    8935.8565   -7718.4199   -3727.7696   -832.90519    1164.1961    175.25179    81.982621 
   35200    183.72684   -115.91887   0.16623991   -115.75263   -2006.3326    4.3465427    4.3465427    4.3465427   -2006.3326    4604.8974   -8243.8466   -2380.0485   -1654.8616   -622.47184    927.53936    82.116771 
   35300    257.50408   -115.98431    0.2329951   -115.75131    2225.3188    4.3382801    4.3382801    4.3382801    2225.3188    5530.6726   -3473.6869    4618.9707    467.00292    489.20852   -785.26282    81.649358 
   35400    219.15804   -115.95044    0.1982988   -115.75214   -2478.9763    4.3420648    4.3420648    4.3420648   -2478.9763    2835.4302   -4197.2812   -6075.0778    199.28773    1018.7696      1454.02    81.863235 
   35500    224.26922   -115.95455    0.2029235   -115.75163   -7739.7644    4.3487133    4.3487133    4.3487133   -7739.7644   -8553.4077   -14599.979   -65.906395    1570.0635   -579.48019     504.1496    82.239853 
   35600    222.20554   -115.95317   0.20105624   -115.75212    4239.5753    4.3396507    4.3396507    4.3396507    4239.5753    16154.578   -1794.9778   -1640.8746   -181.56675   -663.47858   -1127.3591    81.726768 
   35700    151.81446   -115.89028   0.13736491   -115.75291    6764.0736    4.3380104    4.3380104    4.3380104    6764.0736    12917.604     464.1111    6910.5055   -1588.5441    544.14451    1446.7403    81.634127 
   35800    226.88471   -115.95717   0.20529006   -115.75188   -9965.8042    4.3500856    4.3500856    4.3500856   -9965.8042   -2623.6928   -13204.773   -14068.947   -2439.0622    2164.1819   -547.48661    82.317734 
   35900    171.35051   -115.90772   0.15504154   -115.75268    4850.8225    4.3423759    4.3423759    4.3423759    4850.8225     6502.746    -1536.299    9586.0206    646.79153   -10.795048    1360.3157    81.880832 
   36000     293.9788   -116.01675    0.2659982   -115.75075    3282.3643    4.3359519    4.3359519    4.3359519    3282.3643    3376.5125    204.87885    6265.7014    2815.2717     264.8112   -431.02308    81.517974 
   36100    168.13781   -115.90433   0.15213462    -115.7522   -6296.2857    4.3488772    4.3488772    4.3488772   -6296.2857   -4977.9254   -8496.4155   -5414.5162    618.43868   -801.25826    1019.4077    82.249154 
   36200    191.60004   -115.92561   0.17336374   -115.75225   -2393.1701    4.3456124    4.3456124    4.3456124   -2393.1701     3825.926   -11943.787    938.35022    787.24798   -955.68888   -531.39024    82.064051 
   36300    231.25954    -115.9603   0.20924849   -115.75105    8878.7248    4.3354658    4.3354658    4.3354658    8878.7248    17744.786    2725.6332     6165.755   -220.78627    517.13121    -567.8995    81.490558 
   36400    136.71991   -115.87657   0.12370705   -115.75286    32.598082    4.3449651    4.3449651    4.3449651    32.598082    746.11857   -4944.9266    4296.6023   -152.85908    1295.3823    1165.8847     82.02739 
   36500    281.72972   -116.00621   0.25491497   -115.75129    -14298.32    4.3491976    4.3491976    4.3491976    -14298.32   -14520.019   -13466.443   -14908.497   -1237.7914    1964.9821   -715.50834    82.267331 
   36600     126.4639   -115.86671    0.1144272   -115.75228     11946.64    4.3374013    4.3374013    4.3374013     11946.64    14092.283    6009.1363      15738.5    567.87136   -153.02423    1440.2947     81.59975 
   36700    279.64019   -116.00527   0.25302432   -115.75224    -2510.232    4.3405583    4.3405583    4.3405583    -2510.232   -2241.6078   -3703.2639   -1585.8244    998.18401    622.68564   -162.26627    81.778054 
   36800     99.42356   -115.84227  0.089960527   -115.75231   -4702.5273    4.3495082    4.3495082    4.3495082   -4702.5273   -782.67254   -10547.748   -2777.1615     1299.673   -566.75431    2283.7908    82.284959 
   36900    178.50651   -115.91393   0.16151644   -115.75242    2844.1483    4.3416601    4.3416601    4.3416601    2844.1483    13088.574   -5838.4824    1282.3532    1739.2254   -1608.6552    -771.1376    81.840346 
   37000    228.15419   -115.95765    0.2064387   -115.75121    5029.3464    4.3366207    4.3366207    4.3366207    5029.3464    9246.1483   -930.79325    6772.6843     503.3165    1401.7943   -274.24694    81.555701 
   37100    152.60272   -115.88991   0.13807815   -115.75183   -7013.5018    4.3489096    4.3489096    4.3489096   -7013.5018   -9318.5523   -12216.814    494.86089   -644.80707    253.57507     1912.473     82.25099 
   37200    267.32028   -115.99355     0.241877   -115.75167   -9230.6557    4.3458844    4.3458844    4.3458844   -9230.6557   -9840.8319   -11210.815     -6640.32   -982.72243    1605.2201   -1343.2778    82.079462 
   37300    100.91572   -115.84305  0.091310662   -115.75174    13604.302      4.33525      4.33525      4.33525    13604.302    19668.321    4132.2046    17012.381    2664.6595   -1648.5718    708.99446     81.47839 
   37400    235.56282   -115.96517   0.21314219   -115.75203   -6776.8429    4.3456558    4.3456558    4.3456558   -6776.8429   -2359.9964   -10544.268   -7426.2638     1446.074    261.43471    134.78743    82.066513 
   37500    104.08908   -115.84712  0.094181987   -115.75293   -2623.3998    4.3476433    4.3476433    4.3476433   -2623.3998   -2129.7723   -7049.7399    1309.3128     1123.041    950.47458    734.95924    82.179163 
   37600    202.69247   -115.93535    0.1834004   -115.75195    5448.6679    4.3376325    4.3376325    4.3376325    5448.6679    14220.607   -419.11365    2544.5099    823.41024   -1427.8175   -1556.1791      81.6128 
   37700    231.35258   -115.96089   0.20933268   -115.75155   -766.30793    4.3419235    4.3419235    4.3419235   -766.30793   -4422.6088   -2698.8778    4822.5628    946.15823    2179.1925    -105.1521     81.85524 
   37800     167.6704   -115.90363    0.1517117   -115.75192   -7970.3146    4.3483275    4.3483275    4.3483275   -7970.3146   -8662.5187   -9597.7006   -5650.7244   -1170.3315   -1129.3253    441.51422    82.217969 
   37900    204.72437   -115.93751   0.18523892   -115.75227     543.3247    4.3412624    4.3412624    4.3412624     543.3247    8917.7356   -6218.8777   -1068.8838   -1167.9466    1293.7676   -1206.8164    81.817861 
   38000    153.16018    -115.8907   0.13858255   -115.75211    9311.5081    4.3387976    4.3387976    4.3387976    9311.5081    14320.513    1893.5761    11720.435    766.24297   -2550.6593    281.05682    81.678578 
   38100    217.20096   -115.94822     0.196528   -115.75169   -6734.1161    4.3465322    4.3465322    4.3465322   -6734.1161    122.44274   -11492.963    -8831.828    1182.1558    1233.7879     604.6955    82.116176 
   38200    170.87493   -115.90714   0.15461123   -115.75253   -2451.0657    4.3447863    4.3447863    4.3447863   -2451.0657   -6435.4973    -4886.354    3968.6541    1504.2433    795.54948   -389.87208    82.017263 
   38300    219.25802   -115.94986   0.19838926   -115.75147    5578.1817    4.3381896    4.3381896    4.3381896    5578.1817    12279.342    1622.2273    2832.9754    11.744907    -453.3766   -860.29464    81.644249 
   38400    213.58894     -115.945   0.19325977   -115.75174   -1273.7345    4.3439215    4.3439215    4.3439215   -1273.7345   -3909.3574   -7244.3024    7332.4564    71.883317    1211.9995   -116.48224    81.968297 
   38500     169.1737   -115.90563   0.15307192   -115.75256   -5041.6546    4.3468425    4.3468425    4.3468425   -5041.6546    1528.7104   -8952.7015   -7700.9727   -1581.8173    -1597.912     682.7108    82.133761 
   38600    163.38776   -115.90018   0.14783668   -115.75234    5146.4205    4.3388936    4.3388936    4.3388936    5146.4205    16288.965   -3834.5377    2984.8346    598.34482    1941.6285   -1956.3229    81.684003 
   38700    221.53229   -115.95239   0.20044708   -115.75194    1331.0364    4.3416275    4.3416275    4.3416275    1331.0364    4990.9348   -5356.1377    4358.3123    1215.5828   -1817.1763   -285.82093    81.838506 
   38800    235.94646   -115.96527   0.21348931   -115.75178   -8793.4452    4.3481122    4.3481122    4.3481122   -8793.4452   -6702.6119    -13479.12   -6198.6038    39.068134    2295.0318    946.36448    82.205758 
   38900    180.88703   -115.91603   0.16367039   -115.75236    239.83409    4.3402931    4.3402931    4.3402931    239.83409    2299.9132   -3199.6358    1619.2249   -77.343126   -616.91167   -2471.7423    81.763067 
   39000     225.1631   -115.95583    0.2037323   -115.75209    1358.7286    4.3404267    4.3404267    4.3404267    1358.7286    11635.566   -5327.4861   -2231.8942    598.63766    -484.2331   -561.92899    81.770617 
   39100    157.92169   -115.89517   0.14289086   -115.75228    159.69738    4.3468141    4.3468141    4.3468141    159.69738    3140.2494   -8418.5427    5757.3855    720.08776    1265.5933   -513.44224    82.132153 
   39200    231.58905   -115.96197   0.20954664   -115.75242   -2354.0767    4.3419664    4.3419664    4.3419664   -2354.0767    5253.0979   -5024.4373   -7290.8908   -2187.0834   -1146.3627   -366.65476    81.857667 
   39300     156.8931    -115.8943   0.14196017   -115.75234    5385.2439     4.339536     4.339536     4.339536    5385.2439    10316.441   -2200.5661    8039.8571    -287.3251    1215.6821   -1680.1674    81.720285 
   39400    277.83995   -116.00308   0.25139543   -115.75169   -5311.3912    4.3461356    4.3461356    4.3461356   -5311.3912   -6789.2406   -6019.1233   -3125.8099    696.96877   -1855.2222   -38.414893    82.093699 
   39500    219.56542    -115.9511   0.19866741   -115.75243   -223.58812    4.3435201    4.3435201    4.3435201   -223.58812     4067.127   -8624.2236    3886.3322     1624.742    1695.1758    677.69817    81.945577 
   39600    166.80154   -115.90372   0.15092554    -115.7528    5143.3895    4.3390731    4.3390731    4.3390731    5143.3895    9584.7249    724.00822    5121.4355    742.21109    640.80161   -2216.3309    81.694138 
   39700    244.70907   -115.97376   0.22141791   -115.75234   -3823.0309    4.3446149    4.3446149    4.3446149   -3823.0309     4630.287   -9553.5929   -6545.7867   -131.19835   -936.57376    426.36723    82.007553 
   39800    153.85248   -115.89194   0.13920896   -115.75274     3045.023    4.3446221    4.3446221    4.3446221     3045.023    6715.3654   -6126.2119    8545.9156   -39.075583    2451.6098   -740.92201    82.007962 
   39900    301.19494   -116.02453   0.27252751     -115.752   -3028.4021    4.3401459    4.3401459    4.3401459   -3028.4021   -1777.4662   -2046.6477   -5261.0925   -1101.2154   -813.19814    585.93754    81.754746 
   40000    136.64807   -115.87666   0.12364205   -115.75302    1587.0209    4.3431025    4.3431025    4.3431025    1587.0209    4209.8755   -5655.8856    6207.0728    1944.6361    144.62234   -1540.8982    81.921941 
   40100    287.66017   -116.01213   0.26028097   -115.75184   -7340.8426    4.3460694    4.3460694    4.3460694   -7340.8426   -5896.2236   -9985.4262    -6140.878    1499.5076   -2975.0609    389.59091    82.089946 
   40200     180.7347   -115.91626   0.16353255   -115.75272    5600.9915    4.3400383    4.3400383    4.3400383    5600.9915     15718.04   -3876.3374    4961.2717    360.47453    987.00973    3.9950083     81.74867 
   40300    170.48653   -115.90743    0.1542598   -115.75317    1801.7693    4.3416209    4.3416209    4.3416209    1801.7693    7652.9582   -4965.8305    2718.1801   -289.98696     1383.657   -2800.4194     81.83813 
   40400    257.88643    -115.9856   0.23334106   -115.75226   -6977.0429    4.3462826    4.3462826    4.3462826   -6977.0429    -3203.404   -13953.864   -3773.8607     1162.214    335.05495    1056.6709     82.10203 
   40500    174.21695    -115.9102   0.15763516   -115.75257    5047.2366     4.341808     4.341808     4.341808    5047.2366    7201.0523   -1340.8721    9281.5298    191.73443    1481.4123   -158.11148     81.84871 
   40600    290.67903   -116.01486    0.2630125   -115.75185   -3452.9772    4.3404574    4.3404574    4.3404574   -3452.9772    -2210.269   -5570.0652   -2578.5973   -1225.7059   -1877.1862   -550.71763    81.772355 
   40700     106.1597   -115.84907  0.096055526   -115.75301    689.53986    4.3455883    4.3455883    4.3455883    689.53986     1695.743   -6340.7902    6713.6668    642.53307    454.19707   -888.73301    82.062688 
   40800    241.35468   -115.97051   0.21838279   -115.75213   -1990.1669    4.3439764    4.3439764    4.3439764   -1990.1669    6917.4458   -6432.5254   -6455.4211    794.62348   -2589.6214    557.11262    81.971402 
   40900      171.046   -115.90734   0.15476601   -115.75257    5845.6483    4.3385521    4.3385521    4.3385521    5845.6483    12202.297   -917.43699     6252.085    1650.9487    2687.6394   -116.86613    81.664717 
   41000    167.15617   -115.90422   0.15124641   -115.75298   -3629.4318     4.345151     4.345151     4.345151   -3629.4318   -1214.9803   -4471.5095   -5201.8056    492.47197    86.647874   -2137.5518    82.037914 
   41100    253.91759   -115.98173   0.22974997   -115.75198   -6746.9942    4.3461331    4.3461331    4.3461331   -6746.9942   -9759.8354   -10619.673    138.52537    295.94578    618.75233    568.23315    82.093553 
   41200    163.37878   -115.89985   0.14782856   -115.75202    7760.3478    4.3383056    4.3383056    4.3383056    7760.3478    14109.508     1604.856    7566.6798   -462.85966    278.98094   -205.83777    81.650799 
   41300    217.33531   -115.94878   0.19664955   -115.75213   -4009.6858    4.3431425    4.3431425    4.3431425   -4009.6858    1251.0868   -6055.2936   -7224.8506   -104.00013   -1964.1277   -591.14811    81.924204 
   41400    113.68381   -115.85552    0.1028635   -115.75266   -1459.3681    4.3469331    4.3469331    4.3469331   -1459.3681   -1056.5388    -9423.079    6101.5134    1758.4513   -747.15458   -858.12001    82.138899 
   41500    226.82565   -115.95729   0.20523661   -115.75205    3724.0173    4.3395173    4.3395173    4.3395173    3724.0173    14949.095   -2661.1768   -1115.8661    630.04565   -804.54588    281.49791    81.719233 
   41600    191.12794   -115.92502   0.17293658   -115.75208    2002.4452    4.3408234    4.3408234    4.3408234    2002.4452    63.467255   -1729.3717    7673.2401    65.787197    1766.0045   -680.66612    81.793043 
   41700    176.04796   -115.91156   0.15929189   -115.75227   -8794.8649    4.3475637    4.3475637    4.3475637   -8794.8649   -5970.4257   -11486.175   -8927.9935    795.75036    831.00104    -1736.729    82.174651 
   41800    207.91578   -115.94042   0.18812657   -115.75229    348.62029    4.3421549    4.3421549    4.3421549    348.62029   -52.046237   -5485.2329      6583.14    1038.7367   -359.87108     177.0527    81.868331 
   41900    181.72558   -115.91633   0.16442913    -115.7519    7539.4633    4.3381958    4.3381958    4.3381958    7539.4633     19218.38   -854.48902    4254.4985   -1407.0171    778.82894   -258.11217    81.644596 
   42000    162.99876   -115.90004   0.14748471   -115.75255   -6304.6534    4.3462245    4.3462245    4.3462245   -6304.6534   -1475.9865   -10780.118   -6657.8555    149.51808   -590.35066   -1234.5051    82.098735 
   42100     192.5097   -115.92675   0.17418683   -115.75256   -5285.6965    4.3458517    4.3458517    4.3458517   -5285.6965   -5736.0166   -8296.0112   -1825.0617    883.75375   -1819.1705    275.22952    82.077612 
   42200    238.61734   -115.96709   0.21590598   -115.75119    6195.3555    4.3372993    4.3372993    4.3372993    6195.3555    13161.519    844.13121    4580.4168    336.92965    117.62974   -91.608719    81.593993 
   42300    177.14168   -115.91301   0.16028152   -115.75273   -1132.4597    4.3433062    4.3433062    4.3433062   -1132.4597   -293.94384   -4930.1703    1826.7349   -31.191454   -525.70659   -1423.7801    81.933471 
   42400    190.86978   -115.92509   0.17270299   -115.75239   -9635.4705    4.3490097    4.3490097    4.3490097   -9635.4705   -4067.9916    -12227.04   -12611.379   -307.20643    781.87582   -975.74345    82.256671 
   42500    136.49001   -115.87579   0.12349903   -115.75229    10570.319    4.3373751    4.3373751    4.3373751    10570.319    15958.674    1818.9238     13933.36    822.75734   -1167.4342    547.47818    81.598267 
   42600    274.61924   -116.00034   0.24848126   -115.75186   -69.156263    4.3402941    4.3402941    4.3402941   -69.156263     6609.976    -4478.882   -2338.5628   -361.84962    2007.2909   -225.43805    81.763125 
   42700    121.33656    -115.8622   0.10978787   -115.75241   -5347.2743    4.3500542    4.3500542    4.3500542   -5347.2743   -7139.9336   -9297.6158    395.72646    839.13294   -101.46949   -1627.8745    82.315951 
   42800    272.08907   -115.99805   0.24619191   -115.75186   -2834.7485    4.3405097    4.3405097    4.3405097   -2834.7485   -2954.7743    -6401.818    852.34685    185.41476   -846.81588    389.74839    81.775309 
   42900    159.42389   -115.89627   0.14425009   -115.75202    10349.969    4.3376324    4.3376324    4.3376324    10349.969    20891.578    2687.5382    7470.7908   -37.406851   -1037.8514   -96.889465    81.612793 
   43000    173.04448   -115.90947   0.15657428   -115.75289   -5171.0688    4.3483641    4.3483641    4.3483641   -5171.0688   -1879.4333   -12064.035   -1569.7379   -751.36914   -488.08532     -1611.94    82.220043 
   43100    211.86989   -115.94497   0.19170433   -115.75327   -4992.0917    4.3443155    4.3443155    4.3443155   -4992.0917    374.16924   -8553.4268   -6797.0177    814.53283     779.6472    -1136.262    81.990603 
   43200    160.78726   -115.89731   0.14548369   -115.75183    9935.8875    4.3369962    4.3369962    4.3369962    9935.8875    13364.962    3503.0601     12939.64    385.20856   -873.92452   -88.430867    81.576885 
   43300    313.72712   -116.03558   0.28386689   -115.75171   -10404.567    4.3461176    4.3461176    4.3461176   -10404.567   -7642.3303   -12076.783   -11494.587   -1255.0039    1621.9035   -482.29197    82.092676 
   43400     83.84261   -115.82903  0.075862556   -115.75317   -888.97089    4.3465401    4.3465401    4.3465401   -888.97089    3066.7869    -7677.111    1943.4114     1757.754   -1188.2828   -1598.4596     82.11662 
   43500    283.19103    -116.0081    0.2562372   -115.75187    272.75045    4.3389035    4.3389035    4.3389035    272.75045    5872.7826   -6079.6257    1025.0945   -397.93037   -1212.3709    703.08858    81.684557 
   43600     145.3706   -115.88445   0.13153437   -115.75292    6130.5181    4.3414141    4.3414141    4.3414141    6130.5181    15212.297   -2454.3362    5633.5931   -383.12342   -844.01719   -311.59356    81.826436 
   43700     214.8788   -115.94675   0.19442685   -115.75232     -8275.06    4.3481629    4.3481629    4.3481629     -8275.06   -4369.7894   -14136.357   -6319.0333   -1290.5148   -323.97715   -1796.4926    82.208633 
   43800    235.65008   -115.96575   0.21322115   -115.75253   -174.61249    4.3414483    4.3414483    4.3414483   -174.61249   -1477.9325   -2276.6312    3230.7263    -11.70913    1452.8424   -141.49428    81.828372 
   43900    201.13987   -115.93446   0.18199558   -115.75246    7108.6845    4.3391083    4.3391083    4.3391083    7108.6845    11678.133   -1068.9905    10716.911    309.61956   -61.925338   -465.21342    81.696126 
   44000    269.70225   -115.99591   0.24403226   -115.75187    -7623.053      4.34742      4.34742      4.34742    -7623.053   -2936.2848   -10609.774   -9323.1004    495.63736    1076.5219   -1214.8473    82.166501 
   44100     102.6665   -115.84629  0.092894806    -115.7534    4279.9841    4.3436813    4.3436813    4.3436813    4279.9841    10360.774   -4140.4982    6619.6769    1388.3098   -98.010553   -543.06472    81.954701 
   44200    263.54267   -115.99021   0.23845895   -115.75175    2955.1549     4.338038     4.338038     4.338038    2955.1549    11458.299   -3108.1859    515.35137   -314.90059   -2723.2356     788.0808     81.63569 
   44300    209.38439    -115.9415    0.1894554   -115.75204   -1368.0003    4.3459042    4.3459042    4.3459042   -1368.0003   -3418.3727   -7071.3429    6385.7146     76.48827    1224.4618   -141.94413    82.080587 
   44400    214.07819    -115.9462   0.19370244    -115.7525   -5860.6552    4.3458963    4.3458963    4.3458963   -5860.6552    1404.4771    -9981.257   -9005.1858   -1000.1984   -1690.4265    -2111.528    82.080137 
   44500    227.84978    -115.9581   0.20616327   -115.75193    910.76007    4.3387764    4.3387764    4.3387764    910.76007      1123.74   -1965.7126    3574.2529    2671.5923    1767.1131    383.98603    81.677379 
   44600    183.62505   -115.91859    0.1661478   -115.75244    1636.6496    4.3443169    4.3443169    4.3443169    1636.6496    9941.8578   -7907.8763    2875.9673    274.45054   -1679.0724   -195.29325    81.990678 
   44700    220.69846   -115.95175    0.1996926   -115.75206   -4672.6389    4.3458598    4.3458598    4.3458598   -4672.6389    2771.3399   -8874.5707   -7914.6859    612.17318    407.22219   -1477.8795    82.078069 
   44800    148.68206   -115.88714   0.13453065   -115.75261    3943.5463    4.3400414    4.3400414    4.3400414    3943.5463    8006.9388   -2710.6619    6534.3619     1684.967   -495.70751    -177.0704    81.748844 
   44900    259.39322   -115.98668   0.23470443   -115.75198   -2131.1281    4.3430053    4.3430053    4.3430053   -2131.1281    981.90347   -5207.3136   -2167.9742    161.39144   -1462.2601    234.45022    81.916442 
   45000    220.09589   -115.95116   0.19914738   -115.75202   -2444.0283    4.3454334    4.3454334    4.3454334   -2444.0283   -3875.0171   -9050.1398    5593.0721   -266.38388    2444.0361    507.56118    82.053913 
   45100    170.54068   -115.90713    0.1543088   -115.75282    2018.0586    4.3421624    4.3421624    4.3421624    2018.0586     14264.79   -5594.9872    -2615.627   -1109.6702   -1310.7303    -1865.347    81.868754 
   45200    198.07619   -115.93161    0.1792235   -115.75239    1359.3446    4.3413822    4.3413822    4.3413822    1359.3446     4978.072   -4152.9299    3252.8919    743.27281     1810.817    1000.5898    81.824634 
   45300    211.64375   -115.94352   0.19149971   -115.75202   -2125.3766    4.3446135    4.3446135    4.3446135   -2125.3766    2946.4532   -8992.4098    -330.1731   -250.19233   -3815.2406   -777.77911    82.007475 
   45400    202.09051   -115.93558   0.18285574   -115.75273   -938.58554    4.3443781    4.3443781    4.3443781   -938.58554     3444.106   -6868.6392    608.77651    1887.1649    1799.1232   -1382.5641    81.994146 
   45500    194.95904   -115.92868   0.17640304   -115.75227    1147.8676    4.3400373    4.3400373    4.3400373    1147.8676    1350.5569   -368.04302     2461.089   -401.22719   -942.71978    803.89939    81.748614 
   45600    213.29033   -115.94499   0.19298958     -115.752   -3797.6291    4.3446635    4.3446635    4.3446635   -3797.6291     -483.686   -6467.5207   -4441.6806   -219.54907    758.95693    -903.8417    82.010307 
   45700    185.94865   -115.92041   0.16825024   -115.75216   -878.65656    4.3456934    4.3456934    4.3456934   -878.65656    2619.9587   -6974.3699    1718.4416   -1431.5791    940.17135   -78.970197    82.068644 
   45800     169.2102   -115.90523   0.15310495   -115.75212    4250.5591    4.3391636    4.3391636    4.3391636    4250.5591    16289.576   -890.70003   -2647.1985    107.27127   -1678.5841   -1027.8171    81.699253 
   45900    180.18397   -115.91537   0.16303424   -115.75233   -1233.2216    4.3437911    4.3437911    4.3437911   -1233.2216   -1672.0725   -7145.3706    5117.7782    1525.3244    1314.1955    911.10611    81.960912 
   46000    269.87151   -115.99566   0.24418541   -115.75148    -7336.574    4.3469576    4.3469576    4.3469576    -7336.574   -8075.1813   -9122.3526   -4812.1883   -59.978217   -2211.8367   -729.93139    82.140285 
   46100    164.06862   -115.90088   0.14845274   -115.75243    5654.2793    4.3397006    4.3397006    4.3397006    5654.2793    12150.736   -2718.5697    7530.6716    826.85185    2805.9182   -1513.0272    81.729584 
   46200    199.03162   -115.93272   0.18008799   -115.75263   -164.64773    4.3423531    4.3423531    4.3423531   -164.64773    678.87242   -5038.6054    3865.7898   -183.13611   -43.758903    1083.6181    81.879542 
   46300    173.87445   -115.90957   0.15732526   -115.75224   -2894.2428    4.3465888    4.3465888    4.3465888   -2894.2428    4059.5951   -9162.1699   -3580.1537   -627.66579    337.76579   -884.38679    82.119384 
   46400    179.44776   -115.91507    0.1623681    -115.7527    3462.7279    4.3415645    4.3415645    4.3415645    3462.7279    5087.3896    -2075.469    7376.2632   -2756.4642    775.63718   -356.68291     81.83494 
   46500    211.25504   -115.94354     0.191148    -115.7524    980.90207      4.34057      4.34057      4.34057    980.90207    6363.1679   -1855.5057    -1564.956    650.30042   -1860.1119   -996.98613     81.77872 
   46600    150.44193   -115.88878   0.13612302   -115.75266   -3399.5569    4.3459925    4.3459925    4.3459925   -3399.5569   -8051.2196   -7427.7765    5280.3254    233.54055    664.20354    859.97086    82.085586 
   46700    272.12908   -115.99808   0.24622811   -115.75185   -6389.1235    4.3452387    4.3452387    4.3452387   -6389.1235   -3921.3613   -8674.9996   -6571.0098    529.24276   -697.31798   -150.19693    82.042883 
   46800    122.98299   -115.86334    0.1112776   -115.75206     8458.829    4.3387223    4.3387223    4.3387223     8458.829    19074.241   -665.23141    6967.4773    396.06954    1312.5963    -849.8587    81.674325 
   46900    201.67724   -115.93497   0.18248181   -115.75249   -4827.1858    4.3444646    4.3444646    4.3444646   -4827.1858   -3900.1304   -6429.7152   -4151.7117   -938.57082   -239.57922    1401.9807    81.999045 
   47000    206.43182   -115.93904   0.18678385   -115.75226   -4950.4588     4.347073     4.347073     4.347073   -4950.4588   -2377.2045   -11985.678   -488.49411   -550.47984   -832.08723   -1373.0414    82.146828 
   47100    192.58597   -115.92637   0.17425583   -115.75211    5566.7599    4.3392349    4.3392349    4.3392349    5566.7599    4360.1692    4411.6483     7928.462   -1506.5021    2592.1854   -531.62186    81.703281 
   47200      237.159   -115.96693   0.21458645   -115.75235   -3089.7624    4.3427044    4.3427044    4.3427044   -3089.7624   -552.73486   -4170.2332   -4546.3191    1611.9399   -101.17351   -446.44301    81.899418 
   47300    99.653556   -115.84346  0.090168632    -115.7533    213.76143    4.3475394    4.3475394    4.3475394    213.76143   -14.128747   -6332.0942    6987.5072    1401.1264    1626.9759    149.11697    82.173273 
   47400    286.47526   -116.01155   0.25920883   -115.75234   -924.35338    4.3408943    4.3408943    4.3408943   -924.35338    4282.7254   -3164.7635    -3891.022    1771.6043   -1869.7445    1041.5019    81.797051 
   47500    117.21324   -115.85893     0.106057   -115.75287    8588.8822    4.3405596    4.3405596    4.3405596    8588.8822    15438.703   -1104.6596    11432.603     176.5007    716.62566   -87.835534    81.778132 
   47600     226.8365   -115.95762   0.20524643   -115.75237   -7935.0734    4.3471803    4.3471803    4.3471803   -7935.0734   -7861.3455   -9955.6451   -5988.2295    813.84786   -1504.2392    1496.3512     82.15291 
   47700    250.17622   -115.97852    0.2263647   -115.75215   -3467.4932    4.3439029    4.3439029    4.3439029   -3467.4932   -5676.5734   -9375.8879    4649.9817   -1327.3301   -136.00219   -1597.7673    81.967245 
   47800    192.05874   -115.92595   0.17377878   -115.75217      5457.08    4.3404634    4.3404634    4.3404634      5457.08     10290.75    142.16819    5938.3222   -849.45302    2835.0794   -682.32511    81.772691 
   47900    238.77984   -115.96818   0.21605302   -115.75212   -5826.7654    4.3449606    4.3449606    4.3449606   -5826.7654   -1196.2841    -9386.325   -6897.6873    2094.7246   -632.55028    144.22882    82.027132 
   48000    94.251532   -115.83816  0.085280766   -115.75288    2982.1443    4.3456305    4.3456305    4.3456305    2982.1443    9935.9773   -3230.3735    2240.8293    1766.8601    1021.8848   -329.75477    82.065078 
   48100    305.67382   -116.02806    0.2765801   -115.75148    -1049.295    4.3409899    4.3409899    4.3409899    -1049.295    3795.3142   -3138.8331   -3804.3662    1720.7808   -3323.1487    1388.8542    81.802454 
   48200     131.2412   -115.87165   0.11874979    -115.7529     4868.764    4.3423773    4.3423773    4.3423773     4868.764    4689.9904    1440.2679    8476.0338   -96.945845    1236.9203    449.24568    81.880909 
   48300    250.48027   -115.97912   0.22663982   -115.75248   -8311.5341    4.3478878    4.3478878    4.3478878   -8311.5341   -6961.9972   -9537.1008   -8435.5042   -363.51906    111.28225    2091.1822    82.193026 
   48400    224.55514   -115.95532   0.20318221   -115.75214     1831.502    4.3419166    4.3419166    4.3419166     1831.502    4362.7066   -5070.1604    6201.9598   -1587.9038    2090.9162   -694.78549    81.854853 
   48500    182.85365   -115.91767   0.16544982   -115.75222    4951.1276    4.3408918    4.3408918    4.3408918    4951.1276    15689.634   -1370.2851     534.0343   -145.87762    2305.8823   -622.42385    81.796907 
   48600    211.55517   -115.94379   0.19141956   -115.75237     -5500.76    4.3473371    4.3473371    4.3473371     -5500.76    101.37943   -12890.632   -3713.0275    1154.3053   -362.76581     132.5687      82.1618 
   48700    180.48872   -115.91574   0.16330998   -115.75243    1200.3655    4.3430424    4.3430424    4.3430424    1200.3655    5800.7151   -3003.0305    803.41202    2260.5109   -330.39929   -1202.6392    81.918538 
   48800    285.93485   -116.01017   0.25871986   -115.75145   -1159.4019    4.3410967    4.3410967    4.3410967   -1159.4019    1369.4287   -2456.2218   -2391.4125    724.57736   -1262.3281    1899.5579    81.808492 
   48900    149.16271   -115.88748   0.13496556   -115.75252   -545.53294    4.3460412    4.3460412    4.3460412   -545.53294   -2616.4348   -2624.4576    3604.2936    35.748891    370.16449    393.50437    82.088349 
   49000    188.96046   -115.92335    0.1709754   -115.75238   -1141.1764    4.3445175    4.3445175    4.3445175   -1141.1764    6961.4189   -4628.5064   -5756.4418   -839.80517    719.91171    1961.0302     82.00204 
   49100    189.94191   -115.92388   0.17186343   -115.75201    5243.1465    4.3403206    4.3403206    4.3403206    5243.1465    10833.058   -1159.1803    6055.5615   -2659.3315    2137.7558    65.442981    81.764619 
   49200    194.21845   -115.92819   0.17573294   -115.75245   -1591.6381    4.3443862    4.3443862    4.3443862   -1591.6381    7056.9109   -4905.6327   -6926.1925   -350.23144    2568.2988    218.98832    81.994603 
   49300     202.9398   -115.93635    0.1836242   -115.75273   -4324.4708     4.346395     4.346395     4.346395   -4324.4708   -2923.1583   -9401.9652   -648.28894    1370.6776    -331.4024    178.60869    82.108395 
   49400    263.24829   -115.99002   0.23819258   -115.75183   -47.709123    4.3409838    4.3409838    4.3409838   -47.709123     4192.719     -3132.89   -1202.9563    1411.4661   -1413.6959    -1641.846    81.802109 
   49500    194.99622   -115.92866   0.17643668   -115.75222    15.742124    4.3429129    4.3429129    4.3429129    15.742124    6487.4894   -4883.6131   -1556.6499   -550.43613    620.69457    1685.6182    81.911213 
   49600    189.60081   -115.92407    0.1715548   -115.75252    -5123.309    4.3474909    4.3474909    4.3474909    -5123.309   -3154.5859   -6612.6462    -5602.695   -980.14674   -45.035203     377.0329    82.170521 
   49700    152.57063   -115.89078   0.13804912   -115.75273    6102.3911    4.3405204    4.3405204    4.3405204    6102.3911    15709.566    -547.2229    3144.8304    -1946.916    1157.0138    1776.0421    81.775916 
   49800    212.17853   -115.94397   0.19198359   -115.75198    1633.4542    4.3416359    4.3416359    4.3416359    1633.4542   -740.35292    330.81679    5309.8988   -822.03787   -494.17398    280.14984    81.838976 
   49900    224.05146   -115.95444   0.20272647   -115.75171    -8124.745     4.348052     4.348052     4.348052    -8124.745   -4817.1231   -7699.6612   -11857.451   -71.673249    1056.9915    723.72362    82.202339 
   50000    165.37444    -115.9019   0.14963427   -115.75227    3266.7092    4.3418573    4.3418573    4.3418573    3266.7092    3834.5213   -2553.7624    8519.3689     1639.767    -1029.153    619.71606    81.851497 
   50100    264.69416   -115.99126   0.23950084   -115.75175    880.14352    4.3404091    4.3404091    4.3404091    880.14352    8505.2274   -4010.2819   -1854.5149    2024.8083    155.66818   -1762.7278     81.76962 
   50200    137.07279   -115.87666   0.12402634   -115.75263   -1457.8892    4.3467407    4.3467407    4.3467407   -1457.8892    4703.2392   -9536.6137    459.70686   -629.64212    1161.6524    1574.7738    82.127989 
   50300     230.6702   -115.96125   0.20871524   -115.75254   -4739.5039     4.344403     4.344403     4.344403   -4739.5039   -3806.7467   -5825.3709   -4586.3943    38.410096   -350.49735   -323.65664    81.995556 
   50400    188.01829   -115.92215    0.1701229   -115.75202    5770.1225    4.3395208    4.3395208    4.3395208    5770.1225    10650.363    1113.3243    5546.6798   -828.73441    606.23723     1578.459     81.71943 
   50500    200.64511   -115.93432   0.18154792   -115.75277   -2481.0887    4.3450509    4.3450509    4.3450509   -2481.0887   -5919.0225    -2157.156    632.91235   -155.92859   -548.39974    1095.9275    82.032245 
   50600    214.13882   -115.94654    0.1937573   -115.75278   -7051.4646    4.3467275    4.3467275    4.3467275   -7051.4646   -6330.3237   -5726.2749   -9097.7951    1384.4679    2046.9955    493.06213    82.127244 
   50700    100.99793   -115.84408  0.091385052    -115.7527    9387.9368    4.3393929    4.3393929    4.3393929    9387.9368    16316.651    4410.5254    7436.6339    2027.0258   -1158.0252   -243.60802    81.712201 
   50800    287.13051    -116.0114   0.25980172    -115.7516   -4054.1428    4.3430741    4.3430741    4.3430741   -4054.1428   -2315.6388   -6397.4587    -3449.331     740.5321    1130.4513   -1858.8405    81.920333 
   50900    122.79564   -115.86357   0.11110808   -115.75246   -1475.8097    4.3472135    4.3472135    4.3472135   -1475.8097   -599.02833   -6365.6974    2537.2966   -935.80976    1298.7343    1922.0345    82.154793 
   51000    249.66238   -115.97828   0.22589977   -115.75238   -2565.6381    4.3415414    4.3415414    4.3415414   -2565.6381    -3897.186   -2479.3312   -1320.3971   -82.882939   -1706.5261    640.38437    81.833634 
   51100    200.10065   -115.93338   0.18105527   -115.75232    3843.7371    4.3412231    4.3412231    4.3412231    3843.7371    8495.6943   -1277.3914    4312.9083   -157.36904   -943.07894    1546.9111    81.815634 
   51200    167.65112   -115.90475   0.15169426   -115.75306   -1647.6956    4.3463162    4.3463162    4.3463162   -1647.6956    449.69534   -3713.2676   -1679.5145     737.1544   -154.71045    1920.9523    82.103933 
   51300     215.2683   -115.94801   0.19477928   -115.75323   -4125.6245    4.3439843    4.3439843    4.3439843   -4125.6245   -1663.5329   -4753.9846    -5959.356    922.01681    2041.7511    1350.5913    81.971852 
   51400    107.60041   -115.85024  0.097359113   -115.75288     8871.007    4.3400191    4.3400191    4.3400191     8871.007    15310.894    4317.4864    6984.6406    1597.5011    550.74419   -427.00881    81.747584 
   51500    307.55477   -116.03017   0.27828202   -115.75189   -7697.2526    4.3446967    4.3446967    4.3446967   -7697.2526   -9427.3218   -8737.0738   -4927.3622    1430.9499    133.06402   -1581.8596    82.012188 
   51600    125.95841   -115.86692   0.11396982   -115.75295    -1304.103    4.3461042    4.3461042    4.3461042    -1304.103   -2214.1543   -5119.7955    3421.6407    -2026.622    2388.7619    1980.3762    82.091916 
   51700    251.83873   -115.97994   0.22786898   -115.75207   -2340.0473    4.3415358    4.3415358    4.3415358   -2340.0473   -1872.3142    -4140.141   -1007.6868    1571.1557   -2460.3622    26.267982    81.833317 
   51800    195.60809    -115.9289   0.17699031   -115.75191    2661.3861    4.3420801    4.3420801    4.3420801    2661.3861    7959.9586    -2939.931    2964.1308    150.59758   -392.44663    707.18217      81.8641 
   51900    173.36359   -115.90925   0.15686302   -115.75239    -2080.574    4.3464112    4.3464112    4.3464112    -2080.574    1378.2991    -3891.873   -3728.1483    1018.0046    75.259261    1698.5404    82.109318 
   52000    235.98988   -115.96643    0.2135286    -115.7529   -2683.4956    4.3427073    4.3427073    4.3427073   -2683.4956   -1379.7653   -2857.8543    -3812.867    1010.5431    3055.0345    254.73956    81.899582 
   52100    134.59379   -115.87491   0.12178329   -115.75312    8701.2046    4.3406804    4.3406804    4.3406804    8701.2046    8679.2608    6945.9593    10478.394    628.72366    416.81134   -439.88264     81.78496 
   52200     323.6027   -116.04471   0.29280252   -115.75191   -7565.3008    4.3457326    4.3457326    4.3457326   -7565.3008   -7553.8967   -7757.9859   -7384.0199    267.15072   -543.12411   -2257.1227    82.070862 
   52300    113.23892   -115.85579   0.10246095   -115.75333    2795.9742     4.344157     4.344157     4.344157    2795.9742    5211.3547    -2578.998     5755.566   -1526.9072    726.53029    1881.2671    81.981625 
   52400    246.17019   -115.97503   0.22273997   -115.75229   -93.702855    4.3410448    4.3410448    4.3410448   -93.702855    5817.7078   -2897.2114   -3201.6049    2149.4555   -1576.6006    502.10197    81.805555 
   52500    215.06813   -115.94683   0.19459816   -115.75223     843.9829    4.3438352    4.3438352    4.3438352     843.9829    3637.5963   -4017.5489    2911.9013    344.80116    1337.3237    765.42282    81.963413 
   52600    172.38295   -115.90865   0.15597571   -115.75267   -1745.4294    4.3449582    4.3449582    4.3449582   -1745.4294      4147.14   -3181.7867   -6201.6416     1727.109   -276.62704    3142.0316    82.026997 
   52700    247.47483   -115.97625   0.22392042   -115.75233   -4409.7225    4.3424933    4.3424933    4.3424933   -4409.7225   -6494.6525   -2440.4391   -4294.0759    211.38582    3360.1799   -420.73065    81.887475 
   52800    140.21544   -115.87973   0.12686988   -115.75286    5188.2348    4.3422595    4.3422595    4.3422595    5188.2348    5624.3898    3963.4119    5976.9026    1266.1178   -1996.4113    436.23311    81.874246 
   52900    292.36875   -116.01631   0.26454139   -115.75177   -6684.7596    4.3454095    4.3454095    4.3454095   -6684.7596   -3282.2083   -9508.2168   -7263.8538   -578.88145    361.59034   -1440.4197    82.052556 
   53000     98.87576   -115.84279  0.089464865   -115.75333    4006.2409    4.3427063    4.3427063    4.3427063    4006.2409     9775.639   -543.75292    2786.8367   -706.98738   -104.12722    2178.7505    81.899524 
   53100    248.58696   -115.97733    0.2249267   -115.75241   -2207.1284    4.3420298    4.3420298    4.3420298   -2207.1284    4049.5612   -6106.5799   -4564.3666    3163.2773    -1314.991   -757.08944    81.861254 
   53200    223.18948   -115.95422   0.20194653   -115.75227   -230.52273     4.344651     4.344651     4.344651   -230.52273   -3209.1096   -3054.1129    5571.6543    709.63706    1034.0662     1031.422    82.009596 
   53300    188.28611    -115.9231   0.17036523   -115.75273    222.22927    4.3435474    4.3435474    4.3435474    222.22927    7644.3285   -598.15171    -6379.489    89.699084   -212.90232    2264.5607    81.947122 
   53400     216.0796   -115.94793   0.19551336   -115.75241   -1456.4775     4.342011     4.342011     4.342011   -1456.4775   -2791.2255   -2460.7228    882.51571   -1118.2907     2034.955   -23.964853    81.860192 
   53500    135.39371    -115.8752   0.12250708   -115.75269    4446.1274    4.3438749    4.3438749    4.3438749    4446.1274    9517.8161    3568.6861    251.88014   -374.77219   -2004.3315    482.35321    81.965659 
   53600    234.31512   -115.96417   0.21201325   -115.75216   -1406.0536    4.3438521    4.3438521    4.3438521   -1406.0536     4700.736   -6666.3919   -2252.5049   -437.09006   -8.1809478   -1136.8359    81.964367 
   53700     148.2714   -115.88671   0.13415908   -115.75255    1991.3978    4.3420415    4.3420415    4.3420415    1991.3978    7045.9885    -79.22846   -992.56665   -39.172391    1260.3117    1941.9833    81.861915 
   53800    253.90097   -115.98157   0.22973494   -115.75184   -6315.2147    4.3444735    4.3444735    4.3444735   -6315.2147   -3163.1894   -8203.4105   -7579.0442    2752.9714   -153.10211   -1385.4411    81.999546 
   53900    212.61536   -115.94428   0.19237884    -115.7519   -1257.1602    4.3440776    4.3440776    4.3440776   -1257.1602   -2527.9613   -3596.1255    2352.6063    310.75551    755.64245    1037.8939    81.977131 
   54000    177.83696   -115.91336   0.16091062   -115.75244    1941.2914    4.3422059    4.3422059    4.3422059    1941.2914    15005.147   -2093.3911   -7087.8814   -940.07774   -433.31088    2544.3364    81.871217 
   54100    162.73963   -115.90008   0.14725024   -115.75283   -320.88022    4.3432023    4.3432023    4.3432023   -320.88022    1474.7153   -948.95415   -1488.4018   -1269.1822    936.00207   -774.61263    81.927591 
   54200    201.24305   -115.93433   0.18208894   -115.75224   -2270.1658    4.3449905    4.3449905    4.3449905   -2270.1658    1904.9976   -2626.2461   -6089.2489     249.4943   -1254.3386    681.08474    82.028827 
   54300    194.50377   -115.92837    0.1759911   -115.75238    2759.6859     4.342415     4.342415     4.342415    2759.6859    6588.4086   -325.73206    2016.3812   -167.08548   -241.48517   -560.54111    81.883046 
   54400    230.74214   -115.96093   0.20878034   -115.75215   -1716.7492    4.3422979    4.3422979    4.3422979   -1716.7492   -814.19467    106.49451   -4442.5474    1943.9024    1056.9409    903.61917    81.876418 
   54500    180.97037   -115.91607   0.16374579   -115.75232   -2937.0098    4.3458751    4.3458751    4.3458751   -2937.0098    4399.5747    -10270.04   -2940.5646    3318.8571   -983.15181   -599.38803    82.078936 
   54600    220.16887   -115.95139   0.19921342   -115.75217    551.02209    4.3430285    4.3430285    4.3430285    551.02209    2016.1153   -1610.3582    1247.3092   -783.23596    1550.7897    702.90084    81.917753 
   54700    186.03806   -115.92045   0.16833115   -115.75211    4803.0194    4.3402585    4.3402585    4.3402585    4803.0194    16860.732   -920.66395   -1531.0104   -1808.2411   -878.02706    1853.0373    81.761113 
   54800    170.22008   -115.90629   0.15401871   -115.75227   -2419.7985    4.3464968    4.3464968    4.3464968   -2419.7985   -7111.5593   -1260.4294    1112.5933   -353.81234    1330.3388   -113.19875    82.114169 
   54900    251.38109   -115.97914   0.22745489   -115.75169   -4906.6996    4.3443978    4.3443978    4.3443978   -4906.6996    -4792.701   -2373.6634   -7553.7346    1927.4982   -1486.5489    1723.5772    81.995262 
   55000    144.98153   -115.88346   0.13118233   -115.75228    8097.2475    4.3395174    4.3395174    4.3395174    8097.2475    12810.919    3720.8965    7759.9267     676.2914    1580.6364    523.70467    81.719239 
   55100    241.44362   -115.97095   0.21846326   -115.75249   -4479.5179    4.3450534    4.3450534    4.3450534   -4479.5179   -1204.2562   -2967.7299   -9266.5677    1994.8584    521.42343   -79.567261    82.032388 
   55200    137.99399   -115.87784   0.12485986   -115.75298   -1260.3546    4.3455125    4.3455125    4.3455125   -1260.3546    6023.8635   -9220.8947   -584.03258    2666.2573   -1589.8424    42.010849    82.058392 
   55300    243.71836   -115.97294   0.22052149   -115.75242   -288.72112    4.3409762    4.3409762    4.3409762   -288.72112    2509.9118   -2192.9274   -1183.1477   -388.97784    1279.5347    335.06816    81.801679 
   55400    217.38093   -115.94887   0.19669083   -115.75218   -273.81994    4.3428057    4.3428057    4.3428057   -273.81994     5629.281   -3433.5573   -3017.1835   -1598.7969   -506.27248     1594.594     81.90515 
   55500    161.86526   -115.89876   0.14645909    -115.7523    -3305.421    4.3465482    4.3465482    4.3465482    -3305.421    -6271.298   -732.58558   -2912.3793    1546.1077    2244.0284   -1217.8029     82.11708 
   55600     249.2809   -115.97748    0.2255546   -115.75193   -3208.3636    4.3430536    4.3430536    4.3430536   -3208.3636   -835.33694   -5308.7571   -3480.9969    3385.0974   -2103.1281    2054.1468    81.919174 
   55700    104.16098   -115.84682  0.094247045   -115.75257    9953.2277    4.3396212    4.3396212    4.3396212    9953.2277    17761.149    6964.7491    5133.7848    885.84392    1552.9009     767.0049      81.7251 
   55800    264.34389   -115.99129   0.23918391   -115.75211    -6719.525     4.346062     4.346062     4.346062    -6719.525   -5110.4076   -6259.8565    -8788.311    1916.8552    -221.0405   -453.49719    82.089528 
   55900    148.33459    -115.8871   0.13421625   -115.75288    275.37862    4.3454927    4.3454927    4.3454927    275.37862   -58.460481   -5051.3017     5935.898     1560.688   -478.44257    172.06326    82.057271 
   56000    264.13984   -115.99074   0.23899928   -115.75174    501.29492    4.3396054    4.3396054    4.3396054    501.29492    1777.8335     1399.085   -1673.0337    -482.8652    381.14601   -337.53073     81.72421 
   56100    216.93352   -115.94841   0.19628601   -115.75212   -857.26613    4.3439732    4.3439732    4.3439732   -857.26613     2683.991   -5822.0834    566.29409   -488.16135    980.89841    1195.9048    81.971221 
   56200    131.04081    -115.8716   0.11856848   -115.75303   -89.385179    4.3465537    4.3465537    4.3465537   -89.385179    2839.9747    898.06454   -4006.1947    2921.5685    1550.2468   -1473.3306    82.117393 
   56300    256.07174   -115.98454   0.23169909   -115.75284   -1460.3421    4.3407427    4.3407427    4.3407427   -1460.3421     3195.276   -4738.5179   -2837.7844    2373.8654   -1415.4313    3923.6444    81.788477 
   56400    119.56707   -115.86099    0.1081868    -115.7528     7645.685    4.3416827    4.3416827    4.3416827     7645.685     15518.61    5558.9921    1859.4525   -104.40349   -173.30554     1189.705    81.841625 
   56500    294.01476   -116.01788   0.26603073   -115.75185    -10190.95    4.3471753    4.3471753    4.3471753    -10190.95   -11264.036   -9237.7904   -10071.023    1815.1811   -936.56167    486.48782    82.152625 
   56600    156.17325   -115.89422   0.14130884   -115.75292     734.7109    4.3432083    4.3432083    4.3432083     734.7109    3847.7624   -3475.9082    1832.2785    629.75416    1411.7192     1445.448     81.92793 
   56700    246.61528    -115.9755   0.22314269   -115.75236    1027.6027    4.3408499    4.3408499    4.3408499    1027.6027    4493.4596   -394.60019   -1016.0513   -209.62898    1390.7989   -876.63439    81.794539 
   56800    213.44678   -115.94575   0.19313113   -115.75262   -1681.6278    4.3442631    4.3442631    4.3442631   -1681.6278    3041.3997   -3298.0717   -4788.2115    181.38697    2379.4013    689.36689    81.987633 
   56900    128.38704   -115.86912   0.11616729   -115.75296    511.91378    4.3459387    4.3459387    4.3459387    511.91378    5242.9926     335.1983   -4042.4496    4310.0604   -85.248418   -923.28409    82.082542 
   57000    271.63537   -115.99775   0.24578139   -115.75196   -832.08044    4.3413079    4.3413079    4.3413079   -832.08044   -1157.4742   -193.94173   -1144.8254    1436.9328    138.11115    3388.1965    81.820433 
   57100    164.00374   -115.90072   0.14839403   -115.75232    5470.9649    4.3415112    4.3415112    4.3415112    5470.9649    8027.2913     8914.133   -528.52968   -1071.2569    24.605896    182.61892    81.831928 
   57200     279.4532   -116.00485   0.25285512     -115.752   -8877.9193    4.3477679    4.3477679    4.3477679   -8877.9193   -9682.6191   -10657.728   -6293.4106    1884.8081   -205.68139    802.25117    82.186232 
   57300    154.49693   -115.89296   0.13979206   -115.75317    3382.6939    4.3422258    4.3422258    4.3422258    3382.6939    9419.7156   -925.76715    1654.1334    1079.5779    362.72815    1222.0137    81.872344 
   57400    205.49663   -115.93869   0.18593767   -115.75275    4699.8717    4.3397455    4.3397455    4.3397455    4699.8717    12097.607    2297.2313   -295.22304    1351.4115     1616.871   -407.45511    81.732123 
   57500    226.32869   -115.95737   0.20478696   -115.75258   -4330.5201     4.347411     4.347411     4.347411   -4330.5201   -3380.9559   -4417.1799   -5193.4245     1306.319    1717.0175   -1148.0139    82.165994 
   57600    122.72062   -115.86409    0.1110402   -115.75305    1755.6999    4.3438335    4.3438335    4.3438335    1755.6999    7940.7731    2490.9698   -5164.6433    3514.8638   -307.42378    176.84962    81.963317 
   57700    273.73828   -115.99947   0.24768415   -115.75178   -1775.9035    4.3403974    4.3403974    4.3403974   -1775.9035   -1043.5375   -1837.0851    -2447.088   -552.54519   -95.729324    3672.8308    81.768961 
   57800    175.51475   -115.91104   0.15880943   -115.75223    452.32235    4.3454216    4.3454216    4.3454216    452.32235    3854.1809    3743.0163   -6240.2301   -1077.5775   -1435.8075    172.98604    82.053243 
   57900    224.32085   -115.95473   0.20297022   -115.75176   -5518.7547    4.3450701    4.3450701    4.3450701   -5518.7547    559.70736   -10450.949   -6665.0224    2773.4789    775.29772    1614.3456    82.033334 
   58000    174.20481   -115.91001   0.15762417   -115.75238    1963.2303    4.3417719    4.3417719    4.3417719    1963.2303    8149.9407   -1400.7369   -859.51285    1568.9186    697.94354    1528.8397     81.84667 
   58100    183.31672   -115.91828   0.16586882   -115.75241    2681.5771    4.3429395    4.3429395    4.3429395    2681.5771    4503.3257     5081.464   -1540.0583     1125.716     1936.646   -727.00871    81.912716 
   58200       242.44   -115.97136   0.21936481   -115.75199   -4148.8453    4.3450749    4.3450749    4.3450749   -4148.8453   -9778.4136    840.65655   -3508.7789    959.31356    425.60355    -1917.751    82.033608 
   58300    107.47495   -115.85033  0.097245589   -115.75309    4615.6013    4.3436965    4.3436965    4.3436965    4615.6013    9147.0632     5304.137   -604.39621    1139.7389   -291.91376    210.34037    81.955558 
   58400    275.84725   -116.00142   0.24959239   -115.75182   -2243.6074    4.3414764    4.3414764    4.3414764   -2243.6074   -1346.4733   -3322.2719   -2062.0772   -2262.7859     336.5245    1680.5747    81.829961 
   58500     171.3785   -115.90751   0.15506687   -115.75244    1708.9335    4.3443039    4.3443039    4.3443039    1708.9335    7396.9774    2987.4118   -5257.5888   -119.43045   -1039.7559    1604.8736    81.989948 
   58600    219.83864   -115.95136   0.19891462   -115.75245    -3725.817    4.3455757    4.3455757    4.3455757    -3725.817    539.65365   -10000.974   -1716.1304    3795.7628   -39.156942    742.95278    82.061976 
   58700    189.73175   -115.92407   0.17167328    -115.7524    1340.5673    4.3411796    4.3411796    4.3411796    1340.5673    5834.8933     2187.051   -4000.2424    1676.1512    351.71181    2197.7803    81.813177 
   58800    178.85325   -115.91402   0.16183018   -115.75219    2024.0146    4.3437279    4.3437279    4.3437279    2024.0146    518.13394    5157.1159    396.79377   -463.67863    231.85276   -1376.9897    81.957338 
   58900    234.19817    -115.9636   0.21190743    -115.7517   -4603.8343    4.3455886    4.3455886    4.3455886   -4603.8343   -8260.7639   -458.61892   -5092.1201   -65.243984     50.25811   -1435.3955    82.062706 
   59000    100.39582   -115.84349  0.090840246   -115.75265    4543.7027    4.3422161    4.3422161    4.3422161    4543.7027    12703.235    2023.8429   -1095.9697    1100.2443   -1328.4809    1465.2838    81.871795 
   59100    277.19635   -116.00234   0.25081308   -115.75152   -3387.2371    4.3434402    4.3434402    4.3434402   -3387.2371   -1262.1297   -5349.4338   -3550.1479   -1256.4029    1066.8938    651.37667    81.941051 
   59200    197.10939    -115.9303   0.17834872   -115.75195    4.2136122    4.3438886    4.3438886    4.3438886    4.2136122    3679.2362     1374.472   -5041.0674    1886.1731   -895.96369    1110.1443    81.966432 
   59300    208.63013   -115.94121   0.18877292   -115.75244   -3117.3464    4.3446263    4.3446263    4.3446263   -3117.3464   -2078.1266   -4426.4868   -2847.4258    3624.3114      42.1416    1394.6352    82.008198 
   59400    216.03871    -115.9477   0.19547637   -115.75222    679.15627    4.3429727    4.3429727    4.3429727    679.15627    448.00157    5419.0928   -3829.6255    868.22901   -47.929821    2127.9187    81.914596 
   59500    172.20264   -115.90848   0.15581257   -115.75267    5305.8073    4.3415293    4.3415293    4.3415293    5305.8073    6268.8993    6307.5827    3340.9399   -1073.6977   -1271.0967   -2310.8506    81.832951 
   59600    239.45484    -115.9692   0.21666377   -115.75254   -4191.9606    4.3457193    4.3457193    4.3457193   -4191.9606   -3116.7935    -3853.822   -5605.2664   -637.11841    942.05424   -853.00118     82.07011 
   59700    109.61616   -115.85248  0.099183003    -115.7533    4888.2042    4.3429211    4.3429211    4.3429211    4888.2042    12356.734   -361.92638    2669.8044    1391.6824   -1041.6684    1466.6019    81.911678 
   59800    292.61162   -116.01651   0.26476114   -115.75175   -2508.6223    4.3414468    4.3414468    4.3414468   -2508.6223    696.69306   -4795.9924   -3426.5676   -533.90309    1900.5395    1286.9078    81.828284 
   59900    212.86339    -115.9445   0.19260327   -115.75189   -2332.5595    4.3456779    4.3456779    4.3456779   -2332.5595     -579.709   -3474.8783   -2943.0912    2394.8703   -1121.6004    712.74533    82.067763 
   60000    187.79058   -115.92233   0.16991686   -115.75242   -2535.1819    4.3438463    4.3438463    4.3438463   -2535.1819   -38.180368   -6079.2631   -1488.1023    2607.2163     866.5088    1972.8485    81.964036 
   60100    216.29355   -115.94788   0.19570695   -115.75217    207.42321    4.3417794    4.3417794    4.3417794    207.42321    2862.5465    3357.6092   -5597.8861   -1093.1344   -729.84984    2377.6529    81.847092 
   60200    134.29164   -115.87422    0.1215099   -115.75271     5253.816    4.3437984    4.3437984    4.3437984     5253.816    11615.452    856.69038    3289.3054   -1579.7735   -2001.4973   -1660.1771    81.961327 
   60300    264.20043   -115.99161    0.2390541   -115.75256   -5930.1715    4.3440951    4.3440951    4.3440951   -5930.1715   -3535.6231   -7600.2454    -6654.646    170.91355    404.61797    111.58028    81.978124 
   60400     107.7957   -115.85101  0.097535818   -115.75348    4551.5729    4.3429887    4.3429887    4.3429887    4551.5729    10365.991    2107.2657    1181.4619    1496.9454   -800.96223    1456.3234    81.915503 
   60500    306.23899   -116.02915   0.27709148   -115.75206   -4401.1524    4.3433564    4.3433564    4.3433564   -4401.1524    -4210.737   -5472.5208   -3520.1993    -931.0626     2654.859     62.74931    81.936311 
   60600    196.78517   -115.93045   0.17805536   -115.75239    536.87826    4.3430634    4.3430634    4.3430634    536.87826    4349.3321   -696.02189   -2042.6755    1923.2284   -2611.0852    249.62532    81.919727 
   60700    164.89166    -115.9022   0.14919744     -115.753   -607.31818     4.344405     4.344405     4.344405   -607.31818    5246.6102   -6043.4782   -1025.0865    769.05504    410.94438    2283.1031    81.995668 
   60800    202.97735   -115.93615   0.18365817   -115.75249    519.47155    4.3426454    4.3426454    4.3426454    519.47155    2951.4515    1769.8366   -3162.8735   -598.32308   -2758.4591      761.758     81.89608 
   60900    149.10948   -115.88714   0.13491739   -115.75222    5414.0669    4.3422381    4.3422381    4.3422381    5414.0669    11710.797   -438.08217    4969.4858    -1147.155   -1773.3344   -949.97117    81.873038 
   61000    264.44367    -115.9911   0.23927419   -115.75182   -7418.0453    4.3449064    4.3449064    4.3449064   -7418.0453   -6908.7584   -10832.843    -4512.534    1449.8926    1000.2507    101.80879    82.024061 
   61100    129.28675   -115.86959   0.11698137   -115.75261    786.09879    4.3431525    4.3431525    4.3431525    786.09879    4905.6985   -4768.6304    2221.2282      2769.78   -515.82644     2608.751     81.92477 
   61200    266.09172   -115.99287   0.24076538   -115.75211   -1830.6311    4.3428863    4.3428863    4.3428863   -1830.6311    3833.2289   -4110.0167   -5215.1054   -1529.2828    2536.9706   -199.71796     81.90971 
   61300    193.09188   -115.92743   0.17471359   -115.75272    445.32112    4.3429396    4.3429396    4.3429396    445.32112    5531.3927   -5410.8758    1215.4465    1439.7633   -2228.0065     322.7634    81.912725 
   61400    133.59667    -115.8743   0.12088108   -115.75342   -1156.2679    4.3443056    4.3443056    4.3443056   -1156.2679    8644.1854    -8322.805   -3790.1842    245.06455    442.27179    3072.4983    81.990042 
   61500    226.20142   -115.95727    0.2046718    -115.7526   -1213.4967    4.3438427    4.3438427    4.3438427   -1213.4967   -2379.8738    2493.5465   -3754.1629    528.78064   -2437.2412    352.30741    81.963834 
   61600    184.98658   -115.91964   0.16737975   -115.75227    5546.9731    4.3407239    4.3407239    4.3407239    5546.9731    9597.3997    336.68428    6706.8354   -843.24566   -693.42693   -268.47054    81.787414 
   61700    227.95909   -115.95848   0.20626218   -115.75222   -5567.6083      4.34511      4.34511      4.34511   -5567.6083   -3187.8301   -5993.0856   -7521.9093    2238.3143    1282.3519    1103.6286    82.035592 
   61800     164.7329   -115.90164   0.14905379   -115.75258   -1214.3504    4.3452237    4.3452237    4.3452237   -1214.3504    2387.8162   -5817.1062   -213.76124    1191.9839    672.21371    2411.9522    82.042035 
   61900    225.87204     -115.956   0.20437377   -115.75162     4190.232    4.3401082    4.3401082    4.3401082     4190.232    11902.846    2858.0667   -2190.2173    -1465.467    412.08122   -962.82254    81.752617 
   62000    213.74644   -115.94518   0.19340227   -115.75178   -747.43774    4.3440157    4.3440157    4.3440157   -747.43774    932.56201   -2363.9903   -810.88492    314.13304   -2454.5741    66.641151    81.973629 
   62100    146.02464   -115.88457   0.13212616   -115.75244   -2898.0526     4.345925     4.345925     4.345925   -2898.0526    2206.3811   -6936.6513   -3963.8875     905.5966    2.1470887    1710.3632    82.081763 
   62200    246.41993   -115.97492   0.22296593   -115.75196   -448.76754    4.3412253    4.3412253    4.3412253   -448.76754   -4419.4986     3093.079    -19.88303    2080.2371   -1404.0206   -613.55432     81.81576 
   62300     186.5111   -115.92132   0.16875916   -115.75256    4428.0143    4.3422811    4.3422811    4.3422811    4428.0143    12285.333   -1357.0525     2355.763    775.99484    501.32555    487.75258    81.875467 
   62400    201.45019   -115.93519   0.18227637   -115.75291   -5113.0341    4.3455397    4.3455397    4.3455397   -5113.0341   -1089.7222   -8463.7835   -5785.5966    1876.0688    1603.6457     1452.955    82.059935 
   62500    184.29721   -115.91967   0.16675599   -115.75291   -1707.5897    4.3438623    4.3438623    4.3438623   -1707.5897    5645.5766   -8018.0458   -2750.2998   -266.35201    326.70918    2710.9078    81.964944 
   62600    230.90884   -115.96076   0.20893117   -115.75183     3297.684    4.3410984    4.3410984    4.3410984     3297.684    8137.5454    3624.0738   -1868.5671   -1682.9136    984.47819   -1594.3503    81.808588 
   62700     220.6584   -115.95165   0.19965636     -115.752   -1723.0689    4.3439908    4.3439908    4.3439908   -1723.0689   -1854.7466   -3130.4874   -183.97283    1206.3967   -2011.9579    490.18353     81.97222 
   62800    155.39197   -115.89327   0.14060192   -115.75267   -2431.9494    4.3459111    4.3459111    4.3459111   -2431.9494    888.45167   -794.28095   -7390.0189    1085.7692    1396.1659    1478.5298    82.080978 
   62900    205.31406   -115.93767   0.18577247    -115.7519    2733.9648    4.3415686    4.3415686    4.3415686    2733.9648       2471.2    4097.0457    1633.6487    2307.5731   -444.64576   -1149.0992    81.835172 
   63000    201.40144   -115.93396   0.18223225   -115.75173    3497.9213    4.3419214    4.3419214    4.3419214    3497.9213    13472.398   -876.52438   -2102.1098    754.76147    546.76769    1215.9804    81.855124 
   63100    171.69332   -115.90745   0.15535173    -115.7521   -3036.0245    4.3468267    4.3468267    4.3468267   -3036.0245    887.05376   -3142.8541   -6852.2733     1254.732    743.77633    2299.1168    82.132867 
   63200     257.4084   -115.98437   0.23290853   -115.75146   -4514.6235    4.3434881    4.3434881    4.3434881   -4514.6235    -2753.356   -7355.2468   -3435.2677   -1664.8334   -1160.8103     1937.429    81.943764 
   63300     196.6961   -115.92989   0.17797477   -115.75191    4948.5092    4.3408541    4.3408541    4.3408541    4948.5092     10521.04    5503.9656   -1179.4783   -2074.2454    902.17259    -1292.958    81.794778 
   63400     239.3607   -115.96897   0.21657859   -115.75239   -4172.4926    4.3455433    4.3455433    4.3455433   -4172.4926   -4869.4498   -5449.0001    -2199.028    2364.9485   -633.73563    685.90746    82.060136 
   63500    115.18942   -115.85757   0.10422581   -115.75334    1432.9914    4.3450383    4.3450383    4.3450383    1432.9914    9078.3176    92.112852   -4871.4563    2297.3191    2042.7961    686.70536     82.03153 
   63600     191.7281    -115.9256   0.17347961   -115.75212    4065.7929    4.3413695    4.3413695    4.3413695    4065.7929    6549.5625    2929.7073    2718.1089     2814.299   -148.66907   -1894.2809    81.823917 
   63700     222.4221   -115.95305   0.20125219    -115.7518   -360.36996    4.3433777    4.3433777    4.3433777   -360.36996    7055.7619    -4431.208   -3705.6638   -507.44744    249.16183    1159.2239    81.937515 
   63800    158.55929   -115.89577   0.14346778   -115.75231   -2808.2039    4.3462468    4.3462468    4.3462468   -2808.2039   -329.02406   -4588.6502   -3506.9373    1627.5829   -120.70795    2787.4257    82.099999 
   63900    301.62926   -116.02443    0.2729205   -115.75151   -5971.9505    4.3434841    4.3434841    4.3434841   -5971.9505    -5162.098   -5675.4664   -7078.2872   -2054.9099   -617.78898    1235.9681    81.943537 
   64000     160.4731   -115.89748   0.14519944   -115.75228     6235.796    4.3409555    4.3409555    4.3409555     6235.796    14694.207    1768.8913    2244.2902   -223.31468    53.283444    -703.0679    81.800508 
   64100    232.18497    -115.9626   0.21008584   -115.75251   -4998.8155    4.3463251    4.3463251    4.3463251   -4998.8155   -1084.2195   -6207.0204   -7705.2064    2148.2916    410.53213    871.12287    82.104435 
   64200    111.68605   -115.85455   0.10105588   -115.75349    4386.8134    4.3445022    4.3445022    4.3445022    4386.8134    10848.362    5221.0371   -2908.9588    2689.8055     2487.685   -286.49049    82.001175 
   64300    215.22993   -115.94699   0.19474456   -115.75224    4432.2123    4.3405992    4.3405992    4.3405992    4432.2123    3370.1157    3665.2874    6261.2337    1900.0071    285.68918   -2559.2188    81.780365 
   64400    235.99616   -115.96597   0.21353429   -115.75244   -3124.4606    4.3450386    4.3450386    4.3450386   -3124.4606   -512.96574   -2195.5109   -6664.9052   -772.84379    218.16987    1461.4498     82.03155 
   64500    154.67613   -115.89282   0.13995421   -115.75287   -1009.9387    4.3456177    4.3456177    4.3456177   -1009.9387    1710.2652   -3548.3875    -1191.694    729.94325   -1361.7352    2116.6495    82.064353 
   64600    304.26903   -116.02674   0.27530901   -115.75143    -3574.306    4.3422269    4.3422269    4.3422269    -3574.306    656.29001   -4867.5725   -6511.6354   -2371.1134    310.03354    1043.9907    81.872403 
   64700    151.04485   -115.88884   0.13666856   -115.75217    4364.6403    4.3432591    4.3432591    4.3432591    4364.6403    11475.351   -472.01183    2090.5816    1217.1427    727.60236    763.74953    81.930802 
   64800    225.83756   -115.95654   0.20434257   -115.75219   -5540.9426    4.3461826    4.3461826    4.3461826   -5540.9426   -1933.3025   -8645.9867   -6043.5385    1815.6799    1449.4348    590.47982    82.096364 
   64900    151.82459   -115.89023   0.13737408   -115.75285    3498.4966    4.3432089    4.3432089    4.3432089    3498.4966    4442.6015    3057.3035    2995.5849    1835.8457    1610.7356   -637.35374    81.927961 
   65000    204.12752   -115.93702   0.18469887   -115.75232    3005.1529    4.3421456    4.3421456    4.3421456    3005.1529   -616.62572    4668.4691    4963.6153    684.09878   -1159.1914   -3306.9857    81.867803 
   65100    238.86471    -115.9687   0.21612981   -115.75257   -4688.5376    4.3450756    4.3450756    4.3450756   -4688.5376   -4345.4874   -6249.2615    -3470.864   -1572.0308   -666.57788    2038.3109    82.033646 
   65200    126.30834    -115.8675   0.11428644   -115.75321     2156.529    4.3446406    4.3446406    4.3446406     2156.529    9115.4663    77.359688    -2723.239   -248.51171   -1048.5282    2143.3126    82.009009 
   65300    321.71225   -116.04253     0.291092   -115.75144   -4593.5689    4.3427157    4.3427157    4.3427157   -4593.5689   -917.13801   -5519.3524   -7344.2163   -1884.6824    413.36707    1064.5628    81.900058 
   65400    135.71218   -115.87524   0.12279523   -115.75245     4147.039    4.3437737    4.3437737    4.3437737     4147.039    7845.3743   -208.72611    4804.4689    1470.3228     617.4935    1392.3552    81.959929 
   65500     245.1743    -115.9738   0.22183886   -115.75196   -5856.4188    4.3455251    4.3455251    4.3455251   -5856.4188   -5309.4249   -5764.5117   -6495.3197    1077.3495     1398.366    1040.6122    82.059106 
   65600    148.57251    -115.8868   0.13443153   -115.75237    4544.3525    4.3427973    4.3427973    4.3427973    4544.3525    3960.0162    3702.4838    5970.5575    554.05621    1034.8069   -1378.1652    81.904671 
   65700    195.47905   -115.92884   0.17687355   -115.75197     2776.501    4.3427403    4.3427403    4.3427403     2776.501   -516.76909    5811.3103    3034.9618    308.99483   -1027.0891   -3179.9045    81.901446 
   65800     221.4272   -115.95283   0.20035198   -115.75248   -4217.8739    4.3450968    4.3450968    4.3450968   -4217.8739   -1947.9253   -6056.3175   -4649.3787    -1073.979   -1118.3444    2844.7799    82.034845 
   65900    112.29796   -115.85471   0.10160956    -115.7531    3148.6449    4.3436221    4.3436221    4.3436221    3148.6449    10249.167   -589.63015   -213.60252    962.60426    1012.8823    904.42356    81.951348 
   66000    341.32958   -116.06025   0.30884217   -115.75141   -6942.1806    4.3436787    4.3436787    4.3436787   -6942.1806   -4798.1426   -8098.9443    -7929.455   -1854.5761    1304.2628    1167.6652    81.954553 
   66100     103.8413     -115.847  0.093957789   -115.75304    4763.7375    4.3430446    4.3430446    4.3430446    4763.7375    6247.4562    -141.2021    8184.9585    2708.6656    919.87479    680.32885    81.918663 
   66200    263.24935   -115.99052   0.23819354   -115.75233   -7787.2805    4.3451882    4.3451882    4.3451882   -7787.2805   -9233.1676   -10551.908   -3576.7654    818.25555    774.04999    635.21215    82.040026 
   66300    127.89825   -115.86873   0.11572503   -115.75301    5585.5423    4.3432695    4.3432695    4.3432695    5585.5423    8226.1392    3580.4302    4950.0576   -186.76678   -469.01559   -1779.7921     81.93139 
   66400    213.01734   -115.94493   0.19274256   -115.75219    1877.3251    4.3419688    4.3419688    4.3419688    1877.3251    980.81472    1965.5408    2685.6199    329.66409   -1678.5381   -2151.0632    81.857802 
   66500    204.03061   -115.93725   0.18461119   -115.75264   -3335.2349    4.3450831    4.3450831    4.3450831   -3335.2349    902.59129        -4225   -6683.2961   -1189.6946   -627.93843    3098.4152     82.03407 
   66600    136.39339   -115.87629    0.1234116   -115.75288    2627.6155     4.344073     4.344073     4.344073    2627.6155    8012.0462    329.10483    -458.3045    1018.0165    1460.8427    1365.6458    81.976871 
   66700     343.7366   -116.06221    0.3110201   -115.75119   -5650.7967    4.3423978    4.3423978    4.3423978   -5650.7967    -5329.468   -6967.7927   -4655.1295    -1520.747     1687.003    1665.0934    81.882073 
   66800    96.689233   -115.84055   0.08748645   -115.75306    4608.8341    4.3443838    4.3443838    4.3443838    4608.8341    5970.7957    1577.0853    6278.6212     1479.142   -619.46515    1560.5227     81.99447 
   66900    267.97004   -115.99483   0.24246493   -115.75237   -7458.4423    4.3448684    4.3448684    4.3448684   -7458.4423   -6375.0904   -9607.3678   -6392.8687   -472.11687     77.22208    548.70364    82.021908 
   67000    113.75076   -115.85612   0.10292408   -115.75319    7035.0646    4.3419604    4.3419604    4.3419604    7035.0646    9833.9505    5599.6861    5671.5572   -1243.1764   -133.96363    -2380.218    81.857327 
   67100    232.40469   -115.96264   0.21028465   -115.75236   -1469.5381    4.3439655    4.3439655    4.3439655   -1469.5381    -6.350079   -135.87496   -4266.3892   -399.86976   -691.63826   -689.42322    81.970786 
   67200    199.58465    -115.9333   0.18058838   -115.75271   -3276.5973    4.3442613    4.3442613    4.3442613   -3276.5973   -1283.1893   -3586.6384   -4959.9643   -224.76576    1027.6307    3314.4083    81.987534 
   67300    169.48993   -115.90603   0.15335805   -115.75267    1535.1186    4.3435871    4.3435871    4.3435871    1535.1186    3727.9893   -325.55628    1202.9227    1619.6967    2080.0821    153.56534    81.949369 
   67400    323.02195   -116.04339   0.29227705   -115.75112   -5220.0461    4.3437281    4.3437281    4.3437281   -5220.0461   -3313.1545   -8286.4479   -4060.5358   -917.93456    634.42906    1279.7337    81.957351 
   67500    100.03166   -115.84321  0.090510746    -115.7527    5586.8865    4.3431762    4.3431762    4.3431762    5586.8865    9551.5947   -781.88498    7990.9499    1166.9636   -1657.5459    1314.3427    81.926113 
   67600    263.88616   -115.99099   0.23876974   -115.75222   -4815.7247    4.3442307    4.3442307    4.3442307   -4815.7247   -214.51028   -6968.9512   -7263.7125   -1191.6454    652.75347    163.56907    81.985803 
   67700    131.24771   -115.87167   0.11875568   -115.75292    6626.7798    4.3425235    4.3425235    4.3425235    6626.7798    7587.0465    6889.3171    5403.9758   -930.56154    320.70003   -2176.7079    81.889183 
   67800    242.68747   -115.97214   0.21958873   -115.75255   -1402.7227    4.3433111    4.3433111    4.3433111   -1402.7227    1467.4271    1147.1694   -6822.7646    1053.9893    548.98107   -530.60859    81.933745 
   67900    210.36053   -115.94325   0.19033863   -115.75291   -3164.7207    4.3445917    4.3445917    4.3445917   -3164.7207   -2820.7182   -359.97525   -6313.4687    283.72267    665.23507    3613.2393    82.006241 
   68000    169.10571   -115.90601    0.1530104     -115.753    652.66868    4.3433703    4.3433703    4.3433703    652.66868    3812.3717    304.24651   -2158.6122    2139.8304    3139.9543    378.98415    81.937098 
   68100    296.60291   -116.02016   0.26837255   -115.75179   -5514.0311    4.3443385    4.3443385    4.3443385   -5514.0311   -4738.6599   -7802.5645   -4000.8687    -1268.525   -64.371316    1304.3704    81.991902 
   68200    100.59031   -115.84374  0.091016228   -115.75272    4904.3398    4.3428503    4.3428503    4.3428503    4904.3398    12552.301   -145.21831    2305.9369    235.70382   -1601.4885    1529.3242    81.907668 
   68300    260.87852   -115.98787   0.23604837   -115.75182   -6435.0343    4.3440932    4.3440932    4.3440932   -6435.0343   -6114.1882   -4691.0599   -8499.8549   -1622.0499    1934.2994    -735.8177    81.978015 
   68400    140.28554   -115.87925    0.1269333   -115.75231    3687.2957    4.3444566    4.3444566    4.3444566    3687.2957    874.12928    7223.3298     2964.428   -1346.1724    889.76991   -1212.8837    81.998588 
   68500    244.15153   -115.97274   0.22091344   -115.75183   -594.80912    4.3425989    4.3425989    4.3425989   -594.80912    2754.4675    1867.0542    -6405.949     2279.139    736.51321   -34.073551    81.893448 
   68600    177.11197   -115.91265   0.16025464   -115.75239   -174.99311    4.3439116    4.3439116    4.3439116   -174.99311    740.99076   -218.54892   -1047.4212    1184.7177    564.62631    2991.2195    81.967733 
   68700    169.60131   -115.90577   0.15345883   -115.75231    516.00437    4.3450592    4.3450592    4.3450592    516.00437    7156.4963    -774.3838   -4834.0994    1747.1988    1469.1313   -479.45187    82.032715 
   68800    278.20849   -116.00338   0.25172889   -115.75165   -1570.0384    4.3422831    4.3422831    4.3422831   -1570.0384   -1086.5481    -5723.125    2099.5578   -2095.8984    -975.7287    2189.8692    81.875581 
   68900    126.72379   -115.86733   0.11466235   -115.75267    4316.7638    4.3430307    4.3430307    4.3430307    4316.7638    13011.983   -520.92441    459.23292   -184.32262   -583.43522    399.64662    81.917878 
   69000    248.37239   -115.97726   0.22473256   -115.75252   -6621.4682    4.3452738    4.3452738    4.3452738   -6621.4682    -10062.41   -1459.5087   -8342.4859   -1848.9751    2878.5223   -816.08226    82.044871 
   69100    161.54824     -115.899   0.14617224   -115.75283    2678.2964    4.3434672    4.3434672    4.3434672    2678.2964   -13.772423    8236.0157   -187.35425    1216.4589    1568.2104   -355.08361    81.942579 
   69200    214.99989   -115.94648   0.19453642   -115.75194    295.84843    4.3427248    4.3427248    4.3427248    295.84843    5548.4592    1600.9267   -6261.8406    2163.1984    285.50734    223.47403    81.900571 
   69300    155.73801   -115.89316   0.14091502   -115.75224    -1163.182    4.3443482    4.3443482    4.3443482    -1163.182    1797.0683   -1124.0264   -4162.5879    1703.0533    874.55917    2631.5992    81.992452 
   69400     189.8317   -115.92356   0.17176371   -115.75179   -2363.1282    4.3449615    4.3449615    4.3449615   -2363.1282    2721.2039   -1917.4518   -7893.1368    739.85929      1783.34   -1284.2471    82.027182 
   69500     256.2484   -115.98324   0.23185894   -115.75138   -1476.8313    4.3424077    4.3424077    4.3424077   -1476.8313   -701.86723   -6199.8653    2471.2387   -3272.7351   -1199.9579    2328.6744    81.882633 
   69600    177.60333   -115.91295   0.16069922   -115.75225    283.73975    4.3434009    4.3434009    4.3434009    283.73975     6308.952   -1298.9608    -4158.772    457.85854    1361.5193    49.140777     81.93883 
   69700    212.52633    -115.9444   0.19229829    -115.7521   -4343.7911    4.3460717    4.3460717    4.3460717   -4343.7911   -5212.9836   -2473.2151   -5345.1746   -930.64933    3433.8066   -1113.9937    82.090078 
   69800    185.33644   -115.91979   0.16769631    -115.7521    3205.3401    4.3427254    4.3427254    4.3427254    3205.3401    6559.9972    5367.8239   -2311.8009    2796.4346   -443.74232   -108.92878    81.900602 
   69900     167.5559   -115.90392    0.1516081   -115.75231    5106.6965    4.3416842    4.3416842    4.3416842    5106.6965    13551.672    3482.3546   -1713.9376    2395.6496   -686.80079    512.98137    81.841709 
   70000    209.14456   -115.94195   0.18923839   -115.75272   -3335.1178    4.3451304    4.3451304    4.3451304   -3335.1178   -3514.8883   -3837.3739   -2653.0913    2062.3259      238.621    1863.4082    82.036752 
   70100    189.49701   -115.92434   0.17146088   -115.75288   -606.74268    4.3444818    4.3444818    4.3444818   -606.74268    2088.8872    20.138308   -3929.2535   -1061.2757     1995.305   -873.99532    82.000018 
   70200     275.1264   -116.00049   0.24894015   -115.75155   -1009.1145    4.3419214    4.3419214    4.3419214   -1009.1145   -1833.9796   -5183.3485    3989.9848   -1626.6708   -439.30008    2091.7476    81.855122 
   70300     169.9968   -115.90606   0.15381668   -115.75224    156.63349    4.3437139    4.3437139    4.3437139    156.63349    5470.9355   -482.38861   -4518.6465     233.2411    1905.7406   -127.60095    81.956542 
   70400    184.64078   -115.91897   0.16706686    -115.7519   -3243.0079    4.3460568    4.3460568    4.3460568   -3243.0079   -2361.6064   -2788.3827   -4579.0347    580.48795    4941.7638   -204.23929    82.089231 
   70500    217.36271   -115.94814   0.19667435   -115.75147    1739.4552    4.3419388    4.3419388    4.3419388    1739.4552    6666.5894    3810.7831   -5259.0069    2036.5672   -1441.1662    956.31448    81.856108 
   70600    164.35356   -115.90079   0.14871055   -115.75208    3937.3518    4.3416099    4.3416099    4.3416099    3937.3518    9732.4568    1765.2047    314.39397    1167.7642    399.20491    853.01861    81.837509 
   70700    242.19916   -115.97101   0.21914689   -115.75186   -7465.7266    4.3467382    4.3467382    4.3467382   -7465.7266   -7934.5368   -4941.5452   -9521.0977      417.405    1030.6373    1245.1669    82.127847 
   70800     177.8907   -115.91343   0.16095925   -115.75247     1477.338     4.343697     4.343697     4.343697     1477.338    8016.0713   -2156.0236   -1428.0338   -1217.8864     2258.397   -205.29254    81.955586 
   70900    257.28241   -115.98466   0.23279454   -115.75186    1186.2655    4.3404087    4.3404087    4.3404087    1186.2655    6785.7827   -5321.6792    2094.6929   -1288.0664    353.79593    2331.8069    81.769601 
   71000    178.85571   -115.91484    0.1618324   -115.75301    -1682.492    4.3449185    4.3449185    4.3449185    -1682.492    4243.7556   -1484.4169   -7806.8148    958.36141    3521.5766   -590.10118     82.02475 
   71100    162.02834   -115.89979   0.14660664   -115.75318   -654.70647    4.3451992    4.3451992    4.3451992   -654.70647    3476.9975   -4621.9214   -819.19544    1114.3463    3297.3478    -257.3525    82.040649 
   71200    273.72274   -115.99946   0.24767009   -115.75179    22.400553    4.3408163    4.3408163    4.3408163    22.400553    247.89931    3965.0671   -4145.7647    422.65369   -2748.7625    1509.6161    81.792639 
   71300    142.11273   -115.88137   0.12858659   -115.75278    3157.2227    4.3425235    4.3425235    4.3425235    3157.2227    6331.2737    -1238.715    4379.1095    1075.3688    1931.6327    458.24788     81.88918 
   71400    233.04864   -115.96271    0.2108673   -115.75185   -7366.5084    4.3469688    4.3469688    4.3469688   -7366.5084   -10676.739   -2937.6034   -8485.1832   -448.78887    1889.3046    697.56027    82.140923 
   71500    168.82998   -115.90492   0.15276092   -115.75216    4889.6395    4.3415926    4.3415926    4.3415926    4889.6395    12651.316   -2290.5365    4308.1391    177.90279    2683.9147   -871.09341    81.836532 
   71600    246.53061   -115.97491   0.22306608   -115.75184    508.48927    4.3408009    4.3408009    4.3408009    508.48927    4156.9255   -3775.1558    1143.6982   -334.88765   -860.19955    1539.0288    81.791771 
   71700    190.93067   -115.92498   0.17275809   -115.75223   -4382.2724    4.3465484    4.3465484    4.3465484   -4382.2724   -2971.5099   -2794.3194    -7380.988    1286.9983    3478.7675   -552.30212    82.117093 
   71800    178.73538   -115.91419   0.16172353   -115.75247    1155.1206    4.3439491    4.3439491    4.3439491    1155.1206    6820.9453   -476.90781   -2878.6756     -467.263    2164.4338    28.726852     81.96986 
   71900    266.59216   -115.99261   0.24121819   -115.75139     925.6826    4.3401872    4.3401872    4.3401872     925.6826    2507.0471    3354.8579   -3084.8572   -804.02486   -2098.9049    2543.5684    81.757083 
   72000    107.76017   -115.85066  0.097503662   -115.75315    2228.9081    4.3445636    4.3445636    4.3445636    2228.9081     10542.04   -3751.2899   -104.02597   -378.72424    2621.0283    1155.8662    82.004647 
   72100    223.37394   -115.95525   0.20211343   -115.75313   -5500.9612    4.3451187    4.3451187    4.3451187   -5500.9612   -6187.8659   -1371.7358    -8943.282    872.32491    3017.3574    881.46131    82.036088 
   72200    198.56413   -115.93239   0.17966499   -115.75272    3018.6834    4.3415928    4.3415928    4.3415928    3018.6834    9749.3668   -4812.3319    4119.0151    978.31178    621.55273   -474.11279    81.836543 
   72300    243.59899   -115.97265   0.22041349   -115.75224   -3801.2088    4.3432058    4.3432058    4.3432058   -3801.2088   -1545.2117    -4448.381   -5410.0335    716.51257   -702.52147    1193.2771    81.927788 
   72400    188.71363   -115.92278   0.17075206   -115.75203   -5201.2676     4.345741     4.345741     4.345741   -5201.2676   -7047.3256   -4243.7622   -4312.7151    985.91476    3088.4691    -771.8791    82.071338 
   72500    176.06919   -115.91161    0.1593111    -115.7523    3027.7708     4.343313     4.343313     4.343313    3027.7708    9639.3105     1942.561   -2498.5593   -1518.4937    1890.5878    495.88905    81.933855 
   72600    230.39054   -115.96038    0.2084622   -115.75192    2278.5675    4.3410239    4.3410239    4.3410239    2278.5675    3616.2209    3731.4945   -512.01273   -1603.1471   -1251.9842    2731.1842    81.804375 
   72700    130.99768   -115.87124   0.11852945   -115.75271    584.93781    4.3453844    4.3453844    4.3453844    584.93781    2385.6405   -2141.7936    1510.9666   -247.87096    3166.0856    1096.9941    82.051136 
   72800    212.64674   -115.94436   0.19240724   -115.75195   -1753.1776    4.3453142    4.3453142    4.3453142   -1753.1776   -1164.9959    48.478593   -4143.0155    1741.5413     1465.787    1453.2064    82.047158 
   72900    244.85411   -115.97263   0.22154915   -115.75108    2811.1184    4.3411545    4.3411545    4.3411545    2811.1184    5723.0648   -3861.0869    6571.3773    996.93476   -897.21843   -942.60373    81.811756 
   73000    196.69813   -115.93003    0.1779766   -115.75205   -1443.2937    4.3447035    4.3447035    4.3447035   -1443.2937    6168.8928   -3639.0877   -6859.6861     1581.246   -560.00136      5.82741    82.012569 
   73100    229.36475   -115.96001   0.20753405   -115.75247   -6436.0997    4.3455255    4.3455255    4.3455255   -6436.0997   -6323.7718   -6204.0722   -6780.4552   -1540.2138    3303.2832   -1289.2969    82.059131 
   73200     158.5202   -115.89604   0.14343241   -115.75261    4952.4756    4.3423534    4.3423534    4.3423534    4952.4756    14646.989    3196.2262   -2985.7879   -851.97038    2400.4118    259.02593    81.879562 
   73300    242.65233    -115.9711   0.21955693   -115.75155   -2107.8087    4.3442763    4.3442763    4.3442763   -2107.8087   -4632.8921    265.17789    -1955.712   -2364.2719    230.28355    3203.4295    81.988381 
   73400    120.44816   -115.86116   0.10898403   -115.75218   -723.78173    4.3448214    4.3448214    4.3448214   -723.78173   -2058.3864    1245.2409   -1358.1997     1449.285    4378.1368    1562.6491    82.019247 
   73500    205.31708   -115.93764   0.18577521   -115.75187   -1334.2782    4.3445435    4.3445435    4.3445435   -1334.2782   -3762.8945      67.0483   -306.98841    1893.2198   -120.02453    2407.9129    82.003514 
   73600    216.80166   -115.94794    0.1961667   -115.75177    2195.3918    4.3427635    4.3427635    4.3427635    2195.3918    8296.4595   -5712.9685    4002.6845    1723.6624   -2148.4239    38.067126    81.902763 
   73700    173.77997   -115.90941   0.15723977   -115.75217   -1088.0652    4.3445898    4.3445898    4.3445898   -1088.0652    5329.5047   -2861.4088   -5732.2916    1693.8337    493.15639   -432.57707    82.006133 
   73800    249.95825   -115.97788   0.22616748   -115.75171   -6483.4426    4.3462424    4.3462424    4.3462424   -6483.4426   -2364.8376   -10487.264   -6598.2259   -2122.8204    3385.3311   -1737.1256    82.099748 
   73900    205.91255   -115.93772     0.186314   -115.75141    2945.1061    4.3424651    4.3424651    4.3424651    2945.1061    10825.615     1221.246   -3211.5424   -809.26152    1685.1286   -589.78368     81.88588 
   74000    249.12561   -115.97701   0.22541409   -115.75159   -2332.2966    4.3448287    4.3448287    4.3448287   -2332.2966   -4910.7793    -2695.011    608.90036   -2194.9632     671.2149    2425.2852     82.01966 
   74100    138.22474   -115.87761   0.12506865   -115.75254    545.66114    4.3457229    4.3457229    4.3457229    545.66114     584.7048    3123.6837    -2071.405    3201.1877    1808.0654    1305.3576    82.070315 
   74200    160.90568   -115.89793   0.14559084   -115.75234    4252.8274    4.3420463    4.3420463    4.3420463    4252.8274    6502.4874    3161.0248    3094.9701    983.00722   -1386.6592    3282.0161    81.862188 
   74300    190.89285   -115.92466   0.17272386   -115.75194    2422.6838    4.3446861    4.3446861    4.3446861    2422.6838     8285.299   -2921.1897    1903.9421    2917.1217   -2884.3405    853.22792    82.011585 
   74400    165.21812   -115.90117   0.14949283   -115.75168   -649.32658    4.3451518    4.3451518    4.3451518   -649.32658    3671.4338   -515.24501   -5104.1686    782.70317     1260.225    142.94663     82.03796 
   74500    278.61051   -116.00338   0.25209265   -115.75129   -6659.7344     4.343994     4.343994     4.343994   -6659.7344   -5575.1626     -7043.45   -7360.5907   -1563.0038    3405.5758   -1384.1737      81.9724 
   74600    218.13835   -115.94924   0.19737616   -115.75186   -287.03523    4.3444695    4.3444695    4.3444695   -287.03523    7013.7215   -1180.1781   -6694.6491   -711.53942    588.58938   -1361.7365    81.999319 
   74700    251.63199   -115.97973   0.22768191   -115.75205   -4102.7021    4.3446144    4.3446144    4.3446144   -4102.7021   -3333.3081   -7242.2491   -1732.5492   -1724.8293    652.14361    1119.1258    82.007525 
   74800    143.39187   -115.88239   0.12974398   -115.75264    1455.4464    4.3447505    4.3447505    4.3447505    1455.4464     5176.241    2661.9256   -3471.8275     3100.636    1075.6594    512.08064    82.015231 
   74900    145.28774   -115.88405    0.1314594   -115.75259    4586.5363    4.3428941    4.3428941    4.3428941    4586.5363    10947.954   -799.19778    3610.8527    616.70521   -2407.7677    4018.8768    81.910152 
   75000    211.25783   -115.94329   0.19115052   -115.75214    342.14819    4.3440527    4.3440527    4.3440527    342.14819   -824.27676    146.29199    1704.4293    2789.1285   -2548.5411    891.98974    81.975722 
   75100    154.59179   -115.89221    0.1398779   -115.75233    1078.1102    4.3457713    4.3457713    4.3457713    1078.1102    5465.2023   -725.23722   -1505.6345    163.44578    2455.1374    1047.9967    82.073057 
   75200    278.02992   -116.00282   0.25156732   -115.75125   -5155.0275     4.342881     4.342881     4.342881   -5155.0275   -6239.2844    -3641.528     -5584.27   -1549.9222    2924.5578   -381.84881    81.909409 
   75300    201.98949   -115.93426   0.18276434    -115.7515   -397.08572    4.3443927    4.3443927    4.3443927   -397.08572    8765.0971   -3171.0076   -6785.3466   -707.28584    494.37281   -1728.6496     81.99497 
   75400    250.12135   -115.97784   0.22631505   -115.75153   -3950.2374    4.3457628    4.3457628    4.3457628   -3950.2374   -1032.3515   -7364.4641   -3453.8967   -1024.7877    -106.0671   -202.86807    82.072576 
   75500    160.32319   -115.89731   0.14506379   -115.75224     2729.862    4.3423947    4.3423947    4.3423947     2729.862    5863.2645    2777.6233   -451.30168    2936.7932    511.15417   -253.54929    81.881895 
   75600    170.85775   -115.90716   0.15459568   -115.75257     2165.455    4.3442359    4.3442359    4.3442359     2165.455    3767.9082   -1069.2254    3797.6822    232.36277   -1259.9122    4203.6196    81.986096 
   75700    219.34483   -115.95088   0.19846781   -115.75241   -360.41851     4.344394     4.344394     4.344394   -360.41851     -6387.99    3315.7141    1991.0203    1770.1288   -968.62837    1379.3686    81.995044 
   75800    152.80098   -115.89108   0.13825754   -115.75283     4133.459    4.3427983    4.3427983    4.3427983     4133.459    8350.4946    2519.3749    1530.5073    362.20881    3062.6866    1369.0823    81.904726 
   75900    252.15924   -115.98027   0.22815898   -115.75211   -3626.6537    4.3446789    4.3446789    4.3446789   -3626.6537    -2003.537   -2848.5376   -6027.8863   -2023.7256    1251.7205   -79.344744    82.011176 
   76000    205.07357   -115.93742   0.18555487   -115.75186   -635.32151     4.343413     4.343413     4.343413   -635.32151    7877.0013   -2993.8355   -6789.1303    1075.4243   -564.77915   -518.19173    81.939515 
   76100     228.3045    -115.9587   0.20657471   -115.75212   -1899.8555    4.3442182    4.3442182    4.3442182   -1899.8555    1466.8912   -5517.5776   -1648.8801   -1278.8731   -256.87551   -418.98273    81.985091 
   76200    201.06395   -115.93394   0.18192689   -115.75202   -1183.0141    4.3444183    4.3444183    4.3444183   -1183.0141    1944.5843   -3135.4137   -2358.2128    2159.4566    793.27347    666.23788    81.996424 
   76300    149.32071   -115.88733   0.13510852   -115.75222    1817.6562    4.3424936    4.3424936    4.3424936    1817.6562    2216.6506   -2214.6211     5450.939   -1425.8565   -467.77959    4053.2802    81.887488 
   76400    221.09259     -115.952   0.20004922   -115.75195   -2825.8528      4.34513      4.34513      4.34513   -2825.8528   -4760.2143   -2000.4866   -1716.8575    752.54946   -21.186524    894.20941    82.036726 
   76500    128.78907   -115.86889   0.11653105   -115.75236    3977.9627     4.343249     4.343249     4.343249    3977.9627     11933.01    1383.3729    -1382.495   -585.35874    3246.5152    1767.7974    81.930231 
   76600     261.5572   -115.98888   0.23666245   -115.75222   -4359.4241     4.343304     4.343304     4.343304   -4359.4241   -3076.0406   -5225.7237    -4776.508   -1846.0636    -233.6889    436.20303    81.933345 
   76700    186.41539   -115.92111   0.16867257   -115.75244    -611.2186    4.3451438    4.3451438    4.3451438    -611.2186    6208.4631   -1246.4247   -6795.6942    1376.3706   -1409.6202   -1308.6255    82.037507 
   76800    244.69403   -115.97364    0.2214043   -115.75223   -1738.5643    4.3431988    4.3431988    4.3431988   -1738.5643   -2110.5715   -4083.9914    978.86997   -917.98381    716.54033   -1068.4943    81.927389 
   76900    203.75006    -115.9367   0.18435734   -115.75234    992.41069    4.3437014    4.3437014    4.3437014    992.41069    6325.2551   -1652.3662   -1695.6568    1721.6767    1705.9348    501.66742    81.955837 
   77000    122.34193    -115.8634   0.11069755    -115.7527    4574.1018    4.3438102    4.3438102    4.3438102    4574.1018    6111.0705      788.184    6823.0509   -2501.5163    966.74099    3491.2258    81.961997 
   77100    231.03135   -115.96125   0.20904202    -115.7522   -1761.5642    4.3434043    4.3434043    4.3434043   -1761.5642   -2080.2718   -135.94048   -3068.4803    1394.8669   -788.39444    863.07612    81.939023 
   77200    140.32912   -115.87926   0.12697274   -115.75229    4651.3835    4.3436766    4.3436766    4.3436766    4651.3835    12113.976    3588.0557   -1747.8813     365.8174    1412.0252    1345.6345    81.954433 
   77300    271.36604   -115.99715   0.24553769   -115.75161   -5287.9857    4.3440506    4.3440506    4.3440506   -5287.9857   -6125.8907   -3318.0772   -6419.9893   -732.60736   -1656.7618    1281.9175    81.975605 
   77400    184.04298    -115.9185   0.16652595   -115.75198   -1569.4147    4.3439396    4.3439396    4.3439396   -1569.4147    6112.0763   -4734.9866    -6085.334    2025.1414   -1522.2079   -1604.3589    81.969319 
   77500    221.29845   -115.95237   0.20023549   -115.75214   -2027.2928    4.3442043    4.3442043    4.3442043   -2027.2928    1146.8498   -6871.5332   -357.19492   -1207.5669    2021.4152   -795.77949    81.984304 
   77600    211.33031   -115.94361   0.19121611    -115.7524   -875.46518    4.3432224    4.3432224    4.3432224   -875.46518    5458.9148   -5178.0165   -2907.2938    1291.2612     2384.072    656.40578    81.928729 
   77700    119.05902   -115.86076    0.1077271   -115.75303    2942.2077    4.3442112    4.3442112    4.3442112    2942.2077    8369.1246   -5022.4434    5479.9419   -2519.3002    735.00222    3731.4515    81.984698 
   77800    254.41552    -115.9825   0.23020051    -115.7523   -3535.2146    4.3438944    4.3438944    4.3438944   -3535.2146   -6586.9738   -186.19115   -3832.4787    1742.2476   -951.07498    836.83772    81.966763 
   77900    148.48376   -115.88695   0.13435123    -115.7526    4289.7051    4.3430238    4.3430238    4.3430238    4289.7051    9824.8955    3480.2736   -436.05397    583.81252    479.04352    1956.0608    81.917486 
   78000    257.05356   -115.98461   0.23258747   -115.75202   -4239.8223    4.3453603    4.3453603    4.3453603   -4239.8223   -1135.9472   -3260.4275   -8323.0924    1539.9854   -1918.8166    845.84399    82.049774 
   78100    183.15577   -115.91794   0.16572319   -115.75222    1368.3139    4.3435296    4.3435296    4.3435296    1368.3139    7719.9691   -412.74537   -3202.2821    1883.4994    128.57844   -2078.9157    81.946111 
   78200    207.62382   -115.93973   0.18786239   -115.75187    1004.8131    4.3432832    4.3432832    4.3432832    1004.8131    6306.9622   -4478.3886    1185.8657   -1538.9321    1721.5076   -552.68361    81.932169 
   78300    250.77718   -115.97835   0.22690846   -115.75144   -3285.8201    4.3452378    4.3452378    4.3452378   -3285.8201   -1245.2279   -4107.1997   -4505.0327   -367.24748    2097.8426   -362.21109    82.042832 
   78400    137.45147   -115.87648   0.12436898   -115.75211    3943.4166    4.3433768    4.3433768    4.3433768    3943.4166    5193.5471    874.02399    5762.6787    -1557.891   -1238.5572    2298.3282    81.937464 
   78500    274.54902   -115.99967   0.24841773   -115.75125   -3801.2732    4.3435896    4.3435896    4.3435896   -3801.2732   -5588.3213   -399.45903   -5416.0393    2719.1078   -1588.2354    427.06552    81.949507 
   78600    113.90193   -115.85556   0.10306086    -115.7525    4673.5349    4.3442927    4.3442927    4.3442927    4673.5349    10687.648     3318.938      14.0184    1546.9656    60.341648    2196.5656    81.989313 
   78700    246.18968    -115.9748   0.22275759   -115.75204   -3474.9807    4.3444957    4.3444957    4.3444957   -3474.9807    469.21086   -1052.1324   -9842.0207    1572.5859   -1925.4969    992.09844    82.000803 
   78800    163.14921   -115.90033   0.14762083   -115.75271    2410.7471    4.3426238    4.3426238    4.3426238    2410.7471    10455.644   -2264.3702   -959.03293    2036.0676    1787.3476   -2545.6621    81.894855 
   78900    214.39245   -115.94652   0.19398679   -115.75253   -2246.1565    4.3441371    4.3441371    4.3441371   -2246.1565   -1131.7899   -6262.9992    656.31967   -485.71331    1627.6462    374.23878    81.980503 
   79000    259.35171   -115.98666   0.23466688     -115.752   -5136.6773    4.3452684    4.3452684    4.3452684   -5136.6773   -1560.2142   -8613.8059   -5236.0117   -635.73228    314.40139   -75.090126    82.044569 
   79100    147.96524   -115.88652   0.13388206   -115.75263    4288.8411     4.342248     4.342248     4.342248    4288.8411    10538.685   -1968.4234    4296.2615   -451.18004   -2132.9255    1431.3024    81.873595 
   79200    236.94326   -115.96642   0.21439124   -115.75203   -2329.6478    4.3433717    4.3433717    4.3433717   -2329.6478    510.28319   -404.50478   -7094.7218    3354.7766   -864.77517    149.46871    81.937174 
   79300    129.41835   -115.86955   0.11710044   -115.75245    2607.3282    4.3454442    4.3454442    4.3454442    2607.3282    9894.4391   -920.62483   -1151.8298    1534.4989     702.3603    2373.4556    82.054522 
   79400    227.26824    -115.9574   0.20563708   -115.75176   -72.512586    4.3425719    4.3425719    4.3425719   -72.512586    1238.4712    6769.8239   -8225.8329    1162.8677   -2103.2913    723.57463    81.891922 
   79500    195.82111   -115.92934   0.17718305   -115.75216    1140.7427    4.3423918    4.3423918    4.3423918    1140.7427     2939.242    -55.89245    538.87865    340.66752    1033.2589   -2040.5575    81.881729 
   79600    195.56906    -115.9295   0.17695499   -115.75254   -3316.3354    4.3455202    4.3455202    4.3455202   -3316.3354   -2029.8155   -1424.9179    -6494.273   -1268.8657    1019.4091    814.21946    82.058827 
   79700    245.02616   -115.97371   0.22170482     -115.752   -3233.4484    4.3440502    4.3440502    4.3440502   -3233.4484   -3008.3668   -3927.5043   -2764.4741   -334.27523    -708.9192   -139.55981    81.975581 
   79800    147.63396   -115.88598   0.13358231   -115.75239    5608.6418    4.3418863    4.3418863    4.3418863    5608.6418    15527.147    2527.2668   -1228.4884    394.16069   -1805.6735    511.63483    81.853139 
   79900    219.27695   -115.95062    0.1984064   -115.75222   -3249.3909    4.3442003    4.3442003    4.3442003   -3249.3909   -2915.4475    1277.2292   -8109.9544    3593.8318    571.68371    179.09772    81.984079 
   80000     166.6078   -115.90314   0.15075024   -115.75239    -827.4989    4.3454852    4.3454852    4.3454852    -827.4989    2320.9498   -946.99773   -3856.4487    1202.6302    1441.2984    1689.9211    82.056847 
   80100    210.69148   -115.94249   0.19063808   -115.75185    2621.1074    4.3417179    4.3417179    4.3417179    2621.1074    5805.7828    7898.7272   -5841.1877    231.90478   -2115.9307    239.48116    81.843617 
   80200    221.04314    -115.9522   0.20000447    -115.7522   -515.27833    4.3423937    4.3423937    4.3423937   -515.27833    724.93857   -3652.6282    1381.8546    -341.8927     1038.706   -1281.5582    81.881842 
   80300    155.44109   -115.89322   0.14064636   -115.75257   -2060.5298    4.3461183    4.3461183    4.3461183   -2060.5298    8410.6241   -5506.0064   -9086.2072   -500.41523   -100.20136    1687.4223    82.092715 
   80400     243.8771   -115.97263   0.22066512   -115.75196   -1868.1293    4.3429779    4.3429779    4.3429779   -1868.1293   -501.79188   -4424.6372   -677.95869    1200.5051   -850.93709    379.96868    81.914892 
   80500    162.01505    -115.8987   0.14659462   -115.75211    5271.8038    4.3410857    4.3410857    4.3410857    5271.8038    13246.774    5621.1534   -3052.5162    1700.0418   -1001.8346   -101.81025    81.807869 
   80600    219.81257    -115.9509   0.19889103   -115.75201   -5006.1686    4.3457973    4.3457973    4.3457973   -5006.1686   -8491.9451   -800.62765    -5725.933    1906.0385    1255.1371    1288.0367    82.074529 
   80700    190.78032   -115.92493   0.17262205   -115.75231   -1901.5466    4.3441648    4.3441648    4.3441648   -1901.5466    431.66807    3269.0469   -9405.3547    -833.0168    757.95188    1221.2132    81.982069 
   80800    190.53693   -115.92441   0.17240182   -115.75201    4408.6942    4.3410178    4.3410178    4.3410178    4408.6942    6576.7226    7122.0824   -472.72241   -671.52435    -2899.536   -852.97012     81.80403 
   80900    233.00453   -115.96309   0.21082739   -115.75226   -2376.6094    4.3440439    4.3440439    4.3440439   -2376.6094    2468.5291   -4270.5157   -5327.8418   -26.070184    1272.0985   -407.05197    81.975228 
   81000    149.19246   -115.88757   0.13499248   -115.75258   -850.59962    4.3457738    4.3457738    4.3457738   -850.59962    4488.1328   -1402.1597    -5637.772    720.20416   -1025.5731    2254.7146    82.073198 
   81100    247.96013   -115.97626   0.22435954    -115.7519   -988.80347     4.342379     4.342379     4.342379   -988.80347    346.30914   -619.20604   -2693.5135    676.12867   -214.66028    1218.6257    81.881005 
   81200    194.24187   -115.92808   0.17575413   -115.75232    2754.6399    4.3418295    4.3418295    4.3418295    2754.6399    7198.8216    5596.1324   -4531.0343    9.7921826    282.23152   -265.87105    81.849929 
   81300    167.89301   -115.90474   0.15191313   -115.75282   -1748.8785    4.3458652    4.3458652    4.3458652   -1748.8785   -1004.4907    28.537188   -4270.6821     568.9054    1750.7812    1891.9321    82.078376 
   81400    238.98286   -115.96876   0.21623672   -115.75252   -3396.4145    4.3440613    4.3440613    4.3440613   -3396.4145    4865.4393   -4503.5565   -10551.126   -2610.4918   -720.24741    571.72977    81.976212 
   81500    148.36195   -115.88668   0.13424101   -115.75244     6455.694    4.3404733    4.3404733    4.3404733     6455.694     11093.66    5101.0718    3172.3503    693.47101   -2596.7212   -1351.8047    81.773251 
   81600    279.36088   -116.00452   0.25277159   -115.75175   -7378.1431    4.3456237    4.3456237    4.3456237   -7378.1431   -3055.1054   -10500.215   -8579.1087    611.52976    726.86325    714.59782    82.064694 
   81700    132.19094   -115.87231   0.11960914    -115.7527    895.42813    4.3451961    4.3451961    4.3451961    895.42813    2920.2263    455.92515   -689.86706    1340.9547   -608.43884    2199.2508     82.04047 
   81800    267.33167   -115.99357   0.24188731   -115.75168   -968.81545    4.3412206    4.3412206    4.3412206   -968.81545   -2862.2154    3846.1413   -3890.3723   -105.90665   -72.688172      887.572    81.815496 
   81900    154.04832   -115.89203   0.13938616   -115.75264    3400.8236    4.3431392    4.3431392    4.3431392    3400.8236    8242.9726    4658.8535   -2699.3554   -1045.9269    1204.2073    91.695318    81.924017 
   82000    159.38515   -115.89707   0.14421503   -115.75285   -1108.5343    4.3460156    4.3460156    4.3460156   -1108.5343    1762.4075    3155.0736   -8243.0842   -920.63745    1889.8672    1278.3357    82.086897 
   82100    270.31384    -115.9972   0.24458564   -115.75262   -2883.4841    4.3430314    4.3430314    4.3430314   -2883.4841    3648.1153    -4624.441   -7674.1265   -728.71933   -2149.1876    74.937269    81.917921 
   82200    143.76126   -115.88304   0.13007821   -115.75296     5790.888    4.3416103    4.3416103    4.3416103     5790.888    10304.845    6402.9819    664.83722    2003.6024   -259.47643    -2122.682    81.837528 
   82300    322.40644   -116.04345   0.29172012   -115.75173   -11148.372    4.3464871    4.3464871    4.3464871   -11148.372   -10462.612   -11201.315    -11781.19    1310.6105    873.21898    1457.1936    82.113616 
   82400    106.39957   -115.84937  0.096272567   -115.75309    4612.7348     4.344491     4.344491     4.344491    4612.7348    11265.891    2607.4014   -35.088494    498.71191     331.5934    1297.1949    82.000541 
   82500    264.73149   -115.99118   0.23953461   -115.75165    16.306696    4.3407617    4.3407617    4.3407617    16.306696    2783.7361    2743.8612   -5478.6772   -1615.4509    35.779368    690.34262    81.789551 
   82600    113.03391   -115.85496   0.10227546   -115.75269    3971.3528    4.3445548    4.3445548    4.3445548    3971.3528    10421.451    3637.8627   -2145.2552    -420.3837    1723.2496    730.67539     82.00415 
   82700    200.66718   -115.93365   0.18156788   -115.75209   -3221.8824    4.3461886    4.3461886    4.3461886   -3221.8824    3220.8788   -2136.2845   -10750.242   -964.72942     1236.105    1599.7155    82.096702 
   82800     259.4312   -115.98623    0.2347388   -115.75149    -1058.461    4.3413889    4.3413889    4.3413889    -1058.461    1518.3091   -1234.5246   -3459.1675    338.81373   -3252.3435   -506.69875    81.825013 
   82900    187.84608   -115.92221   0.16996708   -115.75224    470.66981    4.3438562    4.3438562    4.3438562    470.66981    3854.9279    1211.4115   -3654.3299    1199.6615    443.44343   -1476.1891    81.964599 
   83000    270.29646   -115.99656   0.24456992   -115.75199   -7797.7135    4.3460898    4.3460898    4.3460898   -7797.7135   -4751.4984   -9464.0509   -9177.5913    934.16336    837.47817    2165.8492    82.091099 
   83100    124.17032   -115.86573   0.11235192   -115.75337    5822.4224    4.3424586    4.3424586    4.3424586    5822.4224    11778.578    7459.6365   -1770.9472   -2267.4792    1128.4832   -22.817837    81.885513 
   83200    203.87208   -115.93716   0.18446775   -115.75269    2307.8052    4.3423424    4.3423424    4.3423424    2307.8052    8214.2751    3224.7129   -4515.5723   -2327.6005    311.28656    752.97166    81.878935 
   83300    171.98657    -115.9087   0.15561706   -115.75309   -242.18123    4.3449013    4.3449013    4.3449013   -242.18123   -2779.0814    4996.8366   -2944.2989   -573.56628    2796.3479    1247.5064    82.023772 
   83400    193.07076   -115.92744   0.17469448   -115.75274   -317.99035    4.3448141    4.3448141    4.3448141   -317.99035    7296.2908   -275.96074   -7974.3011    1182.3302   -486.22817    1122.5007    82.018835 
   83500    274.04798   -115.99941   0.24796437   -115.75144   -1482.7638    4.3418252    4.3418252    4.3418252   -1482.7638   -30.926708   -2842.9576    -1574.407    698.08968   -2594.0482   -537.81426    81.849684 
   83600    180.09002   -115.91508   0.16294924   -115.75213   -368.89455    4.3443676    4.3443676    4.3443676   -368.89455    6857.5534       456.63   -8420.8671    257.73884    559.38824   -1389.5948    81.993553 
   83700    209.29549   -115.94121   0.18937495   -115.75184   -3124.0922    4.3459204    4.3459204    4.3459204   -3124.0922    4106.0505   -7370.0123   -6108.3147   -261.79057    345.03673    2825.2541    82.081504 
   83800    166.59057   -115.90259   0.15073464   -115.75185    4423.9541    4.3417244    4.3417244    4.3417244    4423.9541    10594.955    7751.2389   -5074.3311    -2897.002    279.56209   -1000.1987    81.843986 
   83900    177.28527   -115.91232   0.16041144   -115.75191    1240.8825    4.3434168    4.3434168    4.3434168    1240.8825    417.81404    5600.9793   -2296.1458   -633.19941   -475.05013    1430.6748    81.939731 
   84000     224.7464   -115.95546   0.20335526    -115.7521   -5340.1951    4.3459876    4.3459876    4.3459876   -5340.1951    -7444.729   -1011.5505   -7564.3058    744.67194    1624.4406    1722.8875    82.085308 
   84100    158.66592   -115.89614   0.14356426   -115.75257    2932.0645      4.34291      4.34291      4.34291    2932.0645    7066.3832    3686.2947   -1956.4843    2138.4062   -1716.9392    516.07364     81.91105 
   84200    285.18451    -116.0098   0.25804094   -115.75175    -3631.433    4.3432265    4.3432265    4.3432265    -3631.433    198.71537   -6976.9876   -4116.0267    773.26773   -2879.4489   -412.49428     81.92896 
   84300    154.90776   -115.89302    0.1401638   -115.75286    -49.22189    4.3448162    4.3448162    4.3448162    -49.22189     6686.563   -632.23768    -6201.991   -585.54719    1224.3174   -539.26973    82.018953 
   84400    195.42455   -115.92971   0.17682424   -115.75288   -461.67701     4.344249     4.344249     4.344249   -461.67701    2200.9784   -1014.4671   -2571.5423   -1034.3284   -117.31088    2526.4252    81.986836 
   84500    217.45834     -115.949   0.19676088   -115.75224    2550.8028    4.3423104    4.3423104    4.3423104    2550.8028    4560.7332    8088.9541   -4997.2788    -1093.783    258.39914   -1835.9842    81.877127 
   84600    149.66202   -115.88786   0.13541734   -115.75244    3117.3149    4.3435487    4.3435487    4.3435487    3117.3149    448.43038    5729.1655    3174.3489    1086.7559   -142.51015    1893.1158    81.947191 
   84700    244.02313   -115.97276   0.22079725   -115.75197   -5384.5979    4.3455745    4.3455745    4.3455745   -5384.5979    -2967.594   -3839.2537   -9346.9458    2364.1042    503.47161     1547.626    82.061907 
   84800    141.84629    -115.8804    0.1283455   -115.75206    5985.5955     4.342392     4.342392     4.342392    5985.5955    13785.064    289.92297    3881.7991    783.44984   -1428.8914   -939.32403    81.881744 
   84900    307.00989    -116.0291     0.277789   -115.75131   -4704.2096    4.3431489    4.3431489    4.3431489   -4704.2096    -256.0168   -7107.3844   -6749.2275   -276.15984   -2325.8763   -56.882337    81.924567 
   85000       132.85   -115.87306   0.12020547   -115.75285    370.91255    4.3451451    4.3451451    4.3451451    370.91255    3884.8714   -892.66795   -1879.4658   -1452.1114     1753.389    149.18824    82.037582 
   85100     213.5392   -115.94609   0.19321476   -115.75288   -1794.9711    4.3435204    4.3435204    4.3435204   -1794.9711   -1351.3203    989.99416   -5023.5872  -0.15042642   -609.28155    2859.7787    81.945594 
   85200    217.23109    -115.9489   0.19655526   -115.75235    1564.7305    4.3425447    4.3425447    4.3425447    1564.7305   -1045.8767     8925.855   -3185.7868   -488.34479   -221.81607   -1527.2785     81.89038 
   85300    124.72551   -115.86608   0.11285426   -115.75323    2777.1807    4.3442823    4.3442823    4.3442823    2777.1807    6409.6577    1334.6762    587.20814    1950.7582   -6.8221084    2288.4872    81.988721 
   85400    259.03546   -115.98745   0.23438072   -115.75307   -6763.9239    4.3446876    4.3446876    4.3446876   -6763.9239   -4918.7368   -6332.5362   -9040.4988    2816.2968    430.66706    1461.0264    82.011673 
   85500    129.75096   -115.87032    0.1174014   -115.75292     6345.168     4.342275     4.342275     4.342275     6345.168    14835.225   -264.18584    4464.4649    55.220193   -312.62544   -1317.5663    81.875125 
   85600    326.38418   -116.04692   0.29531927    -115.7516   -7048.3279    4.3442531    4.3442531    4.3442531   -7048.3279    -3734.472   -8571.9102   -8838.6015   -797.04624   -1194.3766    30.002651     81.98707 
   85700    135.02959    -115.8749   0.12217761   -115.75272    990.31648    4.3445353    4.3445353    4.3445353    990.31648    1839.7186   -1032.9541     2164.185   -719.64283    2691.5198    1311.8095    82.003046 
   85800    214.27664   -115.94637   0.19388201   -115.75249   -305.75997     4.343082     4.343082     4.343082   -305.75997    3199.0341    50.112159   -4166.4261    2096.9785   -1668.3278    1988.6213    81.920779 
   85900    194.34414    -115.9279   0.17584666   -115.75206    3472.7704    4.3430211    4.3430211    4.3430211    3472.7704    3451.7541     5577.927    1388.6302    155.24713    579.64494   -976.05286    81.917334 
   86000    137.12512   -115.87644   0.12407369   -115.75237    2911.2539    4.3443458    4.3443458    4.3443458    2911.2539    9690.4391   -748.72611   -207.95135    2669.2178   -323.64818     2269.412    81.992319 
   86100    249.44254   -115.97823   0.22570086   -115.75253   -4717.9807    4.3435052    4.3435052    4.3435052   -4717.9807   -1834.8928   -7136.3914   -5182.6579     1652.599    1176.1999    974.80062    81.944732 
   86200    159.83633   -115.89719   0.14462327   -115.75256    3944.7246    4.3429489    4.3429489    4.3429489    3944.7246    9334.8797   -633.63973    3132.9338    65.805512    -341.1894   -2135.1785     81.91325 
   86300    319.31601   -116.04095   0.28892384   -115.75203   -6915.6971    4.3446259    4.3446259    4.3446259   -6915.6971   -3939.2174   -9218.7554   -7589.1184   -1147.5234    -351.0634    580.61521    82.008177 
   86400    145.88242   -115.88545   0.13199748   -115.75345    738.47201    4.3436311    4.3436311    4.3436311    738.47201    3459.7399   -2155.9192    911.59533    404.59841    916.68607    1602.3565    81.951859 
   86500     178.5484   -115.91481   0.16155435   -115.75325    553.83308     4.343345     4.343345     4.343345    553.83308    5891.0108   -541.37109   -3688.1404    2914.0192   -2883.4681    2011.5981    81.935666 
   86600    198.30056   -115.93182   0.17942652   -115.75239    1476.6763    4.3440245    4.3440245    4.3440245    1476.6763    1416.1347    3923.5811   -909.68694    490.37812    325.39964   -303.06146    81.974125 
   86700    147.50181   -115.88591   0.13346273   -115.75244    2470.4336    4.3432505    4.3432505    4.3432505    2470.4336    8124.1624    1753.7136   -2466.5751    1802.7767   -490.11432    2009.2791    81.930316 
   86800    247.91296   -115.97661   0.22431686   -115.75229   -5679.7505    4.3440523    4.3440523    4.3440523   -5679.7505   -5035.3985   -6150.3762   -5853.4769    792.04401    1401.4804    751.52505      81.9757 
   86900    193.42196   -115.92721   0.17501226    -115.7522    398.94513     4.344102     4.344102     4.344102    398.94513    6525.5672   -4051.3657   -1277.3661   -949.76177    -781.4211   -3678.6909    81.978513 
   87000     287.1433   -116.01114   0.25981329   -115.75133   -3905.5916    4.3442064    4.3442064    4.3442064   -3905.5916    2350.3121   -8036.5324   -6030.5545    137.90925    165.31162    475.46331    81.984423 
   87100    136.39974   -115.87592   0.12341735    -115.7525    2309.1323    4.3437545    4.3437545    4.3437545    2309.1323    7619.2446    -2014.592    1322.7444    1619.1724    -1027.418    660.85792    81.958841 
   87200    179.95538   -115.91526   0.16282741   -115.75243     276.0902    4.3437572    4.3437572    4.3437572     276.0902     5723.292   -319.09948   -4575.9219    2958.4967    -2455.017    1791.9267    81.958996 
   87300    196.36402   -115.92995   0.17767429   -115.75227    2431.7138    4.3440356    4.3440356    4.3440356    2431.7138   -4532.2056    8688.4761    3138.8709   -402.23946   -92.380342    782.64541    81.974756 
   87400    165.66506   -115.90268   0.14989723   -115.75279    2539.7436    4.3435099    4.3435099    4.3435099    2539.7436     6226.569    4030.8081   -2638.1463    401.16278    2026.9943    2266.6852       81.945 
   87500    236.40832   -115.96614   0.21390722   -115.75223    -4896.719    4.3447369    4.3447369    4.3447369    -4896.719   -7476.5915   -1023.8007   -6189.7647   -1030.4277    1858.5253    -172.8061    82.014463 
   87600    199.19839    -115.9321   0.18023889   -115.75186   -213.96194    4.3448418    4.3448418    4.3448418   -213.96194    6297.0395   -3989.7384   -2949.1869   -882.64164   -46.753144   -2398.6647    82.020406 
   87700    274.83893    -115.9998   0.24868004   -115.75112    -3433.531    4.3439797    4.3439797    4.3439797    -3433.531    2358.3782   -5492.1321   -7166.8392    1058.8899    772.30056   -74.850647     81.97159 
   87800    149.27822   -115.88727   0.13507007    -115.7522    882.11762    4.3443192    4.3443192    4.3443192    882.11762    2178.1733    3338.5584   -2870.3788    2798.5876   -1617.7765    816.74319     81.99081 
   87900    187.53412   -115.92184   0.16968481   -115.75215   -712.14548    4.3445498    4.3445498    4.3445498   -712.14548    458.09248    2939.0339   -5533.5628     2498.067   -1652.5927    1730.7536    82.003868 
   88000    198.31701   -115.93097    0.1794414   -115.75153    1484.8787    4.3439687    4.3439687    4.3439687    1484.8787   -4643.7579     8846.836    251.55809   -1995.8091     197.6464    1881.6838     81.97097 
   88100    158.75649   -115.89569   0.14364621   -115.75204    1884.9197    4.3446393    4.3446393    4.3446393    1884.9197     7957.022    1718.8432    -4021.106   -280.68762    1861.6829    3183.0144    82.008937 
   88200    218.78476   -115.94974   0.19796105   -115.75178   -3003.9212    4.3442799    4.3442799    4.3442799   -3003.9212   -366.47863   -5325.0532   -3320.2318   -961.35339    1518.0777   -1199.3374    81.988587 
   88300    196.58507   -115.92971    0.1778743   -115.75184   -25.436617    4.3445281    4.3445281    4.3445281   -25.436617    10584.427   -4062.6653   -6598.0713    921.45096    754.49437   -2068.8998    82.002641 
   88400    264.82461   -115.99141   0.23961887   -115.75179   -3511.1936    4.3447315    4.3447315    4.3447315   -3511.1936    1055.2993   -6149.2536   -5439.6266    1614.4924    276.03645   -388.91478    82.014155 
   88500    183.88075    -115.9187   0.16637917   -115.75232    183.86711    4.3438544    4.3438544    4.3438544    183.86711   -33.383347    6720.4464   -6135.4617    2970.8579   -2350.3145   -269.29773    81.964498 
   88600    182.41193   -115.91749   0.16505015   -115.75244      435.602    4.3442799    4.3442799    4.3442799      435.602   -994.60508    7658.0266   -5356.6156   -578.73505   -1039.4233    291.56948    81.988585 
   88700     224.5586   -115.95499   0.20318534    -115.7518   -555.31256    4.3450485    4.3450485    4.3450485   -555.31256   -1532.9426    2413.2591   -2546.2541   -3048.4869    222.91156    2869.5346    82.032112 
   88800    129.12897   -115.86901   0.11683861   -115.75218    5600.5705    4.3432322    4.3432322    4.3432322    5600.5705    11092.474    6434.7473   -725.51021   -1475.7542    2658.7522    2399.4177    81.929279 
   88900    235.75494   -115.96492   0.21331602   -115.75161   -2576.2561    4.3442438    4.3442438    4.3442438   -2576.2561    144.56008   -8400.5758    527.24748    -91.36954    899.60888   -618.11779    81.986539 
   89000    192.06476   -115.92525   0.17378423   -115.75147   -321.95749    4.3455769    4.3455769    4.3455769   -321.95749    7512.3611   -4600.0781   -3878.1554    1652.2926    1372.0096   -1038.0081    82.062041 
   89100     257.2204   -115.98401   0.23273842   -115.75127   -2385.4289    4.3435579    4.3435579    4.3435579   -2385.4289    -1981.539   -3231.6013   -1943.1463    1522.1335    743.12251   -918.26604    81.947715 
   89200    197.49542   -115.93071   0.17869801   -115.75202   -451.33749    4.3437656    4.3437656    4.3437656   -451.33749    1834.6966     4555.939   -7744.6481    1044.8525    -2564.688   -894.36507    81.959473 
   89300    150.87755   -115.88922   0.13651718    -115.7527    843.68119    4.3456258    4.3456258    4.3456258    843.68119     5631.555    1866.5759   -4967.0873    -1857.376   -1074.2214    -654.0168    82.064812 
   89400    236.98799   -115.96653   0.21443171    -115.7521   -2068.2897    4.3438574    4.3438574    4.3438574   -2068.2897    2089.7281   -727.43714   -7567.1601   -2910.3903    184.68676    4398.0592    81.964666 
   89500    108.73532   -115.85097  0.098386004   -115.75258     5409.632    4.3428681    4.3428681    4.3428681     5409.632    13943.751     739.3618    1545.7827   -233.93961     1461.132    1434.8762    81.908681 
   89600     253.5471   -115.98134   0.22941474   -115.75193   -6177.7563    4.3454985    4.3454985    4.3454985   -6177.7563    -6326.663   -9307.5471   -2899.0589    97.422515    522.14526   -38.099737    82.057598 
   89700    195.53973   -115.92912   0.17692846   -115.75219   -674.84244    4.3444585    4.3444585    4.3444585   -674.84244    5016.3487   -6489.2915   -551.58459    1593.1399   -326.22154    137.96332    81.998698 
   89800    237.80507   -115.96691   0.21517102   -115.75174    -1170.496    4.3428342    4.3428342    4.3428342    -1170.496    472.32789   -4921.5308     937.7148    957.05952   -169.45096   -372.60777     81.90676 
   89900    203.92739   -115.93645   0.18451778   -115.75193   -1488.1308      4.34455      4.34455      4.34455   -1488.1308    605.65732    2062.8647   -7132.9144    427.30206   -2656.0496   -2120.3189    82.003877 
   90000    143.69447   -115.88223   0.13001778   -115.75221    3558.2438     4.344382     4.344382     4.344382    3558.2438    9462.2741   -1127.0136    2339.4708    -1812.409    567.00193   -466.51815    81.994367 
   90100    251.77111   -115.97931   0.22780779    -115.7515   -52.295058    4.3426863    4.3426863    4.3426863   -52.295058   -977.86479    2559.8206    -1738.841   -2111.7108   -91.389836    4470.3937     81.89839 
   90200    115.64429   -115.85711   0.10463739   -115.75248     5490.751    4.3433143    4.3433143    4.3433143     5490.751    8901.8866    1204.0202    6366.3461    1377.1534    468.15234     892.6353    81.933927 
   90300    260.97359   -115.98807   0.23613439   -115.75193   -4794.7828    4.3448406    4.3448406    4.3448406   -4794.7828   -6398.0985   -8330.1849    343.93483   -109.73462   -140.73125   -358.05434    82.020335 
   90400    190.95745   -115.92541   0.17278232   -115.75262    1378.7669    4.3433778    4.3433778    4.3433778    1378.7669    9323.6445   -4810.9193   -376.42453    1094.4147   -954.43099    233.38532    81.937519 
   90500     219.6402   -115.95141   0.19873507   -115.75268   -1573.2567    4.3428339    4.3428339    4.3428339   -1573.2567    3830.0414    -8114.597   -435.21462   -383.01643    1276.2728    1269.9754    81.906741 
   90600    226.66892   -115.95774    0.2050948   -115.75265   -4478.3347    4.3447818    4.3447818    4.3447818   -4478.3347   -297.55746   -4648.2632   -8489.1833     59.48307   -2742.2866   -2656.5531    82.017004 
   90700    149.50419   -115.88823   0.13527453   -115.75295    1681.0956    4.3439104    4.3439104    4.3439104    1681.0956    5885.9089   -3154.6907    2312.0687   -1273.7492    2164.4528    1253.6749    81.967665 
   90800    239.55851   -115.96862   0.21675758   -115.75187   -3089.0554    4.3433154    4.3433154    4.3433154   -3089.0554   -5001.0925   -2101.1078   -2164.9658   -1464.9578   -1673.6964    4826.4025    81.933991 
   90900    135.29302   -115.87479   0.12241597   -115.75237    2329.3056     4.343854     4.343854     4.343854    2329.3056    4531.8472   -1556.1156    4012.1853    2302.8795    -1574.762    373.02912    81.964475 
   91000    233.75266   -115.96324   0.21150432   -115.75174   -2786.0293    4.3441523    4.3441523    4.3441523   -2786.0293   -2806.4432    -3814.368   -1737.2768     126.6707   -857.37397    779.52433    81.981361 
   91100    192.74482   -115.92652   0.17439957   -115.75212    960.72728    4.3431545    4.3431545    4.3431545    960.72728    11156.649   -6600.1234    -1674.344    1068.7881   -631.33798    536.87475    81.924886 
   91200    218.47162   -115.94995   0.19767771   -115.75227   -819.72357    4.3443463    4.3443463    4.3443463   -819.72357    212.19359   -4112.3642    1440.9999   -1080.2213    2486.4913    250.19948    81.992347 
   91300     251.7383   -115.97931    0.2277781   -115.75153   -2109.6106    4.3437867    4.3437867    4.3437867   -2109.6106   -323.97838   -2834.5481   -3170.3052   -21.836316   -1545.9915   -2672.9523    81.960667 
   91400    158.88997   -115.89615   0.14376698   -115.75238    3429.5419     4.343615     4.343615     4.343615    3429.5419    3911.7517   -3839.2492    10216.123    -706.0215    1338.2253    1869.3745    81.950944 
   91500    229.85711   -115.96007   0.20797954   -115.75209   -920.47044    4.3442248    4.3442248    4.3442248   -920.47044   -3231.7302    2306.0422   -1835.7233    109.01754    -3156.308    3057.0378    81.985464 
   91600    140.41219   -115.87979    0.1270479   -115.75275    4196.2511     4.342708     4.342708     4.342708    4196.2511    9952.9311   -2621.1346    5256.9569    2225.5148   -2154.9935    350.52212    81.899621 
   91700    197.09336   -115.93104   0.17833421   -115.75271   -987.67701     4.343583     4.343583     4.343583   -987.67701    2199.7083   -1623.0545   -3539.6849   -180.01422   -1523.9276   -1298.3461    81.949133 
   91800    221.82784   -115.95299   0.20071449   -115.75228   -3567.0485    4.3454556    4.3454556    4.3454556   -3567.0485    5863.9026   -9238.8131   -7326.2352    1027.4903      1189.11    1338.6777    82.055168 
   91900    190.50221   -115.92444    0.1723704   -115.75207   -800.69685    4.3430476    4.3430476    4.3430476   -800.69685   -1243.1351   -4103.4666    2944.5112   -1649.5854     1494.075    -217.1149    81.918834 
   92000    265.81053   -115.99182   0.24051095   -115.75131   -6435.0397    4.3440293    4.3440293    4.3440293   -6435.0397   -5355.9393   -8572.1686   -5377.0113    142.97766   -2036.6793   -3399.8518    81.974396 
   92100    141.83529   -115.88086   0.12833555   -115.75252     1196.598    4.3449429    4.3449429    4.3449429     1196.598    3097.0613   -5900.8825    6393.6151   -1060.0305    101.39763    2761.7969    82.026131 
   92200    225.81325    -115.9564   0.20432058   -115.75208   -1071.1828    4.3426915    4.3426915    4.3426915   -1071.1828    881.77642   -812.08354   -3283.2414    753.92473   -4132.8196    2315.4843    81.898684 
   92300     138.6583   -115.87796   0.12546094    -115.7525    3886.1312    4.3438145    4.3438145    4.3438145    3886.1312    10919.715   -1444.6967    2183.3749    2499.8399   -1273.1523   -372.34873    81.962238 
   92400    195.56986   -115.92908   0.17695572   -115.75212   -239.38795    4.3444638    4.3444638    4.3444638   -239.38795    4597.3866   -1160.2155    -4155.335   -94.054234   -3.4205655   -116.92121    81.998998 
   92500    252.67053   -115.98033    0.2286216   -115.75171   -1906.8649    4.3434406    4.3434406    4.3434406   -1906.8649    2174.3396    -6423.737   -1471.1973    560.62584    2192.1991    1041.2122    81.941078 
   92600    174.02313   -115.90981   0.15745979   -115.75235    2493.4293    4.3446343    4.3446343    4.3446343    2493.4293   -180.38171    3317.8967    4342.7728   -1508.2321     994.7332   -744.25979    82.008654 
   92700     288.7159   -116.01293   0.26123621   -115.75169   -5295.2607    4.3432704    4.3432704    4.3432704   -5295.2607   -4166.9178   -7566.2755   -4152.5887    875.14111   -1939.2653   -1827.3785    81.931441 
   92800    110.64308   -115.85313   0.10011219   -115.75301    4922.9213    4.3434943    4.3434943    4.3434943    4922.9213    9183.4571    385.23574     5200.071   -246.50369   -1063.0356    1365.2464    81.944115 
   92900    239.05056   -115.96813   0.21629797   -115.75183   -2732.3842    4.3452788    4.3452788    4.3452788   -2732.3842    1694.7293   -1161.4243   -8730.4576    1135.5289    -2991.264    1057.8825    82.045154 
   93000    122.42941   -115.86322    0.1107767   -115.75245    4442.1513    4.3419021    4.3419021    4.3419021    4442.1513    11408.277   -356.88423    2275.0607    2100.1573   -1339.7886   -1985.2585    81.854032 
   93100    215.63412   -115.94701   0.19511028    -115.7519    -3339.591    4.3446477    4.3446477    4.3446477    -3339.591    956.09385   -2208.8115   -8766.0552   -972.33114    69.091382   -779.24012    82.009413 
   93200    258.02455   -115.98495   0.23346603   -115.75148   -5746.7643    4.3453749    4.3453749    4.3453749   -5746.7643   -5090.0891   -9916.1288   -2234.0749    345.09566    1565.5027    991.47241      82.0506 
   93300    173.52856   -115.90924   0.15701229   -115.75223    1438.5306     4.342103     4.342103     4.342103    1438.5306    1237.0646    2223.4257    855.10168   -2046.0774   -490.01613   -1468.6233    81.865397 
   93400     261.6434   -115.98875   0.23674045   -115.75201   -4435.0071    4.3442526    4.3442526    4.3442526   -4435.0071   -694.01541   -7586.9098    -5024.096    1518.2656   -2274.0203   -1206.8335    81.987038 
   93500    113.61631    -115.8561   0.10280243    -115.7533    5318.1405    4.3436922    4.3436922    4.3436922    5318.1405    11147.043    1450.7737    3356.6046   -189.60727   -1075.6967    1676.1917    81.955318 
   93600    236.49171   -115.96645   0.21398267   -115.75247   -255.35303    4.3433258    4.3433258    4.3433258   -255.35303    6295.7748    529.85924   -7591.6931    1221.2033   -2243.4035     55.91132    81.934578 
   93700    135.34478   -115.87544    0.1224628   -115.75298     5007.638    4.3436785    4.3436785    4.3436785     5007.638    8973.0399    2196.3645    3853.5097    1057.5691    88.929533   -2390.1513    81.954539 
   93800    253.97478   -115.98156   0.22980172   -115.75176   -3356.3529    4.3432556    4.3432556    4.3432556   -3356.3529   -1521.4367   -944.61372   -7603.0083   -2130.1841    252.56002    1160.9646    81.930604 
   93900    250.73954   -115.97838   0.22687441   -115.75151   -3271.4495    4.3452264    4.3452264    4.3452264   -3271.4495   -4916.7025   -5487.5652    589.91912   -477.15004     693.5764    171.46492    82.042187 
   94000    187.84209   -115.92218   0.16996347   -115.75221     1025.758    4.3433327    4.3433327    4.3433327     1025.758    4787.2875    2338.3712   -4048.3848   -1220.5022   -249.09004   -550.73999    81.934967 
   94100    192.52471   -115.92647    0.1742004   -115.75227   -140.57086    4.3423577    4.3423577    4.3423577   -140.57086    4982.7602   -2773.3508    -2631.122    3113.9662   -2618.1463   -1294.6422    81.879802 
   94200    151.00856   -115.88896   0.13663572   -115.75232    1375.7409    4.3461839    4.3461839    4.3461839    1375.7409    6995.5347    2674.9338   -5543.2458    897.78478   -375.96081    1269.9447    82.096435 
   94300    191.47071   -115.92504   0.17324673   -115.75179    437.36416    4.3431843    4.3431843    4.3431843    437.36416    5863.4346    902.64888    -5453.991    1620.4541   -1984.7819   -605.71659     81.92657 
   94400    203.00468   -115.93567    0.1836829   -115.75198   -1222.9334    4.3425989    4.3425989    4.3425989   -1222.9334   -21.997841   -1102.4344   -2544.3681    42.124893    84.325969   -3259.4001    81.893446 
   94500    228.18296   -115.95855   0.20646474   -115.75209   -4042.0203    4.3462618    4.3462618    4.3462618   -4042.0203   -892.50728   -3263.1242   -7970.4293   -2223.1486    180.86044    1080.6999    82.100851 
   94600    256.39507   -115.98383   0.23199165   -115.75184    -2546.135    4.3430777    4.3430777    4.3430777    -2546.135   -3310.5475   -6549.1104    2221.2528   -560.30017     447.9441   -342.74089    81.920539 
   94700    164.40561   -115.90151   0.14875765   -115.75275    2719.3778    4.3431394    4.3431394    4.3431394    2719.3778    14482.701    635.79803   -6960.3661    395.37841   -917.64576   -356.51075    81.924028 
   94800    140.73074   -115.88019   0.12733613   -115.75286     3333.529     4.344487     4.344487     4.344487     3333.529    7094.9165    282.65333    2623.0171     3922.456   -471.84957   -304.82661    82.000309 
   94900    215.61667   -115.94701   0.19509449   -115.75191    787.87562    4.3436576    4.3436576    4.3436576    787.87562    5091.5089    4579.4324   -7307.3144    706.60385   -255.58904    793.89783     81.95336 
   95000    153.10845   -115.89077   0.13853574   -115.75224     3586.594     4.344125     4.344125     4.344125     3586.594    2853.6317    5639.0959    2267.0543    204.99953   -792.21696   -1229.2676    81.979816 
   95100    269.49183   -115.99531   0.24384187   -115.75147   -5675.1763    4.3436152    4.3436152    4.3436152   -5675.1763   -6377.2551   -3977.2334   -6671.0404   -1626.9462    408.32011   -2220.8649    81.950957 
   95200    195.60219    -115.9287   0.17698498   -115.75172   -769.29324    4.3450586    4.3450586    4.3450586   -769.29324    550.02624   -1182.0443   -1675.8617   -2765.3435    -456.2666    281.62385    82.032681 
   95300    256.01422   -115.98312   0.23164705   -115.75148    -3080.938    4.3447573    4.3447573    4.3447573    -3080.938    689.57679    -7370.635   -2561.7556   -120.89496    892.27422   -330.05905    82.015618 
   95400    135.61966   -115.87535   0.12271151   -115.75263    2788.3463    4.3427859    4.3427859    4.3427859    2788.3463    11842.666    2148.4401   -5626.0673    1921.7565   -1855.0492   -512.65696    81.904028 
   95500    146.40182   -115.88511   0.13246744   -115.75265    1603.0828    4.3455045    4.3455045    4.3455045    1603.0828    5761.4676    1980.8978   -2933.1169     4226.073    891.83934    1056.1457    82.057939 
   95600    236.45108   -115.96583    0.2139459   -115.75188   -1452.1034    4.3446396    4.3446396    4.3446396   -1452.1034   -2807.9572    6702.2554   -8250.6083    685.54807   -933.50931   -243.06246    82.008951 
   95700    133.67146   -115.87337   0.12094874   -115.75242    3560.8925    4.3427993    4.3427993    4.3427993    3560.8925    2148.5742    5594.3366    2939.7667   -217.53162    777.86406   -1997.6495    81.904788 
   95800    308.27371   -116.03037   0.27893253   -115.75144   -8999.0502    4.3463125    4.3463125    4.3463125   -8999.0502   -7051.4804   -8408.9907    -11536.68   -2799.3814   -1004.8111   -1223.5123     82.10372 
   95900    179.48857   -115.91443   0.16240503   -115.75202    2545.7419     4.343896     4.343896     4.343896    2545.7419    2432.1227    -1548.538    6753.6409   -1993.9018    112.00529    598.01236    81.966855 
   96000    265.19275   -115.99159   0.23995197   -115.75164   -2535.1966    4.3438611    4.3438611    4.3438611   -2535.1966    5283.6792    -5743.331    -7145.938    538.26601    601.20789   -364.23332    81.964875 
   96100    107.14202   -115.84983  0.096944356   -115.75289    4904.3437    4.3448849    4.3448849    4.3448849    4904.3437    6084.6094    6233.6082    2394.8135    3311.2009   -1652.1962    60.944139    82.022846 
   96200    185.05115   -115.91945   0.16743817   -115.75202     3065.778    4.3433853    4.3433853    4.3433853     3065.778    5858.9958    7092.0347   -3753.6964    3855.4655    1659.9641    1957.3416    81.937947 
   96300    219.28221   -115.95051   0.19841115    -115.7521    347.09397    4.3445017    4.3445017    4.3445017    347.09397   -4885.2966    9182.0563   -3255.4778    115.77446   -1426.6335   -1246.2503    82.001146 
   96400    153.02595   -115.89106    0.1384611   -115.75259    722.83617    4.3443135    4.3443135    4.3443135    722.83617   -1686.9817     2315.319    1540.1712   -700.21879    1793.7909   -1064.8368    81.990491 
   96500    312.92783   -116.03462   0.28314368   -115.75148   -8087.5069     4.344853     4.344853     4.344853   -8087.5069   -7380.6463   -8328.6428   -8553.2318   -2903.4571   -1631.9028    -2078.423     82.02104 
   96600    184.00193   -115.91871   0.16648881   -115.75222    1523.9453    4.3444876    4.3444876    4.3444876    1523.9453    4048.0251   -2850.6589    3374.4698   -597.68277    404.21038    957.85261    82.000347 
   96700    238.43949    -115.9679   0.21574506   -115.75215   -4682.5207    4.3446999    4.3446999    4.3446999   -4682.5207    590.10409    -3445.846    -11191.82    1341.1353   -704.73856   -488.03459    82.012369 
   96800    96.313486   -115.84039  0.087146466   -115.75324    4397.6143    4.3441937    4.3441937    4.3441937    4397.6143    6688.5496     7382.359    -878.0658    3774.8604    -258.4565    -564.6868    81.983707 
   96900    195.22038   -115.92859    0.1766395   -115.75195    1617.6607    4.3444296    4.3444296    4.3444296    1617.6607    3081.0251     10832.26   -9060.3025    3348.9274    1929.9634    1106.0152    81.997062 
   97000    196.04949    -115.9294    0.1773897   -115.75201   -113.33048      4.34442      4.34442      4.34442   -113.33048   -4287.1712    4210.4652   -263.28537    151.09562   -1028.8235   -2496.9762    81.996518 
   97100    199.45958   -115.93216   0.18047522   -115.75169    -2311.534    4.3451745    4.3451745    4.3451745    -2311.534    125.14304    260.80721   -7320.5524   -1567.8323    880.87753   -78.313671    82.039245 
   97200    293.76409   -116.01647   0.26580392   -115.75066   -4385.5744    4.3445593    4.3445593    4.3445593   -4385.5744   -6727.0267   -8869.1192    2439.4228    -2839.737   -1646.1921   -314.60049    82.004406 
   97300    208.58284   -115.94026   0.18873014   -115.75153    1025.5385    4.3445227    4.3445227    4.3445227    1025.5385    4635.8932    133.55171   -1692.8293     -218.615    522.86818    1077.0653    82.002336 
   97400    193.72652   -115.92713   0.17528783   -115.75185    -679.9192    4.3450385    4.3450385    4.3450385    -679.9192   -1353.1868    4629.8599   -5316.4306    1327.9759   -661.49011    -234.9992    82.031547 
   97500    115.99925   -115.85736   0.10495856    -115.7524    6303.5658    4.3435891    4.3435891    4.3435891    6303.5658    4556.1881    11569.978    2784.5315    4107.5284    285.70984   -292.72093    81.949483 
   97600    191.92839   -115.92531   0.17366084   -115.75165    2491.5623    4.3442408    4.3442408    4.3442408    2491.5623    3104.0881    10889.551   -6518.9518    2903.0634    2158.0537    50.932365    81.986372 
   97700    178.11375   -115.91334   0.16116107   -115.75218   -620.02523    4.3447941    4.3447941    4.3447941   -620.02523    -4736.119   -1244.6547    4120.6981   -281.46811   -67.522305   -2669.2692    82.017703 
   97800    237.77307   -115.96718   0.21514207   -115.75204   -5300.5837    4.3445189    4.3445189    4.3445189   -5300.5837     -2981.11   -4422.1611   -8498.4801   -925.22002   -126.72378   -168.46966    82.002116 
   97900    247.64767   -115.97589   0.22407682   -115.75181   -3524.1707    4.3445378    4.3445378    4.3445378   -3524.1707   -5481.6887   -6617.9886    1527.1652    -2718.135   -1139.6543    1899.9851     82.00319 
   98000    234.24193   -115.96376   0.21194702   -115.75182   -3695.0104    4.3451264    4.3451264    4.3451264   -3695.0104   -2636.9799    56.300682   -8504.3519     881.9873   -168.67153     428.7421    82.036524 
   98100    122.40236   -115.86337   0.11075223   -115.75261    2290.0846    4.3441933    4.3441933    4.3441933    2290.0846    268.82297     10060.04   -3458.6094    1242.5575   -883.40368   -364.98191     81.98368 
   98200    176.19299   -115.91163   0.15942312    -115.7522    1904.9844    4.3437595    4.3437595    4.3437595    1904.9844    4343.8935    7706.0242   -6334.9645     4429.374    730.88426    -1709.199    81.959127 
   98300    180.83333   -115.91554    0.1636218   -115.75191     2339.672    4.3448457    4.3448457    4.3448457     2339.672    913.25724    6681.7273   -575.96863    1718.9796    2410.7723   -529.42902    82.020625 
   98400    206.50189   -115.93873   0.18684725   -115.75189   -1084.2099    4.3444853    4.3444853    4.3444853   -1084.2099    1219.4211   -4944.9147    472.86372   -193.90414    34.799278   -2635.7105    82.000217 
   98500    244.07139   -115.97241   0.22084093   -115.75157   -3366.5409    4.3444789    4.3444789    4.3444789   -3366.5409   -2677.9103   -5946.7735   -1474.9389   -2431.7638    571.57274    1011.3766    81.999852 
   98600    237.08098    -115.9659   0.21451585   -115.75138   -1837.9823    4.3456139    4.3456139    4.3456139   -1837.9823   -6640.4323   -1676.3002    2802.7855   -2104.2636   -1376.4252    2562.8668    82.064139 
   98700    235.08694   -115.96421   0.21271161    -115.7515   -1647.9512    4.3443368    4.3443368    4.3443368   -1647.9512   -1028.2752    4017.4956   -7933.0742    352.77583   -1482.0271    470.87958    81.991806 
   98800    112.78193   -115.85459   0.10204746   -115.75254    4916.1622       4.3443       4.3443       4.3443    4916.1622   -1459.8495    12127.662     4080.674    1109.1557   -101.02199   -1274.1531    81.989722 
   98900    219.45215   -115.95021   0.19856491   -115.75165   -887.59347    4.3451111    4.3451111    4.3451111   -887.59347    2567.9081     2938.492   -8169.1805    4093.0082    1079.2538   -1788.6846    82.035654 
   99000    152.19355   -115.88972   0.13770792   -115.75201    3019.7426    4.3440199    4.3440199    4.3440199    3019.7426    2680.3781    1432.3544    4946.4953    939.66846    3580.1784   -966.99697    81.973865 
   99100    213.19313   -115.94453   0.19290162   -115.75162    -2333.382    4.3448421    4.3448421    4.3448421    -2333.382   -815.46702   -5951.5448   -233.13407    201.53881   -15.067319   -2588.0482    82.020421 
   99200    232.89723   -115.96188   0.21073031   -115.75115   -3005.9979    4.3448244    4.3448244    4.3448244   -3005.9979   -1098.3661   -6114.6665   -1804.9611   -2361.8473     1363.724    3050.2039    82.019421 
   99300    223.75215   -115.95375   0.20245565   -115.75129   -1740.2022     4.344627     4.344627     4.344627   -1740.2022   -7106.6272    2638.1142   -752.09359   -1749.2422   -583.00317     1956.616    82.008241 
   99400    223.93612   -115.95418    0.2026221   -115.75156   -2668.0363    4.3445451    4.3445451    4.3445451   -2668.0363   -3688.4847    5023.8456   -9339.4699   -279.20962    -1429.818    9.1969609    82.003599 
   99500    145.11018   -115.88366   0.13129874   -115.75236    3145.6024    4.3437324    4.3437324    4.3437324    3145.6024   -344.60234    7668.3614     2113.048    1744.0517   -508.10567    -2256.492    81.957594 
   99600    228.86782   -115.95882   0.20708441   -115.75173   -461.44683    4.3447794    4.3447794    4.3447794   -461.44683    2237.6042    375.34551   -3997.2902    2930.9406    1537.5887   -1077.3501    82.016872 
   99700    152.47358    -115.8904    0.1379613   -115.75244    3330.7654    4.3434259    4.3434259    4.3434259    3330.7654    4440.7008   -819.38512    6370.9804    324.28748    3365.7498   -1581.4249    81.940245 
   99800    217.87041   -115.94943   0.19713373   -115.75229   -2115.1944    4.3439782    4.3439782    4.3439782   -2115.1944    656.06436   -7702.4762     700.8285   -1213.9727   -433.80341   -2151.2194    81.971504 
   99900    228.22309   -115.95828   0.20650105   -115.75178   -1105.2384    4.3449918    4.3449918    4.3449918   -1105.2384   -1591.3285   -3899.3943    2175.0077    -1291.388    904.93897    2614.9883    82.028899 
  100000    204.14743   -115.93675   0.18471688   -115.75204    803.46869    4.3435407    4.3435407    4.3435407    803.46869   -3084.1039    6995.6711   -1501.1612   -1853.5692   -1150.9135    1103.9962    81.946743 
Loop time of 21.4833 on 1 procs for 100000 steps with 8 atoms

Pair  time (%) = 6.55268 (30.5012)
Kspce time (%) = 5.259 (24.4795)
Neigh time (%) = 0 (0)
Comm  time (%) = 1.06022 (4.9351)
Outpt time (%) = 0.0336771 (0.156759)
Other time (%) = 8.57773 (39.9274)

Nlocal:    8 ave 8 max 8 min
Histogram: 1 0 0 0 0 0 0 0 0 0
Nghost:    2189 ave 2189 max 2189 min
Histogram: 1 0 0 0 0 0 0 0 0 0
Neighs:    2056 ave 2056 max 2056 min
Histogram: 1 0 0 0 0 0 0 0 0 0

Total # of neighbors = 2056
Ave neighs/atom = 257
Neighbor list builds = 0
Dangerous builds = 0
unfix 20
unfix 21
print "seeds:2861629"
seeds:2861629
