LAMMPS (10 Feb 2015)
# ---- initialize simulations
clear
units metal
dimension 3
boundary p p p
atom_style charge
atom_modify map array
# ---- create atoms
read_data /Users/eugeneragasa/pyflamestk_git/pypospack/tests/tests_integration/workflow/WorkflowLammpsThermalExpansion/param_7521/MgO_NaCl_unit.npt.T800/lammps.structure
  triclinic box = (0 0 0) to (4.2565 4.2565 4.2565) with tilt (0 0 0)
  1 by 1 by 1 MPI processor grid
  reading atoms ...
  8 atoms
# ---- define interatomic potential
include potential.mod
mass 1 24.305
mass 2 15.999

group Mg type 1
4 atoms in group Mg
group O type 2
4 atoms in group O

set group Mg charge 1.63791250839
  4 settings made for charge
set group O charge -1.63791250839
  4 settings made for charge

variable R_cut equal 10.0

pair_style buck/coul/long ${R_cut}
pair_style buck/coul/long 10
pair_coeff 1 1 0.0 0.5 0.0 ${R_cut}
pair_coeff 1 1 0.0 0.5 0.0 10
pair_coeff 1 2 1465.92328509 0.282476486176 0.0 ${R_cut}
pair_coeff 1 2 1465.92328509 0.282476486176 0.0 10
pair_coeff 2 2 5816.20442115 0.096233749689 18.932341092 ${R_cut}
pair_coeff 2 2 5816.20442115 0.096233749689 18.932341092 10

kspace_style pppm 1.0e-5

neighbor 1.0 bin
neigh_modify every 1 delay 0 check yes
# ---- define settings
compute eng all pe/atom
compute eatoms all reduce sum c_eng
# ---- run minimization
reset_timestep 0
fix 1 all box/relax iso 0.0 vmax 0.001
thermo 10
thermo_style custom step pe lx ly lz xy xz yz press pxx pyy pzz pxy pxz pyz c_eatoms
min_style cg
minimize 1e-25 1e-25 5000 10000
PPPM initialization ...
  G vector (1/distance) = 0.35267
  grid = 8 8 8
  stencil order = 5
  estimated absolute RMS force accuracy = 3.88211e-05
  estimated relative force accuracy = 2.69597e-06
  using double precision FFTs
  3d grid and FFT values/proc = 3375 512
Neighbor list info ...
  1 neighbor list requests
  update every 1 steps, delay 0 steps, check yes
  master list distance cutoff = 11
Memory usage per processor = 4.06549 Mbytes
Step PotEng Lx Ly Lz Xy Xz Yz Press Pxx Pyy Pzz Pxy Pxz Pyz eatoms 
       0   -108.70031       4.2565       4.2565       4.2565            0            0            0    82041.316    82041.316    82041.316    82041.316 -4.6499549e-11 -1.1702618e-10 1.7098221e-10   -108.70031 
      10   -108.77917     4.299065     4.299065     4.299065            0            0            0    28384.418    28384.418    28384.418    28384.418 -2.893711e-10 1.1285336e-10 8.1895601e-11   -108.77917 
      19   -108.79132    4.3240425    4.3240425    4.3240425            0            0            0 -0.024351241 -0.024351241 -0.024351241 -0.024351241 1.5580285e-11 -3.1606067e-12 1.2588801e-10   -108.79132 
Loop time of 0.0083909 on 1 procs for 19 steps with 8 atoms

Minimization stats:
  Stopping criterion = linesearch alpha is zero
  Energy initial, next-to-last, final = 
        -108.700309346      -108.79131697      -108.79131697
  Force two-norm initial, final = 11.8468 7.13952e-05
  Force max component initial, final = 11.8468 1.5084e-05
  Final line search alpha, max atom move = 0.5 7.54202e-06
  Iterations, force evaluations = 19 24

Pair  time (%) = 0.0024004 (28.6071)
Kspce time (%) = 0.00136971 (16.3238)
Neigh time (%) = 0 (0)
Comm  time (%) = 0.000249863 (2.97778)
Outpt time (%) = 1.69277e-05 (0.201739)
Other time (%) = 0.004354 (51.8895)

Nlocal:    8 ave 8 max 8 min
Histogram: 1 0 0 0 0 0 0 0 0 0
Nghost:    2189 ave 2189 max 2189 min
Histogram: 1 0 0 0 0 0 0 0 0 0
Neighs:    2344 ave 2344 max 2344 min
Histogram: 1 0 0 0 0 0 0 0 0 0

Total # of neighbors = 2344
Ave neighs/atom = 293
Neighbor list builds = 0
Dangerous builds = 0
unfix 1
# ---- define output variables ----
variable natoms equal "count(all)"
variable tot_energy equal "c_eatoms"
variable length_x equal "lx"
variable length_y equal "ly"
variable length_z equal "lz"
variable tilt_xy equal "xy"
variable tilt_xz equal "xz"
variable tilt_yz equal "yz"
variable tot_press equal "press"
variable press_xx equal "pxx"
variable press_yy equal "pyy"
variable press_zz equal "pzz"
variable press_xy equal "pxy"
variable press_xz equal "pxz"
variable press_yz equal "pyz"

# ---- output ----
print "pypospack:output_section:begin"
pypospack:output_section:begin
print "tot_energy = ${tot_energy}"
tot_energy = -108.791316969709
print "num_atoms = ${natoms}"
num_atoms = 8
print "xx = ${length_x}"
xx = 4.32404254484564
print "yy = ${length_y}"
yy = 4.32404254484564
print "zz = ${length_z}"
zz = 4.32404254484564
print "xy = ${tilt_xy}"
xy = 0
print "xz = ${tilt_xz}"
xz = 0
print "yz = ${tilt_yz}"
yz = 0
print "tot_press = ${tot_press}"
tot_press = -0.0243512411551094
print "pxx = ${press_xx}"
pxx = -0.0243512413415371
print "pyy = ${press_yy}"
pyy = -0.0243512409516822
print "pzz = ${press_zz}"
pzz = -0.024351241172109
print "pxy = ${press_xy}"
pxy = 1.55802849425254e-11
print "pxz = ${press_xz}"
pxz = -3.16060668162342e-12
print "pyz = ${press_yz}"
pyz = 1.25888006757422e-10
print "pypospack:output_section:done"
pypospack:output_section:done
print "pypospack:lammps_sim:done"
pypospack:lammps_sim:done
#------------------------------------------------------------------------------
# RUN THERMOSTAT
# running using an NPT Nose-Hoover style thermostat
#------------------------------------------------------------------------------
variable tempdamp equal 0.1
variable pressdamp equal 1.0
# set initial velocities
velocity all create 800 7321980 mom yes dist gaussian loop all
# fix for Nose-Hoover style thermostat
fix 20 all npt temp 800 800 0.1 aniso 0.0 0.0 1.0 drag 1.0 couple xyz
variable boxx equal lx
variable boxy equal ly
variable boxz equal lz
variable boxp equal press
variable boxt equal temp
# calculate averages every 10000 steps
reset_timestep 0
fix 21 all ave/time 10 10 100 v_boxx v_boxy v_boxz v_boxp v_boxt file lattice.out
thermo_style custom step temp pe ke etotal press lx ly lz press pxx pyy pzz pxy pxz pyz vol
thermo_modify flush yes
thermo 100
run 100000
PPPM initialization ...
  G vector (1/distance) = 0.351996
  grid = 8 8 8
  stencil order = 5
  estimated absolute RMS force accuracy = 4.00454e-05
  estimated relative force accuracy = 2.781e-06
  using double precision FFTs
  3d grid and FFT values/proc = 3375 512
Memory usage per processor = 3.06549 Mbytes
Step Temp PotEng KinEng TotEng Press Lx Ly Lz Press Pxx Pyy Pzz Pxy Pxz Pyz Volume 
       0          800   -108.79133   0.72385681   -108.06747    9561.3711    4.3240425    4.3240425    4.3240425    9561.3711    10282.809    5254.9063    13146.398    1581.0836    6538.6108   -1147.0154    80.848111 
     100    184.08897   -108.13803   0.16656757   -107.97146   -633.99829    4.3476991    4.3476991    4.3476991   -633.99829    -23485.45   -20412.697    41996.153   -3594.4578   -1166.8574   -2399.9344    82.182327 
     200    514.55863   -108.23314   0.46558347   -107.76756   -11028.441    4.3528576    4.3528576    4.3528576   -11028.441   -28298.511   -26756.124    21969.311   -1414.5859    3192.7737    3590.5035    82.475201 
     300    995.81068   -108.50148   0.90103043   -107.60045   -1.6697381    4.3429398    4.3429398    4.3429398   -1.6697381   -6135.6426   -16077.859    22208.493   -754.12835   -8160.2401    152.38602    81.912736 
     400    632.05608   -108.04993   0.57189762   -107.47803   -7310.3057    4.3558002    4.3558002    4.3558002   -7310.3057   -37572.314   -15322.428    30963.824   -6422.0765    1784.8171   -3922.5597    82.642578 
     500    737.18156   -108.05227   0.66701737   -107.38525    4714.4571    4.3630486    4.3630486    4.3630486    4714.4571   -18589.667   -23349.742     56082.78    1045.5695   -2950.9355   -2541.2389    83.055834 
     600    779.43145   -108.04974   0.70524596   -107.34449   -6890.2836    4.3567249    4.3567249    4.3567249   -6890.2836   -22654.923   -41851.022    43835.095    -2053.199    7237.2074    5324.0007    82.695222 
     700    857.53828   -108.11403   0.77591866   -107.33812   -12259.226    4.3582775    4.3582775    4.3582775   -12259.226   -30801.043    -14977.04    9000.4053   -2759.9926    12421.138   -3027.3767    82.783665 
     800    834.77594    -108.0938   0.75532281   -107.33848      8311.55    4.3640347    4.3640347    4.3640347      8311.55   -13404.886   -31946.427    70285.963    2055.1851   -3476.9199    2093.1357    83.112165 
     900    742.05289   -108.01851   0.67142505   -107.34708   -12266.784    4.3621256    4.3621256    4.3621256   -12266.784   -35850.877   -35178.256     34228.78   -757.76424    5267.4063   -4229.2616    83.003138 
    1000     835.9924   -108.10611   0.75642349   -107.34969   -6274.4094    4.3541471    4.3541471    4.3541471   -6274.4094   -23588.264    -10820.07    15585.106    554.04487   -7755.3053   -2530.0328    82.548521 
    1100    1007.7192   -108.26617    0.9118055   -107.35437   -7358.4179     4.363657     4.363657     4.363657   -7358.4179   -23952.119   -37828.348    39705.213    1762.6286    3186.0932    4376.1044    83.090586 
    1200    463.88627   -107.77615   0.41973404   -107.35642    11163.209    4.3643148    4.3643148    4.3643148    11163.209   -33190.968    -17378.27    84058.865    332.24088    6513.7179   -3629.1786    83.128167 
    1300    769.79127   -108.04789   0.69652332   -107.35137    4199.4233    4.3510582    4.3510582    4.3510582    4199.4233   -13028.208    -4190.154    29816.632    52.238308    9885.2339   -7788.2351    82.372961 
    1400      1073.87   -108.32397   0.97166012   -107.35231   -25963.467     4.363027     4.363027     4.363027   -25963.467   -31228.474   -49457.707    2795.7805    1705.5856    950.53375     3124.116    83.054605 
    1500    679.22883   -107.96449   0.61458052    -107.3499   -287.97666    4.3659822    4.3659822    4.3659822   -287.97666    -27094.36   -6979.5495     33209.98    -1363.995    2572.2199     -1070.38    83.223482 
    1600    545.42831   -107.84555     0.493515   -107.35204    26204.044    4.3510042    4.3510042    4.3510042    26204.044   -12784.269   -11635.935    103032.34    -1870.694   -10554.557    4545.1185    82.369892 
    1700    580.44731   -107.88864   0.52520092   -107.36343    13805.076    4.3566951    4.3566951    4.3566951    13805.076    -12322.99   -25068.779    78806.997    1982.2626   -694.07608   -5068.3125    82.693524 
    1800    958.64863   -108.22802   0.86740543   -107.36061   -20635.026     4.366513     4.366513     4.366513   -20635.026   -26490.121   -26084.371   -9330.5851   -2862.9422    3817.5893   -518.42113    83.253842 
    1900    966.06693   -108.22912   0.87411766     -107.355   -8455.6724    4.3591675    4.3591675    4.3591675   -8455.6724   -25021.422   -18742.241    18396.645     3340.124    1046.6295    81.131935     82.83439 
    2000    1018.6197   -108.28001   0.92166855   -107.35834    8257.9723    4.3484053    4.3484053    4.3484053    8257.9723   -15044.952   -12933.348    52752.217    875.16974   -5627.3273   -2335.9268     82.22238 
    2100    335.52643   -107.67044   0.30359137   -107.36685    6283.6143    4.3660337    4.3660337    4.3660337    6283.6143   -23779.383   -30950.253    73580.479    4016.6937   -1811.5479    4235.6427    83.226429 
    2200    985.92287   -108.24126   0.89208373   -107.34918   -17221.001    4.3687115    4.3687115    4.3687115   -17221.001    -25652.15     -34674.5    8663.6449    2496.4279   -7390.4577   -2293.3325    83.379656 
    2300    1004.7957   -108.24633   0.90916029   -107.33717    10691.386     4.348989     4.348989     4.348989    10691.386   -13985.524    -6025.542    52085.225    814.95888      5043.26   -3187.5503    82.255496 
    2400     361.2732    -107.6759   0.32688758   -107.34901    3320.9467    4.3637344    4.3637344    4.3637344    3320.9467    -30448.25   -26468.611    66879.701    7817.8739   -1475.4521   -1739.6513    83.095006 
    2500    1093.8222   -108.32891   0.98971336    -107.3392   -14096.398    4.3663117    4.3663117    4.3663117   -14096.398   -24499.681   -23485.513    5695.9993   -1520.1085    16058.609    -807.9539    83.242326 
    2600    807.46756   -108.07228   0.73061362   -107.34167   -6187.0325     4.355417     4.355417     4.355417   -6187.0325   -32964.803    -33747.95    48151.656    6461.7444    -5167.031   -530.53929    82.620765 
    2700    895.65101   -108.15359   0.81040386   -107.34319     7623.967     4.357115     4.357115     4.357115     7623.967   -23797.742   -8246.4957    54916.139    2057.7095    1268.4825    6683.0993    82.717436 
    2800    773.14915   -108.04106   0.69956159   -107.34149   -726.44191    4.3703945    4.3703945    4.3703945   -726.44191   -29139.997   -29890.319     56850.99    255.49106   -10236.146    1008.4184    83.476054 
    2900    847.88857   -108.10889    0.7671874   -107.34171   -16859.393    4.3533608    4.3533608    4.3533608   -16859.393   -32196.138   -44358.007    25975.966    2292.1989    2238.7664    1583.4101    82.503809 
    3000    904.44333   -108.16404   0.81835933   -107.34568    19293.193    4.3533707    4.3533707    4.3533707    19293.193   -581.50199   -10577.872    69038.953   -395.89042   -2244.0571    2349.8315     82.50437 
    3100    845.92555    -108.1103   0.76541121   -107.34489   -19787.206    4.3761929    4.3761929    4.3761929   -19787.206   -40083.614   -34148.361    14870.357    649.50975    987.33983   -5960.9554     83.80875 
    3200    817.86928   -108.07564   0.74002532   -107.33562    8160.8037    4.3461937    4.3461937    4.3461937    8160.8037    -3221.423   -26951.915    54655.749   -4999.2268    1088.7861    4795.0666    82.096988 
    3300    568.20358   -107.85864   0.51412254   -107.34452    4411.6138    4.3607711    4.3607711    4.3607711    4411.6138   -1265.2814   -30547.321    45047.444   -213.39709    896.11555   -7911.0711     82.92584 
    3400    786.36711   -108.05536   0.71152149   -107.34384    -10280.91    4.3672586    4.3672586    4.3672586    -10280.91   -31208.814    -27525.11    27891.193     -4173.24    6857.5577     6190.703    83.296492 
    3500     1134.239   -108.36937    1.0262833   -107.34309   -3403.3939    4.3558223    4.3558223    4.3558223   -3403.3939   -2847.5159   -16967.893    9605.2275    -4144.069    948.72026   -9431.0137    82.643833 
    3600    687.05541   -107.96972   0.62166217   -107.34806     8914.573    4.3579825    4.3579825    4.3579825     8914.573   -5997.5258   -20940.426    53681.671   -1700.7141   -3329.6934    -5463.919    82.766854 
    3700    476.02723   -107.77891   0.43071944   -107.34819   -6207.5158    4.3682246    4.3682246    4.3682246   -6207.5158   -16718.444   -31966.371    30062.268   -1509.0435   -3331.7459   -2831.8379     83.35178 
    3800    1021.5162   -108.26176    0.9242893   -107.33747    5118.1923    4.3573149    4.3573149    4.3573149    5118.1923    128.23303   -11022.755    26249.099     2517.109     4187.286    7175.7117    82.728822 
    3900    927.75896   -108.17781    0.8394558   -107.33835   -8948.8793    4.3650233    4.3650233    4.3650233   -8948.8793    -24774.14   -15663.432    13590.935   -1834.2533    7821.6045   -3610.7259    83.168657 
    4000    634.25424   -107.90986   0.57388657   -107.33597    3785.0611    4.3636005    4.3636005    4.3636005    3785.0611   -30008.868   -6440.9847    47805.036    3827.2356    8490.8604   -4592.2411    83.087356 
    4100    769.91243   -108.03228   0.69663295   -107.33565     -8833.13    4.3636949    4.3636949    4.3636949     -8833.13   -26413.211   -18475.632    18389.453   -1823.3686   -9957.1686   -2771.6164    83.092749 
    4200    965.18956   -108.20886   0.87332379   -107.33553   -13760.873    4.3614196    4.3614196    4.3614196   -13760.873   -31294.654   -8283.0875   -1704.8774   -5360.3977    6278.8081   -5078.6706     82.96284 
    4300    673.58036   -107.94938   0.60946967   -107.33991     6304.243    4.3631876    4.3631876    4.3631876     6304.243   -26383.057   -7494.2272    52790.014   -2540.3857   -3575.5367    6378.2979    83.063772 
    4400    910.77571   -108.16002     0.824089   -107.33593   -20674.455    4.3655506    4.3655506    4.3655506   -20674.455   -15025.282   -37697.029   -9301.0523   -6624.3271    6739.2665   -7009.4972    83.198801 
    4500    686.78719   -107.95406   0.62141948   -107.33264    4873.8832    4.3619775    4.3619775    4.3619775    4873.8832   -18749.312   -6234.7993    39605.761   -3155.2917   -6749.3858   -4168.3067    82.994681 
    4600    752.93401   -108.01221   0.68127052   -107.33094   -1794.8889      4.36819      4.36819      4.36819   -1794.8889   -4523.0067   -2818.0177    1956.3577    695.92767   -12686.133    3870.4503    83.349799 
    4700    888.65594   -108.12891   0.80407457   -107.32484    1134.1456    4.3588299    4.3588299    4.3588299    1134.1456    374.12105   -12219.189    15247.505    6416.7119    430.82025    5519.1932    82.815146 
    4800    613.34057   -107.88343   0.55496344   -107.32847   -8695.7626    4.3724379    4.3724379    4.3724379   -8695.7626   -11822.468   -5969.0656   -8295.7536    4133.0021   -9117.3165    2081.5189    83.593201 
    4900    818.72013    -108.0667   0.74079518    -107.3259   -4554.5876    4.3616289    4.3616289    4.3616289   -4554.5876    2777.4423    2347.8389   -18789.044    2012.7403    11193.881   -3217.2479    82.974785 
    5000     940.7907   -108.18497   0.85124719   -107.33373   -2247.9008    4.3615195    4.3615195    4.3615195   -2247.9008    284.69804    -3143.888   -3884.5124    597.52035   -1656.9347   -11156.693    82.968541 
    5100    788.94743   -108.04484   0.71385621   -107.33098   -10563.182    4.3698491    4.3698491    4.3698491   -10563.182   -4918.4668   -3073.8788   -23697.199   -7188.9983      5810.98   -812.28957     83.44481 
    5200    763.36585    -108.0155   0.69070946   -107.32479    9420.3156    4.3511009    4.3511009    4.3511009    9420.3156    33570.425   -33450.322    28140.844   -1689.8289   -6216.3534   -5275.0265    82.375389 
    5300    733.40018   -107.99492    0.6635959   -107.33132   -6820.4209    4.3718145    4.3718145    4.3718145   -6820.4209   -770.74934    10046.776    -29737.29    6412.1815   -7247.0671    6629.7218    83.557453 
    5400    926.92367   -108.16904   0.83870002   -107.33034    11886.923     4.355812     4.355812     4.355812    11886.923    11837.815    11886.781    11936.172   -6257.3048    369.64429    1898.2493     82.64325 
    5500    626.73294   -107.90526   0.56708114   -107.33818    10156.534    4.3626904    4.3626904    4.3626904    10156.534    20610.972    15186.064   -5327.4325   -4822.5904    524.76526   -6186.4143    83.035384 
    5600    877.52289    -108.1218   0.79400115    -107.3278   -15130.858    4.3703197    4.3703197    4.3703197   -15130.858   -9712.0755   -23083.264   -12597.234   -2436.4544    2043.1064    5277.3294    83.471768 
    5700    758.05295   -108.00986   0.68590224   -107.32396      14351.7    4.3544231    4.3544231    4.3544231      14351.7    50302.742    4256.7619   -11504.404   -3178.7124   -2033.8938   -14307.693    82.564216 
    5800    1136.6351   -108.35424    1.0284513   -107.32579   -27523.694    4.3738302    4.3738302    4.3738302   -27523.694   -27032.881   -26710.919   -28827.283    16081.728     -3117.41   -6078.8756    83.673082 
    5900    917.57772   -108.15368    0.8302436   -107.32344    8316.6452    4.3583382    4.3583382    4.3583382    8316.6452    45146.836    7836.6544   -28033.554    1559.7766   -7147.3216   -10395.677    82.787119 
    6000    626.13998   -107.89769   0.56654461   -107.33115   -2376.8533    4.3632722    4.3632722    4.3632722   -2376.8533    525.30855    7186.0182   -14841.887   -10122.935    1999.2318   -4785.9658    83.068605 
    6100    864.71503   -108.11014   0.78241233   -107.32772    9025.8236    4.3616931    4.3616931    4.3616931    9025.8236    38442.581    8972.2537   -20337.364   -1641.7213    1334.8993    3412.2219    82.978449 
    6200    752.20934   -108.01369   0.68061482   -107.33307    6113.2561    4.3629044    4.3629044    4.3629044    6113.2561      3903.09    3594.3475    10842.331   -4367.7554    3268.9613   -3637.4976    83.047601 
    6300    1073.0861   -108.30434   0.97095081   -107.33339   -15819.055    4.3617901    4.3617901    4.3617901   -15819.055   -10266.314   -25929.939   -11260.911   -4025.3102   -3819.6291   -1411.7363    82.983986 
    6400    575.21824   -107.85609   0.52046955   -107.33562    24790.893    4.3573963    4.3573963    4.3573963    24790.893    40191.129     10145.68     24035.87    6751.7441   -1121.8635   -7547.4432    82.733461 
    6500    784.48158   -108.04021   0.70981542    -107.3304   -23056.328    4.3768484    4.3768484    4.3768484   -23056.328   -20594.564   -14421.829    -34152.59    -12900.17   -5909.5644   -10600.267    83.846415 
    6600    895.78715   -108.12923   0.81052704   -107.31871    26328.245    4.3538112    4.3538112    4.3538112    26328.245    40471.018    39831.348   -1317.6294   -4053.8878    303.57298    2732.6591    82.529414 
    6700    788.48777    -108.0424    0.7134403   -107.32896   -7880.6211    4.3634295    4.3634295    4.3634295   -7880.6211   -3388.2969   -5572.3975   -14681.169   -655.06362    3111.7444   -3046.2595     83.07759 
    6800    700.47126   -107.95928   0.63380112   -107.32547   -10868.402    4.3671523    4.3671523    4.3671523   -10868.402   -9669.9138   -23794.185    858.89386    1081.2534    3520.3607    2137.2519     83.29041 
    6900    952.05885   -108.18373   0.86144286   -107.32228   -3224.0947    4.3574512    4.3574512    4.3574512   -3224.0947   -4115.9626   -15766.579    10210.258    6379.4278    5102.4813   -231.41894    82.736585 
    7000    663.36246   -107.92878    0.6002243   -107.32855   -5873.7796    4.3657065    4.3657065    4.3657065   -5873.7796   -22759.277    -680.9805    5818.9188    2442.4174   -8441.2755   -18980.119    83.207719 
    7100    1180.0446   -108.38865    1.0677291   -107.32092   -5561.9741     4.359597     4.359597     4.359597   -5561.9741   -4667.9631    2397.4299   -14415.389    -5626.053    118.42264    1206.6055    82.858873 
    7200    522.93259   -107.80111   0.47316039   -107.32795   -641.37416    4.3654144    4.3654144    4.3654144   -641.37416   -13531.075    4072.1598    7534.7932   -6733.4008   -8402.4529   -1701.8788    83.191014 
    7300     822.5111   -108.07164   0.74422533   -107.32742   -8040.7173    4.3594923    4.3594923    4.3594923   -8040.7173   -7749.4297   -31066.467    14693.745    -5611.824     155.0314   -368.51679    82.852905 
    7400    970.37006   -108.20959   0.87801122   -107.33158    8514.6112    4.3603559    4.3603559    4.3603559    8514.6112   -7114.6491    18649.594    14008.888     771.3061    229.09358   -4438.9898    82.902156 
    7500    653.68341    -107.9301   0.59146649   -107.33864   -7318.5824    4.3613062    4.3613062    4.3613062   -7318.5824    4241.6295   -20254.276   -5943.1008    2249.0738   -3551.1211   -18234.062    82.956369 
    7600    822.94195    -108.0769   0.74461517   -107.33228    5934.2309    4.3575742    4.3575742    4.3575742    5934.2309    8672.9988    16411.724   -7282.0302    856.40041    -3960.931    4389.8055    82.743591 
    7700    657.30224   -107.92721   0.59474088   -107.33247    3678.3085    4.3684886    4.3684886    4.3684886    3678.3085    2858.0779   -15864.384    24041.231    4883.4674   -10097.232    2202.4331    83.366897 
    7800    796.72801   -108.05003   0.72089625   -107.32913    6865.8071    4.3572074    4.3572074    4.3572074    6865.8071   -2109.8862    2978.7405    19728.567   -5067.9237   -9172.8795   -9645.8335      82.7227 
    7900    1028.5938   -108.25428   0.93069324   -107.32359    369.68472    4.3653302    4.3653302    4.3653302    369.68472   -13415.045    774.82123    13749.278   -9758.9099     735.6755   -1988.0548    83.186205 
    8000    632.55985   -107.90059   0.57235344   -107.32824   -11854.054     4.362714     4.362714     4.362714   -11854.054    -3784.389   -9253.1811   -22524.593    -4082.607    -762.7553   -13542.372    83.036729 
    8100     854.5144   -108.09961   0.77318258   -107.32643    5091.4957    4.3579607    4.3579607    4.3579607    5091.4957   -8406.0443    23659.368    21.163925   -6966.3758    5218.6926    5979.7647    82.765613 
    8200    1011.1517   -108.23963    0.9149113   -107.32472   -17269.247    4.3754166    4.3754166    4.3754166   -17269.247   -23549.324   -15826.589   -12431.829    9323.1132    6475.4476   -1168.8205     83.76416 
    8300    760.94611   -108.00979   0.68852003   -107.32127    551.58452       4.3559       4.3559       4.3559    551.58452   -1590.0837   -2216.1336    5460.9709    907.26284   -4829.7292    -16641.95     82.64826 
    8400    858.12067   -108.10171   0.77644562   -107.32527    5020.9001    4.3622246    4.3622246    4.3622246    5020.9001    7319.4253     1114.641    6628.6341     5137.983    1025.1532   -1197.7369     83.00879 
    8500    635.63785     -107.904   0.57513849   -107.32886   -1068.2811    4.3634919    4.3634919    4.3634919   -1068.2811    -5702.614    22486.939   -19989.168   -9126.5874   -5564.0552   -20081.415    83.081152 
    8600    721.76075   -107.98422   0.65306429   -107.33116    16790.238    4.3551642    4.3551642    4.3551642    16790.238    43702.584    3810.9387    2857.1917    -4674.319   -5865.8763   -6573.5055    82.606379 
    8700    1079.3984   -108.30586   0.97666239   -107.32919   -13162.115    4.3673561    4.3673561    4.3673561   -13162.115   -12261.722   -9511.8148   -17712.809    5217.4139    2891.3452    5546.1173    83.302076 
    8800    627.27647       -107.9   0.56757294   -107.33243     2543.723     4.355389     4.355389     4.355389     2543.723    33511.127   -19108.155   -6771.8024    3465.5946   -6362.3747    -12829.34    82.619176 
    8900    917.42159   -108.16054   0.83010233   -107.33044   -8093.4502      4.36567      4.36567      4.36567   -8093.4502   -24646.501     8281.995    -7915.845     686.5799    -773.4111     4221.607    83.205632 
    9000    770.77856   -108.02723   0.69741664   -107.32981    11715.146     4.359102     4.359102     4.359102    11715.146    10198.694    19670.986    5275.7577   -3823.2212   -1765.3843    -7791.095    82.830655 
    9100    834.55447   -108.08842   0.75512243    -107.3333   -1234.4681    4.3626779    4.3626779    4.3626779   -1234.4681   -6748.3082    5978.8531   -2933.9494   -10694.097   -4646.8514   -6624.1453    83.034665 
    9200    885.43815   -108.13028   0.80116304   -107.32912    1088.5976    4.3622164    4.3622164    4.3622164    1088.5976   -8007.4359    -12382.23    23655.458   -1995.0636    7161.0462    -1990.422     83.00832 
    9300     600.4991   -107.87383   0.54334421   -107.33048    10899.994    4.3529455    4.3529455    4.3529455    10899.994    24364.987    6935.7759    1399.2199    5920.6605    -2315.901    -8438.456    82.480197 
    9400    930.51952   -108.17235   0.84195361    -107.3304   -8624.0634    4.3703207    4.3703207    4.3703207   -8624.0634   -38587.825    7126.9622    5588.6726   -5639.0927    1818.8402    4223.5194    83.471828 
    9500    881.54659   -108.12745   0.79764188   -107.32981    5988.1548    4.3571409    4.3571409    4.3571409    5988.1548   -3424.9324    42215.141   -20825.744    7118.0742    11295.735   -9674.6243     82.71891 
    9600    650.78014   -107.92388   0.58883955   -107.33504    7077.8524    4.3535757    4.3535757    4.3535757    7077.8524    15242.783   -4869.7534    10860.527   -971.81926   -6817.0371    -14443.99    82.516028 
    9700    980.29243   -108.21483   0.88698919   -107.32784   -23576.232    4.3743614    4.3743614    4.3743614   -23576.232   -40787.044   -17838.074   -12103.577   -3483.2716    10794.821    1473.2185    83.703572 
    9800    774.05051   -108.02425   0.70037716   -107.32387    5169.3167     4.353627     4.353627     4.353627    5169.3167    10347.334   -16661.007    21821.623   -4027.1227   -4797.4922   -17376.903    82.518944 
    9900    977.81609    -108.2102   0.88474855   -107.32545     7884.193    4.3560631    4.3560631    4.3560631     7884.193   -3959.3595    19849.925    7762.0133   -2063.4936    -7334.101    7952.2045    82.657542 
   10000    697.22906    -107.9555    0.6308675   -107.32464   -9862.2405    4.3741698    4.3741698    4.3741698   -9862.2405   -10077.098   -8298.7357   -11210.887    4654.4478    370.19549   -5189.7911    83.692569 
   10100    533.53738   -107.80501   0.48275583   -107.32226    15386.853    4.3532208    4.3532208    4.3532208    15386.853    10684.646    12731.434    22744.478    3390.5409   -7099.8301   -17555.516    82.495849 
   10200    994.48248   -108.22463   0.89982865    -107.3248   -4934.3045     4.360226     4.360226     4.360226   -4934.3045   -11119.597    8138.6829   -11821.999    3521.5807    311.21083    7558.9953    82.894743 
   10300    599.65888   -107.87368   0.54258396    -107.3311    4205.4308    4.3603426    4.3603426    4.3603426    4205.4308    15657.988   -15495.787    12454.091   -2500.7229    905.13657   -20438.985    82.901398 
   10400    1068.3861   -108.29468   0.96669821   -107.32798   -17561.837    4.3619164    4.3619164    4.3619164   -17561.837   -20999.056   -28897.428   -2789.0283   -1810.4754    2073.3957   -1185.4076    82.991197 
   10500    642.08886   -107.91233    0.5809755   -107.33135   -13186.844    4.3646407    4.3646407    4.3646407   -13186.844   -9477.5628    -31047.28    964.31166   -7591.2848    3804.7335   -3528.9486    83.146794 
   10600    863.56248   -108.11314   0.78136948   -107.33177     7807.925    4.3505937    4.3505937    4.3505937     7807.925     3985.965    13040.857    6396.9532   -1023.4434    2272.6879   -11722.533    82.346583 
   10700    912.07525   -108.15595   0.82526485   -107.33068   -11409.357    4.3717041    4.3717041    4.3717041   -11409.357   -14945.018   -10023.537   -9259.5161    6097.7405    4707.7499    1886.7495    83.551121 
   10800    376.89737   -107.66939   0.34102466   -107.32836    3815.4262    4.3602078    4.3602078    4.3602078    3815.4262    22758.102    8819.1405   -20130.964    9065.3081    7905.0696   -23265.482    82.893707 
   10900    777.10093   -108.02382   0.70313725   -107.32069    15171.748    4.3526478    4.3526478    4.3526478    15171.748    33189.448    19528.208   -7202.4117    10834.822     125.8335   -2058.1923    82.463273 
   11000    766.97604   -108.01799   0.69397604   -107.32401   -16768.864    4.3760857    4.3760857    4.3760857   -16768.864   -13469.527   -13380.378   -23456.686    7085.7101    2641.9996   -11667.963    83.802591 
   11100    838.62557   -108.07803   0.75880604   -107.31922   -866.23332    4.3590409    4.3590409    4.3590409   -866.23332    30582.882   -3798.1669   -29383.415   -2448.1456   -4107.1818    -9662.178     82.82717 
   11200     1081.144   -108.29651   0.97824185   -107.31827   -4071.0175    4.3529826    4.3529826    4.3529826   -4071.0175   -4339.8862   -14641.454    6768.2872    -9964.696   -6858.3915    5485.3107    82.482308 
   11300     597.3639   -107.87031   0.54050741   -107.32981   -14904.933    4.3703105    4.3703105    4.3703105   -14904.933    35020.331   -35090.828   -44644.303    2131.2696    4743.5996   -17363.377    83.471241 
   11400    948.82988   -108.18006   0.85852121   -107.32154    11148.006      4.35973      4.35973      4.35973    11148.006    28865.851    1463.9288    3114.2371   -2178.3324   -1587.7797    3136.0729    82.866457 
   11500    656.23723   -107.91856   0.59377724   -107.32478      12386.5    4.3523068    4.3523068    4.3523068      12386.5    24422.991    35357.832   -22621.321    709.70267    7957.4875   -15493.612    82.443897 
   11600    687.22198   -107.95606   0.62181289   -107.33425   -6153.1124    4.3663926    4.3663926    4.3663926   -6153.1124    -12429.76     10133.91   -16163.486    1972.9653    4455.8661   -16868.445    83.246952 
   11700    929.13171   -108.17099   0.84069789   -107.33029   -6910.3326    4.3669377    4.3669377    4.3669377   -6910.3326   -8118.1045   -710.88808   -11902.005   -4300.3543   -1175.5713   -770.29772    83.278135 
   11800    680.43353   -107.94571   0.61567056   -107.33004    403.74279     4.355763     4.355763     4.355763    403.74279    18403.913   -16547.194   -645.48991   -410.11473    2932.2585   -21707.815    82.640458 
   11900    1144.1923   -108.35784    1.0352893   -107.32256   -7993.0909     4.362627     4.362627     4.362627   -7993.0909   -1305.4249   -5197.0796   -17476.768    6363.1534   -4567.5684    8610.5416    83.031762 
   12000    592.36483   -107.86008   0.53598415    -107.3241    689.11791    4.3667972    4.3667972    4.3667972    689.11791    23552.014     -15903.9   -5580.7604    6467.6324    8488.0518   -9718.6028    83.270095 
   12100    586.03839   -107.85397   0.53025985   -107.32371    12505.208    4.3577098    4.3577098    4.3577098    12505.208   -11642.152     17065.73    32092.046    7443.5705     5886.875   -16121.715    82.751315 
   12200     979.0778   -108.21122   0.88589017   -107.32533    8177.9164     4.359784     4.359784     4.359784    8177.9164   -16750.028    11004.613    30279.164    8458.3313    2686.8073   -8004.2058    82.869538 
   12300    479.70507   -107.76897   0.43404723   -107.33493   -2950.3862    4.3673187    4.3673187    4.3673187   -2950.3862    8372.3902   -11259.676    -5963.873     3150.041    8373.7668    -19074.56    83.299936 
   12400    999.77347   -108.22613   0.90461604   -107.32151   -4606.7148     4.357853     4.357853     4.357853   -4606.7148    1461.3235    1668.3306   -16949.799    2837.0746   -7266.0801    4444.2039    82.759475 
   12500    801.78408   -108.05037   0.72547108    -107.3249   -5638.4745    4.3610922    4.3610922    4.3610922   -5638.4745   -9214.8891   -13718.682    6018.1473    -122.9585   -1936.0609   -3799.4218    82.944161 
   12600    790.12666   -108.03921   0.71492321   -107.32429   -7961.7722    4.3655284    4.3655284    4.3655284   -7961.7722   -1225.0514   -1650.0884   -21010.177   -4804.3826    1291.2623   -17137.811    83.197535 
   12700    859.07553   -108.09698   0.77730959   -107.31967    12259.209    4.3557104    4.3557104    4.3557104    12259.209   -14976.054    17363.576    34390.105    -7434.615   -5404.8537   -3288.7202    82.637466 
   12800    603.38265   -107.87941    0.5459533   -107.33346   -10830.554    4.3624804    4.3624804    4.3624804   -10830.554   -16015.032    6244.1301   -22720.761    1450.0849    12582.852   -21140.207    83.023393 
   12900    730.11558   -107.99201   0.66062392   -107.33139    13921.282    4.3654759    4.3654759    4.3654759    13921.282    2944.6755    36034.091    2785.0784      3658.52   -2036.4785   -1003.4013     83.19453 
   13000    1106.0738   -108.32952    1.0007988   -107.32872   -14339.755    4.3565619    4.3565619    4.3565619   -14339.755   -10671.429   -5531.6928   -26816.142   -920.65205    6516.0327   -4954.8662    82.685937 
   13100    652.69885   -107.92214   0.59057563   -107.33156    12523.915    4.3524917    4.3524917    4.3524917    12523.915    27512.142    27645.792    -17586.19   -2572.7205    3917.7778   -7613.0113    82.454404 
   13200    725.33177   -107.98101   0.65629543   -107.32471   -10466.636    4.3754788    4.3754788    4.3754788   -10466.636   -22859.383   -1874.7048   -6665.8206    1150.0491   -10168.992   -2085.7531    83.767731 
   13300    709.33104   -107.96965   0.64181763   -107.32783   -339.73885    4.3499847    4.3499847    4.3499847   -339.73885   -10602.795    4951.2387    4632.3397   -8274.9204    6018.9595   -17053.789    82.312008 
   13400    804.86328   -108.06261   0.72825721   -107.33435    22082.292    4.3496593    4.3496593    4.3496593    22082.292    7090.6845    24965.782    34190.409    1404.4393   -5895.3312   -3857.7681    82.293537 
   13500    956.33241   -108.19013   0.86530967   -107.32482   -38052.589    4.3798859    4.3798859    4.3798859   -38052.589   -37827.095   -36633.865   -39696.807   -5002.9843    463.25413    7825.3203    84.021106 
   13600    574.30672   -107.84224   0.51964479   -107.32259    5896.7804    4.3436171    4.3436171    4.3436171    5896.7804   -3335.8057     8611.126    12415.021    5733.8768    8770.3461   -13359.338    81.951067 
   13700    1053.8893   -108.28139   0.95358119   -107.32781   -94.718319    4.3555063    4.3555063    4.3555063   -94.718319   -8635.4972    776.21131    7575.1309   -3890.8906   -9404.4657    8910.7877    82.625848 
   13800    800.47786   -108.05063   0.72428919   -107.32634    -20626.41    4.3755816    4.3755816    4.3755816    -20626.41   -25373.732   -7319.4475   -29186.049     3708.748    12980.911   -8510.7938    83.773636 
   13900    681.96466   -107.93595   0.61705595    -107.3189    18772.084    4.3450074    4.3450074    4.3450074    18772.084    19992.942    19921.861     16401.45   -7454.7133   -12957.841   -10675.793    82.029784 
   14000    707.77871   -107.96617   0.64041305   -107.32576    2174.5034    4.3612458    4.3612458    4.3612458    2174.5034    28586.047    -6316.878   -15745.659   -6114.2117    9333.1603    9161.0224    82.952925 
   14100    625.52644   -107.89073   0.56598946   -107.32474   -13583.561    4.3718351    4.3718351    4.3718351   -13583.561   -15469.516   -15664.521   -9616.6471    2780.3388    10155.094   -12718.615    83.558633 
   14200    1010.1684   -108.22863   0.91402161   -107.31461    8614.1518    4.3500368    4.3500368    4.3500368    8614.1518     24979.85   -10173.281    11035.886    3187.9758     -4571.15    3479.8329    82.314962 
   14300    866.77435    -108.1065   0.78427565   -107.32223   -15186.907    4.3598737    4.3598737    4.3598737   -15186.907   -17220.278   -15356.576   -12983.866    5228.3911     16102.03   -6953.6295    82.874656 
   14400    592.33504   -107.86137    0.5359572   -107.32541   -17560.536    4.3694083    4.3694083    4.3694083   -17560.536   -19284.935   -20657.919   -12738.752    2786.2443   -4997.0324   -11062.604     83.41956 
   14500    1173.0963   -108.38185    1.0614422    -107.3204   -1789.4278    4.3528039    4.3528039    4.3528039   -1789.4278    1840.9937   -8690.5167    1481.2397    7274.0505    5821.4755    1403.6464    82.472151 
   14600    634.28818   -107.90307   0.57391728   -107.32915    11594.484    4.3534541    4.3534541    4.3534541    11594.484    6018.8411    20836.603    7928.0098   -9469.6633    8190.7219   -7263.9302    82.509109 
   14700    582.27165   -107.85831   0.52685163   -107.33146    6131.3365    4.3677091    4.3677091    4.3677091    6131.3365    13221.813     -18624.2    23796.396   -937.36466    9115.9294    5615.6253    83.322276 
   14800    878.25663   -108.12519   0.79466506   -107.33052   -3120.9387    4.3564045    4.3564045    4.3564045   -3120.9387   -391.47633   -1811.5291   -7159.8107   -6415.4378   -1073.1314    3525.6954    82.676976 
   14900    708.70521   -107.97793   0.64125137   -107.33668    10085.836    4.3481385    4.3481385    4.3481385    10085.836    23047.213    456.37494    6753.9206   -2394.1592    5046.3681   -14760.621     82.20725 
   15000    983.28152    -108.2211   0.88969379   -107.33141   -10551.446    4.3748212    4.3748212    4.3748212   -10551.446   -27821.028   -25191.605    21358.293      3403.45   -11943.234   -3870.3836    83.729971 
   15100    807.21517   -108.06015   0.73038525   -107.32977    203.84899    4.3512479    4.3512479    4.3512479    203.84899   -2412.3105   -7396.7899    10420.647   -134.00875    8429.0119   -13051.869    82.383737 
   15200    655.58763   -107.92613   0.59318947   -107.33294    7592.9461    4.3523172    4.3523172    4.3523172    7592.9461    2351.7624   -19606.547    40033.623    6611.0752    9077.4463   -2661.6207    82.444487 
   15300     1264.217   -108.46522    1.1438901   -107.32133   -19175.237     4.373407     4.373407     4.373407   -19175.237   -5824.8488    -23197.18   -28503.682    5025.7254    6566.8992    988.15112    83.648796 
   15400    671.33956   -107.93119   0.60744214   -107.32375    7935.7623    4.3529371    4.3529371    4.3529371    7935.7623    13368.069   -9687.7385    20126.956    514.72221     5963.106   -11450.748     82.47972 
   15500     784.9517   -108.03448   0.71024079   -107.32424    10114.047    4.3532714    4.3532714    4.3532714    10114.047    19452.394   -15104.423    25994.171    2224.7704    -1851.089   -3247.9075    82.498721 
   15600    688.10173   -107.95103    0.6226089   -107.32842     1936.135    4.3619904    4.3619904    4.3619904     1936.135   -15892.419    17460.065    4240.7588   -3153.6523    221.47596   -12606.957    82.995421 
   15700    697.36694   -107.96357   0.63099226   -107.33257   -7162.0648    4.3627382    4.3627382    4.3627382   -7162.0648     -21339.1   -10426.906    10279.811    2762.2117    8350.0559   -3896.2233    83.038113 
   15800    1229.4529   -108.43604    1.1124348   -107.32361    11053.479    4.3461385    4.3461385    4.3461385    11053.479   -3926.7625    25661.203    11425.996    7205.9434   -3204.5674    9883.0874     82.09386 
   15900    587.03186   -107.86917   0.53115876   -107.33801    -7132.576    4.3623853    4.3623853    4.3623853    -7132.576   -20786.273   -30448.171    29836.716   -670.78341    3557.6654     -13383.1    83.017963 
   16000    941.59104   -108.17996   0.85197136   -107.32799   -25828.073    4.3690473    4.3690473    4.3690473   -25828.073   -33070.967   -26611.727   -17801.526    9091.6917    1110.2519   -7287.0422    83.398886 
   16100    883.99198   -108.11643   0.79985452   -107.31658    34978.404    4.3378785    4.3378785    4.3378785    34978.404    18031.351    47762.379    39141.483   -4771.0907   -3565.9719    422.59086    81.626682 
   16200    626.13973    -107.9005   0.56654439   -107.33396   -14907.374    4.3694291    4.3694291    4.3694291   -14907.374    -24307.48   -3026.5823   -17388.058    -5531.587     8019.832   -20436.226    83.420753 
   16300    816.62978   -108.06061   0.73890378   -107.32171    10279.507    4.3607899    4.3607899    4.3607899    10279.507    8890.4716    5450.7257    16497.325   -1570.6811   -4256.0658   -1.8820873    82.926911 
   16400    762.53036   -108.01268    0.6899535   -107.32273    6231.7059    4.3416481    4.3416481    4.3416481    6231.7059     4928.715   -5956.2056    19722.608   -8446.9471    1666.6147   -10123.619    81.839667 
   16500    728.47666   -107.98959   0.65914099   -107.33044   -10654.328    4.3668348    4.3668348    4.3668348   -10654.328     441.9173   -23358.125   -9046.7776    4051.0788    3441.8865   -15701.952    83.272246 
   16600    1194.0812   -108.39998    1.0804297   -107.31955    -7043.791    4.3591549    4.3591549    4.3591549    -7043.791   -12505.435    -11727.45    3101.5118     2148.161   -1115.2791      10371.7     82.83367 
   16700     420.2643   -107.71174   0.38026397   -107.33147   -4955.6199    4.3536489    4.3536489    4.3536489   -4955.6199   -14282.227   -22526.601    21941.968    863.70294    10154.946   -22314.048    82.520185 
   16800    892.97171   -108.13687   0.80797957   -107.32889    9404.8024    4.3533036    4.3533036    4.3533036    9404.8024    -5857.964    26979.511    7092.8606    -578.3474   -5891.5387   -10478.902    82.500553 
   16900    823.36469   -108.07676   0.74499768   -107.33177   -15745.363    4.3674602    4.3674602    4.3674602   -15745.363   -26499.871    2465.9205    -23202.14     1112.428    5571.1588   -2671.9145    83.308032 
   17000    805.31638   -108.05856   0.72866718   -107.32989   -4745.7029    4.3521551    4.3521551    4.3521551   -4745.7029   -4778.8163    1478.3984   -10936.691   -2858.5516    654.13716   -23041.209    82.435274 
   17100    1034.1555    -108.2603   0.93572562   -107.32458    10655.484    4.3450833    4.3450833    4.3450833    10655.484    14170.788    19572.621   -1776.9562   -6348.9166   -3762.9647    11479.198    82.034079 
   17200    570.44049   -107.84545   0.51614654    -107.3293   -35631.652    4.3768045    4.3768045    4.3768045   -35631.652   -29504.131    -23777.58   -53613.245    3333.7844    9103.8102   -17609.391    83.843894 
   17300    746.26441   -107.99408   0.67523572   -107.31884    21458.835    4.3462422    4.3462422    4.3462422    21458.835    13873.498    57247.007   -6743.9986    3977.0156   -947.81331   -12785.703    82.099736 
   17400    768.95308    -108.0253   0.69576491   -107.32953   -3649.6616    4.3539354    4.3539354    4.3539354   -3649.6616   -5781.9101    6282.8913   -11449.966    1096.6663    7428.8404    1375.8395    82.536479 
   17500    668.83009   -107.93196   0.60517152   -107.32679   -12550.991    4.3674975    4.3674975    4.3674975   -12550.991   -5936.5025    -23629.82   -8086.6509   -1853.3386    5848.5828   -26984.027    83.310164 
   17600    840.34909    -108.0766   0.76036552   -107.31624    5676.3206    4.3521436    4.3521436    4.3521436    5676.3206    13356.176   -9023.2076    12695.993     3773.544    4241.0236    9461.7268     82.43462 
   17700    640.97181   -107.90614   0.57996476   -107.32617    -18455.64    4.3621751    4.3621751    4.3621751    -18455.64   -7771.8906   -16882.281   -30712.749   -6175.6393   -636.29714   -14754.286    83.005962 
   17800    973.59841   -108.20201    0.8809323   -107.32107    9362.5554    4.3519034    4.3519034    4.3519034    9362.5554    8952.7351   -9106.1092     28241.04   -1138.6678   -1408.0987   -11776.818    82.420975 
   17900    674.51321   -107.94156   0.61031373   -107.33125   -6972.9794    4.3614759    4.3614759    4.3614759   -6972.9794    -14476.15   -2702.1384   -3740.6493    935.13859   -1606.7366   -2651.1022    82.966053 
   18000     771.7685   -108.02358   0.69831236   -107.32527   -19573.493    4.3643487    4.3643487    4.3643487   -19573.493   -22139.102   -22479.615   -14101.762   -2700.5097    2119.8957   -16074.252    83.130104 
   18100    1052.5347   -108.27006   0.95235547   -107.31771    6233.1869    4.3466363    4.3466363    4.3466363    6233.1869   -3229.6549    30683.378   -8754.1622    4707.0211    1445.3095    6711.3231    82.122073 
   18200    599.30383     -107.876    0.5422627   -107.33373   -11052.452    4.3643931    4.3643931    4.3643931   -11052.452    -19370.05   -25989.242    12201.937    4888.0706    -3546.445   -14605.014    83.132639 
   18300    1070.3061   -108.29703   0.96843542    -107.3286   -1202.5738    4.3558374    4.3558374    4.3558374   -1202.5738   -6848.8241   -4954.3278    8195.4306    3992.5298   -8785.8842   -1362.0773    82.644694 
   18400    556.30701   -107.83633   0.50335828   -107.33297    13783.308    4.3522973    4.3522973    4.3522973    13783.308     11193.66    13522.034    16634.229   -3202.5725   -7884.1012   -4426.5908    82.443358 
   18500    827.10817   -108.07715   0.74838486   -107.32877   -16382.774    4.3658896    4.3658896    4.3658896   -16382.774    5559.0816    -9610.008   -45097.397   -4404.4495    1470.4583   -7742.0378    83.218186 
   18600    756.04613   -108.00519   0.68408643   -107.32111    23192.226    4.3517602    4.3517602    4.3517602    23192.226      29895.9     22769.14    16911.637   -7090.9457    782.16246    14404.371     82.41284 
   18700    636.72641   -107.90726   0.57612343   -107.33114   -13534.859    4.3603771    4.3603771    4.3603771   -13534.859   -4280.9465   -38016.946     1693.315   -2535.9938    6838.9939    -11759.89    82.903363 
   18800    920.37666   -108.15855   0.83277614   -107.32577    8793.0425    4.3532703    4.3532703    4.3532703    8793.0425    10226.545    6445.5618    9707.0211       1918.6    841.38356    3568.4144     82.49866 
   18900    880.49479   -108.13043   0.79669019   -107.33374   -17068.479    4.3625539    4.3625539    4.3625539   -17068.479   -25385.125   -19967.677   -5852.6349    226.50054   -7829.0381   -9247.9331     83.02759 
   19000    802.00163   -108.05842   0.72566793   -107.33275   -18068.752    4.3612722    4.3612722    4.3612722   -18068.752   -20432.803   -22454.189   -11319.264   -683.53652   -3653.5311   -5363.8888    82.954427 
   19100    900.84682   -108.13832   0.81510514   -107.32322    30573.175    4.3411422    4.3411422    4.3411422    30573.175    20687.211    12529.988    58502.327   -1045.9132    2894.2362    5560.0976     81.81106 
   19200    666.54801   -107.93626   0.60310665   -107.33316   -27967.577    4.3715394    4.3715394    4.3715394   -27967.577   -20054.908   -19057.099   -44790.724   -2938.5073   -4554.5938    485.86836    83.541675 
   19300    711.47098   -107.96894    0.6437539   -107.32518    10390.668    4.3541395    4.3541395    4.3541395    10390.668    27486.576    2635.1019    1050.3257   -8472.1381    5048.9636   -1681.2326    82.548087 
   19400    687.78228   -107.95045   0.62231986   -107.32813    11104.585    4.3452765    4.3452765    4.3452765    11104.585    5637.0461    10550.352    17126.357   -2587.1214   -19426.746   -2576.9016    82.045026 
   19500    739.14122   -108.00442   0.66879051   -107.33563   -14669.251    4.3691796    4.3691796    4.3691796   -14669.251   -4278.5761   -37872.879   -1856.2983   -2024.4858   -7558.2727    -7736.457    83.406463 
   19600    942.10493   -108.17676   0.85243634   -107.32432    5043.2464    4.3609363    4.3609363    4.3609363    5043.2464   -13485.342   -9757.2455    38372.327    829.61107   -254.22983   -3202.1895    82.935263 
   19700    669.54243   -107.93094   0.60581607   -107.32513   -16268.176    4.3520619    4.3520619    4.3520619   -16268.176   -9843.0514   -13057.103   -25904.372    3658.5166   -6895.5273    8473.7237    82.429979 
   19800    932.08725   -108.17132   0.84337213   -107.32795   -1226.8455    4.3610043    4.3610043    4.3610043   -1226.8455   -18213.031   -22173.243    36705.737    1201.0788    10297.431   -6323.8251    82.939144 
   19900    974.47262   -108.21344   0.88172331   -107.33171   -14499.185    4.3645307    4.3645307    4.3645307   -14499.185   -26549.461    -21625.07    4676.9774    3407.8959   -11842.924    1803.2143    83.140505 
   20000    601.84572   -107.87865   0.54456266   -107.33409    11275.502    4.3518386    4.3518386    4.3518386    11275.502    177.74775   -6940.9831     40589.74   -1036.4559   -6218.2329   -7751.0777     82.41729 
   20100    1188.8406   -108.40311     1.075688   -107.32742   -8702.1886    4.3611216    4.3611216    4.3611216   -8702.1886   -18716.314   -12596.643    5206.3903   -4346.6255   -3310.8836    2806.4119    82.945837 
   20200    492.59332   -107.78162   0.44570878   -107.33591   -1508.9439    4.3614443    4.3614443    4.3614443   -1508.9439    -14869.08   -20255.668    30597.916   -1037.7528    3672.7696    4258.5415    82.964249 
   20300    830.49457   -108.08168   0.75144894   -107.33023    9336.7458    4.3566354    4.3566354    4.3566354    9336.7458    17579.179   -3107.3241    13538.382   -6381.5811   -1045.9492    8091.6503    82.690126 
   20400    954.93154    -108.1924   0.86404212   -107.32836   -450.48717    4.3536968    4.3536968    4.3536968   -450.48717   -9150.6902   -1062.2038    8861.4325   -8262.0144   -1609.5819    5366.7679    82.522912 
   20500    547.67979   -107.83195   0.49555218    -107.3364   -15594.646    4.3653551    4.3653551    4.3653551   -15594.646   -11013.083   -4453.9768   -31316.878    207.45693   -14799.481   -1929.4365    83.187628 
   20600    924.44638   -108.16344   0.83645851   -107.32698      12722.1    4.3594415    4.3594415    4.3594415      12722.1   -7368.7028    -6628.884    52163.888    1458.1682   -2759.1103   -5825.9961    82.850007 
   20700    574.36267   -107.85377   0.51969541   -107.33407   -5062.3438    4.3584247    4.3584247    4.3584247   -5062.3438   -24029.585   -8461.9007    17304.454    872.82137    3476.3948    1312.3291     82.79205 
   20800    957.22917   -108.19432   0.86612107    -107.3282   -8216.4413    4.3587083    4.3587083    4.3587083   -8216.4413   -6794.5766   -2312.1589   -15542.588    2504.5281   -6019.0977    6857.4763    82.808211 
   20900     758.0605   -108.01639   0.68590907   -107.33048   -889.55582    4.3627753    4.3627753    4.3627753   -889.55582   -11446.379    -15659.82    24437.531    2920.9805    953.67793    6776.8905    83.040231 
   21000    560.51937   -107.84373    0.5071697   -107.33656   -8003.6753    4.3584558    4.3584558    4.3584558   -8003.6753   -8149.9023   -31168.422    15307.299    3169.6815   -12361.325    8088.4807    82.793822 
   21100     1135.368   -108.35671    1.0273048   -107.32941    4457.6475    4.3566045    4.3566045    4.3566045    4457.6475    609.20221    -15010.48    27774.221   -5756.3848    7499.4734   -5868.8369    82.688367 
   21200    886.86854   -108.13686   0.80245729    -107.3344   -24097.734    4.3665685    4.3665685    4.3665685   -24097.734   -18207.896   -34960.919   -19124.387    -215.2005    4418.4449   -4930.2688    83.257016 
   21300    749.20579   -108.01158   0.67789714   -107.33369   -1952.1287    4.3555526    4.3555526    4.3555526   -1952.1287   -18969.351   -8133.3782    21246.343   -3947.0277   -2842.5213    1310.8062    82.628485 
   21400     882.9298    -108.1306   0.79889344   -107.33171    5846.2037    4.3568681    4.3568681    4.3568681    5846.2037    2467.0089   -11264.986    26336.589   -3221.3914    -9359.878    206.12171    82.703375 
   21500     791.7818   -108.04755   0.71642081   -107.33113   -15865.665    4.3681288    4.3681288    4.3681288   -15865.665   -11529.451   -27508.839   -8558.7056    1056.3378    -10474.24    4668.1221    83.346294 
   21600    1045.7886   -108.27095   0.94625153   -107.32469   -872.00826    4.3608852    4.3608852    4.3608852   -872.00826   -3868.7425     1175.879    76.838711    5903.9549   -1550.3033      1868.24    82.932348 
   21700    583.03646   -107.85895   0.52754364   -107.33141    6183.4645    4.3593109    4.3593109    4.3593109    6183.4645    6794.9139   -21403.799    33159.278   -111.93255    11627.025   -7072.5876    82.842565 
   21800    514.58078   -107.79876   0.46560351   -107.33316   -6233.7309     4.369019     4.369019     4.369019   -6233.7309     -6569.68   -16649.943    4518.4306    4271.9791   -3390.8133     3025.355    83.397261 
   21900    1100.5381   -108.31738   0.99579001   -107.32159    13239.722    4.3472711    4.3472711    4.3472711    13239.722    13747.598    23625.805    2345.7653    7175.2629   -4478.8699   -7622.6202    82.158057 
   22000    787.70945   -108.04567   0.71273606   -107.33293   -30749.279    4.3708272    4.3708272    4.3708272   -30749.279   -30943.649       -32650   -28654.188    -2351.764   -12872.283    8045.7709    83.500853 
   22100    695.96034    -107.9584   0.62971954   -107.32868      5290.57    4.3570836    4.3570836    4.3570836      5290.57   -10783.193    14657.868    11997.035    996.42536   -13774.641    7956.0185    82.715647 
   22200    709.38339   -107.97011     0.641865   -107.32824    21673.094    4.3458187    4.3458187    4.3458187    21673.094   -1070.3214    5188.7761    60900.828    2019.4154    12048.889   -2806.1664    82.075744 
   22300    866.43697   -108.11373   0.78397038   -107.32976   -33262.121    4.3820755    4.3820755    4.3820755   -33262.121   -32428.472   -32569.734   -34788.157     4604.723   -5267.1668   -1018.1896    84.147179 
   22400    948.66742   -108.18219   0.85837422   -107.32381    12248.706    4.3498408    4.3498408    4.3498408    12248.706   -8652.8696    23544.694    21854.294    6802.3809    4944.1485   -2526.2701    82.303836 
   22500    584.55917   -107.86218   0.52892142   -107.33326    9672.2867     4.347953     4.347953     4.347953    9672.2867   -2284.8182    797.72678    30503.952    3243.3539   -10636.125   -358.50354    82.196728 
   22600    650.78696   -107.91836   0.58884572   -107.32951   -6010.5343    4.3783324    4.3783324    4.3783324   -6010.5343   -22928.158   -11030.514    15927.069     8840.436    -15199.69    6019.1903    83.931734 
   22700    928.92158   -108.16516   0.84050777   -107.32466    10635.973     4.351697     4.351697     4.351697    10635.973    10647.467    16432.494    4827.9594    405.92092   -2161.8653   -1196.3699    82.409245 
   22800    779.30707   -108.03569   0.70513341   -107.33055   -8688.1301    4.3603013    4.3603013    4.3603013   -8688.1301   -8458.4408   -10873.617   -6732.3325     1977.776    1008.0378   -9994.7118    82.899042 
   22900    734.35533   -107.98776   0.66446013    -107.3233    2559.8134    4.3682871    4.3682871    4.3682871    2559.8134   -22470.447    3217.1678    26932.719    5768.4591    6796.7014     1915.561    83.355356 
   23000    765.51782    -108.0175   0.69265661   -107.32484     3790.001    4.3501405    4.3501405    4.3501405     3790.001    -6299.468   -8401.3129    26070.784    -8092.422    9491.0644   -1965.0718    82.320854 
   23100    842.14058   -108.09493   0.76198649   -107.33294   -17798.063    4.3679569    4.3679569    4.3679569   -17798.063   -31552.202   -6447.1702   -15394.818    1419.1129    -16494.88    13476.922    83.336457 
   23200    976.21365   -108.20615   0.88329863   -107.32285   -9604.5201      4.36093      4.36093      4.36093   -9604.5201   -20148.606   -1086.9841     -7577.97    1579.3904    28.568849    3101.9223    82.934902 
   23300    619.88004   -107.89026   0.56088049   -107.32938   -1913.5474    4.3588642    4.3588642    4.3588642   -1913.5474   -17823.327   -12992.583    25075.268    -3691.345   -11640.439   -4862.2364    82.817102 
   23400    775.42877   -108.03026   0.70162425   -107.32864    918.05444    4.3650843    4.3650843    4.3650843    918.05444   -11906.645   -2100.6603    16761.468    7366.4718    2257.2538   -6689.4662    83.172143 
   23500    649.13564   -107.91628   0.58735157   -107.32892    1374.9734    4.3591898    4.3591898    4.3591898    1374.9734    3511.7014   -17042.865    17656.084   -257.23302     16857.11   -6532.8522    82.835662 
   23600     737.4953     -107.995   0.66730124    -107.3277   -3547.6787     4.362401     4.362401     4.362401   -3547.6787    30696.421   -14223.633   -27115.824    11950.455   -8624.6993    3157.5742    83.018857 
   23700    757.11979   -108.01391    0.6850579   -107.32885    4634.7732    4.3606179    4.3606179    4.3606179    4634.7732   -6084.0757   -3083.2016    23071.597    8274.0315   -4344.2491   -5679.6484      82.9171 
   23800    781.68947   -108.03873   0.70728906   -107.33144   -9629.6056     4.363656     4.363656     4.363656   -9629.6056    4707.3554   -20986.901   -12609.271     377.7681     194.5728    2024.7519    83.090527 
   23900    809.38713   -108.06079   0.73235048   -107.32844    4960.9776    4.3573213    4.3573213    4.3573213    4960.9776   -25413.948   -4893.1384    45190.019    10950.452    3056.5047    363.41284    82.729189 
   24000    796.32334   -108.05406   0.72053009   -107.33353     613.9363    4.3575503    4.3575503    4.3575503     613.9363      11125.8    1055.6089     -10339.6   -7351.6552    13673.601   -8979.6078     82.74223 
   24100    854.77133   -108.10306   0.77341506   -107.32964   -19934.289     4.372626     4.372626     4.372626   -19934.289    4001.9127   -43413.568   -20391.211    8716.3809   -6451.0972   -4786.8658     83.60399 
   24200    793.19987   -108.04477   0.71770391   -107.32706    19538.593    4.3502298    4.3502298    4.3502298    19538.593     28600.53    14409.195    15606.054    2265.0627   -12738.331    -5570.681    82.325918 
   24300    707.66555   -107.97809   0.64031066   -107.33778    9389.1275    4.3591604    4.3591604    4.3591604    9389.1275    6860.6761   -5924.5635     27231.27    933.54137    2821.2167    2978.1389    82.833984 
   24400    1000.7504   -108.22906   0.90549996   -107.32356   -24061.893     4.377653     4.377653     4.377653   -24061.893   -42278.012   -31157.195    1249.5282    6092.6983   -5475.2028    6510.0306    83.892667 
   24500    667.76626   -107.92052   0.60420895   -107.31631    23024.124     4.348322     4.348322     4.348322    23024.124    25301.568    18345.082    25425.721   -1012.8521    10300.431    5422.1838    82.217654 
   24600    945.56177   -108.18266   0.85556416   -107.32709   -15149.366    4.3637239    4.3637239    4.3637239   -15149.366    382.04745   -17768.986   -28061.159   -5763.5006    8146.0479    -4640.684    83.094409 
   24700    729.37179   -107.98732   0.65995093   -107.32737     5952.606    4.3685256    4.3685256    4.3685256     5952.606    20270.622   -9764.8477    7352.0437    1458.3488   -10072.975    2636.6033    83.369011 
   24800    580.26722   -107.85349   0.52503797   -107.32845    22961.571    4.3482026    4.3482026    4.3482026    22961.571    26673.811    9348.0344    32862.866   -4125.4897   -2539.9987   -14217.135    82.210884 
   24900    697.79523   -107.96604   0.63137979   -107.33466   -10025.067    4.3683821    4.3683821    4.3683821   -10025.067   -7278.7982   -30732.036    7935.6332    6068.0667     3450.161    4634.4372    83.360798 
   25000     1127.741   -108.34573    1.0204038   -107.32533   -13961.608     4.366141     4.366141     4.366141   -13961.608   -23265.802   -1310.5142   -17308.507    7851.2858    1932.7233   -1974.6211    83.232563 
   25100    837.61465   -108.08746   0.75789134   -107.32957    3655.3726    4.3526599    4.3526599    4.3526599    3655.3726    10187.129   -3152.2299    3931.2184    5704.0914    16250.494    6110.2058    82.463962 
   25200    803.44186   -108.05915   0.72697108   -107.33218   -8294.5342    4.3644146    4.3644146    4.3644146   -8294.5342     -17114.1   -22235.474    14465.972    1983.6048   -5179.9776     7458.016    83.133873 
   25300    687.75993   -107.94802   0.62229963   -107.32572    6842.1331    4.3685785    4.3685785    4.3685785    6842.1331   -4149.3454   -668.66937    25344.414   -2500.0792   -5163.0295   -8349.7014    83.372038 
   25400    675.83083   -107.93594   0.61150594   -107.32444    6186.0438    4.3603442    4.3603442    4.3603442    6186.0438     6678.205   -8757.8437     20637.77    2974.6071    2691.7022    -1035.301    82.901485 
   25500    972.95786   -108.20452   0.88035272   -107.32417     1372.688    4.3622335    4.3622335    4.3622335     1372.688   -17533.889    3763.1813    17888.772   -8823.4962    3981.9562   -4732.1605    83.009293 
   25600     750.5627   -108.00651   0.67912491   -107.32739   -1746.0354       4.3626       4.3626       4.3626   -1746.0354    -11392.47    2260.2231    3894.1402   -2098.7301    13393.903    1992.9895     83.03022 
   25700    640.92748   -107.91083   0.57992465   -107.33091    -97.85355    4.3584087    4.3584087    4.3584087    -97.85355   -29650.238   -16625.601    45982.278     7450.253    498.13699    8559.4541    82.791141 
   25800    1085.5129    -108.3155   0.98219491   -107.33331   -1366.0602     4.360136     4.360136     4.360136   -1366.0602   -1745.4626    494.29826   -2847.0163    4172.2921   -8604.6082   -6954.7168    82.889612 
   25900      866.755    -108.1215   0.78425814   -107.33724   -12892.292     4.364286     4.364286     4.364286   -12892.292   -16688.569   -27967.471    5979.1652    7420.6611   -3867.1145   -5494.7972    83.126519 
   26000    665.21123   -107.93466    0.6018971   -107.33277   -4531.5066    4.3631296    4.3631296    4.3631296   -4531.5066    -2095.583   -25020.759    13521.822    1610.5265    6157.9888   -1039.2202    83.060463 
   26100    907.58976   -108.14633   0.82120628   -107.32513    5264.2682    4.3576264    4.3576264    4.3576264    5264.2682    11001.045    6590.4789   -1798.7189   -6115.5497    4213.6318   -3338.2051    82.746568 
   26200    727.89909   -107.99399    0.6586184   -107.33537   -16715.668    4.3635618    4.3635618    4.3635618   -16715.668   -33558.294   -26915.662    10326.953    14210.151    11248.714    5433.1679    83.085148 
   26300    769.04405   -108.03383   0.69584722   -107.33798    11325.616    4.3539512    4.3539512    4.3539512    11325.616    20040.315    9004.0786    4932.4541   -1290.4196   -14913.835    865.56842    82.537381 
   26400     886.0873   -108.14168   0.80175041   -107.33993     -7564.45    4.3595056    4.3595056    4.3595056     -7564.45   -1208.9282   -21715.207    230.78556    11633.025    3451.1639    2495.1527    82.853662 
   26500    504.34575   -107.79259   0.45634263   -107.33625   -20967.282    4.3730874    4.3730874    4.3730874   -20967.282   -2545.3749   -33472.287   -26884.185    10150.717    2117.3146     3878.337    83.630459 
   26600    1036.1457   -108.26216   0.93752641   -107.32463   -103.44596    4.3495711    4.3495711    4.3495711   -103.44596   -17293.206   -3097.2957    20080.164   -14818.735   -11605.371    3886.6123    82.288528 
   26700    932.14122   -108.17835   0.84342097   -107.33493   -7825.0333    4.3574127    4.3574127    4.3574127   -7825.0333   -5963.5702   -14192.825   -3318.7047    12724.764    5848.4601   -2173.9683    82.734393 
   26800    595.93451   -107.87377   0.53921407   -107.33456    -24695.46    4.3737325    4.3737325    4.3737325    -24695.46    -26643.67   -34406.848   -13035.861   -11732.834   -11484.826    6031.4066    83.667476 
   26900    752.49141   -108.00374   0.68087004   -107.32286    23477.719    4.3483307    4.3483307    4.3483307    23477.719    33666.346    28369.181    8397.6303    1520.2375    -5550.351   -3547.3878    82.218149 
   27000    776.46538   -108.03366   0.70256219    -107.3311   -8046.6039    4.3620411    4.3620411    4.3620411   -8046.6039    3144.5536    -20927.61   -6356.7547    767.19309   -3132.2565   -1479.1286    82.998314 
   27100    679.72981   -107.94848   0.61503382   -107.33344   -8759.4406    4.3637841    4.3637841    4.3637841   -8759.4406   -17526.752    3675.5245   -12427.095   -13505.421   -2680.2097   -2360.6995    83.097845 
   27200    1104.8567   -108.32852   0.99969759   -107.32882   -3324.4509    4.3540469    4.3540469    4.3540469   -3324.4509   -14867.137    10122.422   -5228.6382    7162.9197    200.14266   -1086.0228    82.542821 
   27300    821.58749   -108.08105   0.74338963   -107.33766   -16378.794    4.3617075    4.3617075    4.3617075   -16378.794   -28380.184    -17526.15   -3230.0482   -3250.5434    6613.5892    1643.2235    82.979269 
   27400    512.82047   -107.80281   0.46401074    -107.3388    16258.529     4.359868     4.359868     4.359868    16258.529    9351.5755    44569.178   -5145.1664   -4669.0499   -11473.464   -3039.4286    82.874328 
   27500    1136.3363   -108.35829     1.028181   -107.33011   -1449.1538     4.361841     4.361841     4.361841   -1449.1538    16051.742   -16791.211   -3607.9922    9114.0579    8023.6641    8002.9978    82.986889 
   27600    391.15408   -107.69002   0.35392443    -107.3361    20302.509    4.3537166    4.3537166    4.3537166    20302.509    1064.4751     58249.04    1594.0114   -1957.4167   -4077.0022   -1963.5924    82.524037 
   27700    1008.7643   -108.24928   0.91275115   -107.33653   -13026.367    4.3627564    4.3627564    4.3627564   -13026.367   -29767.133   -6349.4649   -2962.5014   -9442.3089   -8601.8115    11674.202     83.03915 
   27800    954.57556   -108.19499   0.86372003   -107.33127   -1433.4875     4.361969     4.361969     4.361969   -1433.4875   -20171.341    24485.149   -8614.2707   -756.14846    6997.3483   -10261.649    82.994197 
   27900    670.42252   -107.93994   0.60661239   -107.33333   -10198.023    4.3554587    4.3554587    4.3554587   -10198.023   -16938.754     6701.574   -20356.888   -13810.916   -17908.145    6402.5379    82.623143 
   28000    848.73473   -108.09864   0.76795302   -107.33069    10057.456    4.3625726    4.3625726    4.3625726    10057.456    11202.647    11151.265    7818.4576    2185.2391    1779.6662   -3380.4852    83.028654 
   28100    756.22129   -108.01531   0.68424492   -107.33106   -2407.8328    4.3631296    4.3631296    4.3631296   -2407.8328    735.69131    14792.069   -22751.258    2945.9084   -5649.4875   -4532.2253    83.060459 
   28200    434.84448   -107.73129   0.39345643   -107.33783    6953.4671    4.3535667    4.3535667    4.3535667    6953.4671    7008.5454    30475.217   -16623.361   -10760.944   -8732.1621    5226.9157    82.515516 
   28300    1229.6497   -108.44864    1.1126129   -107.33602   -5894.8162     4.360884     4.360884     4.360884   -5894.8162   -9525.6779   -14766.001    6607.2299    12074.093   -343.94593    -2319.399     82.93228 
   28400     713.2202   -107.98678   0.64533662   -107.34145   -23228.464    4.3691295    4.3691295    4.3691295   -23228.464   -45252.717    11755.101   -36187.775   -10013.437   -10341.911    3077.7794    83.403594 
   28500    735.19218   -107.99996   0.66521733   -107.33475    17913.713    4.3435751    4.3435751    4.3435751    17913.713    10019.937     25920.49    17800.711    -5381.398     1856.196     6201.966    81.948688 
   28600    889.23387   -108.14395   0.80459749   -107.33935   -9755.2274    4.3704645    4.3704645    4.3704645   -9755.2274     4.404921    468.40184   -29738.489    1974.7946    -2496.212   -7850.6914    83.480067 
   28700    537.70252   -107.82754   0.48652454   -107.34102    5245.0805    4.3578326    4.3578326    4.3578326    5245.0805    24464.014    16898.207   -25626.979   -5525.2213   -4747.6295    5904.2239    82.758311 
   28800     900.6694   -108.15055    0.8149446   -107.33561    19212.117    4.3456955    4.3456955    4.3456955    19212.117    7153.4308    23807.902    26675.018   -6150.5133    255.44628    1871.3315    82.068758 
   28900    1008.4028   -108.24277   0.91242401   -107.33034     -22689.5    4.3752185    4.3752185    4.3752185     -22689.5   -30701.095    4371.1683   -41738.572   -856.02126   -8498.0229    2444.6012    83.752779 
   29000    635.32273   -107.90619   0.57485336   -107.33134    8849.7592    4.3486777    4.3486777    4.3486777    8849.7592   -14295.364    33397.191    7447.4498   -8963.4088   -2646.2527    8869.2284    82.237837 
   29100    986.65745   -108.22599    0.8927484   -107.33324    1766.0848    4.3586238    4.3586238    4.3586238    1766.0848   -2397.6892    3271.0002    4424.9434     9944.921   -4919.1945    4745.0299    82.803399 
   29200    770.56913   -108.02816   0.69722714   -107.33093    12871.246    4.3615716    4.3615716    4.3615716    12871.246    17048.651    39386.779   -17821.694   -5790.5161   -9222.5075    2368.1046    82.971513 
   29300    519.84066   -107.80805   0.47036275   -107.33769    8429.4346    4.3557706    4.3557706    4.3557706    8429.4346     11626.71    4875.9674    8785.6259    -3867.482     4543.693    14740.849    82.640894 
   29400    938.62442   -108.17972    0.8492871   -107.33044   -4119.7832    4.3634647    4.3634647    4.3634647   -4119.7832    18923.571   -9034.4783   -22248.443    2262.2723    1722.2904   -6647.1994    83.079601 
   29500    814.27728   -108.06988   0.73677519    -107.3331    8343.2862    4.3510227    4.3510227    4.3510227    8343.2862   -2351.2497    46933.688   -19552.579   -3660.7667    -2472.569    8325.2744    82.370942 
   29600    927.45508   -108.17794   0.83918084   -107.33876    -11863.45    4.3636394    4.3636394    4.3636394    -11863.45   -10897.135   -18001.517   -6691.6965   -7861.2837    7025.4524    577.34462     83.08958 
   29700    816.69276   -108.07042   0.73896077   -107.33146   -1426.0544    4.3651983    4.3651983    4.3651983   -1426.0544    22842.437    5314.0117   -32434.612   -1629.5446   -2408.2786   -6160.9126     83.17866 
   29800    450.63586   -107.74383    0.4077448   -107.33609    4437.1789    4.3489869    4.3489869    4.3489869    4437.1789    32988.659    4129.3759   -23806.498   -9701.7211   -438.14745    10099.027    82.255378 
   29900    992.51587   -108.23847   0.89804921   -107.34042   -1677.5275     4.354609     4.354609     4.354609   -1677.5275    7283.0887   -17202.563    4886.8917    10249.857    2576.5097   -4073.8431    82.574792 
   30000    940.18382   -108.18832   0.85069808   -107.33762   -22499.136    4.3732029    4.3732029    4.3732029   -22499.136   -28541.758   -3152.1558   -35803.494   -3795.2768    -7424.337      1200.89    83.637084 
   30100    799.06116   -108.05665   0.72300733   -107.33364    1494.5015    4.3412863    4.3412863    4.3412863    1494.5015    15021.881   -10977.868     439.4909   -6954.3026    8011.7314    8072.7168    81.819211 
   30200       529.08   -107.82315    0.4787227   -107.34443    22498.327    4.3543563    4.3543563    4.3543563    22498.327    41736.337     20526.61    5232.0361    6035.0871   -561.32306   -5557.4508    82.560422 
   30300    862.24562   -108.11137   0.78017795   -107.33119   -26043.069     4.377263     4.377263     4.377263   -26043.069     7696.668   -45572.341   -40253.534   -4520.3178    857.94099     457.2369    83.870249 
   30400    719.27522     -107.976   0.65081534   -107.32518    15003.927    4.3369738    4.3369738    4.3369738    15003.927    16281.705    5591.2485    23138.828   -1073.0146    4569.2744    4485.5795     81.57562 
   30500    1031.1798   -108.26942   0.93303318   -107.33638   -4058.2638    4.3537085    4.3537085    4.3537085   -4058.2638    6826.4995   -11041.665   -7959.6262     5616.242    552.87959    -5495.274    82.523575 
   30600    660.99027   -107.93011   0.59807788   -107.33204   -13556.409    4.3759942    4.3759942    4.3759942   -13556.409    28380.213   -34130.527   -34918.912   -5670.0971    1253.1177    4679.8565    83.797336 
   30700    567.02455   -107.84116   0.51305573    -107.3281    19059.058    4.3388201    4.3388201    4.3388201    19059.058    21429.335   -14537.367    50285.206    3605.6706    12644.353    916.85455    81.679849 
   30800    1042.0541    -108.2831   0.94287244   -107.34023    3212.2724    4.3555392    4.3555392    4.3555392    3212.2724    18187.462   -2520.5163   -6030.1283    6802.8062   -4473.9391    3949.9321    82.627723 
   30900    940.22106   -108.18612   0.85073177   -107.33539   -16271.383    4.3751915    4.3751915    4.3751915   -16271.383   -12546.724   -34961.296   -1306.1285   -6298.1493   -1915.8083   -1020.9997    83.751233 
   31000    540.95116   -107.82034   0.48946398   -107.33087    22156.273    4.3461408    4.3461408    4.3461408    22156.273    57394.964   -5757.7795    14831.633    11752.151    6931.9561    3970.9859    82.093995 
   31100    1013.3439   -108.24719   0.91689482    -107.3303    2754.6767    4.3528779    4.3528779    4.3528779    2754.6767    18129.279   -6367.9531   -3497.2959   -5142.1744   -6630.6055    4396.9217    82.476352 
   31200    826.15755   -108.08288   0.74752471   -107.33536   -20200.272    4.3673016    4.3673016    4.3673016   -20200.272   -22493.619   -33727.947   -4379.2495   -2987.5155    12201.487   -1407.3969    83.298953 
   31300    583.94845   -107.86735   0.52836883   -107.33898    19741.202    4.3497906    4.3497906    4.3497906    19741.202     67254.28   -6857.4466   -1173.2278    8912.3207   -1920.2991    4092.2326    82.300988 
   31400    1023.0264    -108.2679   0.92565574   -107.34225    3347.8353    4.3575023    4.3575023    4.3575023    3347.8353    37011.986   -25054.193   -1914.2878   -9253.7323    2195.4035    3112.9753    82.739499 
   31500    633.41811   -107.91707   0.57313001   -107.34394   -10474.509    4.3621862    4.3621862    4.3621862   -10474.509    3088.4775   -22264.525   -12247.481     4981.398    4207.7405   -836.37941    83.006593 
   31600    761.06603   -108.02606   0.68862854   -107.33743    9993.2426    4.3473794    4.3473794    4.3473794    9993.2426    30119.069   -11223.176    11083.835    3017.0086    5588.6981    4504.1331    82.164201 
   31700    831.28368   -108.09023   0.75216295   -107.33807   -177.53438    4.3636139    4.3636139    4.3636139   -177.53438    27925.669   -13610.306   -14847.966   -7664.2104    3579.5679    1968.7456    83.088126 
   31800    871.64624   -108.12585   0.78868384   -107.33716   -10522.576     4.357492     4.357492     4.357492   -10522.576    5378.8852   -12866.137   -24080.477    5584.8929    2312.2749   -146.64442    82.738911 
   31900    834.06848   -108.08958   0.75468269   -107.33489    12050.284    4.3489386    4.3489386    4.3489386    12050.284    25044.692    7609.3133    3496.8471   -8146.9019   -10623.694    1972.9896    82.252636 
   32000    592.87582   -107.87394    0.5364465   -107.33749    7985.0748    4.3641315    4.3641315    4.3641315    7985.0748    52808.397   -12055.645   -16797.528   -1529.7501   -2922.4485   -6579.7719    83.117695 
   32100    838.06502    -108.0982   0.75829884   -107.33991   -20847.545    4.3595388    4.3595388    4.3595388   -20847.545   -24284.135   -5082.3273   -33176.174     5050.826    2922.9194    3028.0214    82.855556 
   32200    924.55564   -108.17365   0.83655737   -107.33709    21146.579    4.3419894    4.3419894    4.3419894    21146.579    45381.868    13625.085    4432.7836   -7807.7179   -4089.3807   -3347.8143    81.858971 
   32300    749.98845   -108.02052   0.67860531   -107.34192   -17889.228    4.3722731    4.3722731    4.3722731   -17889.228    15377.739   -37812.809   -31232.612    5682.0949    9268.4831   -3872.5708    83.583747 
   32400     652.6626   -107.92558   0.59054284   -107.33504    4005.3442    4.3554918    4.3554918    4.3554918    4005.3442    33819.748    9426.5809   -31230.297   -1439.5572     -3820.79      1699.56    82.625022 
   32500    1051.6435   -108.28214   0.95154918   -107.33059   -2843.4542    4.3441534    4.3441534    4.3441534   -2843.4542    -2610.826   -9354.6807    3435.1439   -2257.4876   -10056.254   -2388.3225    81.981426 
   32600    594.91527   -107.87581   0.53829184   -107.33752   -11570.419     4.369802     4.369802     4.369802   -11570.419    20884.766   -22249.365   -33346.658    10562.795     9923.725     1836.913    83.442108 
   32700    818.20896   -108.07108   0.74033266   -107.33075   -13103.132     4.360428     4.360428     4.360428   -13103.132      17498.6   -21626.358   -35181.637   -3100.6109   -14580.998   -2466.9015    82.906269 
   32800    946.58987   -108.18384   0.85649441   -107.32735     7490.336    4.3410647    4.3410647    4.3410647     7490.336    9619.7559    5741.6277    7109.6245    3008.3082    6032.6645    3509.0957    81.806679 
   32900    720.59202   -107.99198    0.6520068   -107.33998   -8079.5262    4.3669542    4.3669542    4.3669542   -8079.5262     29608.09   -15933.867   -37912.801    5548.9699   -7645.2423    2862.3391    83.279078 
   33000    647.13727   -107.92318    0.5855434   -107.33764   -6263.9617     4.362904     4.362904     4.362904   -6263.9617    19543.488   -7394.3257   -30941.047   -10325.211   -13204.629    -1894.809    83.047579 
   33100    985.07369   -108.22196   0.89131538   -107.33065    6596.4291     4.338536     4.338536     4.338536    6596.4291    9531.7579   -10044.587    20302.117     18576.21    1504.9953    7251.1597    81.663807 
   33200    778.18324   -108.04824   0.70411655   -107.34412   -14140.071    4.3679678    4.3679678    4.3679678   -14140.071   -10460.899   -1593.5127     -30365.8   -5997.5468   -11723.575    1361.0869    83.337081 
   33300     710.7402   -107.98112   0.64309266   -107.33803   -2598.7842    4.3629528    4.3629528    4.3629528   -2598.7842    34849.086   -31500.483   -11144.955    7660.8147    1511.3373    5783.6861    83.050365 
   33400    749.18282   -108.00764   0.67787636   -107.32976    13887.048    4.3386239    4.3386239    4.3386239    13887.048    36021.644   -2900.0681    8539.5685    10607.056    4351.6536    4073.7541    81.668767 
   33500    857.85702   -108.11919   0.77620706   -107.34299   -24245.046    4.3663123    4.3663123    4.3663123   -24245.046   -21666.353   -22730.788   -28337.997   -5297.8281   -19036.892    1093.2729    83.242358 
   33600    889.57074   -108.14303    0.8049023   -107.33813    -10606.01    4.3622753    4.3622753    4.3622753    -10606.01    4023.3839   -21347.135   -14494.278     10791.61   -634.24941    6006.1085     83.01168 
   33700     749.2371   -108.00702   0.67792547   -107.32909        19264    4.3417285    4.3417285    4.3417285        19264    46938.265    11806.454   -952.72018    1022.8087   -2600.9641   -5970.0251    81.844213 
   33800    853.43208   -108.10588   0.77220328   -107.33367   -18460.669    4.3628219    4.3628219    4.3628219   -18460.669   -15673.357   -10386.187   -29322.464    1769.4756   -8855.1185    4688.9646    83.042892 
   33900    792.04658    -108.0465   0.71666039   -107.32984   -3582.5741    4.3633965    4.3633965    4.3633965   -3582.5741    3030.0802   -13018.012   -759.79006    5191.1264    7539.0504   -954.51307    83.075703 
   34000    786.48227   -108.04009   0.71162568   -107.32846    12264.543    4.3515999    4.3515999    4.3515999    12264.543    49734.982    9575.4493   -22516.803   -7197.9262   -16266.363   -7078.9008    82.403733 
   34100    772.61414    -108.0338   0.69907751   -107.33472    2822.0709      4.35275      4.35275      4.35275    2822.0709    11498.502    59.734516    -3092.024    9928.8271   -2661.2269    3997.9594    82.469083 
   34200    924.98825   -108.17329   0.83694881   -107.33634   -19715.235    4.3629808    4.3629808    4.3629808   -19715.235   -21028.666   -29585.098     -8531.94    6342.2133   -6474.9035   -8205.3045    83.051961 
   34300    594.98248   -107.87623   0.53835265   -107.33788     11237.07    4.3553336    4.3553336    4.3553336     11237.07     46191.26   -730.28889   -11749.761   -4716.5262   -5073.9075   -2804.2312    82.616024 
   34400    753.37347   -108.02148   0.68166815   -107.33981    7628.5028    4.3481557    4.3481557    4.3481557    7628.5028    34482.926   -16269.517    4672.0994    6778.3429     7624.288   -93.312653     82.20822 
   34500    970.12015   -108.21731    0.8777851   -107.33952   -5183.9144    4.3591094    4.3591094    4.3591094   -5183.9144   -7771.1597   -4429.9415    -3350.642   -2070.2327   -2706.4625   -6236.7185    82.831076 
   34600    749.00233   -108.01642   0.67771305    -107.3387   -11557.622    4.3622745    4.3622745    4.3622745   -11557.622    875.25545   -27024.821   -8523.2992    81.605503   -11361.191    1767.2638    83.011636 
   34700    553.57333   -107.83699   0.50088478    -107.3361    27470.751    4.3435624    4.3435624    4.3435624    27470.751    63197.251     16978.65    2236.3526    8987.0182   -1096.6637   -2576.5839     81.94797 
   34800    1026.2257    -108.2663    0.9285506   -107.33775   -7141.8039    4.3604661    4.3604661    4.3604661   -7141.8039    3709.1191    -7209.477   -17925.054    3784.8037   -9974.2229    750.86387    82.908438 
   34900    830.05056   -108.08737   0.75104719   -107.33632   -5547.7252    4.3569929    4.3569929    4.3569929   -5547.7252   -12932.564    7828.8889   -11539.501    6746.4563    618.31902    3684.9194    82.710481 
   35000    663.96556   -107.93632      0.60077   -107.33555    13264.994    4.3455056    4.3455056    4.3455056    13264.994    51981.722   -12373.469    186.72777     4839.758   -953.77584   -446.55203    82.058002 
   35100    864.48793   -108.11925   0.78220685   -107.33705   -6464.3446     4.364448     4.364448     4.364448   -6464.3446    11644.038   -4218.0475   -26819.024    -4281.381   -13591.401    1207.6952     83.13578 
   35200    819.84947   -108.07649   0.74181703   -107.33467   -175.74114    4.3535604    4.3535604    4.3535604   -175.74114    10073.554   -2628.0806   -7972.6971    10492.998   -1305.2268   -1084.8037    82.515155 
   35300    887.79607   -108.13699   0.80329654   -107.33369   -7164.1046    4.3523289    4.3523289    4.3523289   -7164.1046    1406.6073   -7693.7867   -15205.135   -8806.2073   -9724.0189    255.60436     82.44515 
   35400    750.40842   -108.01338   0.67898531   -107.33439     6432.645    4.3574576    4.3574576    4.3574576     6432.645    45019.538   -14179.569   -11542.034    9524.4801   -2239.3858     3313.493     82.73695 
   35500    626.62351   -107.90546   0.56698212   -107.33848    10173.191    4.3529125    4.3529125    4.3529125    10173.191    20449.223    21253.369   -11183.018    9587.5556    6335.2775   -6061.5881    82.478321 
   35600    1054.3869   -108.28691   0.95403146   -107.33287   -11440.789    4.3593442    4.3593442    4.3593442   -11440.789   -8016.0814   -10247.467    -16058.82   -1843.8895   -2825.8063   -1478.5182    82.844464 
   35700    833.84857   -108.08593   0.75448371   -107.33144    12679.145     4.351775     4.351775     4.351775    12679.145    11114.735    27550.512   -627.81328    7727.3797   -3176.0102   -2489.0972     82.41368 
   35800    496.33819    -107.7882   0.44909722    -107.3391    2153.8924    4.3563597    4.3563597    4.3563597    2153.8924    42334.793   -23297.547   -12575.568   -5144.2135   -5887.2698   -12332.861    82.674427 
   35900     890.6663   -108.13585   0.80589359   -107.32995    2224.2548    4.3632242    4.3632242    4.3632242    2224.2548    21353.282    9528.5568   -24209.074   -13836.461   -9662.2757    1701.1806    83.065865 
   36000    859.61686   -108.10447    0.7777994   -107.32667    4363.8172    4.3514468    4.3514468    4.3514468    4363.8172    17557.528   -4960.3263    494.24991     3033.851   -391.57444   -12793.117    82.395036 
   36100    600.05446   -107.87728   0.54294189   -107.33434   -17155.336    4.3550753    4.3550753    4.3550753   -17155.336   -15824.437    -20641.66   -14999.911    179.74501   -5992.9341   -6411.0937    82.601323 
   36200     868.1239   -108.11749   0.78549675     -107.332    2910.4891    4.3556233    4.3556233    4.3556233    2910.4891    28751.158   -1928.0458   -18091.645   -3173.3076   -1980.2676   -736.66443     82.63251 
   36300    869.05604   -108.12109   0.78634017   -107.33475   -1294.6705    4.3547628    4.3547628    4.3547628   -1294.6705    19983.217   -11329.245   -12537.984    8120.1641    5219.9133   -5705.4087    82.583545 
   36400    596.30153   -107.87626   0.53954615   -107.33672   -7416.1145    4.3554839    4.3554839    4.3554839   -7416.1145    9874.0327   -12191.893   -19930.484   -13138.042   -8846.6052    3410.2301    82.624573 
   36500    1096.9104   -108.32308   0.99250756   -107.33057   -3586.5849    4.3515734    4.3515734    4.3515734   -3586.5849   -5163.4827     7337.112   -12933.384     7112.112   -5195.4315    3257.2633    82.402225 
   36600     614.3902   -107.89386   0.55591316   -107.33795   -16078.623    4.3620979    4.3620979    4.3620979   -16078.623    8621.9825   -30876.307   -25981.543   -2960.7557    206.40964   -5447.6258    83.001556 
   36700    768.78993   -108.03298   0.69561729   -107.33736   -878.85607    4.3473686    4.3473686    4.3473686   -878.85607    13834.144   -6269.4936   -10201.219   -2126.7636   -7347.0335    6948.4346    82.163589 
   36800     997.3503   -108.23672   0.90242351   -107.33429    3433.3886    4.3560423    4.3560423    4.3560423    3433.3886    32204.804   -4812.9042   -17091.734   -2480.4438    8394.4151   -2800.7134    82.656356 
   36900    588.37593   -107.87121    0.5323749   -107.33884   -21451.998    4.3618095    4.3618095    4.3618095   -21451.998    -9325.232    -44335.59   -10695.171   -5874.6596   -7653.0308    -3279.161    82.985095 
   37000    677.88734   -107.95079   0.61336671   -107.33742    19892.153    4.3430697    4.3430697    4.3430697    19892.153    19184.732    34891.875    5599.8517   -5662.4475   -8597.6039    11151.327    81.920084 
   37100    1008.0308   -108.25195   0.91208741   -107.33986    728.75489    4.3614801    4.3614801    4.3614801    728.75489    28625.391   -14647.902   -11791.224    1179.4949   -3854.1297   -9670.9377     82.96629 
   37200    590.43902   -107.87709   0.53424163   -107.34285    4301.3198     4.355639     4.355639     4.355639    4301.3198   -7189.4954    18751.575    1341.8801   -9789.0314   -11065.718     8783.068    82.633404 
   37300    978.24337   -108.22021   0.88513516   -107.33507   -9064.9158    4.3559546    4.3559546    4.3559546   -9064.9158   -4581.1555   -9552.1891   -13061.403   -5212.8925    3019.6692   -6252.1011    82.651364 
   37400    822.07714    -108.0783   0.74383268   -107.33447    14873.729    4.3487405    4.3487405    4.3487405    14873.729    45114.587    4624.4005   -5117.7994    2357.4742    4334.8073   -5852.4929    82.241398 
   37500    694.28492   -107.97268   0.62820358   -107.34447   -2525.9685    4.3547155    4.3547155    4.3547155   -2525.9685   -6659.5584    17803.183    -18721.53   -3113.6426   -12637.403    9100.2702    82.580851 
   37600    950.78628   -108.19573   0.86029141   -107.33543   -15718.058    4.3681809    4.3681809    4.3681809   -15718.058    -7019.024   -16801.081   -23334.068    1393.1684    3891.3754   -4698.6833    83.349281 
   37700    916.15467   -108.15864     0.828956   -107.32969    24976.763    4.3367062    4.3367062    4.3367062    24976.763    15767.569    40338.459    18824.263    -7717.605   -2730.9092    9622.4555    81.560521 
   37800    625.63837   -107.91283   0.56609075   -107.34674   -13538.563    4.3666855    4.3666855    4.3666855   -13538.563   -10826.869   -15802.091    -13986.73   -5705.7047    589.30924    778.68073    83.263705 
   37900    751.71933   -108.01512   0.68017145   -107.33495    7798.8492    4.3598318    4.3598318    4.3598318    7798.8492     34878.65   -392.81927   -11089.283   -4095.9771    22599.567    5637.8899    82.872262 
   38000    897.45684   -108.14172   0.81203781   -107.32968    15749.947    4.3368283    4.3368283    4.3368283    15749.947    7720.0566    15529.022    24000.763   -5281.3711   -2655.5713    6590.7068    81.567411 
   38100    695.42717    -107.9631   0.62923712   -107.33386   -30241.761    4.3745117    4.3745117    4.3745117   -30241.761   -35317.634    -37261.69   -18145.961    181.63044   -2199.8129    2216.7797    83.712198 
   38200     1038.443   -108.26347   0.93960508   -107.32386    6604.9075    4.3470511    4.3470511    4.3470511    6604.9075    8156.6782    18980.072   -7322.0274    6477.4899    669.98215    1368.3216    82.145584 
   38300    595.70744   -107.87525   0.53900861   -107.33624   -639.10782    4.3526845    4.3526845    4.3526845   -639.10782    10428.189   -17871.022    5525.5088   -7638.2493   -4633.7271   -936.72116    82.465363 
   38400    638.17126   -107.91426   0.57743077   -107.33683   -18045.256    4.3626549    4.3626549    4.3626549   -18045.256   -20235.408    -15767.29    -18133.07    7529.9551     14017.16   -2632.6913    83.033355 
   38500      1027.23   -108.25823   0.92945931   -107.32877    15136.191    4.3446322    4.3446322    4.3446322    15136.191   -231.82505    2333.0627    43307.336   -5301.8916    8255.6473   -2584.8161    82.008532 
   38600    757.02331   -108.02173    0.6849706   -107.33676   -13710.332    4.3654903    4.3654903    4.3654903   -13710.332   -15484.282   -26513.515    866.80156   -8110.6064   -8440.1229    4755.0186    83.195354 
   38700    755.69253   -108.01876   0.68376648   -107.33499   -5829.0557    4.3535436    4.3535436    4.3535436   -5829.0557   -11576.152   -8163.2979     2252.283     4596.909    11531.418   -3257.5104    82.514198 
   38800    855.92331   -108.10903    0.7744574   -107.33457    12827.049    4.3535624    4.3535624    4.3535624    12827.049    8504.5446   -1718.7243    31695.325   -5422.0432    6982.0172    6571.9788     82.51527 
   38900    824.89199   -108.08345   0.74637961   -107.33707   -7099.0204    4.3578221    4.3578221    4.3578221   -7099.0204   -10139.357   -22394.473    11236.769    979.15653    11502.871     1339.094    82.757714 
   39000    685.17412   -107.95656   0.61995994    -107.3366    8963.6085    4.3494145    4.3494145    4.3494145    8963.6085   -17615.554    12927.186    31579.193    5143.5568    7652.8601   -518.77401    82.279644 
   39100    1052.1228   -108.28421   0.95198281   -107.33223   -5355.8274    4.3615388    4.3615388    4.3615388   -5355.8274    6740.2227   -13578.685     -9229.02   -6806.3435   -6477.3705    6194.4409     82.96964 
   39200    490.83547   -107.78032   0.44411825    -107.3362    4641.0946    4.3585144    4.3585144    4.3585144    4641.0946   -3359.8775   -5095.3546    22378.516    7024.1438     12547.07   -638.75637    82.797165 
   39300    1021.5377   -108.25343   0.92430877   -107.32912    7297.4484    4.3501689    4.3501689    4.3501689    7297.4484     14538.07    3879.0552    3475.2202   -2510.2227    10083.047    5583.3741    82.322464 
   39400    821.64058   -108.07303   0.74343766   -107.32959    12652.027    4.3561183    4.3561183    4.3561183    12652.027   -1407.0366    5959.9842    33403.132    3549.1428    -4105.646    7992.5475    82.660687 
   39500    599.67219   -107.87647     0.542596   -107.33387    -23812.64    4.3642046    4.3642046    4.3642046    -23812.64   -36724.298   -20648.644   -14064.977     10733.82    9695.1383    1438.3475    83.121871 
   39600    1031.5284   -108.26301   0.93334858   -107.32966    15180.952    4.3428798    4.3428798    4.3428798    15180.952    26976.574    8457.4371    10108.843   -1985.3031   -10815.409     4943.635    81.909339 
   39700    840.75255   -108.10147   0.76073058   -107.34074     3742.117    4.3557971    4.3557971    4.3557971     3742.117    9968.8485   -8856.7224    10114.225    5095.9183    12176.332   -378.86342    82.642401 
   39800    634.61574   -107.90657   0.57421366   -107.33236   -31190.856    4.3749322    4.3749322    4.3749322   -31190.856   -23665.729    -28948.89    -40957.95    3512.4894    7058.9112     4162.647    83.736343 
   39900      1051.73   -108.26831   0.95162743   -107.31668    31690.725    4.3339884    4.3339884    4.3339884    31690.725    29437.314    16902.292    48732.569   -2865.1486   -2425.8194   -645.21484    81.407277 
   40000    509.93154    -107.8025   0.46139678    -107.3411    -6279.084    4.3606559    4.3606559    4.3606559    -6279.084    173.47896   -1950.4629   -17060.268    1480.5673    4496.3802   -2111.8307    82.919267 
   40100    697.84624   -107.96534   0.63142595   -107.33391   -14105.384    4.3645579    4.3645579    4.3645579   -14105.384   -14645.211   -20962.876    -6708.066    1696.3974   -13821.847    1020.3569    83.142062 
   40200    1136.9528   -108.34774    1.0287388     -107.319    24728.968     4.328075     4.328075     4.328075    24728.968    42613.536    10580.378    20992.989   -696.56664    9811.1375   -2566.4219    81.074513 
   40300    581.86727     -107.868   0.52648573   -107.34151   -33411.559     4.368041     4.368041     4.368041   -33411.559   -50353.072    -15156.78   -34724.824    11630.405    11369.146   -649.36834    83.341268 
   40400    841.65355    -108.0936   0.76154582   -107.33205    3041.5465    4.3530455    4.3530455    4.3530455    3041.5465    22086.851   -18382.506    5420.2944   -3735.1524   -5226.2963   -588.38402    82.485882 
   40500    857.14715   -108.10208   0.77556475   -107.32651    7101.8677    4.3483173    4.3483173    4.3483173    7101.8677    13461.267   -11963.523     19807.86    3910.5533    1098.7754    1801.4555     82.21739 
   40600    464.20435    -107.7518   0.42002185   -107.33178   -9459.7704     4.360435     4.360435     4.360435   -9459.7704   -1771.6111   -9598.1291   -17009.571    6436.2454   -523.03764   -2053.3761    82.906664 
   40700     979.0871   -108.21486   0.88589858   -107.32896    7097.0995    4.3452544    4.3452544    4.3452544    7097.0995   -15965.117    8191.8177    29064.598   -14404.699   -5051.9918    8767.4257    82.043771 
   40800     862.2226    -108.1147   0.78015713   -107.33455   -19810.282    4.3601248    4.3601248    4.3601248   -19810.282   -33208.683    -9119.618   -17102.544    12336.509      18682.8   -5512.8822    82.888971 
   40900    735.19882   -107.99897   0.66522335   -107.33374   -3890.0077    4.3500401    4.3500401    4.3500401   -3890.0077   -3776.4419   -586.48836   -7307.0928   -5179.0653   -5843.2046    7660.6407     82.31515 
   41000    702.34937    -107.9696   0.63550047    -107.3341    7338.7602    4.3567665    4.3567665    4.3567665    7338.7602    5287.4358   -11477.475     28206.32   -11429.491   -249.49127    5352.3642    82.697589 
   41100    1025.5482   -108.25904   0.92793758    -107.3311   -7739.6832    4.3531249    4.3531249    4.3531249   -7739.6832   -5087.3982   -9310.8851   -8820.7662    8551.6198     7327.851   -7288.1507    82.490397 
   41200    455.55325   -107.75068   0.41219415   -107.33849    5527.9091    4.3491009    4.3491009    4.3491009    5527.9091   -18636.187   -10847.246    46067.161   -18607.674   -3323.0362    8107.4369    82.261845 
   41300    1113.8514   -108.34343    1.0078361   -107.33559   -15062.516     4.357008     4.357008     4.357008   -15062.516   -17603.517   -15243.154   -12340.879   -5878.6469    5366.9216   -7835.5957    82.711341 
   41400    785.40058   -108.04875   0.71064695   -107.33811    4718.8013    4.3531987    4.3531987    4.3531987    4718.8013    11232.776   -11840.757    14764.385   -5887.4434    8259.8567    3521.9623    82.494593 
   41500    531.46058   -107.81901   0.48087671   -107.33814    5022.1489    4.3558997    4.3558997    4.3558997    5022.1489   -11004.144    5580.7156    20489.875   -17088.636   -17755.645    1565.7251     82.64824 
   41600    1178.4276   -108.39306    1.0662661    -107.3268    1363.6319    4.3508882    4.3508882    4.3508882    1363.6319   -2524.5652   -1143.7524    7759.2135    5157.6861    2821.7096    1443.4767    82.363305 
   41700    556.09974   -107.84051   0.50317073   -107.33734    2503.1797    4.3527506    4.3527506    4.3527506    2503.1797   -12054.542    6798.3065    12765.774    -10848.69    2973.5412    7824.3049     82.46912 
   41800    841.95612   -108.10094   0.76181959   -107.33912   -8026.9518    4.3575154    4.3575154    4.3575154   -8026.9518   -9727.2077   -1234.5261   -13119.122   -6724.3239   -9262.1629   -2731.4547    82.740241 
   41900     1102.381   -108.32989   0.99745748   -107.33243    11927.941    4.3475081    4.3475081    4.3475081    11927.941    13690.342    9616.2531    12477.227    5739.3473    3403.4853    1899.6654      82.1715 
   42000    477.34982   -107.77285   0.43191615   -107.34093   -12255.705    4.3557522    4.3557522    4.3557522   -12255.705   -5218.1023   -18026.842   -13522.171   -15166.806   -3719.9413   -467.27863    82.639845 
   42100    820.02639   -108.07548   0.74197711    -107.3335   -5231.5577    4.3583046    4.3583046    4.3583046   -5231.5577   -17223.802   -12158.779    13687.908    3676.5099   -12536.333    -3943.212    82.785207 
   42200    1001.6879   -108.23726   0.90634822   -107.33092    2376.3754    4.3469305    4.3469305    4.3469305    2376.3754    4322.4547   -16211.146    19017.818   -6411.5471    6157.9967    2175.7253    82.138751 
   42300    481.62235   -107.77606   0.43578202   -107.34028   -4786.7955    4.3555054    4.3555054    4.3555054   -4786.7955   -14842.295   -18863.779    19345.687   -10693.026   -3458.8187   -5559.8328    82.625796 
   42400    1013.1404   -108.24739   0.91671073   -107.33068    65.816111    4.3570983    4.3570983    4.3570983    65.816111     4821.933   -6579.6812    1955.1965    2440.2666   -5359.3709    2832.5702    82.716485 
   42500     729.8315   -107.99645   0.66036688   -107.33608    -4053.495    4.3516587    4.3516587    4.3516587    -4053.495   -7431.5731   -19062.063    14333.151   -14744.588     3234.972    1947.1441     82.40707 
   42600    779.96129   -108.04408   0.70572537   -107.33835    -7371.939    4.3479048    4.3479048    4.3479048    -7371.939   -20726.542     -4456.34    3067.0644    1336.7768   -25836.818    136.89066    82.193993 
   42700    894.05089   -108.14418   0.80895604   -107.33522    8929.5685    4.3585545    4.3585545    4.3585545    8929.5685    3472.9968   -3486.8302    26802.539    -5137.135    9432.8381    8385.5595     82.79945 
   42800    689.37151   -107.95923   0.62375783   -107.33548   -14790.909    4.3616826    4.3616826    4.3616826   -14790.909   -5054.8461   -36317.765   -3000.1159    -8998.598    804.06991   -5431.6415    82.977848 
   42900    566.43622   -107.84236   0.51252339   -107.32983     24943.78    4.3375792    4.3375792    4.3375792     24943.78     27574.16    7682.3165    39574.865    5858.7743   -8620.9063     4402.156    81.609787 
   43000    1205.9663   -108.42765    1.0911837   -107.33646   -20511.646    4.3624987    4.3624987    4.3624987   -20511.646   -26347.678   -33180.938   -2006.3214   -10560.028    4331.2486   -6703.6889    83.024433 
   43100     779.4962   -108.04363   0.70530454   -107.33832   -9750.1645    4.3559709    4.3559709    4.3559709   -9750.1645   -13335.062   -15344.406   -571.02612    1509.1629   -12692.749   -5856.6353    82.652296 
   43200    773.07557   -108.03091   0.69949502   -107.33141    14931.646    4.3386366    4.3386366    4.3386366    14931.646    7019.2352    1767.3971    36008.307     3293.788   -4328.8362    73.720301    81.669484 
   43300    759.34491   -108.02156   0.68707123   -107.33448   -8982.5802    4.3675707    4.3675707    4.3675707   -8982.5802   -7472.2792   -33133.631    13658.169   -8377.6024    11100.517   -8093.1669    83.314355 
   43400    678.55445   -107.94555   0.61397032   -107.33158    7729.9542    4.3497708    4.3497708    4.3497708    7729.9542     5820.598   -3128.7337    20497.998    7493.8299   -7517.4809   -1885.2177    82.299867 
   43500     917.3882   -108.15947   0.83007212    -107.3294   -13678.872      4.34988      4.34988      4.34988   -13678.872   -12632.734   -14571.753   -13832.131   -11745.339    -3038.384    8002.9807    82.306063 
   43600    871.38974   -108.11579   0.78845175   -107.32734   -5298.1608    4.3583452    4.3583452    4.3583452   -5298.1608   -12255.787   -19511.231    15872.536   -3323.1094    1079.1969   -2487.0736    82.787518 
   43700    769.30317   -108.02818   0.69608167    -107.3321   -13637.667    4.3576908    4.3576908    4.3576908   -13637.667    -20033.59   -21060.808    181.39648    775.58305   -15109.973    9295.9787    82.750236 
   43800    686.21262   -107.95427    0.6208996   -107.33337    6864.2422    4.3459321    4.3459321    4.3459321    6864.2422    22666.055   -11015.675    8942.3465   -9991.2004     17846.56    1817.7291    82.082164 
   43900    845.72224   -108.10181   0.76522726   -107.33658    547.07058    4.3549023    4.3549023    4.3549023    547.07058    11268.843   -27688.689    18061.058    9562.3548   -5707.9785    16.358602    82.591478 
   44000    755.72737   -108.01948   0.68379801   -107.33568   -23594.941    4.3641673    4.3641673    4.3641673   -23594.941   -23518.152   -22616.284   -24650.387   -281.50506   -594.41921    2423.3242    83.119738 
   44100    875.86008   -108.12188   0.79249661   -107.32939     4830.297    4.3405512    4.3405512    4.3405512     4830.297    12656.686   -20303.759    22137.963   -540.77736     296.7879    621.26196    81.777656 
   44200    939.08585   -108.18174   0.84970461   -107.33204    -119.6338    4.3594819    4.3594819    4.3594819    -119.6338   -108.56014   -13398.518    13148.177    5235.9203   -2079.7526   -786.78662    82.852314 
   44300    536.05004   -107.82192   0.48502934   -107.33689   -913.01217    4.3563425    4.3563425    4.3563425   -913.01217    28609.908   -25196.822   -6152.1225   -9242.4191    11061.217    4462.7301     82.67345 
   44400     709.6773   -107.97694   0.64213093   -107.33481    23163.305     4.340749     4.340749     4.340749    23163.305     25708.29   -8618.6254    52400.251   -81.344493    7965.0005   -4922.0927    81.788833 
   44500    1095.8136   -108.32497   0.99151518   -107.33346   -10759.426    4.3644375    4.3644375    4.3644375   -10759.426   -4044.8705   -20876.474   -7356.9344   -1721.6983   -4473.5807   -93.502344    83.135178 
   44600    683.22452   -107.94963   0.61819591   -107.33143   -14956.332    4.3605905    4.3605905    4.3605905   -14956.332   -30660.514   -31213.801    17005.318   -8123.8542   -1589.5022   -3666.0072    82.915536 
   44700    1061.1022   -108.28212   0.96010759   -107.32202    11651.345    4.3459941    4.3459941    4.3459941    11651.345    21558.495    900.96369    12494.575    6394.8101   -2582.2452   -8466.9224    82.085678 
   44800    746.96601   -108.00592   0.67587054   -107.33005    2207.0961     4.357319     4.357319     4.357319    2207.0961    5453.0787   -38257.371    39425.581   -6078.8548     6691.189    1438.4406    82.729056 
   44900    495.64647   -107.78778   0.44847134   -107.33931   -8967.1111    4.3595405    4.3595405    4.3595405   -8967.1111    18460.846   -36397.436   -8964.7438    3295.6889    3380.6455   -11251.344    82.855652 
   45000     1062.273     -108.291   0.96116691   -107.32984    14272.813    4.3439799    4.3439799    4.3439799    14272.813    28165.605   -10181.136    24833.971    855.81095   -6518.5208    2761.3717    81.971601 
   45100     756.4577   -108.02464   0.68445883   -107.34018   -5274.8203    4.3556557    4.3556557    4.3556557   -5274.8203   -15277.002   -27364.006    26816.547   -5966.9539   -848.34985   -6200.7816    82.634352 
   45200    712.70581   -107.98156    0.6448712   -107.33669   -18615.212     4.363364     4.363364     4.363364   -18615.212   -16058.445   -34957.515   -4829.6768    719.83888    1309.5539   -2848.2836    83.073852 
   45300    1080.6163   -108.30509   0.97776433   -107.32732    6796.2465    4.3457161    4.3457161    4.3457161    6796.2465    11015.589   -5413.5964    14786.747   -4762.4166    8564.4332   -5109.7096    82.069928 
   45400     532.4017   -107.81931   0.48172825   -107.33758    3219.7236    4.3572385    4.3572385    4.3572385    3219.7236    44914.756   -29463.536   -5792.0487    556.09224    5520.2641   -8418.7604    82.724471 
   45500     846.3627   -108.09485   0.76580676   -107.32904   -11630.513    4.3642845    4.3642845    4.3642845   -11630.513    12244.072   -17369.637   -29765.975    5800.9049   -4456.1606   -1331.3072    83.126436 
   45600     700.9566     -107.961   0.63424026   -107.32676    4181.7178    4.3519582    4.3519582    4.3519582    4181.7178    9658.6978   -14226.366    17112.822   -3723.5382   -8130.6533   -7036.0897    82.424086 
   45700    984.71477   -108.21713   0.89099062   -107.32614   -3745.2624    4.3466294    4.3466294    4.3466294   -3745.2624   -4455.1741    -17770.83    10990.217    2682.1876   -253.12881   -3358.8147     82.12168 
   45800    762.30476   -108.02368   0.68974937   -107.33393   -10609.415    4.3667628    4.3667628    4.3667628   -10609.415   -13597.389   -12476.978   -5753.8792   -5263.3988   -906.10649    1770.4757    83.268127 
   45900    801.22366   -108.05978     0.724964   -107.33482   -12263.834    4.3539491    4.3539491    4.3539491   -12263.834    20904.574   -38870.542   -18825.535   -2619.6344    1229.4898   -14620.881    82.537257 
   46000    637.88448   -107.90857   0.57717128    -107.3314    19447.209     4.339704     4.339704     4.339704    19447.209    44829.095   -3248.8358    16761.368   -881.59942   -7264.7044    3676.6078    81.729779 
   46100    761.49099   -108.02752   0.68901305   -107.33851   -18386.016      4.36586      4.36586      4.36586   -18386.016   -26598.862   -34868.386    6309.2013   -2450.5235   -6318.5656     -8627.66    83.216493 
   46200    1000.5521   -108.23304    0.9053206   -107.32772   -11081.082    4.3616409    4.3616409    4.3616409   -11081.082   -7521.9957   -30784.099    5062.8497    3722.1132    6682.2637   -1630.7079    82.975471 
   46300    881.14332   -108.11861     0.797277   -107.32133    6797.4362    4.3458073    4.3458073    4.3458073    6797.4362   -6870.9546   -925.88928    28189.153    1184.3679    2927.5988    1304.0229    82.075094 
   46400    649.79036   -107.92115   0.58794397   -107.33321    -11119.66    4.3577183    4.3577183    4.3577183    -11119.66    11855.233   -32482.261   -12731.953    3978.7537    730.19308   -4230.5295    82.751803 
   46500     997.6376   -108.23045   0.90268346   -107.32776    5681.7777    4.3611802    4.3611802    4.3611802    5681.7777    4855.1183    -8366.104    20556.319    4170.8071   -5783.3178    7205.8276    82.949181 
   46600    732.78171   -107.99189   0.66303629   -107.32885    11278.432    4.3493683    4.3493683    4.3493683    11278.432    8926.8433   -15189.148      40097.6   -2950.6703   -16050.185   -12196.033    82.277018 
   46700    580.39712   -107.86158   0.52515551   -107.33642    3536.9497     4.352822     4.352822     4.352822    3536.9497    3477.8407    246.46044    6886.5478   -1104.1352    3187.0277   -10204.292    82.473177 
   46800    1077.1147    -108.3029   0.97459601   -107.32831   -6410.9835     4.362655     4.362655     4.362655   -6410.9835   -23929.146   -15351.484    20047.679   -4292.0346    32.166545    32.986894    83.033362 
   46900    664.82408   -107.93531    0.6015468   -107.33376    11050.035    4.3465234    4.3465234    4.3465234    11050.035    6304.2698   -497.92647    27343.762    847.29297   -3504.5103   -8144.8358    82.115674 
   47000     819.8722   -108.07885    0.7418376   -107.33701   -2819.3029     4.357328     4.357328     4.357328   -2819.3029   -15856.272   -21989.371    29387.734    2557.6124    5644.6184   -1051.4165    82.729567 
   47100    962.75425   -108.19963   0.87112028   -107.32851    -4055.533    4.3582424    4.3582424    4.3582424    -4055.533   -12833.172   -18966.568    19633.141    1961.1689   -4440.2621    4751.0818    82.781661 
   47200    589.61713   -107.86665   0.53349797   -107.33315    3818.2473    4.3441621    4.3441621    4.3441621    3818.2473    6991.4742   -17614.224    22077.492    3412.6544   -3095.6332   -15384.298    81.981916 
   47300    944.61885    -108.1882   0.85471099   -107.33349   -6870.1159    4.3601628    4.3601628    4.3601628   -6870.1159   -17042.552   -8730.2987    5162.5026    10.647586    13393.637    13125.138    82.891142 
   47400    695.58552   -107.96051   0.62938039   -107.33113    6001.0323    4.3572932    4.3572932    4.3572932    6001.0323    1963.8865   -25377.611    41416.821   -3294.4759    6761.4907    4274.3007    82.727588 
   47500    565.36644   -107.84731   0.51155543   -107.33575    4632.3616    4.3489798    4.3489798    4.3489798    4632.3616    1175.5182    11659.411    1062.1559   -5209.8825    3387.6441    2849.1003    82.254976 
   47600    904.71891   -108.14969   0.81860868   -107.33108   -2255.8524    4.3587371    4.3587371    4.3587371   -2255.8524   -19587.055    3433.8093    9385.6884    206.91812    3834.7188    5017.6739    82.809854 
   47700    842.79641   -108.09351   0.76257991   -107.33093    2192.2941    4.3570763    4.3570763    4.3570763    2192.2941   -10585.965   -2365.4232    19528.271    2681.1889    -5499.907   -15756.421    82.715235 
   47800    750.46255   -108.01228   0.67903429   -107.33324    1821.6338    4.3505597    4.3505597    4.3505597    1821.6338   -13168.448   -9006.5211     27639.87    2710.4762    5616.2865   -12142.671    82.344654 
   47900    727.68997   -107.99613   0.65842918    -107.3377   -9679.3233    4.3579091    4.3579091    4.3579091   -9679.3233   -9984.5599   -25077.299    6023.8893    9252.4219    5543.5611     6188.422    82.762671 
   48000    914.19766   -108.15903   0.82718525   -107.33184   -12059.609    4.3578627    4.3578627    4.3578627   -12059.609   -15601.492   -24792.953    4215.6167    85.335393    2150.4243   -10652.467    82.760028 
   48100    886.94742    -108.1316   0.80252866   -107.32907    4123.2393    4.3484482    4.3484482    4.3484482    4123.2393    3186.6806    10250.038    -1067.001   -84.351672    1616.4088    10446.531    82.224815 
   48200    602.63579   -107.88191   0.54527753   -107.33663     3166.699    4.3581273    4.3581273    4.3581273     3166.699   -19973.936   -11576.698    41050.731    1354.6288   -6232.0743   -10278.179    82.775104 
   48300    857.85547   -108.10725   0.77620566   -107.33105    1117.4801     4.354989     4.354989     4.354989    1117.4801   -14132.968    2657.1898    14828.219    -974.6811   -2944.7022   -11471.477    82.596415 
   48400    620.36343   -107.89537   0.56131787   -107.33405   -4944.7186    4.3541883    4.3541883    4.3541883   -4944.7186   -17785.922   -2500.6401    5452.4067    5477.7628     1988.598    9641.3935    82.550864 
   48500    1031.4886   -108.26751   0.93331256    -107.3342   -17384.101    4.3547461    4.3547461    4.3547461   -17384.101   -26280.859   -14598.189   -11273.254    4578.9764   -1724.5354   -5027.0517    82.582594 
   48600    1035.3409   -108.27045   0.93679823   -107.33365   -4204.3058    4.3597186    4.3597186    4.3597186   -4204.3058   -16688.059    6423.4644   -2348.3226    5191.1368    8376.7904   -543.84128    82.865807 
   48700    682.67153   -107.95364   0.61769555   -107.33595    9742.5262    4.3457688    4.3457688    4.3457688    9742.5262   -18604.245    9958.9738     37872.85    2465.0659   -6575.0587   -324.39724    82.072914 
   48800    488.81727    -107.7864   0.44229214   -107.34411    14791.026    4.3517645    4.3517645    4.3517645    14791.026   -10375.295    29938.528    24809.846   -6353.4799   -4978.4685   -19785.808    82.413083 
   48900    1013.6495   -108.25369    0.9171714   -107.33652   -3165.4038      4.36355      4.36355      4.36355   -3165.4038   -1987.4882   -5758.3072   -1750.4159   -9050.9719   -7769.4484    2087.8757    83.084474 
   49000    723.81887   -107.99091   0.65492652   -107.33598    7547.9494    4.3496324    4.3496324    4.3496324    7547.9494    4375.2738    7454.6762    10813.898    4959.4788   -10488.058   -233.64631     82.29201 
   49100    838.33001   -108.09005   0.75853861   -107.33151   -7837.9578    4.3588841    4.3588841    4.3588841   -7837.9578    20846.114   -22262.606   -22097.382    1625.8174    2499.1892   -11939.538    82.818234 
   49200    921.83202   -108.15698   0.83409298   -107.32288    4537.3483    4.3575703    4.3575703    4.3575703    4537.3483    4561.1197    16207.259    -7156.334     4910.677     5534.988    12612.379    82.743369 
   49300    567.62556   -107.84436   0.51359954   -107.33076    -5255.873    4.3550175    4.3550175    4.3550175    -5255.873   -16789.003   -12734.493    13755.876    4091.0172    1601.1619    -18680.79    82.598036 
   49400    1066.8965   -108.29314   0.96535039   -107.32779    -2374.686    4.3564019    4.3564019    4.3564019    -2374.686   -17358.654    7552.1682     2682.428   -4522.2798    5529.3751    418.83604    82.676831 
   49500    917.80551   -108.16045   0.83044972      -107.33    4513.6527    4.3543025    4.3543025    4.3543025    4513.6527   -6851.8965    5377.6498    15015.205    3753.1259   -4689.3492   -1754.1924    82.557359 
   49600    519.06774   -107.80774    0.4696634   -107.33808   -23091.888     4.358006     4.358006     4.358006   -23091.888   -4961.5486   -33777.088   -30537.026   -3305.5057   -7222.4261   -9838.1692    82.768193 
   49700    762.40708   -108.02042   0.68984195   -107.33058    16304.194    4.3451956    4.3451956    4.3451956    16304.194     24219.26    35752.062    -11058.74    3838.6257    6497.9309    4866.7603    82.040442 
   49800    883.66608   -108.13668   0.79955964   -107.33712   -17383.812    4.3625409    4.3625409    4.3625409   -17383.812     13910.76    -38964.97   -27097.228    3816.6549   -3188.8702   -11501.394    83.026844 
   49900    713.39985   -107.98109   0.64549917   -107.33559       -19241    4.3597062    4.3597062    4.3597062       -19241   -24407.261   -8527.6959   -24788.042   -666.15173    6488.2643   -623.36721    82.865103 
   50000    1006.9646   -108.23735   0.91112272   -107.32623    17017.297    4.3375375    4.3375375    4.3375375    17017.297     15860.79    22164.363    13026.738    -76.09335    7626.8156   -12407.905    81.607436 
   50100    730.51378   -107.99623   0.66098422   -107.33524   -21195.146    4.3672706    4.3672706    4.3672706   -21195.146   -13021.353   -37608.145   -12955.941   -5570.4943   -9458.6397   -6790.2582    83.297181 
   50200    543.49851   -107.82497   0.49176887    -107.3332   -229.81772    4.3555528    4.3555528    4.3555528   -229.81772    8812.8699   -2956.0315   -6546.2916   -5009.7668    1742.7714   -1079.7163    82.628499 
   50300    985.00043   -108.21784   0.89124909   -107.32659    16279.199    4.3413929    4.3413929    4.3413929    16279.199    33463.662   -4320.6191    19694.555    3791.0368   -1739.1094   -6552.1456    81.825236 
   50400    800.06117   -108.05592   0.72391216   -107.33201   -18695.961    4.3646427    4.3646427    4.3646427   -18695.961   -19232.489   -18018.765    -18836.63    13914.617    1241.4096     3275.814    83.146905 
   50500     666.8516   -107.93473   0.60338134   -107.33134   -8756.4787    4.3531261    4.3531261    4.3531261   -8756.4787   -36289.942    16797.574   -6777.0688   -1309.2099    15079.127    4900.1229    82.490462 
   50600    909.82343   -108.15052   0.82322736   -107.32729    11345.983    4.3520073    4.3520073    4.3520073    11345.983    6096.9077    18063.516    9877.5265    -2863.329    1645.0059   -8167.3637    82.426879 
   50700    773.60732   -108.03191   0.69997616   -107.33194    -3106.147    4.3584273    4.3584273    4.3584273    -3106.147   -11722.344    12939.356   -10535.453   -8395.6742    3345.6977      -2085.3      82.7922 
   50800    520.68214   -107.80523   0.47112414    -107.3341    13850.574     4.355392     4.355392     4.355392    13850.574    7075.1563    6094.9259    28381.639   -9242.5623   -1570.1439   -8069.8329    82.619343 
   50900    1035.6821   -108.26249   0.93710689   -107.32538     5874.996    4.3531907    4.3531907    4.3531907     5874.996    18471.409   -9896.2968    9049.8754    -838.5858    -9633.089   -15163.535    82.494135 
   51000    522.20632   -107.80822   0.47250325   -107.33572   -3743.8071    4.3502892    4.3502892    4.3502892   -3743.8071   -24782.173   -8041.9057    21592.657   -4925.4778    3310.2014    3003.0273    82.329294 
   51100    950.96657   -108.19621   0.86045453   -107.33575   -13600.275    4.3548917    4.3548917    4.3548917   -13600.275   -9323.1358   -21278.022   -10199.667    4366.1609    8332.1251   -9092.8581    82.590879 
   51200    1216.7053     -108.433    1.1009005    -107.3321    1682.6321    4.3524993    4.3524993    4.3524993    1682.6321   -3496.9909   -3284.2986    11829.186    750.59982    1140.9191    8903.4061    82.454836 
   51300    523.91737   -107.81545   0.47405145    -107.3414   -13662.755    4.3549315    4.3549315    4.3549315   -13662.755   -17086.525   -11089.376   -12812.365    -4260.914    6620.2941     1236.882    82.593142 
   51400    718.94836   -107.98822   0.65051958    -107.3377    10089.732    4.3452535    4.3452535    4.3452535    10089.732    12526.819   -8177.1008    25919.479    1631.0591   -4371.3476   -2212.7096     82.04372 
   51500    857.36388   -108.11185   0.77576085   -107.33609     4298.403    4.3539886    4.3539886    4.3539886     4298.403   -7432.2445    3512.3504    16815.103   -4598.8275   -810.98986    2041.9515    82.539505 
   51600    680.84814   -107.95352    0.6160457   -107.33747   -19070.534    4.3589265    4.3589265    4.3589265   -19070.534   -37357.199   -12014.516   -7839.8875   -1634.3937    8044.2585    -2612.381    82.820653 
   51700    882.44363   -108.12933   0.79845354   -107.33088    16420.523     4.339606     4.339606     4.339606    16420.523    11874.907    13758.382    23628.281      11907.4   -3465.4344    1986.2658     81.72424 
   51800    976.29971   -108.22155   0.88337649   -107.33817   -11399.021    4.3560442    4.3560442    4.3560442   -11399.021   -24942.921     1499.635   -10753.777   -661.87883     6200.782   -1326.5266    82.656467 
   51900    533.04835   -107.82138   0.48231334   -107.33907   -7820.0926     4.359977     4.359977     4.359977   -7820.0926   -18375.782   -7022.6121    1938.1166    11451.279   -237.93736    208.61057    82.880547 
   52000    984.79258   -108.21973   0.89106102   -107.32867    19338.902    4.3418006    4.3418006    4.3418006    19338.902    473.92612     29169.12    28373.659   -919.73416   -7970.3831   -7441.4468    81.848292 
   52100    896.63239   -108.14559   0.81129183    -107.3343    7878.7848    4.3522588    4.3522588    4.3522588    7878.7848   -21495.547    41688.992    3442.9099   -8460.1367    6002.5774   -2932.4963    82.441167 
   52200    370.79203   -107.67249   0.33550042   -107.33699   -4685.1634    4.3608504    4.3608504    4.3608504   -4685.1634   -33456.373    16850.097    2550.7853    6990.7593   -3994.8253   -7902.1265    82.930363 
   52300    1014.1766    -108.2452   0.91764826   -107.32755    8883.3983    4.3414567    4.3414567    4.3414567    8883.3983   -16170.599    12686.736    30134.057    1748.7722     637.7421    6854.3638    81.828844 
   52400    987.37699   -108.23011   0.89339945   -107.33671   -2792.3114    4.3529496    4.3529496    4.3529496   -2792.3114    -22777.03    22211.706   -7811.6104    4980.8702    5274.9238   -228.36372    82.480429 
   52500     692.7808    -107.9615   0.62684263   -107.33466   -22833.561    4.3691956    4.3691956    4.3691956   -22833.561   -53692.378   -19401.359    4593.0544    11369.182   -3524.2634    5198.2906     83.40738 
   52600    1014.2493   -108.24095   0.91771407   -107.32324    23418.601    4.3357463    4.3357463    4.3357463    23418.601    2297.4243    59447.947    8510.4309   -3172.2617    5276.5788    2968.4197    81.506379 
   52700    490.97504   -107.78347   0.44424453   -107.33923    3280.2108    4.3490325    4.3490325    4.3490325    3280.2108   -22593.234   -1018.8813    33452.748    4528.6962   -5565.2722   -6825.1277    82.257965 
   52800    782.41168   -108.04285   0.70794253   -107.33491   -25398.034    4.3681708    4.3681708    4.3681708   -25398.034   -39108.877   -36847.877   -237.34868    1739.3905   -1600.4008    318.07142    83.348701 
   52900    1158.4499   -108.37328    1.0481898   -107.32509    15812.953    4.3359768    4.3359768    4.3359768    15812.953    4608.7063    22753.116    20077.036    3947.4501    466.00121     1309.527    81.519376 
   53000    555.35091   -107.84281   0.50249318   -107.34031   -4924.2577    4.3473549    4.3473549    4.3473549   -4924.2577   -30734.133    -1973.647    17935.007    7986.0711   -3307.7942   -1178.5573    82.162811 
   53100    840.95761   -108.09625   0.76091612   -107.33533   -6685.4967    4.3641927    4.3641927    4.3641927   -6685.4967   -31497.258    22151.134   -10710.366   -4394.7244    6566.8065   -3438.3351     83.12119 
   53200    950.66516   -108.19154   0.86018182   -107.33135     8385.632    4.3493004    4.3493004    4.3493004     8385.632   -8011.9608    31635.387    1533.4701    4923.9292   -2525.7643    6329.8434    82.273169 
   53300    749.40284   -108.01344   0.67807544   -107.33537   -2987.6948     4.344541     4.344541     4.344541   -2987.6948   -24720.808    7133.2888    8624.4349    -4051.079   -17.920291   -8619.0814    82.003367 
   53400    883.77977   -108.13253   0.79966251   -107.33287   -3081.5402    4.3601528    4.3601528    4.3601528   -3081.5402   -15508.918    20354.122   -14089.824   -2201.0732    3.5048814    14655.297    82.890572 
   53500    731.73887   -107.99399   0.66209271    -107.3319    17493.259    4.3479129    4.3479129    4.3479129    17493.259    -680.0709    32586.173    20573.675    2304.4896   -3412.0304    5114.4883    82.194454 
   53600    676.74898    -107.9493    0.6123367   -107.33697    94.722037    4.3473444    4.3473444    4.3473444    94.722037    -13092.97     6702.077    6675.0586   -4096.5366   -6102.3851   -1312.2647    82.162217 
   53700    972.58854   -108.21139   0.88001855   -107.33137   -4035.9131    4.3586857    4.3586857    4.3586857   -4035.9131   -6947.8248    3143.4386   -8303.3531   -5704.3474   -4423.1499    12116.987    82.806928 
   53800    750.22129   -108.01061   0.67881599    -107.3318    14116.288    4.3479575    4.3479575    4.3479575    14116.288   -16951.402    42523.529    16776.738   -4092.9618   -5770.9283   -10110.261     82.19698 
   53900    603.97583   -107.88466   0.54649002   -107.33817   -6963.2686    4.3512065    4.3512065    4.3512065   -6963.2686   -16915.025    4723.6907   -8698.4716   -8694.5278    869.32562    5412.0787    82.381383 
   54000    1045.2087   -108.27768   0.94572681   -107.33195   -3390.2245    4.3534063    4.3534063    4.3534063   -3390.2245   -3466.3566    8074.1039   -14778.421    3911.3208   -2447.0266     11401.04    82.506395 
   54100    898.85933   -108.14626   0.81330681   -107.33295   -13034.498    4.3533572    4.3533572    4.3533572   -13034.498   -28098.347   -7877.4067   -3127.7416   -2193.8683   -1421.4381    630.09361    82.503603 
   54200    677.14259   -107.94775   0.61269284   -107.33505   -998.78202    4.3481513    4.3481513    4.3481513   -998.78202   -10114.759    21054.212     -13935.8   -2573.8591    1790.7574    17837.287    82.207972 
   54300    825.93312   -108.08047   0.74732164   -107.33315    2377.5645    4.3583029    4.3583029    4.3583029    2377.5645   -9218.6033    21797.807   -5446.5106    -562.8312   -4277.6717   -5344.6973     82.78511 
   54400    806.13687   -108.06586   0.72940958   -107.33645    -17387.99    4.3532543    4.3532543    4.3532543    -17387.99   -33798.098   -16331.184   -2034.6883   -7026.7845    2908.4068   -1205.3648    82.497754 
   54500    713.83445   -107.98116   0.64589241   -107.33527    20032.381    4.3378932    4.3378932    4.3378932    20032.381      21295.4    29504.248    9297.4954    4174.5365   -712.40492    11464.877    81.627515 
   54600    922.94851   -108.16787    0.8351032   -107.33276   -14865.087    4.3654414    4.3654414    4.3654414   -14865.087     -34422.1     991.2155   -11164.378   -7974.2541    1952.0714   -8019.3948    83.192557 
   54700    585.86755   -107.86528   0.53010527   -107.33517    10026.503    4.3467245    4.3467245    4.3467245    10026.503    3850.6657    16338.562    9890.2823    5816.3611   -3783.5978    12012.648    82.127074 
   54800    949.75708   -108.19554   0.85936017   -107.33618    1306.1331    4.3440033    4.3440033    4.3440033    1306.1331    4996.9322    11370.927    -12449.46   -374.21596     8833.594   -1786.5988    81.972925 
   54900    826.57561   -108.08257   0.74790298   -107.33467   -6842.5956    4.3629473    4.3629473    4.3629473   -6842.5956   -2321.7759   -8373.9112   -9832.0998   -5560.1112    -2300.899   -7965.6391    83.050052 
   55000    738.86545   -108.00256   0.66854099   -107.33402    2648.7763    4.3477299    4.3477299    4.3477299    2648.7763   -5767.6907    20443.343   -6729.3233    7312.0347    4577.4432    19034.071    82.184072 
   55100    851.15454   -108.10291   0.77014251   -107.33276    3883.1766    4.3500546    4.3500546    4.3500546    3883.1766   -3217.1509    18892.534   -4025.8535   -5694.8979    33.302645   -9473.8045    82.315977 
   55200     853.3257   -108.10443   0.77210702   -107.33233    3881.0117    4.3539919    4.3539919    4.3539919    3881.0117   -6360.0169    22286.289   -4283.2369    10396.828   -6022.4208    1690.3975    82.539695 
   55300    710.63352   -107.98016   0.64299614   -107.33717   -12817.435    4.3544152    4.3544152    4.3544152   -12817.435     1942.221   -22501.074   -17893.452    2762.4259    5071.5474    4664.6807    82.563771 
   55400    895.69722   -108.14372   0.81044567   -107.33327    2189.9984    4.3502334    4.3502334    4.3502334    2189.9984     18073.16    -460.7808   -11042.384     3876.627   -6520.6284   -22110.586    82.326123 
   55500    942.29991   -108.18467   0.85261276   -107.33206    2440.7903    4.3535595    4.3535595    4.3535595    2440.7903    16161.343    9184.0119   -18022.984    115.02214    3091.1635    10281.232    82.515107 
   55600    501.85984   -107.78962   0.45409333   -107.33553   -11375.933     4.358129     4.358129     4.358129   -11375.933   -12580.893    6837.0802   -28383.987   -576.18569    1239.1977   -16919.948    82.775203 
   55700    848.40578   -108.09625   0.76765538   -107.32859    12011.699     4.344707     4.344707     4.344707    12011.699     42527.04    19637.074   -26129.018   -9151.7035    -2402.379   -12737.069    82.012769 
   55800    856.56559   -108.11007   0.77503855   -107.33503   -7887.5427    4.3537737    4.3537737    4.3537737   -7887.5427   -12745.861    6228.3219   -17145.089    7043.1596    1820.3689    7365.8552    82.527287 
   55900    739.27998   -108.00858   0.66891607   -107.33967   -17918.183    4.3561937    4.3561937    4.3561937   -17918.183    8773.7818   -31711.408   -30816.924   -3020.3417   -2791.5868   -24491.316    82.664979 
   56000    931.90582    -108.1751   0.84320797   -107.33189    16570.193    4.3483644    4.3483644    4.3483644    16570.193    21782.703    40054.291   -12126.414   -6122.0619   -2743.4114    4831.8564    82.220063 
   56100    671.98171   -107.94623   0.60802317   -107.33821   -8094.5229    4.3530395    4.3530395    4.3530395   -8094.5229    6035.2735    7395.6099   -37714.452    6504.2231    74.984957   -15302.228    82.485538 
   56200    662.99928    -107.9377   0.59989568   -107.33781    1846.9321    4.3542148    4.3542148    4.3542148    1846.9321     32846.53    2651.1654   -29956.899    1155.5319   -1984.6278   -16731.609    82.552369 
   56300    1296.2006    -108.4988    1.1728295   -107.32597   -7955.6707    4.3527958    4.3527958    4.3527958   -7955.6707   -19505.579    17719.443   -22080.877    6629.3825    2856.9684    699.99691     82.47169 
   56400     378.3386   -107.67893   0.34232871    -107.3366    -113.7223    4.3511007    4.3511007    4.3511007    -113.7223    35820.905     2814.306   -38976.377   -992.64936   -4318.8056   -27465.594    82.375374 
   56500     835.3659   -108.08912   0.75585662   -107.33326    758.63803    4.3533439    4.3533439    4.3533439    758.63803   -4786.4696     28524.11   -21461.726   -2239.4922   -1151.2539     2758.716    82.502847 
   56600    1012.8703   -108.24651   0.91646633   -107.33004    -12615.19     4.356613     4.356613     4.356613    -12615.19   -1849.7684   -5534.9909   -30460.811   -2482.2522     2825.212   -16256.522     82.68885 
   56700    631.72927   -107.90441   0.57160192   -107.33281    10815.574    4.3449131    4.3449131    4.3449131    10815.574    37184.208    5751.2018   -10488.688   -375.75896    -4372.413   -12609.545    82.024441 
   56800    876.85871   -108.12893   0.79340019   -107.33553   -5182.0174    4.3531023    4.3531023    4.3531023   -5182.0174   -26704.743    25672.182   -14513.491   -12559.797    -746.5111    6554.4226    82.489113 
   56900    632.93049    -107.9114   0.57268881   -107.33871    3035.5437    4.3566339    4.3566339    4.3566339    3035.5437     29778.38    14270.358   -34942.108    5151.5696    1250.4498   -19939.038    82.690039 
   57000    808.70693    -108.0658   0.73173502   -107.33406    4494.4275    4.3513395    4.3513395    4.3513395    4494.4275    -3474.419    13811.601    3146.1002   -4699.1492   -12209.983    8539.1888    82.388938 
   57100    930.06956   -108.17266   0.84154649   -107.33112   -3324.7425    4.3471868    4.3471868    4.3471868   -3324.7425    7863.8667   -9520.5363   -8317.5578   -5288.6337     7570.523   -10015.305    82.153278 
   57200    772.36944   -108.03202    0.6988561   -107.33317    6482.7582    4.3533743    4.3533743    4.3533743    6482.7582    22960.859     27177.78   -30690.364     2113.514   -7454.4775   -10932.647    82.504571 
   57300    611.19707   -107.88696   0.55302395   -107.33393   -1792.4509    4.3569344    4.3569344    4.3569344   -1792.4509   -7523.1192    2054.8436     90.92284     -3091.97   -3031.9718    11798.268    82.707152 
   57400    902.39662   -108.14433   0.81650742   -107.32783    13280.769    4.3439776    4.3439776    4.3439776    13280.769    16144.931    32005.431   -8308.0552    6688.0674    5880.9127   -14333.773     81.97147 
   57500    982.24132    -108.2204   0.88875258   -107.33165   -9063.2145    4.3574319    4.3574319    4.3574319   -9063.2145    5368.7152   -13216.336   -19342.023     21.33431   -4261.3224    5134.5181    82.735489 
   57600    610.31154   -107.88771   0.55222271   -107.33549   -3304.0492    4.3533762    4.3533762    4.3533762   -3304.0492   -12112.498    -2519.226    4719.5763   -1633.8795    2747.4412    10018.593    82.504684 
   57700    965.95345    -108.2052   0.87401499   -107.33118    11742.768    4.3467155    4.3467155    4.3467155    11742.768    14425.348    34608.989   -13806.033     -1029.23    9261.3011   -9242.5883    82.126563 
   57800    686.86793   -107.95858   0.62149254   -107.33709    9432.0703     4.353183     4.353183     4.353183    9432.0703     12315.25    9970.1664    6010.7946    -3954.427   -1479.9983    15602.949    82.493699 
   57900     801.3812   -108.05838   0.72510655   -107.33327    1478.1955    4.3549938    4.3549938    4.3549938    1478.1955   -7706.8878     3822.465    8319.0093    -9445.527     5620.126   -1954.5135    82.596686 
   58000    892.12367   -108.13668   0.80721225   -107.32947   -277.45811    4.3517327    4.3517327    4.3517327   -277.45811    24916.087    -3782.888   -21965.574    2152.8519    3447.8471   -292.63755    82.411276 
   58100     761.0189   -108.02091   0.68858589   -107.33232   -319.84442    4.3448431    4.3448431    4.3448431   -319.84442   -3678.5918    1750.4507    968.60784   -7510.8366   -352.97205    19237.021    82.020478 
   58200    797.00564   -108.05677   0.72114745   -107.33563   -1535.1678    4.3574154    4.3574154    4.3574154   -1535.1678   -5689.2918    5769.4148   -4685.6266    2976.7366    551.65001   -11665.771    82.734544 
   58300    812.64761    -108.0682   0.73530064   -107.33289   -3319.5561    4.3530207    4.3530207    4.3530207   -3319.5561    -10680.79     20336.96   -19614.839   -1853.7909    2903.3882    16549.304    82.484473 
   58400    771.97049   -108.03055   0.69849512   -107.33205     10409.54    4.3409352    4.3409352    4.3409352     10409.54    16273.738    7511.0279    7443.8543    1688.8781    470.77895    6193.4981    81.799361 
   58500    721.49542    -107.9899   0.65282422   -107.33708   -14563.498    4.3578307    4.3578307    4.3578307   -14563.498   -21727.251   -9111.2597   -12851.985    4136.8114      6268.35   -1122.2334    82.758205 
   58600    992.46679   -108.22813   0.89800481   -107.33013    415.00714    4.3501867    4.3501867    4.3501867    415.00714    10962.332   -4737.3172   -4979.9933    2381.5134     2926.427    21201.762    82.323472 
   58700    702.11197   -107.96543   0.63528567   -107.33014    8975.0802    4.3485017    4.3485017    4.3485017    8975.0802   -5096.8145    30118.009    1904.0459   -3992.5089     3446.582   -9574.2364    82.227848 
   58800    796.28588   -108.05235    0.7204962   -107.33185   -11303.424    4.3500968    4.3500968    4.3500968   -11303.424   -15195.965    983.32136   -19697.628   -1030.8349    9103.4191    13668.562    82.318367 
   58900    793.54617   -108.04939   0.71801725   -107.33138    15973.397    4.3523725    4.3523725    4.3523725    15973.397    17833.243    37141.104   -7054.1571   -3036.5179   -694.98187     12816.97    82.447631 
   59000    956.31756    -108.1984   0.86529623    -107.3331   -11478.572    4.3533545    4.3533545    4.3533545   -11478.572   -33373.586   -7425.9245    6363.7956   -2104.7702    10857.125   -4284.5422     82.50345 
   59100    600.09547   -107.88118   0.54297899    -107.3382    16729.746    4.3466753    4.3466753    4.3466753    16729.746    27618.385    28410.595   -5839.7413    1640.4942    717.83184     25550.27    82.124285 
   59200    1002.0938   -108.24038   0.90671551   -107.33366    12020.245    4.3501318    4.3501318    4.3501318    12020.245   -5486.5449    23498.393    18048.886   -1073.3898    9516.4375   -5634.5941    82.320359 
   59300    635.47011     -107.914   0.57498671   -107.33901    6893.7109    4.3502623    4.3502623    4.3502623    6893.7109   -3169.1703    35351.051   -11500.749    6318.6028    2464.5846    12422.375    82.327768 
   59400    881.01751   -108.13054   0.79716316   -107.33338    -3728.356     4.353995     4.353995     4.353995    -3728.356   -7343.3064    339.49517   -4181.2569    2297.6835    4133.4902    18412.661    82.539867 
   59500    912.34277    -108.1543   0.82550691    -107.3288    12506.519    4.3469412    4.3469412    4.3469412    12506.519   -11323.028    35508.515     13334.07    1540.7451    7198.1656   -8164.7946    82.139355 
   59600    667.34308   -107.94008   0.60382604   -107.33625   -13767.421    4.3560606    4.3560606    4.3560606   -13767.421   -8751.0678    -8163.169   -24388.025    12564.886   -307.17873    18934.089    82.657398 
   59700    822.38388   -108.07621   0.74411022    -107.3321     9217.536    4.3483866    4.3483866    4.3483866     9217.536    -10108.26    11901.381    25859.487    126.52831    7514.4633   -864.43142    82.221318 
   59800    1025.0195   -108.25988   0.92745915   -107.33243    2652.2551    4.3445049    4.3445049    4.3445049    2652.2551   -5566.2429    17351.443   -3828.4346    2975.2791    4854.9359    1295.0468    82.001324 
   59900    382.90306   -107.68511   0.34645874   -107.33866   -14468.771     4.363032     4.363032     4.363032   -14468.771   -20927.653     -18831.6   -3647.0596    13008.579   -3344.5082    21996.128    83.054886 
   60000    1105.7386   -108.32616    1.0004955   -107.32566    7868.4829    4.3401963    4.3401963    4.3401963    7868.4829    -1969.755    15882.136     9693.068   -2794.9383    6230.3334   -11501.009    81.757597 
   60100    722.95413    -107.9894   0.65414409   -107.33525   -1887.8161    4.3536849    4.3536849    4.3536849   -1887.8161   -14260.233    16022.505     -7425.72    9371.4544   -1355.0729    14300.181    82.522236 
   60200     698.2825   -107.96693   0.63182068   -107.33511   -13062.434    4.3543616    4.3543616    4.3543616   -13062.434   -22566.546   -27348.522    10727.766    10018.766   -3939.4632    14086.055    82.560721 
   60300    842.47416   -108.09166   0.76228832   -107.32937    21192.359    4.3405905    4.3405905    4.3405905    21192.359   -639.71999    60562.724    3654.0745   -4097.9303    4146.8081   -5609.8975    81.779875 
   60400    754.77878   -108.02132    0.6829397   -107.33838     -19917.5    4.3589612    4.3589612    4.3589612     -19917.5   -24941.695    -21396.42   -13414.387    8274.5656   -8215.1177    17365.317    82.822629 
   60500    854.09293   -108.10742   0.77280123   -107.33462    15091.509    4.3485327    4.3485327    4.3485327    15091.509   -11673.917    54902.838    2045.6063   -4400.5119   -255.35206   -3224.9557     82.22961 
   60600    978.55174   -108.21969   0.88541418   -107.33428    -7379.344    4.3524532    4.3524532    4.3524532    -7379.344    -13935.35    4412.7909   -12615.473   -2689.7363   -2037.6218   -12150.047    82.452216 
   60700    479.36557   -107.77168   0.43374004   -107.33794    17548.608    4.3461054    4.3461054    4.3461054    17548.608   -15118.641    63148.498    4615.9656    5041.9317   -10902.226    18154.636    82.091988 
   60800    1031.7264   -108.26761    0.9335277   -107.33408   -8953.4719    4.3575808    4.3575808    4.3575808   -8953.4719   -12839.052    -6799.693   -7221.6706   -731.87331    6809.4738   -14204.568    82.743968 
   60900    699.76907   -107.96942   0.63316576   -107.33625    4627.4721    4.3471824    4.3471824    4.3471824    4627.4721   -3770.9034    29469.334   -11816.014    -2357.183   -12260.699   -4205.0958    82.153032 
   61000    797.99851   -108.06152   0.72204582   -107.33947    1146.2062    4.3473537    4.3473537    4.3473537    1146.2062    -11393.84    15389.056   -556.59701    4568.2741   -3891.2871    10005.193    82.162745 
   61100    802.99717   -108.06244   0.72656872   -107.33588   -16889.458    4.3596244    4.3596244    4.3596244   -16889.458   -12597.841   -7723.6067   -30346.925   -2575.6888    4709.6561   -15671.989    82.860436 
   61200     714.5995   -107.98296   0.64658464   -107.33637    1592.5621    4.3446178    4.3446178    4.3446178    1592.5621    2889.1246    25296.861   -23408.299    2431.1374   -11823.618    8939.2175    82.007718 
   61300    969.55321   -108.21302   0.87727212   -107.33575   -4181.3966    4.3503854    4.3503854    4.3503854   -4181.3966   -10237.476    4720.4362   -7027.1498    12186.095     5328.521    2072.6604    82.334753 
   61400    794.35761   -108.05445   0.71875146    -107.3357    -9722.287    4.3553973    4.3553973    4.3553973    -9722.287   -5217.2187    7160.4249   -31110.067    934.58743   -4294.1214   -15530.238    82.619646 
   61500    683.59702   -107.95299   0.61853295   -107.33446    1199.2818    4.3510161    4.3510161    4.3510161    1199.2818    1094.7815    19612.254    -17109.19    4541.9237   -3194.3592    11124.336    82.370573 
   61600    942.94065   -108.18515   0.85319251   -107.33196   -5368.0151    4.3494387    4.3494387    4.3494387   -5368.0151   -4477.3447   -11521.564   -105.13695    6306.8292   -1683.9426   -9496.8311    82.281013 
   61700    594.30933   -107.87453   0.53774357   -107.33679    6866.6296    4.3544711    4.3544711    4.3544711    6866.6296    6275.1634    48093.819   -33769.094    1003.2817   -8042.3414   -2334.8614    82.566951 
   61800    1006.5507   -108.24229   0.91074827   -107.33154    1888.0037    4.3455697    4.3455697    4.3455697    1888.0037   -10016.741    18856.858    -3176.105    -3033.525   -2023.8017    8175.7377    82.061634 
   61900    505.37784   -107.79448   0.45727649   -107.33721    5787.7452    4.3551982    4.3551982    4.3551982    5787.7452   -7337.4849    42083.013   -17382.292    763.26291   -1573.2684   -9154.6751    82.608318 
   62000    914.90471   -108.15944   0.82782501   -107.33161   -14315.961     4.355137     4.355137     4.355137   -14315.961   -12893.561   -423.15798   -29631.164   -7553.3754   -5466.7309   -996.93945    82.604832 
   62100    885.13765   -108.13021   0.80089115   -107.32932    24263.092     4.337904     4.337904     4.337904    24263.092    4842.4287    66839.341    1107.5069    1943.3655    9993.9773    5840.4405    81.628124 
   62200    711.41844   -107.98102   0.64370636   -107.33731   -24163.317    4.3645746    4.3645746    4.3645746   -24163.317   -15966.097   -20918.124    -35605.73   -203.71689   -6209.2077   -15637.163    83.143014 
   62300    876.81533   -108.12443   0.79336094   -107.33106    4952.4392    4.3441077    4.3441077    4.3441077    4952.4392    3968.7525    31588.237   -20699.672    161.52719    824.60848    3012.4311    81.978835 
   62400    816.27126   -108.07358   0.73857939     -107.335    6033.4452    4.3448642    4.3448642    4.3448642    6033.4452    3167.8439    25097.635   -10165.144    6526.6806     7793.085   -4499.6315    82.021674 
   62500    638.51183   -107.91348   0.57773892   -107.33574   -20637.842    4.3620057    4.3620057    4.3620057   -20637.842   -10352.632   -19733.197   -31827.698    4990.5538   -9676.2403   -17985.663    82.996292 
   62600    1098.5339   -108.31975   0.99397655   -107.32577    12734.468    4.3394365    4.3394365    4.3394365    12734.468   -8537.3263    46719.853    20.877702   -1074.7476    8355.5721    5401.9941    81.714668 
   62700    615.89475   -107.89358   0.55727451    -107.3363   -15752.727    4.3577674    4.3577674    4.3577674   -15752.727   -5575.4706   -20483.721   -21198.989    5068.5709   -6236.7507   -17638.074      82.7546 
   62800    678.54259   -107.95125    0.6139596   -107.33729   -3683.7216    4.3462042    4.3462042    4.3462042   -3683.7216    -15656.26    1163.3392    3441.7558   -6103.2764   -373.75331   -4042.3439    82.097584 
   62900    864.02952   -108.11982   0.78179207   -107.33803    15568.296    4.3483758    4.3483758    4.3483758    15568.296    1449.8864    51459.452   -6204.4509   -330.20546    7242.3958     4754.124    82.220708 
   63000    913.37456    -108.1686   0.82644049   -107.34216   -5974.1634    4.3533421    4.3533421    4.3533421   -5974.1634   -1207.1041   -5727.8651   -10987.521   -9468.7613   -4722.4067   -12360.504    82.502743 
   63100    611.87453   -107.89733   0.55363693   -107.34369    6773.5816    4.3506183    4.3506183    4.3506183    6773.5816   -23338.663    42089.857    1569.5513   -1573.4956    6503.3711    1774.7931    82.347977 
   63200    995.51628   -108.23723   0.90076405   -107.33647   -10393.177    4.3544847    4.3544847    4.3544847   -10393.177   -7888.6393   -3035.5964   -20255.296    2635.6563    8265.5645   -1117.6074    82.567721 
   63300     807.8356   -108.06692   0.73094662   -107.33598    21017.745    4.3400147    4.3400147    4.3400147    21017.745    3781.6076    34964.229    24307.398   -3461.8072   -6210.3738   -14273.579    81.747333 
   63400    725.21681    -108.0001   0.65619141   -107.34391   -20765.102    4.3633896    4.3633896    4.3633896   -20765.102   -38395.077    6114.6952   -30014.923    1784.7382    22389.517    9176.1685    83.075311 
   63500    897.51214   -108.15074   0.81208785   -107.33865    13599.026    4.3427367    4.3427367    4.3427367    13599.026    10384.877    18613.573    11798.629    9027.7014   -2847.9368   -13644.529    81.901246 
   63600    769.31197    -108.0393   0.69608964   -107.34321    9037.0991      4.34265      4.34265      4.34265    9037.0991   -6391.7393    30704.459    2798.5771   -1478.2441    5838.7467   -2673.5656    81.896338 
   63700    778.33641   -108.04208   0.70425514   -107.33783   -31110.854    4.3668478    4.3668478    4.3668478   -31110.854   -44513.311   -14974.572   -33844.677    8552.4103    14496.423   -4801.9794    83.272989 
   63800    843.01143    -108.0901   0.76277445   -107.32732    19331.549    4.3428795    4.3428795    4.3428795    19331.549     20367.73    29042.937    8583.9791    1866.9309   -9031.3098   -7703.6438    81.909324 
   63900    848.30053    -108.0997   0.76756015   -107.33214   -9359.4752    4.3480315    4.3480315    4.3480315   -9359.4752    -34375.23    20893.589   -14596.785   -2400.4141    19186.191    2045.8816    82.201178 
   64000    566.44269   -107.84976   0.51252925   -107.33723   -2684.1287    4.3577405    4.3577405    4.3577405   -2684.1287    98.451826   -306.75455   -7844.0835    7735.6355   -4467.7083    1440.8149    82.753068 
   64100    903.48534   -108.14978   0.81749252   -107.33229    1463.5452    4.3528338    4.3528338    4.3528338    1463.5452   -5832.2436    6145.0119    4077.8672   -5041.2953    2600.0553   -7610.1534     82.47385 
   64200    903.96264   -108.15045   0.81792439   -107.33252      3779.54    4.3467879    4.3467879    4.3467879      3779.54   -1641.0707    20158.127   -7178.4369     6488.675    10873.166   -1198.1492    82.130667 
   64300    585.98962   -107.86895   0.53021572   -107.33873    5995.9209    4.3538479    4.3538479    4.3538479    5995.9209   -4378.5326    18656.616    3709.6791   -3108.8707   -8764.7096   -10904.229    82.531506 
   64400    916.48304   -108.16241   0.82925311   -107.33316   -13061.412    4.3571803    4.3571803    4.3571803   -13061.412   -16735.461    2435.1186   -24883.893    2463.4602    9594.9779   -8091.5597    82.721154 
   64500     858.7656   -108.10783   0.77702917    -107.3308    11366.071     4.341172     4.341172     4.341172    11366.071    12674.778    26686.587   -5263.1502    4262.0789    10.939393   -556.74338    81.812751 
   64600    734.74781   -108.00374   0.66481526   -107.33892   -12419.309    4.3558283    4.3558283    4.3558283   -12419.309   -10282.999   -8912.8176   -18062.109   -4165.6682    2846.7891   -18516.875    82.644179 
   64700    882.45701    -108.1288   0.79846564   -107.33033   -8728.9822    4.3607307    4.3607307    4.3607307   -8728.9822   -8663.8974    6769.0915   -24292.141    7021.0719    11576.585    11112.552    82.923533 
   64800     930.1052   -108.16654   0.84157873   -107.32496    11132.278    4.3396172    4.3396172    4.3396172    11132.278    13220.956    18375.732    1800.1458   -4051.9792   -5521.1884   -12848.037    81.724875 
   64900    431.83265   -107.73181   0.39073126   -107.34108   -2601.7409    4.3535375    4.3535375    4.3535375   -2601.7409    16260.645   -16454.946   -7610.9213   -2868.1515    6505.2212   -764.85443    82.513851 
   65000    1062.0443    -108.2984   0.96095998   -107.33744   -11592.501    4.3552377    4.3552377    4.3552377   -11592.501   -13531.691    9387.8429   -30633.656   -6093.6435    71.070062    10502.587    82.610565 
   65100    758.37051   -108.02493   0.68618957   -107.33874     12716.08    4.3407095    4.3407095    4.3407095     12716.08    26212.497    10268.924    1666.8172   -2299.7533   -344.40744   -17108.511    81.786601 
   65200     638.3957   -107.92169   0.57763384   -107.34405   -23675.525    4.3580512    4.3580512    4.3580512   -23675.525   -12745.946   -24298.572   -33982.057    -6358.472    4782.1749    10800.129     82.77077 
   65300    937.69438   -108.18148   0.84844558   -107.33304   -6330.5322    4.3564943    4.3564943    4.3564943   -6330.5322    7143.4236   -5513.0109   -20622.009    8440.9775    1392.4807    2479.1151    82.682093 
   65400    905.19212   -108.15055   0.81903685   -107.33151    3454.5209    4.3391811    4.3391811    4.3391811    3454.5209    26195.292   -2559.4341   -13272.295    -6445.236   -1623.9716    -18800.25    81.700242 
   65500    624.06697   -107.90814   0.56466891   -107.34347   -739.09532     4.350329     4.350329     4.350329   -739.09532     958.7794     3110.292   -6286.3574    7873.7106    9237.3353    13197.443    82.331555 
   65600    813.74411   -108.07027   0.73629277   -107.33398   -10524.166    4.3642955    4.3642955    4.3642955   -10524.166   -4897.9058    -7670.419   -19004.173    7983.6245   -4968.0381   -19762.613    83.127062 
   65700    767.07694   -108.02364   0.69406733   -107.32957    1361.9532    4.3417432    4.3417432    4.3417432    1361.9532    1758.8797   -7714.9302     10041.91   -8679.5823    5592.6589   -1066.2905    81.845045 
   65800    579.92881   -107.86292   0.52473177   -107.33819     6569.038     4.346859     4.346859     4.346859     6569.038    21572.625    9138.2134   -11003.724    11765.829    4953.7178    7692.7277    82.134695 
   65900    1154.2791   -108.37794     1.044416   -107.33353   -16584.805    4.3617191    4.3617191    4.3617191   -16584.805   -16989.689   -17386.161   -15378.567   -189.81279    1212.4648   -11715.182     82.97993 
   66000    725.22444   -107.99563   0.65619832   -107.33943    6677.8208    4.3378001    4.3378001    4.3378001    6677.8208     16601.94     11494.29   -8062.7669    405.34219    5743.5609    17503.579    81.622255 
   66100    583.64269   -107.87397   0.52809217   -107.34588    678.63117    4.3485031    4.3485031    4.3485031    678.63117    -7719.114    11569.235   -1814.2275    6642.5313    1622.9755   -3065.4017    82.227932 
   66200    1108.6279   -108.33541    1.0031098    -107.3323   -9375.6803    4.3605291    4.3605291    4.3605291   -9375.6803    2611.2079   -11906.325   -18831.924    1005.1832   -11998.826    2718.7913    82.912035 
   66300    531.84943   -107.81584   0.48122854   -107.33461    11428.371     4.344071     4.344071     4.344071    11428.371    2236.0232    20060.919    11988.171    6956.1128    4782.6185    7364.9538     81.97676 
   66400    923.40887   -108.16873   0.83551975   -107.33321   -6880.4382    4.3508332    4.3508332    4.3508332   -6880.4382   -5252.1196   -9841.5299   -5547.6653    9577.3753   -8174.2518    3523.6648    82.360185 
   66500    853.68296    -108.1044   0.77243029   -107.33197    12407.546    4.3503873    4.3503873    4.3503873    12407.546    3789.4536    26225.704    7207.4799   -5754.8383   -2156.7973    4627.7049    82.334864 
   66600    584.85198   -107.86787   0.52918636   -107.33868   -6234.2192    4.3519616    4.3519616    4.3519616   -6234.2192   -22391.671    16430.111   -12741.098    15666.316    5844.0888    9752.5894    82.424281 
   66700    1020.5549   -108.25672   0.92341955    -107.3333     2563.794    4.3512958    4.3512958    4.3512958     2563.794   -4349.2053    16784.491   -4743.9033   -3756.1599   -10071.266   -6180.5131    82.386456 
   66800    953.46903   -108.19625   0.86271882   -107.33353    10029.883    4.3424717    4.3424717    4.3424717    10029.883   -2359.2625    42704.236   -10255.326     5921.927    6300.4788     4649.829    81.886252 
   66900    528.34159   -107.82073   0.47805457   -107.34268   -19713.707    4.3559301    4.3559301    4.3559301   -19713.707   -32842.648   -22941.348   -3357.1242    20325.059   -1701.5611    7514.1494     82.64997 
   67000    904.96364   -108.15244   0.81883012   -107.33361    14782.935    4.3483912    4.3483912    4.3483912    14782.935     -10938.2    52438.622    2848.3821   -8853.6872   -5958.7211   -7345.2896    82.221582 
   67100    889.03876    -108.1408   0.80442095   -107.33638   -3886.4701    4.3471636    4.3471636    4.3471636   -3886.4701   -6893.2206   -9573.8797      4807.69    17542.096    6345.4484    12665.601    82.151963 
   67200    506.47014   -107.79873   0.45826483   -107.34047    2177.0207    4.3533665    4.3533665    4.3533665    2177.0207   -21922.346    36245.462    -7792.054    6686.6289   -2812.7974   -10183.188    82.504128 
   67300    1088.2219   -108.31218   0.98464607   -107.32754    52.559945    4.3518677    4.3518677    4.3518677    52.559945   -6234.9266    1972.2564      4420.35   -6334.1521   -4248.8532    -3299.408    82.418944 
   67400    507.76128   -107.79432   0.45943307   -107.33488     -3266.23    4.3492256    4.3492256    4.3492256     -3266.23   -16504.563     18569.29   -11863.417    19104.676    6838.4703    15284.118    82.268923 
   67500    873.55685   -108.12589   0.79041259   -107.33547   -7578.7075    4.3482847    4.3482847    4.3482847   -7578.7075   -22593.594    1800.0064   -1942.5348   -4491.7665   -12987.658   -7914.3119    82.215542 
   67600    999.53594   -108.23712   0.90440112   -107.33272   -160.88572    4.3525892    4.3525892    4.3525892   -160.88572    9705.9573    1465.9339   -11654.548   -3506.1074   -1865.6411    15701.545    82.459945 
   67700    648.83683   -107.92295    0.5870812   -107.33587   -14680.223    4.3541172    4.3541172    4.3541172   -14680.223   -25990.438    1902.7011   -19952.931    15471.246   -9319.9552    4107.6382    82.546819 
   67800    785.33766   -108.04435   0.71059002   -107.33376    3590.1539    4.3431937    4.3431937    4.3431937    3590.1539   -6619.7135    7140.4511    10249.724   -14231.907   -11156.765    1573.1055    81.927103 
   67900    877.83199   -108.12935   0.79428083   -107.33507    789.74869    4.3511863    4.3511863    4.3511863    789.74869    12831.354   -1174.2742   -9287.8339    6826.0601    1529.8071     11369.54    82.380238 
   68000    743.97247    -108.0091   0.67316192   -107.33594   -21461.119    4.3591191    4.3591191    4.3591191   -21461.119   -32480.686   -18288.791   -13613.882    4929.0786   -10935.764    258.76597    82.831632 
   68100    692.00921   -107.95826   0.62614448   -107.33211    14295.117    4.3376555    4.3376555    4.3376555    14295.117     7536.059    14502.115    20847.176   -22413.431    2151.0307     6365.495    81.614097 
   68200    924.07947   -108.17072   0.83612652    -107.3346   -15598.088    4.3537613    4.3537613    4.3537613   -15598.088   -24349.897   -11667.382   -10776.985    11629.503   -3916.5083    2887.6131    82.526581 
   68300    643.22568   -107.91838   0.58200412   -107.33638   -20863.975    4.3581205    4.3581205    4.3581205   -20863.975   -38823.089   -6516.8042   -17252.031   -14358.546   -5229.5746   -1710.6846    82.774715 
   68400    902.38951   -108.14838   0.81650099   -107.33188    12406.306    4.3361979    4.3361979    4.3361979    12406.306    17312.676   -4693.7332    24599.975   -14645.896   -1008.8317    1284.5098     81.53185 
   68500     975.6233   -108.21648   0.88276447   -107.33372    -10236.72    4.3559417    4.3559417    4.3559417    -10236.72   -23031.035    6797.0137   -14476.138    519.85373    3380.2775    8657.0594    82.650633 
   68600    414.18858   -107.71466   0.37476653    -107.3399    2530.9916    4.3507126    4.3507126    4.3507126    2530.9916   -5918.0349   -10290.521    23801.531   -27137.102   -6627.4426    1345.1459    82.353336 
   68700    1024.5021   -108.25883     0.926991   -107.33183    9454.8513    4.3442527    4.3442527    4.3442527    9454.8513   -9330.0739    16766.134    20928.493    1540.6198    8039.1905     16355.91    81.987047 
   68800    835.31963   -108.09224   0.75581476   -107.33643    5289.8412    4.3551846    4.3551846    4.3551846    5289.8412    -800.1044    3343.6853    13325.943   -9101.2159   -12402.654   -1574.1068    82.607542 
   68900    635.48412   -107.90967   0.57499939   -107.33467    336.73143    4.3549474    4.3549474    4.3549474    336.73143   -29592.991   -4420.0994    35023.285   -10573.781   -4505.8642    704.45556    82.594045 
   69000    1066.5539   -108.29232   0.96504036   -107.32728   -5280.3727    4.3478875    4.3478875    4.3478875   -5280.3727   -9480.1285   -2638.8558    -3722.134    7214.8138    4303.3391    4971.4064    82.193013 
   69100    668.12218   -107.93894   0.60453099    -107.3344    19535.762    4.3439475    4.3439475    4.3439475    19535.762   -9867.7799     3698.157    64776.908   -13495.306   -19108.566   -1130.9446     81.96977 
   69200    899.33486   -108.14671   0.81373708   -107.33298    -13204.52    4.3630208    4.3630208    4.3630208    -13204.52   -13555.606   -16326.328   -9731.6268   -2153.5043    5979.9986    2971.5175    83.054246 
   69300    856.54306   -108.10596   0.77501816   -107.33094    7127.5778    4.3444574    4.3444574    4.3444574    7127.5778   -11951.853    7958.0074    25376.579    4073.9529   -1300.8802    7652.6379    81.998639 
   69400    704.90632   -107.97259   0.63781405   -107.33478    23344.103    4.3391481    4.3391481    4.3391481    23344.103    19014.919    16450.682    34566.708   -19552.235   -9350.7124    -3357.463    81.698375 
   69500    858.03264   -108.11305   0.77636596   -107.33669   -21404.358    4.3628902    4.3628902    4.3628902   -21404.358   -27860.894   -12018.007   -24334.174    12724.922    15028.629    11633.022    83.046791 
   69600    738.11434   -108.00047   0.66786136   -107.33261    19324.472    4.3430702    4.3430702    4.3430702    19324.472    22304.487    5313.4721    30355.458   -10088.257   -13254.735    4778.4791    81.920112 
   69700    922.86812   -108.16676   0.83503046   -107.33173   -8198.3682    4.3506104    4.3506104    4.3506104   -8198.3682   -10975.389   -7047.0319   -6572.6843   -8743.0904   -70.855774   -248.11204    82.347529 
   69800    674.78627   -107.94268   0.61056079   -107.33212   -1742.3635    4.3508455    4.3508455    4.3508455   -1742.3635   -7255.0992    -3522.371    5550.3797    12032.346    3576.0872    8142.8138    82.360882 
   69900     915.4997   -108.16005   0.82836337   -107.33168    6990.8393    4.3484154    4.3484154    4.3484154    6990.8393    9003.8878    11022.419    946.21081   -19560.406   -11192.594   -3331.7933    82.222955 
   70000    740.08872   -108.00139   0.66964783   -107.33174   -2345.7165     4.357564     4.357564     4.357564   -2345.7165   -8786.3467    10982.536   -9233.3386    8304.3516    167.09085   -973.38023    82.743012 
   70100    769.73285   -108.02746   0.69647046   -107.33099    9362.4363    4.3410698    4.3410698    4.3410698    9362.4363    28119.716     8971.727   -9004.1346    7256.7735    2904.5591    10598.134    81.806968 
   70200    830.75414   -108.08655   0.75168381   -107.33486   -1676.3409    4.3542743    4.3542743    4.3542743   -1676.3409    -4691.666    9007.2491   -9344.6059   -4062.6399   -15949.789   -5318.8569    82.555752 
   70300    808.92484   -108.06431    0.7319322   -107.33238   -1596.8753     4.352191     4.352191     4.352191   -1596.8753    9464.7972   -6261.0014   -7994.4216    9789.4116    1537.6926    6699.7631    82.437313 
   70400    859.24442    -108.1108    0.7774624   -107.33334   -9140.1228    4.3450888    4.3450888    4.3450888   -9140.1228   -3482.9303    3772.1558   -27709.594    736.28145   -6492.2623    9956.2394    82.034394 
   70500      666.481   -107.93919   0.60304601   -107.33614    1224.2242    4.3548865    4.3548865    4.3548865    1224.2242   -15167.831    13270.494    5570.0095    -6853.205   -8542.7517   -12846.453    82.590582 
   70600    971.17257   -108.21075   0.87873735   -107.33202   -2597.0724    4.3501723    4.3501723    4.3501723   -2597.0724     52.23015    3952.9819   -11796.429    6886.2815    5330.5329    16531.986    82.322658 
   70700    537.86758   -107.82201   0.48667389   -107.33534   -11617.537    4.3543943    4.3543943    4.3543943   -11617.537   -17821.705    9602.2424   -26633.148   -8015.4196   -15363.722   -6702.5374     82.56258 
   70800    931.91987    -108.1725   0.84322069   -107.32928    2998.1888    4.3450268    4.3450268    4.3450268    2998.1888    1628.8181   -4891.9763    12257.725    -6376.118    3990.4454    1243.6162    82.030881 
   70900    964.43748   -108.20753    0.8726433   -107.33489   -12184.745    4.3501295    4.3501295    4.3501295   -12184.745    2247.1692   -6595.6673   -32205.736    4977.9386   -12949.533    10060.237    82.320228 
   71000    484.69643   -107.77832   0.43856351   -107.33975   -15644.596    4.3583721    4.3583721    4.3583721   -15644.596   -42492.038    5588.0437   -10029.793   -15789.312     -10604.3   -14001.823    82.789051 
   71100    1085.5517   -108.30891   0.98222995   -107.32668    12402.451    4.3429435    4.3429435    4.3429435    12402.451    7828.0798    24597.332    4781.9415    5756.2749    3350.8601    7663.3618    81.912943 
   71200    625.35686   -107.90412   0.56583603   -107.33829   -2375.7958    4.3500601    4.3500601    4.3500601   -2375.7958   -10403.786    20082.624   -16806.226   -901.48921   -17438.463    1427.4266    82.316287 
   71300     559.4159   -107.84483   0.50617127   -107.33866   -6777.8143    4.3602179    4.3602179    4.3602179   -6777.8143   -24529.502    4125.6831    70.375899   -4096.6849    4522.0081    2254.8583    82.894286 
   71400    1192.3251   -108.40477    1.0788408   -107.32593    1547.8912    4.3463241    4.3463241    4.3463241    1547.8912    9434.5403    12984.346   -17775.213   -317.18779    -6485.193    6421.1223    82.104381 
   71500    472.96896   -107.76335   0.42795225    -107.3354    2623.9953    4.3476059    4.3476059    4.3476059    2623.9953   -1154.1939    1624.9444    7401.2355   -3105.0054    -10399.42   -3117.2097    82.177046 
   71600    954.04977   -108.19375   0.86324428   -107.33051   -7505.2719    4.3573168    4.3573168    4.3573168   -7505.2719   -11697.583    8600.9302   -19419.162   -9027.9538    13326.527   -47.044401    82.728933 
   71700    938.61103   -108.17938   0.84927498   -107.33011    5147.2967    4.3482875    4.3482875    4.3482875    5147.2967    9909.4755    413.10829    5119.3064   -459.51079   -15481.819    2578.2534    82.215701 
   71800    598.84569   -107.87884   0.54184817     -107.337    10117.228    4.3440605    4.3440605    4.3440605    10117.228   -11782.766    42222.631   -88.180953   -10718.712   -1398.1796    647.84497    81.976166 
   71900    950.99488    -108.1953   0.86048016   -107.33482    6189.2891    4.3558035    4.3558035    4.3558035    6189.2891    22686.852    3964.4661   -8083.4503    -2502.129    6645.4823   -9628.2367    82.642765 
   72000     804.8923   -108.06065   0.72828347   -107.33237    4092.9844    4.3511881    4.3511881    4.3511881    4092.9844   -3360.6579    15831.888   -192.27724    7965.3737   -17633.592     3216.431    82.380339 
   72100    633.20477   -107.90457   0.57293698   -107.33163    7166.4073    4.3456495    4.3456495    4.3456495    7166.4073    16728.879    13900.277   -9129.9342   -16018.841    11221.098   -7145.0609    82.066155 
   72200    1035.8776   -108.26718   0.93728386    -107.3299    3733.6693    4.3507931    4.3507931    4.3507931    3733.6693     3306.695    1245.0544    6649.2586    7635.6862   -6985.6348   -8455.0984    82.357904 
   72300    777.86203   -108.03705   0.70382591   -107.33323    1027.2028    4.3570899    4.3570899    4.3570899    1027.2028    295.52513    26352.382   -23566.299   -1904.3321    250.43179    4820.3133    82.716008 
   72400    764.49758   -108.02339   0.69173348   -107.33166    811.48984      4.34931      4.34931      4.34931    811.48984      14292.8   -9993.1231   -1865.2073   -4768.8399    12057.735    -14530.31    82.273709 
   72500    885.37703   -108.12967   0.80110774   -107.32856    15918.374    4.3431899    4.3431899    4.3431899    15918.374    17445.482    25086.465    5223.1746    10564.147   -8004.8528    5312.1519    81.926889 
   72600    688.81683   -107.95733   0.62325594   -107.33407   -9069.4945    4.3603349    4.3603349    4.3603349   -9069.4945    6336.8352    -12664.32   -20880.999   -11771.261    6965.9519    2037.1682    82.900958 
   72700     882.2761   -108.13012   0.79830195   -107.33182    6612.8263    4.3439927    4.3439927    4.3439927    6612.8263    11066.211    3650.6811    5121.5873    2271.6803     -172.455   -14891.977    81.972326 
   72800    863.36539   -108.11417   0.78119115   -107.33298    12873.718    4.3457793    4.3457793    4.3457793    12873.718    19775.935    24086.487    -5241.268   -1046.8304    -4536.651    11723.509     82.07351 
   72900    616.65797   -107.89247   0.55796509   -107.33451   -23104.571    4.3632567    4.3632567    4.3632567   -23104.571   -1093.6451   -41729.558    -26490.51   -5197.4151     5876.442    -5858.566    83.067719 
   73000    1015.5072   -108.24511   0.91885229   -107.32626    16468.131    4.3390477    4.3390477    4.3390477    16468.131    19114.091    15636.818    14653.483    -297.3842    -3963.157   -9824.0494    81.692704 
   73100    846.11044   -108.09869   0.76557851   -107.33312    5113.6361    4.3489147    4.3489147    4.3489147    5113.6361    22118.711    16403.003   -23180.806   -6121.4808    446.34075    14310.333    82.251281 
   73200    561.55308   -107.84475   0.50810502   -107.33665    511.42744    4.3564357    4.3564357    4.3564357    511.42744    1306.4054   -3546.2702    3774.1471   -6892.7415    2034.7162   -25973.719    82.678753 
   73300    1009.6748   -108.23961   0.91357495   -107.32604    8208.1784    4.3512858    4.3512858    4.3512858    8208.1784    13874.928    21454.809   -10705.202     4788.969   -9188.9176   -829.22699    82.385887 
   73400    614.20147   -107.88741    0.5557424   -107.33167    1897.5106    4.3453797    4.3453797    4.3453797    1897.5106    19926.148   -16554.166    2320.5494   -2842.3476    11711.559   -1853.1549     82.05087 
   73500    923.86736   -108.16988    0.8359346   -107.33394   -1974.8681    4.3524122    4.3524122    4.3524122   -1974.8681   -5890.5605    19027.721   -19061.765    3993.0008   -3993.0788   -21280.656    82.449885 
   73600    1026.0901   -108.25935   0.92842785   -107.33092    1511.1939    4.3551685    4.3551685    4.3551685    1511.1939    15143.366     3916.286    -14526.07    3755.7781    3248.0754    10202.356    82.606624 
   73700    357.88267   -107.66153   0.32381976   -107.33771    16468.283    4.3394129    4.3394129    4.3394129    16468.283    17887.927    36227.388   -4710.4651   -8835.6332    8000.5823   -19662.623    81.713336 
   73800    1116.5882   -108.34454    1.0103125   -107.33423   -9072.5568     4.358629     4.358629     4.358629   -9072.5568    -6094.963   -8185.7398   -12936.968   -589.19304   -3636.6639   -10630.024    82.803693 
   73900    804.18033   -108.06284   0.72763926    -107.3352    21833.062    4.3446265    4.3446265    4.3446265    21833.062     32670.48    32257.417    571.28803    1337.7916    6073.1536    1745.1308    82.008212 
   74000    582.73828   -107.86914   0.52727384   -107.34186   -10338.234    4.3490238    4.3490238    4.3490238   -10338.234    2243.7538   -13224.289   -20034.168   -9875.8309    304.61265    -24719.72    82.257469 
   74100     1000.443   -108.23493   0.90522184   -107.32971   -1581.6341    4.3558227    4.3558227    4.3558227   -1581.6341   -4480.5466    13950.759   -14215.115     6476.509    1896.0455    11163.743    82.643856 
   74200    640.47952    -107.9162   0.57951933   -107.33668    1316.5147    4.3427826    4.3427826    4.3427826    1316.5147    27340.874   -6696.5898    -16694.74   -2414.3894    7069.9714   -26812.304    81.903839 
   74300    869.10276   -108.12635   0.78638244   -107.33997   -19250.032    4.3533763    4.3533763    4.3533763   -19250.032   -14157.049   -22378.705   -21214.342   -11828.276   -555.25206   -9813.4534    82.504691 
   74400    899.38196    -108.1487    0.8137797   -107.33492    10858.607    4.3507358    4.3507358    4.3507358    10858.607    13721.066    21142.902   -2288.1466    11010.343   -2407.4095    -3885.433    82.354649 
   74500    524.79539   -107.81434    0.4748459   -107.33949   -11786.259     4.352683     4.352683     4.352683   -11786.259    3107.7416   -16868.443   -21598.075      -7280.7    1831.0026   -23098.646    82.465274 
   74600      978.767   -108.21673   0.88560895   -107.33112   -1855.7494     4.348384     4.348384     4.348384   -1855.7494   -13777.794    2429.9322    5780.6133   -3574.1819   -4225.6094    5263.2667    82.221173 
   74700    740.87352   -108.00408   0.67035793   -107.33372    4026.9407    4.3491907    4.3491907    4.3491907    4026.9407     12571.39    17872.697   -18363.265    9128.2399    5093.9563   -21281.844    82.266941 
   74800    897.70417   -108.14529    0.8122616   -107.33303   -9660.3002    4.3478811    4.3478811    4.3478811   -9660.3002   -9966.3171    -4524.665   -14489.919   -7499.3553    660.89832   -5525.5247    82.192648 
   74900    654.70489   -107.92497   0.59239075   -107.33258    4011.3399    4.3587365    4.3587365    4.3587365    4011.3399   -12123.363    31520.946   -7363.5636    7989.1244   -1492.1618   -336.32117    82.809824 
   75000    878.62875   -108.12977   0.79500176   -107.33477   -4818.3388    4.3435633    4.3435633    4.3435633   -4818.3388    16766.802   -6599.1257   -24622.693    13581.598    5250.3221   -14738.243    81.948019 
   75100     811.8623   -108.07199   0.73459007    -107.3374    18666.119    4.3448652    4.3448652    4.3448652    18666.119   -4303.5474     51941.03    8360.8746   -8779.2316    926.79875   -1187.1987    82.021729 
   75200    732.00086   -107.99562   0.66232976   -107.33329   -20149.574    4.3644546    4.3644546    4.3644546   -20149.574   -9453.4912   -26362.589   -24632.643    19547.879    2795.9073   -3155.5446    83.136154 
   75300    840.72889   -108.08726   0.76070916   -107.32655    16119.931    4.3328614    4.3328614    4.3328614    16119.931    14595.247    28471.926    5292.6197   -4461.5684    5448.0192   -13530.218    81.343787 
   75400    768.33032   -108.03124   0.69520142   -107.33603   -6854.6471    4.3524374    4.3524374    4.3524374   -6854.6471   -7635.6652   -4961.8201    -7966.456    3723.1484   -748.39719    4383.6576     82.45132 
   75500    752.08325   -108.01357   0.68050073   -107.33307   -7543.4878    4.3542782    4.3542782    4.3542782   -7543.4878   -4623.0106   -5377.8274   -12629.625    8881.3074    5577.3585    -5107.177    82.555977 
   75600    881.46539    -108.1263   0.79756841   -107.32873    8067.6809    4.3445703    4.3445703    4.3445703    8067.6809    4986.2634    26850.223   -7633.4431   -12419.853     2729.369   -1489.3045    82.005028 
   75700    620.17632   -107.89465   0.56114857    -107.3335   -12993.555    4.3529321    4.3529321    4.3529321   -12993.555   -18190.742   -13041.895   -7748.0272    504.02208   -2647.0274    9373.6328    82.479435 
   75800    888.83577   -108.13711   0.80423728   -107.33287    132.93215    4.3459902    4.3459902    4.3459902    132.93215    5035.7416   -2781.2097   -1855.7355     11664.65    8731.6116   -10476.828     82.08546 
   75900    942.95099   -108.18648   0.85320187   -107.33328   -17714.765    4.3570847    4.3570847    4.3570847   -17714.765   -17807.688   -11991.809   -23344.797   -12746.512   -5255.3872    5490.7322    82.715712 
   76000     606.5946   -107.88453   0.54885954   -107.33567    12283.632    4.3371375    4.3371375    4.3371375    12283.632     5041.475    9703.0172    22106.405    16300.814    1144.9102   -1085.4848    81.584863 
   76100    812.56312   -108.07539   0.73522418   -107.34017    -6570.821    4.3564785    4.3564785    4.3564785    -6570.821   -15605.728    11197.228   -15303.963   -1946.7015    11268.678   -10869.004    82.681194 
   76200    909.71846   -108.15893   0.82313238    -107.3358   -6945.8267    4.3517353    4.3517353    4.3517353   -6945.8267   -15572.709    -16188.05    10923.279   -4383.4809   -4838.4084    10567.374    82.411425 
   76300    620.22592   -107.89597   0.56119345   -107.33477    11801.224    4.3385811    4.3385811    4.3385811    11801.224    -15140.39    29346.849    21197.212    19897.177    5775.9271    -9263.477    81.666355 
   76400    1071.9081   -108.29946   0.96988495   -107.32958   -13810.549    4.3595719    4.3595719    4.3595719   -13810.549   -26455.499   -5925.7843   -9050.3631   -7848.2501     11060.63    292.53646    82.857446 
   76500    633.25716   -107.90692   0.57298439   -107.33393     14181.15    4.3434234    4.3434234    4.3434234     14181.15    2354.5651    16735.835    23453.051     3169.204   -5925.8559    6714.0807    81.940102 
   76600    719.15307   -107.99353   0.65070481   -107.34282   -11374.132    4.3504549    4.3504549    4.3504549   -11374.132   -27024.954    3999.2896   -11096.731    7771.2743    20401.966   -251.77236    82.338704 
   76700     1110.866   -108.33991    1.0051349   -107.33477    5518.9873    4.3507102    4.3507102    4.3507102    5518.9873   -4225.8895    12155.278    8627.5738   -2539.1072    2888.2633   -2196.2382      82.3532 
   76800    645.61841   -107.92618   0.58416911   -107.34201   -2053.2697    4.3460166    4.3460166    4.3460166   -2053.2697   -26829.257    13954.182    6715.2658    12061.592      4343.75    5678.8466    82.086956 
   76900    680.99683   -107.95685   0.61618024   -107.34067   -15577.668    4.3558493    4.3558493    4.3558493   -15577.668   -39245.364    -2401.166   -5086.4743     3291.658    24602.693    -2617.418     82.64537 
   77000     1130.962   -108.35211    1.0233182   -107.32879    23676.346    4.3379701    4.3379701    4.3379701    23676.346    5225.8285    51464.701    14338.507   -1831.4894   -8604.7539   -6523.7046    81.631855 
   77100    483.43355   -107.78356   0.43742083   -107.34614   -19917.766    4.3588741    4.3588741    4.3588741   -19917.766   -37131.928   -7134.2439   -15487.126    6739.0638    23082.325    7897.8474    82.817663 
   77200    862.47217   -108.11952   0.78038295   -107.33914   -4720.7973    4.3484106    4.3484106    4.3484106   -4720.7973   -20126.385    24031.967   -18067.974   -1080.0879    7148.3744   -6055.6035    82.222681 
   77300    926.19854   -108.17071   0.83804391   -107.33266    19134.041    4.3356692    4.3356692    4.3356692    19134.041    10070.853    38342.866    8988.4043    2881.3921    1143.3991    12391.888    81.502027 
   77400    574.93471   -107.85892   0.52021301   -107.33871   -35877.776    4.3647235    4.3647235    4.3647235   -35877.776   -61125.964   -9824.5068   -36682.856    8171.6008    25465.198    54.783212    83.151525 
   77500    921.62389   -108.16251   0.83390466    -107.3286    18910.438    4.3411136    4.3411136    4.3411136    18910.438   -659.54757    54191.128    3199.7326   -12442.846   -11771.848   -452.05248    81.809445 
   77600    918.99719   -108.16815   0.83152797   -107.33662   -11770.182    4.3459194    4.3459194    4.3459194   -11770.182   -12447.986    2739.1861   -25601.746    4652.7697    21422.948    6181.2689    82.081447 
   77700    541.38218   -107.83166   0.48985397   -107.34181   -8152.4971    4.3592411    4.3592411    4.3592411   -8152.4971   -26869.208    22268.504   -19856.788    7003.9575    1029.4376   -7210.2171    82.838586 
   77800    983.15338   -108.22472   0.88957784   -107.33514   -3656.3832    4.3459715    4.3459715    4.3459715   -3656.3832   -10652.081   -2512.2163    2195.1473   -10438.286   -5207.9438    1701.6044      82.0844 
   77900    727.30076   -107.99489   0.65807701   -107.33681    3416.0514    4.3399269    4.3399269    4.3399269    3416.0514   -8573.9354    34642.832   -15820.742    8204.3137    25798.096     10739.34    81.742371 
   78000    820.98489    -108.0774   0.74284438   -107.33456   -25567.672    4.3600871    4.3600871    4.3600871   -25567.672   -38614.926   -19762.259   -18325.832   -8417.3399   -15990.046   -6691.0174    82.886824 
   78100    697.38879   -107.96275   0.63101204   -107.33174   -12196.865    4.3490919    4.3490919    4.3490919   -12196.865   -15696.946   -5549.1545   -15344.493   -12579.814     9006.283    14525.106    82.261337 
   78200    917.47464    -108.1615   0.83015033   -107.33135    3894.2669    4.3356476    4.3356476    4.3356476    3894.2669   -7161.0399    28288.255   -9444.4143    7030.3864    7410.8989   -261.42839    81.500812 
   78300    680.23064   -107.95358   0.61548698   -107.33809   -13041.409    4.3569977    4.3569977    4.3569977   -13041.409   -20382.792   -16312.658   -2428.7757   -9810.3293   -14437.192    3229.2091    82.710754 
   78400    796.27364   -108.05417   0.72048512   -107.33368   -7703.8071    4.3516411    4.3516411    4.3516411   -7703.8071   -2203.0389    13198.981   -34107.363    183.83372    12197.431    4547.9606    82.406069 
   78500     765.7458   -108.02427   0.69286289    -107.3314    412.67505    4.3485667    4.3485667    4.3485667    412.67505       -14890    4965.3378    11162.688    459.50964   -10908.707    3404.3147    82.231539 
   78600    840.24756   -108.09607   0.76027365    -107.3358   -4832.6332     4.343165     4.343165     4.343165   -4832.6332   -5975.8565   -9008.3575    486.31434   -15907.707    1513.4829   -4170.2374    81.925479 
   78700    829.84191   -108.08905    0.7508584   -107.33819    1309.5546    4.3545758    4.3545758    4.3545758    1309.5546   -8449.5407    25873.171   -13494.966    7156.6258    8766.2194    7413.6865    82.572905 
   78800    786.13422   -108.04775   0.71131076   -107.33644   -4278.4496    4.3504698    4.3504698    4.3504698   -4278.4496    2120.4784    544.67728   -15500.504   -7933.0466   -10741.241   -2000.4222    82.339546 
   78900    672.15351   -107.94238   0.60817862   -107.33421    17037.102     4.336156     4.336156     4.336156    17037.102   -1675.8909    54432.618   -1645.4204   -11229.098    8666.9807    8934.2206    81.529483 
   79000    923.68763   -108.16849   0.83577198   -107.33272   -21700.786    4.3640394    4.3640394    4.3640394   -21700.786   -6921.0698   -16932.449   -41248.838    5127.4017   -1354.5318    7393.7157    83.112433 
   79100    836.44233   -108.08771    0.7568306   -107.33088    15233.921    4.3404348    4.3404348    4.3404348    15233.921   -6568.4838     45979.03     6291.216   -20874.313   -3238.7771   -4228.5387    81.771073 
   79200    786.22998   -108.04719   0.71139741    -107.3358   -4618.2741     4.342976     4.342976     4.342976   -4618.2741   -3506.7629     9814.265   -20162.324    5296.7702    10456.753    7734.7705    81.914782 
   79300    572.44685   -107.85227   0.51796194   -107.33431   -3483.4082    4.3592846    4.3592846    4.3592846   -3483.4082   -5151.9594    19482.656   -24780.921   -4352.6509   -8955.6485   -11494.716    82.841061 
   79400    1038.5314   -108.26995   0.93968502   -107.33026   -1798.2678     4.342854     4.342854     4.342854   -1798.2678   -9946.7716    8846.8078   -4294.8396   -10869.232    11275.604    359.90515    81.907882 
   79500    595.01852   -107.87866   0.53838526   -107.34027   -9126.1214    4.3437447    4.3437447    4.3437447   -9126.1214    711.73226   -11466.338   -16623.759    6807.6503    1986.0092    2122.8049     81.95829 
   79600    894.32019   -108.14902    0.8091997   -107.33982   -5130.6721     4.353056     4.353056     4.353056   -5130.6721    4140.6987    12123.269   -31655.984   -8919.5528   -2744.1321   -9115.5477    82.486477 
   79700    807.89762   -108.07078   0.73100275   -107.33978   -12388.995    4.3549355    4.3549355    4.3549355   -12388.995   -32216.627    16178.933   -21129.292    3590.5129    10135.381    1544.8922    82.593367 
   79800    595.67594   -107.87863   0.53898011   -107.33965    2944.6875    4.3364121    4.3364121    4.3364121    2944.6875    22670.118    702.80584   -14538.861    3871.5295   -5681.4547   -9104.4062     81.54393 
   79900    1042.5164   -108.27781   0.94329076   -107.33452   -5663.3854    4.3607915    4.3607915    4.3607915   -5663.3854   -23253.236    17818.389   -11555.309    4058.3605    7718.8159   -499.58757    82.927005 
   80000    868.72955   -108.12386   0.78604476   -107.33782   -12797.284    4.3469321    4.3469321    4.3469321   -12797.284   -12505.494    895.65937   -26782.017    6956.8512    7134.5258   -1982.3337     82.13884 
   80100    474.28632   -107.76696   0.42914423   -107.33782    23433.096     4.335519     4.335519     4.335519    23433.096    27195.083    46327.533   -3223.3299    3604.5936   -484.74017    -10114.69     81.49356 
   80200    1121.7846    -108.3435    1.0150143   -107.32849   -16377.009    4.3625446    4.3625446    4.3625446   -16377.009   -25452.615    4430.9064   -28109.318   -3971.8693    9670.8729    4441.0345    83.027055 
   80300    709.34725    -107.9757    0.6418323   -107.33387    11869.779    4.3360323    4.3360323    4.3360323    11869.779    9074.1834    31880.802   -5345.6469     2386.345   -189.15709   -14992.787     81.52251 
   80400    657.07363   -107.93341   0.59453403   -107.33888   -7622.3224    4.3516867    4.3516867    4.3516867   -7622.3224    6984.1815    -12881.98   -16969.169    2870.3402    4169.8446    4229.3439    82.408664 
   80500    883.26109   -108.13008   0.79919319   -107.33089   -7149.9727    4.3504162    4.3504162    4.3504162   -7149.9727   -26156.342    32238.571   -27532.147   -8717.2406    10280.881     1178.486    82.336505 
   80600    718.55442   -107.98203   0.65016314   -107.33187   -2681.5664    4.3453598    4.3453598    4.3453598   -2681.5664    5657.6619   -12857.645   -844.71642    7170.0374   -2978.2623   -10588.482    82.049745 
   80700    778.86655   -108.03832   0.70473482   -107.33358   -16678.254    4.3506301    4.3506301    4.3506301   -16678.254   -20454.394   -5348.3581    -24232.01   -8208.0321    15017.086    3384.0153    82.348648 
   80800    901.22119   -108.15079   0.81544387   -107.33535    7731.0484     4.341766     4.341766     4.341766    7731.0484   -11168.969    13620.508    20741.606   -5754.4526    4541.1706   -5324.5292    81.846337 
   80900    728.75992   -107.99772   0.65939729   -107.33833   -19042.325    4.3570205    4.3570205    4.3570205   -19042.325    1076.5731   -12680.689   -45522.859     2715.811    3781.8644   -4619.2159    82.712053 
   81000    682.53102   -107.95365   0.61756841   -107.33608    11218.066    4.3364596    4.3364596    4.3364596    11218.066   -11229.973    35764.342    9119.8314   -11890.034    12219.701    3845.3478     81.54661 
   81100    947.01708   -108.19384   0.85688096   -107.33696   -9800.7482    4.3540674    4.3540674    4.3540674   -9800.7482    -12067.29   -2543.2263   -14791.728   -1225.1646   -674.03161   -3936.8983     82.54399 
   81200    785.65008   -108.04865    0.7108727   -107.33777   -6138.9369    4.3482289    4.3482289    4.3482289   -6138.9369   -7302.4969    13770.083   -24884.397   -3202.6449    9193.2355   -4292.9264    82.212377 
   81300    687.53998   -107.96173   0.62210062   -107.33963     9680.298    4.3405993    4.3405993    4.3405993     9680.298   -20457.587     48748.18    750.30084   -12415.435    9682.9433    4285.4749    81.780371 
   81400    1066.0086   -108.30012   0.96454699   -107.33557    -4563.043    4.3532817    4.3532817    4.3532817    -4563.043   -15096.333    12124.114    -10716.91     3364.025    616.63258   -8708.0804    82.499312 
   81500    646.65651   -107.92534    0.5851084   -107.34023    2008.6514    4.3480886    4.3480886    4.3480886    2008.6514   -22419.443     55601.38   -27155.982   -5419.8524    15406.535    1436.9761    82.204417 
   81600    788.97094   -108.05224   0.71387748   -107.33836    5066.0547    4.3436954    4.3436954    4.3436954    5066.0547   -19672.493    18410.449    16460.208   -9418.0316    -1978.122    1630.5992    81.955496 
   81700    950.24244   -108.19722   0.85979933   -107.33742    959.15194    4.3466952    4.3466952    4.3466952    959.15194   -6888.9796     41208.16   -31441.724     3618.282    10523.146   -10397.536    82.125412 
   81800     611.0992   -107.89581    0.5529354   -107.34287   -18750.485    4.3567751    4.3567751    4.3567751   -18750.485   -25850.221   -12085.482   -18315.751   -9478.0493    6544.5282    11092.162    82.698077 
   81900    935.01564   -108.18014    0.8460218   -107.33412    13467.819    4.3405814    4.3405814    4.3405814    13467.819   -8678.2137    46149.767    2931.9022    32.342327   -3529.6485   -4425.2181    81.779364 
   82000    677.18179   -107.95258   0.61272832   -107.33985   -15475.848    4.3520351    4.3520351    4.3520351   -15475.848   -17922.912    14479.832   -42984.465    3914.4808    14586.973    7801.3329    82.428456 
   82100    758.38859    -108.0247   0.68620593   -107.33849   -7556.4217    4.3448644    4.3448644    4.3448644   -7556.4217   -15633.048    576.64447   -7612.8613   -15096.514    -6170.894    15677.368    82.021684 
   82200     924.9797   -108.17478   0.83694107   -107.33784     1467.906    4.3514098    4.3514098    4.3514098     1467.906   -14739.907    26307.588   -7163.9637    5663.1396    5126.0694   -8423.4579     82.39293 
   82300    762.87823   -108.03213   0.69026825   -107.34187   -6731.6955    4.3461654    4.3461654    4.3461654   -6731.6955    -22912.46    23461.867   -20744.494   -975.01207    9757.0332    17143.507    82.095388 
   82400    638.29777   -107.91822   0.57754523   -107.34067    17121.404    4.3425529    4.3425529    4.3425529    17121.404    3699.0896    31976.057    15689.064   -7378.5707   -7473.3012    2110.3017    81.890846 
   82500    978.88675   -108.21932    0.8857173    -107.3336   -22982.568    4.3598399    4.3598399    4.3598399   -22982.568   -32081.809   -7442.2099   -29423.685    15063.708    11879.658     3030.524    82.872728 
   82600    744.56426   -108.00619   0.67369739   -107.33249    17762.309    4.3354325    4.3354325    4.3354325    17762.309    13473.878     27155.61    12657.438   -13969.891     1169.068    14262.006    81.488682 
   82700    743.60433   -108.00964   0.67282883   -107.33681   -5233.5435     4.355429     4.355429     4.355429   -5233.5435   -22443.095    17949.583   -11207.118    707.57937   -4104.8737    -5764.653    82.621451 
   82800    850.07763   -108.10504    0.7691681   -107.33588   -5715.5765    4.3487947    4.3487947    4.3487947   -5715.5765   -22467.124    20277.602   -14957.207    10926.657    16587.005   -1468.0521    82.244475 
   82900     855.3754   -108.10749   0.77396164   -107.33352    17289.846    4.3383402    4.3383402    4.3383402    17289.846    12492.824    29429.948    9946.7668   -7489.5451   -952.59403    7532.9838    81.652751 
   83000    819.42468   -108.07711   0.74143267   -107.33568   -24457.103     4.358413     4.358413     4.358413   -24457.103    -32975.18   -24376.975   -16019.154    4284.4593    5323.4918   -2350.9567    82.791382 
   83100    760.58157   -108.02399   0.68819019    -107.3358    15682.774    4.3402548    4.3402548    4.3402548    15682.774    1231.1842    36558.466    9258.6713    6701.7929    12121.217    3673.3703    81.760904 
   83200    851.17854   -108.10486   0.77016423   -107.33469    7447.6048    4.3515949    4.3515949    4.3515949    7447.6048    3438.4843    17822.488    1081.8419   -14295.722   -512.86521    10419.129    82.403449 
   83300    667.80057   -107.94099   0.60423999   -107.33675   -3296.5693    4.3473295    4.3473295    4.3473295   -3296.5693   -26576.478    32839.906   -16153.137    5904.8332    9724.1927   -5450.1225    82.161371 
   83400    907.27256   -108.15518   0.82091928   -107.33426     2176.026    4.3458996    4.3458996    4.3458996     2176.026    7087.3635   -5834.1769    5274.8915    8442.3765    3968.2924    14377.831    82.080327 
   83500     779.6888   -108.03775   0.70547881   -107.33227   -1392.2781    4.3533608    4.3533608    4.3533608   -1392.2781   -21424.523    33625.312   -16377.624   -7003.1511    7097.8117     4209.935    82.503804 
   83600    646.93616   -107.92138   0.58536144   -107.33602   -6920.0552    4.3434068    4.3434068    4.3434068   -6920.0552   -26808.301    8479.6293   -2431.4941    18121.526    9195.5757   -3618.2593    81.939164 
   83700    1037.6426   -108.27387   0.93888087   -107.33499    1065.0258    4.3485328    4.3485328    4.3485328    1065.0258   -1807.9593     11655.54   -6652.5032   -1090.6149   -2477.6255    16234.972    82.229613 
   83800    742.22443   -108.01152   0.67158027   -107.33994   -12507.797     4.351778     4.351778     4.351778   -12507.797   -29685.935   -5096.8083   -2740.6467    5033.0996    12706.115   -4010.7286    82.413849 
   83900    626.74929   -107.90754   0.56709593   -107.34044   -3154.1799    4.3412534    4.3412534    4.3412534   -3154.1799   -14213.259    6220.1279   -1469.4085    27155.253     934.0049    6336.6695    81.817349 
   84000    925.47266   -108.17251   0.83738711   -107.33513     12336.83    4.3494504    4.3494504    4.3494504     12336.83   -2569.8061    34834.249    4746.0477   -2785.0468    2945.0004    10896.188    82.281678 
   84100    659.72523   -107.93667   0.59693325   -107.33973   -14867.204    4.3541235    4.3541235    4.3541235   -14867.204    -40596.51    8136.1033   -12141.205    24175.275    11307.596   -11279.217    82.547176 
   84200    851.53715   -108.10464   0.77048871   -107.33415    9126.5714    4.3422766    4.3422766    4.3422766    9126.5714   -2926.0357     8035.746    22270.004    383.45766   -4604.4591    8534.7073    81.875214 
   84300    1037.3209   -108.27157   0.93858978   -107.33298    -9097.612    4.3518371    4.3518371    4.3518371    -9097.612   -24113.764    2148.9837   -5328.0552    470.62159    3768.1403   -879.62858    82.417209 
   84400    551.13192   -107.83729   0.49867574   -107.33862    11132.628    4.3418276    4.3418276    4.3418276    11132.628   -28124.979    23661.988    37860.876    16056.355    4216.6166   -4112.7373    81.849819 
   84500    818.04347   -108.07881   0.74018293   -107.33863   -433.84409    4.3542736    4.3542736    4.3542736   -433.84409   -22198.741    27126.049     -6228.84   -2397.3638   -8222.2526    2582.7035    82.555713 
   84600    980.41611   -108.22322    0.8871011   -107.33612    2769.3729    4.3447699    4.3447699    4.3447699    2769.3729   -14328.209    6448.4901    16187.838    14985.218    5069.4801    1228.1372    82.016333 
   84700    697.53521   -107.97035   0.63114451    -107.3392    4876.1667    4.3391502    4.3391502    4.3391502    4876.1667   -9926.1787    5463.3849    19091.294    10662.859    2352.0464   -2138.7929    81.698494 
   84800    766.08613   -108.02821   0.69317083   -107.33504   -17557.911    4.3635328    4.3635328    4.3635328   -17557.911   -21918.714   -6479.7028   -24275.315   -9480.5562   -15133.876    10284.116    83.083488 
   84900    865.44398   -108.11161    0.7830719   -107.32854     13690.52      4.33989      4.33989      4.33989     13690.52   -15146.001    22616.037    33601.523    13702.445    9447.6125    2987.2159    81.740288 
   85000    615.06539    -107.8931   0.55652409   -107.33658   -1999.6246     4.343197     4.343197     4.343197   -1999.6246   -17912.406    18061.746   -6148.2138   -1534.6341   -14846.068    7775.2506    81.927288 
   85100    854.63891   -108.10752   0.77329525   -107.33423   -13517.685    4.3550667    4.3550667    4.3550667   -13517.685   -26137.725   -11836.017    -2579.312    2379.5123   -8742.4786    19123.586    82.600832 
   85200    1034.7218   -108.26655   0.93623803   -107.33032   -10972.131    4.3437662    4.3437662    4.3437662   -10972.131   -27800.218   -12636.361    7520.1857    22421.168   -2415.4841   -7966.9206    81.959504 
   85300    518.04184   -107.80588   0.46873515   -107.33715   -16708.479     4.348669     4.348669     4.348669   -16708.479   -18098.828   -6996.6902   -25029.918   -10083.556   -17671.401    10462.167    82.237342 
   85400    879.17768   -108.13112   0.79549844   -107.33562   -1185.4538    4.3481398    4.3481398    4.3481398   -1185.4538   -9675.8674    3289.3906    2830.1154    9573.5376    2965.3468    3458.9148    82.207321 
   85500    806.23105   -108.06498    0.7294948   -107.33549   -4209.1147    4.3537528    4.3537528    4.3537528   -4209.1147   -25179.376    13288.784   -736.75182    5372.5818    -13370.63   -3044.1308    82.526099 
   85600     599.0946   -107.87839   0.54207338   -107.33631   -5011.5915    4.3447294    4.3447294    4.3447294   -5011.5915   -7834.0186     9055.415   -16256.171   -9606.8837   -4658.7052    11953.876     82.01404 
   85700    926.88154   -108.17221   0.83866189   -107.33355    395.75735    4.3480874    4.3480874    4.3480874    395.75735   -15025.551   -17246.742    33459.565    18281.976    6139.3021    1799.8602    82.204351 
   85800    939.94338   -108.18687   0.85048052   -107.33638   -13447.749    4.3499845    4.3499845    4.3499845   -13447.749   -27952.503   -6836.3339   -5554.4113   -857.14333   -13805.338   -1893.9301    82.311998 
   85900    655.15528   -107.93457   0.59279827   -107.34177    3516.7022     4.343486     4.343486     4.343486    3516.7022   -14831.939     10727.28    14654.765    781.85541    1705.6019    11072.709    81.943645 
   86000    953.75785   -108.19917   0.86298015   -107.33619    724.97966    4.3538296    4.3538296    4.3538296    724.97966   -22136.114    1048.1177    23262.936    4791.4695   -5438.5835   -5164.5385    82.530462 
   86100    717.58533   -107.98743   0.64928628   -107.33814   -5773.2168    4.3500319    4.3500319    4.3500319   -5773.2168   -30468.628    20443.329   -7294.3512   -7948.6382   -11385.886    13446.043    82.314688 
   86200    743.79797   -108.00973   0.67300403   -107.33672    12042.791    4.3381578    4.3381578    4.3381578    12042.791    3413.3767   -6716.1885    39431.186   -1492.7046    7507.4005    3573.4106     81.64245 
   86300     911.8406   -108.16278   0.82505253   -107.33773   -6852.1176    4.3540226    4.3540226    4.3540226   -6852.1176   -14116.062   -10873.492    4433.2011    340.80047    -10945.45   -21350.156    82.541437 
   86400    872.27494   -108.12412    0.7892527   -107.33486   -10179.574    4.3519209    4.3519209    4.3519209   -10179.574   -23248.345   -6752.7414   -537.63646   -3158.9942    4652.4692    6836.1845    82.421971 
   86500      567.051   -107.84786   0.51307966   -107.33478    20411.166    4.3382448    4.3382448    4.3382448    20411.166    12668.286    20811.803    27753.408    3732.7654   -3665.5679   -3882.2183    81.647366 
   86600    858.12188   -108.11661   0.77644671   -107.34016   -12236.226    4.3533572    4.3533572    4.3533572   -12236.226   -21787.425    1156.0637   -16077.318    4282.9284   -5329.0963   -7874.8053    82.503603 
   86700    736.25859   -108.00245   0.66618224   -107.33627    5883.2128    4.3496626    4.3496626    4.3496626    5883.2128   -14470.423     19747.29    12372.771   -2838.5644    9658.9631     10987.64    82.293725 
   86800     848.8942   -108.10113   0.76809732   -107.33304   -8632.1239    4.3441321    4.3441321    4.3441321   -8632.1239    4975.5569   -15208.258   -15663.671   -2151.8467   -2707.0893   -21613.557    81.980219 
   86900    789.20896    -108.0475   0.71409285   -107.33341   -8996.9474    4.3486786    4.3486786    4.3486786   -8996.9474   -30378.794    11346.915   -7958.9634    5877.5026    3642.3855   -2045.1785    82.237886 
   87000    920.66613   -108.16728   0.83303806   -107.33424   -6469.2362    4.3465246    4.3465246    4.3465246   -6469.2362   -11160.132    2460.7398   -10708.317    -8143.935    8276.2498   -5429.5094    82.115743 
   87100    657.00151   -107.93311   0.59446877   -107.33864   -5478.0536     4.351131     4.351131     4.351131   -5478.0536    -3143.895    -2357.786    -10932.48    5592.2377   -6720.4259   -19588.398    82.377097 
   87200    878.73159   -108.12834   0.79509481   -107.33324    840.94415    4.3453282    4.3453282    4.3453282    840.94415   -26057.249    22137.662    6442.4196    1294.8136    7452.6004    5437.1912    82.047951 
   87300    739.77689    -108.0026   0.66936567   -107.33324   -6531.6439    4.3520948    4.3520948    4.3520948   -6531.6439    4640.6524   -14146.009   -10089.575   -4849.4173    1396.2224   -27743.098    82.431848 
   87400    769.40229   -108.02885   0.69617136   -107.33268    4396.1651    4.3451955    4.3451955    4.3451955    4396.1651   -4381.1374    23452.364   -5882.7317   -4210.3872    -3126.203   -5761.8735    82.040436 
   87500    781.20764   -108.04004   0.70685309   -107.33319    3787.0801    4.3480177    4.3480177    4.3480177    3787.0801   -11891.623     11608.06    11644.803   -4744.0641    15874.403   -2172.8954    82.200399 
   87600    793.32434    -108.0484   0.71781654   -107.33058   -5172.5476    4.3532909    4.3532909    4.3532909   -5172.5476     1971.282   -6318.9229   -11170.002   -1496.5069    405.30398    -21835.23    82.499831 
   87700    834.12498   -108.08295   0.75473381   -107.32822    6299.9797    4.3421028    4.3421028    4.3421028    6299.9797   -19204.666    14208.053    23896.552    797.91856    12461.096    7701.7077    81.865386 
   87800    809.68033   -108.06556   0.73261578   -107.33294    -10661.47    4.3542923    4.3542923    4.3542923    -10661.47   -28230.247    1684.9722   -5439.1356   -1033.0523    7956.1167   -15558.588     82.55678 
   87900    899.46299   -108.14584   0.81385302   -107.33199    13409.561    4.3418313    4.3418313    4.3418313    13409.561    909.47188    9259.9496    30059.261   -3447.7602   -840.42628   -4299.9496    81.850026 
   88000    644.45383   -107.92167   0.58311537   -107.33856    6110.1603    4.3469827    4.3469827    4.3469827    6110.1603    -28534.67    37770.113    9095.0382   -61.138738    16685.332    2405.1325     82.14171 
   88100    879.05123   -108.13053   0.79538402   -107.33514   -10880.409    4.3543477    4.3543477    4.3543477   -10880.409   -22771.686   -10236.138    366.59604   -15043.284   -3436.2121   -6289.3031     82.55993 
   88200    848.12977   -108.10007   0.76740564   -107.33267    17246.315    4.3379318    4.3379318    4.3379318    17246.315    3774.9472    23804.783    24159.215    1859.2315    5658.7232   -6855.7839    81.629693 
   88300    717.31885    -107.9884   0.64904517   -107.33935   -20604.213    4.3544941    4.3544941    4.3544941   -20604.213   -41319.495   -3182.9048   -17310.238   -681.26237    5103.9884    7073.7146    82.568259 
   88400    986.16075   -108.22518   0.89229897   -107.33288   -4129.8511    4.3484921    4.3484921    4.3484921   -4129.8511   -12497.343   -15286.324    15394.113    -4626.329    -9403.142   -11476.415    82.227303 
   88500    614.28685   -107.89209   0.55581965   -107.33627    415.50954    4.3428546    4.3428546    4.3428546    415.50954   -28426.709    35426.644   -5753.4065    6326.7576    22397.147    7446.5062    81.907912 
   88600    828.18145   -108.08655   0.74935598    -107.3372   -14165.961     4.347389     4.347389     4.347389   -14165.961   -38979.862    9912.6582   -13430.679   -7324.6134   -11297.784   -2791.0468    82.164743 
   88700    856.45934   -108.10691   0.77494241   -107.33197   -4679.6102    4.3546267    4.3546267    4.3546267   -4679.6102   -18364.574   -670.06038    4995.8037   -570.80797     9626.719   -4844.3949    82.575803 
   88800    535.30376   -107.82068   0.48435409   -107.33632   -7962.4694    4.3423191    4.3423191    4.3423191   -7962.4694   -31997.052    27503.556   -19393.911    818.55278    6054.0439    6176.8663    81.877622 
   88900    990.37581    -108.2308   0.89611285   -107.33469    193.69896     4.340684     4.340684     4.340684    193.69896   -11151.443   -6990.1471    18722.687   -1291.4663   -11407.747   -6440.7788     81.78516 
   89000    759.96461   -108.02367   0.68763195   -107.33604    -18844.74    4.3589256    4.3589256    4.3589256    -18844.74   -36345.053   -15757.606    -4431.561    7906.2765    18124.308    5419.3291    82.820601 
   89100    742.89091   -108.00844   0.67218331   -107.33625    2986.1703    4.3308626    4.3308626    4.3308626    2986.1703   -19429.825     21633.87    6754.4655    -2676.884     -16122.8   -3311.4636    81.231263 
   89200    992.54574   -108.23446   0.89807625   -107.33639   -812.05308    4.3519842    4.3519842    4.3519842   -812.05308   -13139.336   -17827.934    28531.111    4090.7886    2408.4198    6570.8124    82.425567 
   89300    651.01586   -107.92826   0.58905283   -107.33921    -4876.945     4.348036     4.348036     4.348036    -4876.945   -24992.824    9226.1572    1135.8321    3364.3755    1653.7123   -738.66027    82.201434 
   89400    720.55636   -107.99064   0.65197454   -107.33867    9576.1082    4.3382903    4.3382903    4.3382903    9576.1082   -22435.821    24240.377    26923.768   -3869.4954   -10888.981    7815.8593    81.649933 
   89500    1021.0928   -108.25557   0.92390622   -107.33167    2688.3431    4.3525748    4.3525748    4.3525748    2688.3431    -11816.47   -5641.6732    25523.173    9519.2544    1347.3115    1068.9888    82.459126 
   89600    605.44102   -107.88512   0.54781576   -107.33731    8472.4429    4.3405324    4.3405324    4.3405324    8472.4429    -17941.05    22231.904    21126.474    2525.3572   -12315.252     2494.416     81.77659 
   89700    818.66411   -108.07519   0.74074449   -107.33444   -14802.629    4.3537455    4.3537455    4.3537455   -14802.629   -29398.956   -9725.2239   -5283.7058     6337.857   -1402.8641    1078.9714    82.525681 
   89800    781.64636   -108.03909   0.70725005   -107.33184    16840.158    4.3365365    4.3365365    4.3365365    16840.158    16729.965    -5180.302    38970.812    8708.6337   -6930.0518   -12366.825    81.550949 
   89900    803.76401   -108.06761   0.72726257   -107.34035   -25281.774    4.3523541    4.3523541    4.3523541   -25281.774   -45535.731    2325.8962   -32635.488   -861.81622   -7760.4325    5644.0748    82.446582 
   90000    932.69764   -108.17673   0.84392443   -107.33281   -3324.8957    4.3485749    4.3485749    4.3485749   -3324.8957   -3615.7325   -16682.126    10323.171    4406.2352    -319.6961   -7443.4801    82.232003 
   90100    783.85386   -108.04142   0.70924744   -107.33217   -161.31558    4.3357457    4.3357457    4.3357457   -161.31558    3556.0465    -3474.919   -565.07425    4238.6389   -6672.4199   -10199.347    81.506344 
   90200    701.51591   -107.96921   0.63474634   -107.33446   -18315.493    4.3555295    4.3555295    4.3555295   -18315.493    -38392.49    3905.3094   -20459.297    172.78028   -1786.3138    3550.2655    82.627169 
   90300     898.5631   -108.14201   0.81303878   -107.32897    12132.031     4.341274     4.341274     4.341274    12132.031      32562.4   -7984.4704    11818.164    9595.4213    2817.4708   -16335.335    81.818516 
   90400    774.90053   -108.03712   0.70114628   -107.33597   -13837.599    4.3473712    4.3473712    4.3473712   -13837.599   -34167.993    5789.6811   -13134.485    831.75542   -17695.072     247.0957    82.163732 
   90500    789.05669   -108.04771   0.71395508   -107.33376    5096.4582     4.344334     4.344334     4.344334    5096.4582    7487.2816    13201.388   -5399.2954   -4037.2663    1036.8822    1875.5868    81.991649 
   90600    750.23896   -108.01433   0.67883197    -107.3355   -5328.3167     4.352572     4.352572     4.352572   -5328.3167   -4077.7983   -20328.665    8421.5132    4858.9999   -3759.6778   -13144.307    82.458969 
   90700    759.51719   -108.02355   0.68722711   -107.33633    -6912.842    4.3468168    4.3468168    4.3468168    -6912.842    -10742.15    12776.476   -22772.852   -6955.4866   -12132.524    4826.2164    82.132302 
   90800    818.06041   -108.07385   0.74019825   -107.33365    18528.927     4.335391     4.335391     4.335391    18528.927    21618.536    10915.004    23053.242    6415.8508    15132.744   -7630.7698    81.486343 
   90900    926.57887   -108.16958   0.83838803   -107.33119   -27091.252    4.3596068    4.3596068    4.3596068   -27091.252    -31797.47   -30924.612   -18551.673    10177.729   -12466.248   -9619.9981    82.859437 
   91000    724.71963   -107.98763   0.65574155   -107.33189    8803.5413    4.3376043    4.3376043    4.3376043    8803.5413   -10291.847    30081.323    6621.1485    261.96615    8483.6764    1849.0254    81.611205 
   91100    814.73008   -108.07324    0.7371849   -107.33606    3031.6314     4.342436     4.342436     4.342436    3031.6314    8388.5582   -11394.753    12101.089    3690.4244    3629.6391   -16644.015    81.884232 
   91200    839.43088   -108.09216    0.7595347   -107.33263   -5510.6504     4.354396     4.354396     4.354396   -5510.6504   -711.04301    953.47591   -16774.384   -3575.2315   -7633.2772     277.8621    82.562677 
   91300    608.73651   -107.88276   0.55079758   -107.33196    18036.122    4.3412417    4.3412417    4.3412417    18036.122    5968.7194    30767.743    17371.905   -978.62583     15434.09   -4483.0764    81.816689 
   91400    1037.4342   -108.26989   0.93869225    -107.3312   -13899.122     4.346792     4.346792     4.346792   -13899.122    -6825.396   -28440.458   -6431.5116    766.42977   -7804.1232   -15684.645    82.130897 
   91500    604.29285    -107.8833   0.54677687   -107.33652    16122.513    4.3429278    4.3429278    4.3429278    16122.513   -12034.947     38023.21    22379.277    7615.0599    6317.5545    6216.1454    81.912056 
   91600     891.0056   -108.14233   0.80620059   -107.33613   -17800.311    4.3540972    4.3540972    4.3540972   -17800.311   -20844.983   -13464.423   -19091.525   -4122.3964    5966.9798   -14547.018    82.545682 
   91700    899.05453   -108.14604   0.81348344   -107.33255     13251.76    4.3388322    4.3388322    4.3388322     13251.76    17101.924    8799.7637    13853.593   -3206.9286   -4338.6909   -3588.7081    81.680532 
   91800    668.54796   -107.94425   0.60491624   -107.33933       6885.3    4.3417155    4.3417155    4.3417155       6885.3   -2031.4669    28120.048   -5432.6809     3627.274    13671.576    2710.3621    81.843477 
   91900    921.50732   -108.16573   0.83379919   -107.33193    -22626.45    4.3580534    4.3580534    4.3580534    -22626.45    -23676.94   -33984.556   -10217.854   -8229.7692   -159.86671   -14823.116    82.770891 
   92000    730.50092   -107.99024   0.66097259   -107.32927    19375.493    4.3333678    4.3333678    4.3333678    19375.493    26479.676    21650.092    9996.7125    5554.7666    6985.3614     13091.18     81.37231 
   92100    885.90037   -108.13741   0.80158127   -107.33583   -12630.809    4.3479912    4.3479912    4.3479912   -12630.809   -25496.941    1810.6757   -14206.161   -535.14154    10993.803   -8149.9962     82.19889 
   92200    838.84392   -108.09177   0.75900361   -107.33277   -523.69979    4.3511173    4.3511173    4.3511173   -523.69979    10723.468   -4267.6623   -8026.9046   -6684.1109   -1016.1408   -1838.0731    82.376316 
   92300     630.5899   -107.90508   0.57057099    -107.3345    5307.9297     4.337073     4.337073     4.337073    5307.9297    351.84987    17063.017   -1491.0776   -1481.8965     17640.23    14851.758    81.581223 
   92400    862.90518   -108.11561   0.78077474   -107.33484   -15303.836    4.3495644    4.3495644    4.3495644   -15303.836   -27330.298   -12366.931   -6214.2783   -1766.7035     207.8731   -7249.3961    82.288151 
   92500    756.11032   -108.01709   0.68414451   -107.33295     795.5981    4.3474067    4.3474067    4.3474067     795.5981    22345.093   -18936.091    -1022.208   -7199.2401     4525.382    11997.021     82.16575 
   92600    933.36983   -108.17689   0.84453264   -107.33235   -12177.639    4.3417256    4.3417256    4.3417256   -12177.639   -19428.846    2109.2558   -19213.328     7947.866    6581.1822    5099.6825    81.844049 
   92700    744.46004   -108.00735   0.67360309   -107.33374   -4311.1628    4.3471507    4.3471507    4.3471507   -4311.1628    6295.2528   -15917.091   -3311.6506   -10006.117   -8400.5684    -5478.856    82.151231 
   92800    668.11511    -107.9393    0.6045246   -107.33478   -15039.316    4.3496328    4.3496328    4.3496328   -15039.316   -7115.1195   -22451.575   -15551.253    -12800.04    9423.7713    17464.242     82.29203 
   92900    889.71644   -108.13691   0.80503414   -107.33188   -349.69073    4.3374057    4.3374057    4.3374057   -349.69073   -9918.6502    12355.639   -3486.0611    8014.8252    3925.8146   -3827.3132    81.599995 
   93000     651.8369   -107.92701   0.58979573   -107.33722   -8239.8584    4.3505129    4.3505129    4.3505129   -8239.8584    3584.9074   -30603.603    2299.1206   -19837.432   -5996.6638    9130.5137    82.341996 
   93100    961.15698   -108.19939   0.86967503   -107.32972   -15828.873    4.3489601    4.3489601    4.3489601   -15828.873   -23139.802   -5386.7548   -18960.062    6699.6813    11792.151      13852.8    82.253856 
   93200    673.83589   -107.93957   0.60970088   -107.32987   -1990.5847    4.3389061    4.3389061    4.3389061   -1990.5847   -8079.6886   -2978.3389    5086.2735   -1567.9689   -4598.2885   -10077.662    81.684706 
   93300    740.64111   -108.00306   0.67014765   -107.33291   -16781.184    4.3504208    4.3504208    4.3504208   -16781.184    -4525.036   -35859.699   -9958.8168   -17850.776   -1246.0644    18315.163    82.336765 
   93400    1116.1597   -108.33977    1.0099247   -107.32985   -4389.5245    4.3426168    4.3426168    4.3426168   -4389.5245   -14632.612    16047.631   -14583.593    11008.037    10730.222   -879.19037    81.894463 
   93500    469.55958   -107.76446   0.42486738    -107.3396   -920.16067    4.3426668    4.3426668    4.3426668   -920.16067   -8500.6627   -593.93988    6334.1205   -20545.243   -7976.2025    5674.9493     81.89729 
   93600    797.11602    -108.0566   0.72124732   -107.33535   -10229.886    4.3486622    4.3486622    4.3486622   -10229.886   -19618.809   -1281.1882   -9789.6594   -9013.4617    1571.7468    22723.615    82.236955 
   93700    986.56657    -108.2241   0.89266616   -107.33143    2605.1115    4.3410688    4.3410688    4.3410688    2605.1115   -13822.087    11297.968    10339.453    3726.2467     642.2618   -8946.4338    81.806913 
   93800    408.75009   -107.71207   0.36984567   -107.34222   -9153.5267     4.349713     4.349713     4.349713   -9153.5267   -17417.331   -8221.7264    -1821.523   -22928.578    -7805.594    15089.883    82.296584 
   93900     1282.625    -108.4909    1.1605461   -107.33035   -542.87417    4.3424817    4.3424817    4.3424817   -542.87417   -9302.8971    9768.2592   -2093.9845    1781.9887      169.965    1148.5204    81.886815 
   94000    525.47984   -107.81394    0.4754652   -107.33848    572.86702    4.3441635    4.3441635    4.3441635    572.86702   -15532.817    18678.507    -1427.089   -10048.726   -8427.6979   -159.90837    81.981998 
   94100    663.64286   -107.93891   0.60047801   -107.33843   -16675.308    4.3502041    4.3502041    4.3502041   -16675.308   -19333.943   -26450.915   -4241.0676   -16185.308   -2541.3363    18426.647     82.32446 
   94200    1210.3969   -108.42357    1.0951926   -107.32838    21919.916    4.3348191    4.3348191    4.3348191    21919.916    7170.1194    38428.688    20160.939    7459.6095    1459.9892   -7897.6985    81.454095 
   94300    391.04983   -107.69783    0.3538301     -107.344   -6465.0407    4.3507818    4.3507818    4.3507818   -6465.0407   -25826.667   -11862.733    18294.277   -23119.235   -10993.526    1379.2471    82.357262 
   94400    983.81413   -108.22441    0.8901757   -107.33423   -3398.2772    4.3459532    4.3459532    4.3459532   -3398.2772   -22656.156    12163.112    298.21241   -2168.5772    5157.3366    1967.5164    82.083362 
   94500    808.57913   -108.06526   0.73161939   -107.33364    8031.4775    4.3387978    4.3387978    4.3387978    8031.4775   -5237.2116    17347.711    11983.933   -7912.6257   -730.41585    4508.1794     81.67859 
   94600    614.81265   -107.89491    0.5562954   -107.33862   -20948.721    4.3517482    4.3517482    4.3517482   -20948.721    -30561.53   -23988.596   -8296.0386   -19773.171    -5258.527   -1365.3492    82.412153 
   94700    1111.7573    -108.3348    1.0059413   -107.32885    11596.628    4.3377457    4.3377457    4.3377457    11596.628   -5144.0871    40507.132   -573.15968    12146.988    20426.756    7178.5492    81.619185 
   94800    600.25374   -107.88054    0.5431222   -107.33742   -13947.968    4.3492767    4.3492767    4.3492767   -13947.968    -28903.48   -26162.462     13222.04   -19110.495    -4630.577   -13112.742    82.271824 
   94900    721.68391   -107.98723   0.65299477   -107.33424   -791.63162    4.3426704    4.3426704    4.3426704   -791.63162    -26753.16    21569.193    2809.0722   -961.33954    7629.5183   -258.68685    81.897491 
   95000    969.25443   -108.20899   0.87700177   -107.33199   -2578.8783    4.3442781    4.3442781    4.3442781   -2578.8783   -14880.567    9192.0176    -2048.085   -722.52425    17955.505   -516.48568    81.988484 
   95100    727.00247   -107.99498   0.65780711   -107.33717   -218.17679    4.3422387    4.3422387    4.3422387   -218.17679   -17360.434    5293.1961    11412.707   -16018.393   -12584.468    -5291.726    81.873069 
   95200    734.27157    -108.0053   0.66438435   -107.34092   -2686.3691    4.3438016    4.3438016    4.3438016   -2686.3691   -23511.358     28319.01   -12866.759    2911.0716    26097.183   -510.68949     81.96151 
   95300    863.05079   -108.11749   0.78090649   -107.33659   -14716.365    4.3518188    4.3518188    4.3518188   -14716.365   -27884.926   -17112.007    847.83734   -19986.691    3120.5336    3053.1499    82.416165 
   95400     787.3065   -108.04662   0.71237147   -107.33425    12454.635    4.3301151    4.3301151    4.3301151    12454.635   -16116.323    29779.136    23701.091   -6850.0381    7069.4589   -424.47061    81.189209 
   95500    649.22932   -107.92717   0.58743633   -107.33973   -9218.5033    4.3557727    4.3557727    4.3557727   -9218.5033   -37725.019    21309.113   -11239.604   -1313.4251    19330.065    2951.3469    82.641011 
   95600     1074.405   -108.30336   0.97214426   -107.33122   -3002.0192    4.3436395    4.3436395    4.3436395   -3002.0192   -23687.665   -6978.5493    21660.157   -11336.605   -9301.1912    1473.6642    81.952332 
   95700    489.41941   -107.77869   0.44283697   -107.33586    10815.245    4.3324927    4.3324927    4.3324927    10815.245     -20037.9    38521.463    13962.172    3026.0275    27100.875   -7591.9875    81.323022 
   95800    904.18349   -108.15027   0.81812422   -107.33215   -22405.792     4.356758     4.356758     4.356758   -22405.792   -37752.998    -8996.918    -20467.46   -5458.9383   -1475.3611     196.9884    82.697105 
   95900    1030.8653   -108.26067   0.93274857   -107.32792    8886.6556    4.3383286    4.3383286    4.3383286    8886.6556   -17638.834    6534.8291    37763.972   -207.47688    5990.0845   -3736.0509    81.652094 
   96000    477.25245    -107.7678   0.43182805   -107.33597   -4218.3269    4.3468462    4.3468462    4.3468462   -4218.3269   -34854.573    35692.187   -13492.594    2989.9523    17293.888   -2135.1517    82.133973 
   96100    1053.2607   -108.27967   0.95301243   -107.32666    -7726.038    4.3447457    4.3447457    4.3447457    -7726.038   -22577.917   -5555.8049    4955.6076   -4543.8066   -18294.424   -1085.3124     82.01496 
   96200    670.78547    -107.9398   0.60694079   -107.33286    11843.161    4.3415774    4.3415774    4.3415774    11843.161   -19358.008    36744.341    18143.148    7794.5581    21088.773   -2710.8749    81.835672 
   96300     769.5282   -108.03155   0.69628529   -107.33527    -17094.95    4.3510587    4.3510587    4.3510587    -17094.95   -27881.125    584.61293   -23988.339    3929.8499   -8063.8764   -6130.2636    82.372989 
   96400    951.59522   -108.19018   0.86102336   -107.32916    18967.856    4.3367196    4.3367196    4.3367196    18967.856   -12434.413    25134.767    44203.213   -2507.6708   -11261.824    3115.3809    81.561281 
   96500    673.24426   -107.94328   0.60916556   -107.33411   -11060.627    4.3516567    4.3516567    4.3516567   -11060.627   -25751.084   -780.51957   -6650.2774    11229.869    14768.745    2679.1674    82.406955 
   96600    765.93232   -108.02563   0.69303166    -107.3326   -7104.9099    4.3449825    4.3449825    4.3449825   -7104.9099   -23920.837     1223.757    1382.3508   -2955.9286   -27250.893    214.81854    82.028375 
   96700    1061.5045   -108.28838   0.96047155   -107.32791    13319.806    4.3398883    4.3398883    4.3398883    13319.806    1177.9893    20674.254    18107.176    5906.4817    7615.9226    9624.1237    81.740194 
   96800    594.98578    -107.8736   0.53835564   -107.33524   -14349.606    4.3535867    4.3535867    4.3535867   -14349.606   -36538.548    2825.2437    -9335.514    7084.0209   -3896.4804   -4049.4207     82.51665 
   96900    914.90205   -108.15991    0.8278226   -107.33208    11698.742    4.3368155    4.3368155    4.3368155    11698.742   -11685.253    28584.188     18197.29   -212.61586   -22761.782   -1779.3508    81.566691 
   97000    843.89112    -108.0985   0.76357042   -107.33493    10872.921    4.3450775    4.3450775    4.3450775    10872.921    4952.3181    8754.5736    18911.871    5713.5146    9214.5343    1359.1594    82.033751 
   97100    599.93895   -107.88143   0.54283737   -107.33859   -15927.213    4.3526921    4.3526921    4.3526921   -15927.213   -31849.913   -2547.7919   -13383.935    4328.0489   -23466.426    -10096.57    82.465793 
   97200    1056.2191   -108.28391   0.95568924   -107.32822    20423.281    4.3384754    4.3384754    4.3384754    20423.281    27826.957    16806.875    16636.012   -9263.7004    383.64734   -50.752637    81.660386 
   97300    735.92596   -108.00319   0.66588127   -107.33731   -9925.5281    4.3455291    4.3455291    4.3455291   -9925.5281   -29384.145   -4375.8046    3983.3654    7816.7325    -2265.298    2346.1455    82.059333 
   97400    632.96687   -107.91255   0.57272173   -107.33983    1334.3982    4.3465832    4.3465832    4.3465832    1334.3982    2373.3366    4957.0861   -3327.2282   -1662.0267   -21607.388   -6298.2661    82.119066 
   97500    1027.6485   -108.26118   0.92983792   -107.33134    11265.669    4.3462969    4.3462969    4.3462969    11265.669    13568.848   -3695.0825    23923.242    148.54235    4426.7851    12052.978    82.102836 
   97600    652.77331   -107.92818   0.59064301   -107.33754   -3208.9475    4.3421869    4.3421869    4.3421869   -3208.9475   -2243.1167    1622.9237   -9006.6494    6522.7634   -24735.303   -4713.0536    81.870142 
   97700    765.86377   -108.02961   0.69296964   -107.33664    12938.001    4.3435145    4.3435145    4.3435145    12938.001    3272.8816    7245.6548    28295.466   -7890.4445   -22.429439    5260.4519    81.945256 
   97800    1024.6196   -108.26026   0.92709738   -107.33317   -9434.5399    4.3510981    4.3510981    4.3510981   -9434.5399   -2901.2858   -21984.275   -3418.0587    4243.0848   -4425.4392     13967.09     82.37523 
   97900    667.85943   -107.94047   0.60429325   -107.33618    14396.331    4.3378375    4.3378375    4.3378375    14396.331   -4843.9514    14343.971    33688.973   -556.94261   -16436.346   -6256.0472    81.624366 
   98000    908.24998   -108.15749   0.82180367   -107.33569    2648.6307    4.3435238    4.3435238    4.3435238    2648.6307    14907.353   -15947.716    8986.2548   -45.122707    11971.079    19137.294    81.945782 
   98100    767.73954   -108.02925   0.69466687   -107.33458    6723.4999    4.3484556    4.3484556    4.3484556    6723.4999    7555.0345    -251.5496    12867.015    5170.8895   -17040.978    3567.3142    82.225233 
   98200    795.68416   -108.05285   0.71995175    -107.3329    4948.5517    4.3435601    4.3435601    4.3435601    4948.5517   -3866.7282    910.13273    17802.251    7552.9176   -590.01674    3398.3748    81.947841 
   98300    700.76993   -107.96949   0.63407136   -107.33542    510.66017    4.3431803    4.3431803    4.3431803    510.66017    22265.389   -8202.7727   -12530.636    -5006.171    9376.6159    20336.073    81.926347 
   98400     993.9092   -108.23208   0.89930993   -107.33277     8075.333    4.3425672    4.3425672    4.3425672     8075.333    -14.87916    2477.7645    21763.114    11881.941    -14062.82   -4575.6651    81.891656 
   98500    743.35184   -108.00474   0.67260036   -107.33214   -17295.766    4.3544672    4.3544672    4.3544672   -17295.766   -9541.7346   -15770.957   -26574.605   -1012.8742    8324.9945    11102.707    82.566726 
   98600     721.8151    -107.9858   0.65311347   -107.33268     5164.097    4.3345876    4.3345876    4.3345876     5164.097    21583.703   -7225.9342    1134.5228   -5627.5483    2068.9029    9515.5524    81.441045 
   98700     983.7281   -108.22713   0.89009786   -107.33703   -3233.5865    4.3445307    4.3445307    4.3445307   -3233.5865    -10901.69   -283.46462    1484.3946    17944.769   -13309.593   -1709.9603    82.002788 
   98800    587.54904    -107.8707   0.53162672   -107.33907   -11059.301    4.3552203    4.3552203    4.3552203   -11059.301    23553.092   -17014.544   -39716.451     -11417.6    8800.6798    23932.796    82.609572 
   98900    934.00122   -108.17441   0.84510393   -107.32931     11929.65    4.3306956    4.3306956    4.3306956     11929.65    5807.9265    16238.806    13742.217    11301.192   -4281.1887   -3785.6542     81.22187 
   99000    712.45582   -107.98181     0.644645   -107.33716   -4779.6371    4.3470801    4.3470801    4.3470801   -4779.6371   -531.25925   -3960.4636   -9847.1884    11564.704   -4384.2245    15920.055     82.14723 
   99100    730.91192   -107.99398   0.66134447   -107.33263   -16184.995    4.3529118    4.3529118    4.3529118   -16184.995    4180.8161    -16321.75   -36414.052   -6793.2425    9852.7857    17674.204     82.47828 
   99200    930.33419   -108.16861   0.84178592   -107.32683     6001.263    4.3336615    4.3336615    4.3336615     6001.263   -4230.4918    8232.7274    14001.553    21041.214    16.291251   -11168.761    81.388856 
   99300    735.63947   -107.99915   0.66562205   -107.33352   -11417.486    4.3476957    4.3476957    4.3476957   -11417.486    11842.666   -19692.467   -26402.657     7114.508      2384.05    29603.397    82.182134 
   99400    816.64016    -108.0709   0.73891318   -107.33199    -4467.418    4.3460873    4.3460873    4.3460873    -4467.418   -886.70974    7729.0288   -20244.573   -2331.9378    11100.862   -7867.4508    82.090958 
   99500    696.06673   -107.96364    0.6298158   -107.33383   -7782.4554    4.3441169    4.3441169    4.3441169   -7782.4554   -8925.0421   -12206.062   -2216.2619    24948.229     -2456.48    5471.1765    81.979357 
   99600    890.27796   -108.13851    0.8055422   -107.33296   -6274.4448    4.3425231    4.3425231    4.3425231   -6274.4448    18483.244   -11409.004   -25897.574   -8393.5978    3425.6539    21901.987    81.889161 
   99700    745.67901   -108.01267   0.67470604   -107.33796   -475.27797    4.3434981    4.3434981    4.3434981   -475.27797   -10154.865    14624.067   -5895.0362    4848.0474    8928.3914   -18882.469    81.944331 
   99800    797.16513   -108.06064   0.72129176   -107.33934    -20451.54    4.3508643    4.3508643    4.3508643    -20451.54   -13293.005   -32148.737   -15912.877    20080.439   -3860.3062    23212.971    82.361946 
   99900     798.8879   -108.05817   0.72285056   -107.33532    9257.6552    4.3352366    4.3352366    4.3352366    9257.6552    13813.087    27267.653   -13307.774   -7589.3948    4534.0638   -1167.7762    81.477633 
  100000    667.67626   -107.94688   0.60412751   -107.34275   -7126.6128    4.3439062    4.3439062    4.3439062   -7126.6128   -9911.0928   -15036.107    3567.3617    23890.678   -696.32426   -3970.5765     81.96743 
Loop time of 21.5159 on 1 procs for 100000 steps with 8 atoms

Pair  time (%) = 6.64975 (30.9062)
Kspce time (%) = 5.25445 (24.4213)
Neigh time (%) = 0 (0)
Comm  time (%) = 1.04558 (4.85955)
Outpt time (%) = 0.0228074 (0.106002)
Other time (%) = 8.54331 (39.707)

Nlocal:    8 ave 8 max 8 min
Histogram: 1 0 0 0 0 0 0 0 0 0
Nghost:    2189 ave 2189 max 2189 min
Histogram: 1 0 0 0 0 0 0 0 0 0
Neighs:    2056 ave 2056 max 2056 min
Histogram: 1 0 0 0 0 0 0 0 0 0

Total # of neighbors = 2056
Ave neighs/atom = 257
Neighbor list builds = 0
Dangerous builds = 0
unfix 20
unfix 21
print "seeds:7321980"
seeds:7321980
