LAMMPS (10 Feb 2015)
# ---- initialize simulations
clear
units metal
dimension 3
boundary p p p
atom_style charge
atom_modify map array
# ---- create atoms
read_data /Users/eugeneragasa/pyflamestk_git/pypospack/tests/tests_integration/workflow/WorkflowLammpsThermalExpansion/param_3101/MgO_NaCl_unit.npt.T600/lammps.structure
  triclinic box = (0 0 0) to (4.2565 4.2565 4.2565) with tilt (0 0 0)
  1 by 1 by 1 MPI processor grid
  reading atoms ...
  8 atoms
# ---- define interatomic potential
include potential.mod
mass 1 24.305
mass 2 15.999

group Mg type 1
4 atoms in group Mg
group O type 2
4 atoms in group O

set group Mg charge 1.61886676565
  4 settings made for charge
set group O charge -1.61886676565
  4 settings made for charge

variable R_cut equal 10.0

pair_style buck/coul/long ${R_cut}
pair_style buck/coul/long 10
pair_coeff 1 1 0.0 0.5 0.0 ${R_cut}
pair_coeff 1 1 0.0 0.5 0.0 10
pair_coeff 1 2 1642.32869573 0.278339228763 0.0 ${R_cut}
pair_coeff 1 2 1642.32869573 0.278339228763 0.0 10
pair_coeff 2 2 10249.6145692 0.172187509684 14.0611166933 ${R_cut}
pair_coeff 2 2 10249.6145692 0.172187509684 14.0611166933 10

kspace_style pppm 1.0e-5

neighbor 1.0 bin
neigh_modify every 1 delay 0 check yes
# ---- define settings
compute eng all pe/atom
compute eatoms all reduce sum c_eng
# ---- run minimization
reset_timestep 0
fix 1 all box/relax iso 0.0 vmax 0.001
thermo 10
thermo_style custom step pe lx ly lz xy xz yz press pxx pyy pzz pxy pxz pyz c_eatoms
min_style cg
minimize 1e-25 1e-25 5000 10000
PPPM initialization ...
  G vector (1/distance) = 0.352512
  grid = 8 8 8
  stencil order = 5
  estimated absolute RMS force accuracy = 3.81673e-05
  estimated relative force accuracy = 2.65057e-06
  using double precision FFTs
  3d grid and FFT values/proc = 3375 512
Neighbor list info ...
  1 neighbor list requests
  update every 1 steps, delay 0 steps, check yes
  master list distance cutoff = 11
Memory usage per processor = 4.06549 Mbytes
Step PotEng Lx Ly Lz Xy Xz Yz Press Pxx Pyy Pzz Pxy Pxz Pyz eatoms 
       0   -105.55076       4.2565       4.2565       4.2565            0            0            0    126453.59    126453.59    126453.59    126453.59 4.0363335e-11 4.044677e-11 1.0723156e-10   -105.55076 
      10   -105.69165     4.299065     4.299065     4.299065            0            0            0    68786.015    68786.015    68786.015    68786.015 -1.0242962e-10 -4.708445e-11 -3.569371e-11   -105.69165 
      20   -105.75532      4.34163      4.34163      4.34163            0            0            0    18126.479    18126.479    18126.479    18126.479 7.5197513e-11 1.703257e-11 -3.0007315e-11   -105.75532 
      27   -105.76066    4.3583247    4.3583247    4.3583247            0            0            0    1.3863117    1.3863117    1.3863117    1.3863117 -6.2572681e-11 -1.3142723e-10 -3.2118437e-11   -105.76066 
Loop time of 0.0139809 on 1 procs for 27 steps with 8 atoms

Minimization stats:
  Stopping criterion = linesearch alpha is zero
  Energy initial, next-to-last, final = 
        -105.550764672     -105.760658065     -105.760658065
  Force two-norm initial, final = 18.26 0.000217628
  Force max component initial, final = 18.26 0.000209876
  Final line search alpha, max atom move = 0.25 5.24691e-05
  Iterations, force evaluations = 27 40

Pair  time (%) = 0.00373292 (26.7002)
Kspce time (%) = 0.00225592 (16.1357)
Neigh time (%) = 0 (0)
Comm  time (%) = 0.000414848 (2.96726)
Outpt time (%) = 2.7895e-05 (0.199523)
Other time (%) = 0.00754929 (53.9973)

Nlocal:    8 ave 8 max 8 min
Histogram: 1 0 0 0 0 0 0 0 0 0
Nghost:    2189 ave 2189 max 2189 min
Histogram: 1 0 0 0 0 0 0 0 0 0
Neighs:    2344 ave 2344 max 2344 min
Histogram: 1 0 0 0 0 0 0 0 0 0

Total # of neighbors = 2344
Ave neighs/atom = 293
Neighbor list builds = 0
Dangerous builds = 0
unfix 1
# ---- define output variables ----
variable natoms equal "count(all)"
variable tot_energy equal "c_eatoms"
variable length_x equal "lx"
variable length_y equal "ly"
variable length_z equal "lz"
variable tilt_xy equal "xy"
variable tilt_xz equal "xz"
variable tilt_yz equal "yz"
variable tot_press equal "press"
variable press_xx equal "pxx"
variable press_yy equal "pyy"
variable press_zz equal "pzz"
variable press_xy equal "pxy"
variable press_xz equal "pxz"
variable press_yz equal "pyz"

# ---- output ----
print "pypospack:output_section:begin"
pypospack:output_section:begin
print "tot_energy = ${tot_energy}"
tot_energy = -105.760658064539
print "num_atoms = ${natoms}"
num_atoms = 8
print "xx = ${length_x}"
xx = 4.35832471527479
print "yy = ${length_y}"
yy = 4.35832471527479
print "zz = ${length_z}"
zz = 4.35832471527479
print "xy = ${tilt_xy}"
xy = 0
print "xz = ${tilt_xz}"
xz = 0
print "yz = ${tilt_yz}"
yz = 0
print "tot_press = ${tot_press}"
tot_press = 1.38631174704167
print "pxx = ${press_xx}"
pxx = 1.38631174709188
print "pyy = ${press_yy}"
pyy = 1.38631174731354
print "pzz = ${press_zz}"
pzz = 1.3863117467196
print "pxy = ${press_xy}"
pxy = -6.25726806975275e-11
print "pxz = ${press_xz}"
pxz = -1.31427228854923e-10
print "pyz = ${press_yz}"
pyz = -3.21184365171528e-11
print "pypospack:output_section:done"
pypospack:output_section:done
print "pypospack:lammps_sim:done"
pypospack:lammps_sim:done
#------------------------------------------------------------------------------
# RUN THERMOSTAT
# running using an NPT Nose-Hoover style thermostat
#------------------------------------------------------------------------------
variable tempdamp equal 0.1
variable pressdamp equal 1.0
# set initial velocities
velocity all create 600 2483905 mom yes dist gaussian loop all
# fix for Nose-Hoover style thermostat
fix 20 all npt temp 600 600 0.1 aniso 0.0 0.0 1.0 drag 1.0 couple xyz
variable boxx equal lx
variable boxy equal ly
variable boxz equal lz
variable boxp equal press
variable boxt equal temp
# calculate averages every 10000 steps
reset_timestep 0
fix 21 all ave/time 10 10 100 v_boxx v_boxy v_boxz v_boxp v_boxt file lattice.out
thermo_style custom step temp pe ke etotal press lx ly lz press pxx pyy pzz pxy pxz pyz vol
thermo_modify flush yes
thermo 100
run 100000
PPPM initialization ...
  G vector (1/distance) = 0.351503
  grid = 8 8 8
  stencil order = 5
  estimated absolute RMS force accuracy = 3.99806e-05
  estimated relative force accuracy = 2.7765e-06
  using double precision FFTs
  3d grid and FFT values/proc = 3375 512
Memory usage per processor = 3.06549 Mbytes
Step Temp PotEng KinEng TotEng Press Lx Ly Lz Press Pxx Pyy Pzz Pxy Pxz Pyz Volume 
       0          600   -105.76067   0.54289261   -105.21778    7003.6974    4.3583247    4.3583247    4.3583247    7003.6974    12269.817    4577.1849    4164.0902    5219.5754     3430.232    1343.0317    82.786353 
     100    64.517576   -105.20162  0.058376858   -105.14325   -1248.4658    4.3845688    4.3845688    4.3845688   -1248.4658    21471.299   -21919.679   -3297.0172   -12818.123     -6057.76    710.22052    84.290896 
     200    597.50626   -105.53545   0.54063622   -104.99482   -6941.6284    4.3801348    4.3801348    4.3801348   -6941.6284    1797.6331    -15627.45   -6995.0681   -40.711954     4654.698    1982.1071     84.03543 
     300    511.93147   -105.33721   0.46320635   -104.87401     9765.353    4.3759674    4.3759674    4.3759674     9765.353    27901.523     1319.019    75.517329   -9168.1949   -5018.4289    1780.0263    83.795794 
     400    339.93635   -105.07807   0.30758156   -104.77048   -6906.0438    4.3967856    4.3967856    4.3967856   -6906.0438    14466.541   -29846.427   -5338.2454   -3412.8859   -5409.3494     1587.622    84.997447 
     500    783.00463   -105.41096   0.70847905   -104.70248    10493.394    4.3820957    4.3820957    4.3820957    10493.394    41112.917    2902.5584   -12535.295    3890.1714   -320.03556    -1637.761    84.148342 
     600    462.74795   -105.09781   0.41870407   -104.67911   -5368.7315    4.3887706    4.3887706    4.3887706   -5368.7315    624.42068   -23091.794    6361.1792   -15323.184   -2031.4114    1260.4925    84.533459 
     700    635.15263   -105.23895   0.57469945   -104.66425    400.99183    4.3953802    4.3953802    4.3953802    400.99183    30770.346   -11883.186   -17684.185    536.42402   -2853.8108    -3949.008    84.915966 
     800    628.92389   -105.23206   0.56906355     -104.663    2346.0718    4.3826231    4.3826231    4.3826231    2346.0718    27548.549   -11491.685   -9018.6485   -5954.4946   -4296.2521    555.98894    84.178733 
     900    602.49754   -105.21969   0.54515244   -104.67454   -14979.659    4.3912309    4.3912309    4.3912309   -14979.659   -21508.438   -26847.059    3416.5208   -13205.799     -5939.95   -81.344357    84.675705 
    1000    835.18709    -105.4303   0.75569483    -104.6746    269.93086    4.3907712    4.3907712    4.3907712    269.93086    32396.338   -10705.008   -20881.538    1776.5969    1756.0149   -4940.1372    84.649113 
    1100    256.19474   -104.91343   0.23181038   -104.68162    2227.5961    4.3880898    4.3880898    4.3880898    2227.5961    32446.471   -25506.734   -256.94884   -17784.431    -6721.472    3582.2238    84.494124 
    1200    844.53757   -105.43694   0.76415534   -104.67278   -1712.1432    4.3878685    4.3878685    4.3878685   -1712.1432   -3683.8568   -2031.2415    578.66879   -317.31929   -560.78578   -2860.2304    84.481343 
    1300    494.39884   -105.12106   0.44734246   -104.67372   -3603.6094    4.3945502    4.3945502    4.3945502   -3603.6094    25992.242   -15501.843   -21301.227    -3094.389   -1488.7044   -694.05314    84.867868 
    1400    596.15155    -105.2091   0.53941045   -104.66969     1895.688     4.383774     4.383774     4.383774     1895.688    5514.3111   -9981.1389    10153.892   -13538.748   -6715.8731     1286.424    84.245066 
    1500    662.13814   -105.26739    0.5991165   -104.66827    3893.5615    4.3948632    4.3948632    4.3948632    3893.5615    26710.024   -2259.4245   -12769.916     14459.47    4172.4348    1497.4894    84.886005 
    1600    527.24727   -105.15001   0.47706441   -104.67295   -2391.8891    4.3862746    4.3862746    4.3862746   -2391.8891    -4030.337     3831.938   -6977.2684    -18065.67   -4619.9234   -553.49804    84.389313 
    1700    682.72949   -105.29143   0.61774799   -104.67368    9236.3853    4.3883282    4.3883282    4.3883282    9236.3853    35563.693   -8560.9509    706.41399    2387.7937    23.428578    3849.3498    84.507898 
    1800    597.98469   -105.21731   0.54106911   -104.67625   -416.11498    4.3898719    4.3898719    4.3898719   -416.11498    15910.913   -2733.4462   -14425.811   -9149.6277   -1133.4676   -3591.1564    84.597111 
    1900    516.34732   -105.14565    0.4672019   -104.67845    4837.2257    4.3863613    4.3863613    4.3863613    4837.2257    28353.067   -18685.121    4843.7308    385.23245   -4635.3561    1984.4748    84.394315 
    2000    761.76873   -105.36148   0.68926436   -104.67222    185.58026    4.3919151    4.3919151    4.3919151    185.58026    16929.901   -6659.3042   -9713.8556   -6812.1673    4270.0165   -403.43557    84.715291 
    2100    505.70027   -105.13143   0.45756823   -104.67387    5244.9445    4.3853245    4.3853245    4.3853245    5244.9445    31783.139   -12410.974   -3637.3324   -8143.0961   -7175.6737   -241.01296    84.334488 
    2200    636.05997   -105.24724   0.57552043   -104.67172    -1003.573    4.3963749    4.3963749    4.3963749    -1003.573    13714.282   -11856.974   -4868.0265    3882.9262   -532.72235   -1247.7666     84.97363 
    2300    677.36932   -105.28519   0.61289799   -104.67229    6754.1306      4.37951      4.37951      4.37951    6754.1306    25416.158    5309.2079   -10462.974   -5878.0009    31.257295   -4005.8813    83.999476 
    2400    466.49573   -105.10259   0.42209514   -104.68049   -5764.7762    4.3964879    4.3964879    4.3964879   -5764.7762    20442.731   -34331.949   -3405.1103   -10154.255   -6503.1646   -77.335699    84.980178 
    2500    703.80594   -105.30877    0.6368184   -104.67195    6724.8329    4.3868218    4.3868218    4.3868218    6724.8329    12487.344    16306.729   -8619.5743   -586.89982    5034.2195    -1979.109    84.420898 
    2600    489.41022   -105.11701   0.44282866   -104.67419   -9647.9702    4.3912938    4.3912938    4.3912938   -9647.9702    13365.877    -27266.31   -15043.478   -8106.3037    -6659.596     1606.084    84.679341 
    2700    686.03598   -105.28866   0.62073978   -104.66792    3764.9726     4.389385     4.389385     4.389385    3764.9726    7097.1611    9068.2443   -4870.4874   -5267.0369    3876.1775   -1079.3136    84.568964 
    2800    480.22965     -105.105   0.43452188   -104.67048    1622.4068    4.3908649    4.3908649    4.3908649    1622.4068    15735.113    4552.8207   -15420.713   -923.93787    255.74523    1326.8173    84.654536 
    2900    687.59921   -105.29084   0.62215421   -104.66869    -13829.62    4.3911955    4.3911955    4.3911955    -13829.62   -5149.0782   -17584.641   -18755.141   -9119.7096   -7774.6401    2119.9757    84.673657 
    3000    580.07001   -105.19358   0.52485954   -104.66872    14208.118    4.3848786    4.3848786    4.3848786    14208.118     22763.13    22583.046   -2721.8213     4282.066     2529.056   -3968.7905    84.308763 
    3100    598.96947   -105.21356   0.54196016    -104.6716    -23138.41    4.4012044    4.4012044    4.4012044    -23138.41   -14389.495   -18859.334   -36166.401   -13624.946   -7970.8819    2356.2608    85.253968 
    3200    644.18329   -105.24965   0.58287058   -104.66678    16698.845    4.3769681    4.3769681    4.3769681    16698.845    31132.002    15053.243    3911.2911    8823.8561    1440.9529    1564.8601    83.853295 
    3300    592.66691   -105.21037   0.53625748   -104.67411   -5927.1645    4.3934912    4.3934912    4.3934912   -5927.1645    9650.4634   -5204.9447   -22227.012   -9173.0799   -1330.4067    1364.8097    84.806529 
    3400    592.57692   -105.20588   0.53617605    -104.6697   -8651.5748    4.3951849    4.3951849    4.3951849   -8651.5748    14699.902   -16759.613   -23895.013    -6437.028   -6872.2468    7792.4151    84.904646 
    3500    760.83107   -105.35244   0.68841594   -104.66402     12533.13    4.3763087    4.3763087    4.3763087     12533.13    8409.7417    15746.001    13443.649     291.3141    6817.1426   -980.97082    83.815405 
    3600    449.91908   -105.08152   0.40709623   -104.67442   -14825.927    4.4015394    4.4015394    4.4015394   -14825.927    6413.2294   -18345.439   -32545.571   -4212.0437    187.40145    3047.3589    85.273442 
    3700    596.49423   -105.20942   0.53972052    -104.6697    16249.779    4.3826115    4.3826115    4.3826115    16249.779    35568.157    6594.8104    6586.3707    6085.1933   -1155.6025   -296.34151    84.178064 
    3800    695.51226   -105.30054   0.62931411   -104.67122    -9399.569    4.3890945    4.3890945    4.3890945    -9399.569   -11159.025   -3796.9105   -13242.771   -7157.9163   -3234.7726    2593.3348    84.552176 
    3900     570.4492   -105.18575   0.51615442    -104.6696   -5972.3585     4.395253     4.395253     4.395253   -5972.3585    24677.202   -22884.474   -19709.803   -725.60498   -2435.5257    4239.5429    84.908594 
    4000    578.59418   -105.18927   0.52352417   -104.66575    17312.802    4.3826653    4.3826653    4.3826653    17312.802    13868.771    22079.559    15990.077   -1768.0137   -2990.9878   -794.28332    84.181161 
    4100    604.84367   -105.21895   0.54727526   -104.67167   -11534.067    4.3947181    4.3947181    4.3947181   -11534.067    10523.201   -21599.066   -23526.335   -4965.6624   -370.36889     1567.099    84.877597 
    4200    614.35952   -105.22233   0.55588541   -104.66645    12382.055    4.3891734    4.3891734    4.3891734    12382.055    5930.8688    15325.829    15889.466   -1404.9043   -7339.5579   -499.29636    84.556736 
    4300    513.88589    -105.1326   0.46497475   -104.66763    2318.8916    4.3881056    4.3881056    4.3881056    2318.8916    27069.957   -11306.717   -8806.5656   -11356.366    1759.4346     3143.229    84.495037 
    4400    756.72662   -105.34776   0.68470215   -104.66306   -9741.4216     4.395455     4.395455     4.395455   -9741.4216    1505.2309   -19538.511   -11190.985    3280.5049   -5424.1347    246.01681    84.920299 
    4500    479.57074   -105.09412   0.43392568    -104.6602    21362.559    4.3829395    4.3829395    4.3829395    21362.559    44212.782    10501.238    9373.6581   -13035.458    421.55551    1687.4336    84.196963 
    4600     684.4077   -105.28325   0.61926647   -104.66399   -19955.737    4.3983976    4.3983976    4.3983976   -19955.737    -13793.59   -17810.837   -28262.783    -812.1533   -2530.9426       2195.7    85.090964 
    4700    608.14888   -105.21253   0.55026589   -104.66226    20549.911    4.3833957    4.3833957    4.3833957    20549.911    38913.247    7739.2625    14997.222   -672.62865    480.59669   -2529.5887    84.223255 
    4800    538.68975   -105.15966   0.48741781   -104.67224   -4605.2934    4.3918046    4.3918046    4.3918046   -4605.2934   -9190.9953    14373.321   -18998.206    -10814.85   -2609.5575     3038.714    84.708896 
    4900    830.65222   -105.41671   0.75159159   -104.66512    -8816.447    4.3956555    4.3956555    4.3956555    -8816.447   -3337.7615   -15852.245   -7259.3346     7238.971   -2161.9475    1064.6468    84.931923 
    5000    349.09639   -104.98106   0.31586975   -104.66519    27268.795    4.3792186    4.3792186    4.3792186    27268.795    29509.978    47375.029    4921.3778    -16212.49   -2784.9576     5172.911    83.982707 
    5100    802.23125   -105.39044    0.7258757   -104.66456    -22262.54    4.4018094    4.4018094    4.4018094    -22262.54    -20294.97   -13197.659   -33294.992    6494.3458   -927.12029    182.12332    85.289133 
    5200    574.15554   -105.18091     0.519508   -104.66141    22517.405    4.3798096    4.3798096    4.3798096    22517.405     31393.57    24275.143    11883.502   -10136.201   -2306.5301    2487.1823    84.016714 
    5300    499.74497   -105.12301   0.45217975   -104.67083   -10617.268    4.3948689    4.3948689    4.3948689   -10617.268    -7670.809   -7269.2786   -16911.717   -6527.3355     1101.886    84.233606    84.886332 
    5400    799.81139   -105.38685   0.72368615   -104.66317    2943.4815    4.3910749    4.3910749    4.3910749    2943.4815    20017.876    2271.5746   -13459.006     2116.786   -3825.9899    1858.9081    84.666679 
    5500    359.76628   -104.99362   0.32552409   -104.66809     3698.336    4.3879001    4.3879001    4.3879001     3698.336   -2148.6176    4475.6521    8767.9736   -11534.749   -682.66919    1747.5134     84.48317 
    5600      851.037   -105.43466   0.77003616   -104.66462   -11462.021     4.390535     4.390535     4.390535   -11462.021   -5187.6393    -8723.415    -20475.01   -1037.0824    299.79428    983.59478    84.635456 
    5700    493.55144    -105.1128   0.44657572   -104.66622    7333.3477     4.392078     4.392078     4.392078    7333.3477   -195.38685    7662.5398     14532.89   -10990.771    1969.1427    3472.6053    84.724717 
    5800     618.8519   -105.22653    0.5599502   -104.66658    -10528.28    4.3912164    4.3912164    4.3912164    -10528.28    5605.1178   -14035.572   -23154.386   -4023.4682    633.33202    1691.1527    84.674866 
    5900     566.3169   -105.18024   0.51241544   -104.66783    19973.051    4.3843556    4.3843556    4.3843556    19973.051     10574.87    23485.114    25859.169    2402.6559    1716.7393     5477.733    84.278602 
    6000    616.13689   -105.23132    0.5574936   -104.67383   -22082.382    4.3975093    4.3975093    4.3975093   -22082.382   -28382.213   -24261.792    -13603.14   -15958.277   -1157.6707    1469.7214    85.039424 
    6100    658.26982   -105.26368   0.59561637   -104.66806    20719.379    4.3778369    4.3778369    4.3778369    20719.379    16511.149    20989.221    24657.768    2818.3146    1765.6226    2055.6676     83.90324 
    6200    602.67527   -105.21435   0.54531325   -104.66904   -24002.197    4.4058843    4.4058843    4.4058843   -24002.197   -29236.287   -31319.504   -11450.801    -10495.29   -1798.5753   -1718.0845    85.526218 
    6300    488.55512   -105.10625   0.44205494   -104.66419    18009.099    4.3748087    4.3748087    4.3748087    18009.099    22698.901    18597.123    12731.274   -1677.4348   -1359.6128    1586.4485    83.729251 
    6400    582.44062   -105.19893   0.52700451   -104.67192    2539.0658    4.3925829    4.3925829    4.3925829    2539.0658   -11931.063     10000.09    9548.1703     2829.124    888.74829   -3743.8008    84.753943 
    6500    683.53537   -105.28891   0.61847717   -104.67043   -23339.499    4.3977014    4.3977014    4.3977014   -23339.499   -30393.412   -24668.859   -14956.225   -13868.416   -4422.2441    644.22022    85.050565 
    6600    531.89212   -105.14544   0.48126717   -104.66417     33669.59    4.3683329    4.3683329    4.3683329     33669.59    13380.183    43869.503    43759.085    7337.2952     1823.696   -5595.9167    83.357978 
    6700    750.14637   -105.34445    0.6787482    -104.6657    -31387.88    4.4083105    4.4083105    4.4083105    -31387.88   -27171.778   -38856.769   -28135.093   -16993.168   -1700.5675   -50.482546    85.667586 
    6800    400.60314   -105.02401   0.36247414   -104.66154    33780.853    4.3748321    4.3748321    4.3748321    33780.853    10213.798    42248.705    48880.056    6245.0426   -801.21406      -3272.7    83.730594 
    6900    677.71289    -105.2815   0.61320886    -104.6683   -8728.4761     4.391663     4.391663     4.391663   -8728.4761   -9211.0423     3124.895   -20099.281   -4477.8805    4256.5883    2194.3933    84.700707 
    7000    556.25396   -105.17231   0.50331028     -104.669    4887.2217    4.3905727    4.3905727    4.3905727    4887.2217   -21677.039    9953.0239     26385.68   -5592.8261   -3325.8113    3628.7003    84.637635 
    7100    673.20463   -105.27857    0.6091297   -104.66944     3228.362    4.3826893    4.3826893    4.3826893     3228.362   -1020.9628    21427.457   -10721.408    406.57184    7375.8497    795.97222    84.182547 
    7200     632.2139   -105.24201   0.57204042   -104.66997   -9602.5986    4.3949158    4.3949158    4.3949158   -9602.5986   -33933.419   -4008.4912    9134.1139   -14008.635      966.151    3160.4953    84.889052 
    7300    654.54031   -105.26103   0.59224183   -104.66879    4125.4683    4.3839409    4.3839409    4.3839409    4125.4683   -4363.8953    22803.661   -6063.3614    7849.8937    3055.2886   -711.94518     84.25469 
    7400    482.82574   -105.10879   0.43687088   -104.67192    3784.1107     4.388185     4.388185     4.388185    3784.1107   -18962.887    26172.451    4142.7686   -6390.7095    5499.4679    738.00063    84.499628 
    7500    702.13408   -105.30331   0.63530567   -104.66801   -6171.9956    4.3910928    4.3910928    4.3910928   -6171.9956     -9043.18   -7678.8003   -1794.0065   -355.24392   -759.09336    -4055.827    84.667714 
    7600    450.48632   -105.07652   0.40760949   -104.66891    3570.5423    4.3876006    4.3876006    4.3876006    3570.5423    -17454.72    27258.685    907.66121   -5560.8598    2910.9377   -3877.3427     84.46587 
    7700    720.93086    -105.3181   0.65231339   -104.66579   -2428.5131    4.3869185    4.3869185    4.3869185   -2428.5131   -12607.638      3954.46    1367.6383   -7209.8229    133.07902    1631.9184    84.426484 
    7800    467.45884   -105.09104   0.42296658   -104.66808   -4004.5246    4.3940511    4.3940511    4.3940511   -4004.5246    -27758.82    18028.131   -2282.8851    3904.7702   -3964.3517   -7588.1881    84.838957 
    7900     734.5962   -105.32994   0.66467808   -104.66527   -2138.7945    4.3818154    4.3818154    4.3818154   -2138.7945   -5295.0804   -855.64342   -265.65974   -6234.5359    4367.3259    5486.9298    84.132199 
    8000    508.78164   -105.12986   0.46035632    -104.6695    515.68554    4.3938058    4.3938058    4.3938058    515.68554   -26144.129    12794.371    14896.815    5519.4207   -5503.8271   -9785.6448    84.824748 
    8100    710.44985    -105.3113   0.64282995   -104.66847   -6531.3399    4.3844547    4.3844547    4.3844547   -6531.3399   -7151.1749   -3401.9973   -9040.8474   -2057.1575    4308.9353    5982.2123    84.284312 
    8200    428.11559   -105.06048   0.38736798   -104.67311    18661.124    4.3870829    4.3870829    4.3870829    18661.124   -6564.0979    22325.171    40222.299   -3537.4804     1342.991   -6136.2664    84.435977 
    8300    685.02649   -105.29147   0.61982637   -104.67165   -14587.088    4.3947354    4.3947354    4.3947354   -14587.088   -23676.339   -6478.0403   -13606.885    663.49581    -52.12985   -1149.1111    84.878599 
    8400    538.91965   -105.15693   0.48762582    -104.6693    24525.167    4.3736692    4.3736692    4.3736692    24525.167    7498.7289    5426.4309    60650.341   -3381.5913    5510.7947   -2326.2484    83.663839 
    8500    572.95749   -105.18953   0.51842398   -104.67111   -17453.226    4.4036659    4.4036659    4.4036659   -17453.226   -24780.153   -10281.247   -17298.278    4678.3676   -3596.8116   -1115.3319    85.397092 
    8600     715.4364    -105.3094   0.64734189   -104.66206    13559.818    4.3769988    4.3769988    4.3769988    13559.818    448.04507   -259.70367    40491.112     1492.537     11190.55   -845.35141    83.855059 
    8700    496.33939   -105.11533   0.44909831   -104.66623    2098.5182    4.3910098    4.3910098    4.3910098    2098.5182   -10802.943    16465.085    633.41182   -353.87375   -5572.6508    -7610.196    84.662913 
    8800    603.92322   -105.20942   0.54644242   -104.66297   -1562.6152    4.3912431    4.3912431    4.3912431   -1562.6152   -23382.293   -13097.241    31791.689    1063.8994    3648.4176   -2879.4819     84.67641 
    8900    698.26934   -105.29711   0.63180878    -104.6653    6133.7606    4.3798025    4.3798025    4.3798025    6133.7606    8430.9555    13960.465   -3990.1392   -1259.0931   -1257.9032    2942.8779    84.016307 
    9000    511.58254   -105.13486   0.46289064   -104.67197   -2217.2634    4.3922065    4.3922065    4.3922065   -2217.2634   -19048.519   -6379.5947    18776.324    1554.7415    4190.3889   -5764.7245    84.732156 
    9100    643.04471   -105.25158   0.58184037   -104.66974   -1476.6857    4.3889798    4.3889798    4.3889798   -1476.6857    3200.8304   -9924.7713    2293.8839    -2309.198    3749.5465    1792.9629    84.545548 
    9200     470.5917   -105.09401   0.42580126   -104.66821    10863.295    4.3815346    4.3815346    4.3815346    10863.295    3285.8133    19264.687    10039.386    1233.0289   -193.14784    177.08163    84.116026 
    9300    759.38179    -105.3541    0.6871046     -104.667   -11402.897    4.3938133    4.3938133    4.3938133   -11402.897   -9542.0021   -18701.536   -5965.1521   -3442.1857    6227.6919   -5934.5353    84.825184 
    9400    492.37419   -105.11286   0.44551052   -104.66735    8012.4549    4.3855862    4.3855862    4.3855862    8012.4549    5646.0223    832.72657    17558.616   -3332.7146   -6583.2088    4784.7057    84.349584 
    9500    644.70937   -105.25423   0.58334658   -104.67088    4240.2172    4.3803694    4.3803694    4.3803694    4240.2172   -490.82808    14268.904    -1057.424    2022.9426     4726.373   -14313.563    84.048931 
    9600    653.85264   -105.25893   0.59161961   -104.66731   -12120.651    4.4026085    4.4026085    4.4026085   -12120.651   -12473.375   -26222.002    2333.4238   -9080.1076   -3814.7962    7398.2243    85.335591 
    9700     586.9044   -105.19219   0.53104343   -104.66114    20179.546    4.3669664    4.3669664    4.3669664    20179.546    19868.129    41980.159   -1309.6508    4444.2484   -1417.9366   -8957.4256    83.279776 
    9800    527.30482    -105.1475   0.47711648   -104.67038   -5554.7778    4.3991548    4.3991548    4.3991548   -5554.7778     -9023.67   -19414.277    11773.614   -6673.3374   -3537.1208   -553.54989    85.134923 
    9900    678.92994   -105.28095   0.61431008   -104.66664    5318.8951    4.3856333    4.3856333    4.3856333    5318.8951    11869.354    12351.661   -8264.3298   -1362.2024   -2768.9039     2440.927    84.352305 
   10000    501.60078   -105.11976   0.45385892    -104.6659    18641.731    4.3746588    4.3746588    4.3746588    18641.731    18669.813    8938.6307     28316.75    2156.5605   -2856.5461   -14050.043    83.720644 
   10100    760.46369   -105.34778   0.68808353    -104.6597   -19475.381    4.4054428    4.4054428    4.4054428   -19475.381   -9484.5796   -23793.348   -25148.215   -5516.2751    1101.0475    10933.757    85.500509 
   10200    467.13838   -105.08391   0.42267662   -104.66123    34298.561    4.3643168    4.3643168    4.3643168    34298.561    26803.457    26082.222    50010.004    6308.6163   -3761.1174   -19426.657    83.128284 
   10300    670.15378    -105.2827   0.60636922   -104.67633   -10585.474    4.3974279    4.3974279    4.3974279   -10585.474   -6046.2127   -21105.987   -4604.2231   -3851.2884    5778.5107    3438.5229      85.0347 
   10400    650.34506   -105.26066   0.58844588   -104.67222    5115.4975    4.3877035    4.3877035    4.3877035    5115.4975   -9326.3989   -1461.0644    26133.956    4478.6993    3985.4306   -8625.6243    84.471813 
   10500    516.91155   -105.13663   0.46771243   -104.66892    17896.028    4.3678822    4.3678822    4.3678822    17896.028    20915.226     13539.32    19233.537   -3295.1444    821.61124   -3912.6119    83.332181 
   10600    665.84922   -105.26443   0.60247437   -104.66196   -13209.403    4.4084373    4.4084373    4.4084373   -13209.403   -26828.273   -23608.646    10808.712   -1248.8672    6566.0217   -243.44218    85.674976 
   10700    622.50956   -105.22484   0.56325973   -104.66158    20801.307     4.366432     4.366432     4.366432    20801.307    14243.863    25514.397     22645.66      2046.02    -4308.239   -10136.919    83.249205 
   10800    462.64004   -105.09293   0.41860643   -104.67432    7568.9404    4.3879688    4.3879688    4.3879688    7568.9404   -5593.7764   -6632.5191    34933.117    -6155.399    6654.2204   -1227.0745    84.487134 
   10900    757.82958   -105.35073   0.68570013   -104.66503   -6020.4245    4.3949317    4.3949317    4.3949317   -6020.4245   -14187.722    11584.557   -15458.108    1994.4653   -5013.5227   -2452.8682    84.889972 
   11000    452.11958   -105.07163    0.4090873   -104.66255    25462.398    4.3670371    4.3670371    4.3670371    25462.398    13282.628    10987.386    52117.178   -9109.1747    2082.8438    -2422.621    83.283824 
   11100    788.79655   -105.37505   0.71371969   -104.66133   -14471.483     4.400894     4.400894     4.400894   -14471.483   -22818.633   -2627.2185   -17968.599    137.57967   -1505.3054    1125.4896    85.235932 
   11200    497.01994   -105.11589   0.44971409   -104.66617    14263.041    4.3734484    4.3734484    4.3734484    14263.041   -2717.6506    17266.138    28240.635   -2037.9884   -4155.1094   -3532.1512    83.651172 
   11300    726.01202   -105.32968   0.65691093   -104.67277      4516.79    4.3842777    4.3842777    4.3842777      4516.79   -1676.6197    13607.266    1619.7231   -7216.3694    1603.9585    881.90822    84.274108 
   11400    646.34084   -105.25455   0.58482277   -104.66973   -10358.037    4.3948705    4.3948705    4.3948705   -10358.037   -21166.875     1684.866   -11592.102     5454.281   -3813.3848    47.402365    84.886427 
   11500    481.70793   -105.10297   0.43585945   -104.66711    19785.305    4.3702017    4.3702017    4.3702017    19785.305    9292.3835    15460.951     34602.58   -9764.7883    1228.2969   -5480.4957    83.465008 
   11600    765.57716   -105.35858    0.6927103   -104.66587   -4348.4864    4.3932459    4.3932459    4.3932459   -4348.4864   -8789.0743    10283.831   -14540.216    3461.2006   -481.96333    4970.4805    84.792322 
   11700    461.18588   -105.08486   0.41729068   -104.66757   -996.78591    4.3847989    4.3847989    4.3847989   -996.78591   -11667.802    -15283.42    23960.864    -2499.801    999.59333   -7648.7963    84.304167 
   11800    707.48162   -105.30223   0.64014424   -104.66209    18952.431    4.3755743    4.3755743    4.3755743    18952.431    20240.996     31868.85    4747.4466   -5515.7356    2250.6819    5887.8118    83.773214 
   11900    574.45669   -105.18738   0.51978049    -104.6676   -16553.719    4.3972335    4.3972335    4.3972335   -16553.719   -22556.633   -27218.589    114.06559     4158.262    -3706.627   -4261.1053    85.023425 
   12000    553.82086   -105.16625   0.50110875   -104.66514     23696.65    4.3723886    4.3723886    4.3723886     23696.65    30002.162    19421.039    21666.748   -4039.2322   -709.11035    1034.7786     83.59037 
   12100    692.19219   -105.29529   0.62631004   -104.66898   -4512.1203    4.3893826    4.3893826    4.3893826   -4512.1203   -14536.445   -9367.8159      10367.9    1225.2523   -953.94514    5898.6393    84.568826 
   12200    503.24413   -105.12447   0.45534586   -104.66913   -955.09545    4.3874357    4.3874357    4.3874357   -955.09545    1088.8307   -10904.195    6950.0782   -999.05121    -2542.001   -8171.5377    84.456347 
   12300    733.82869   -105.32655   0.66398362   -104.66256     20898.91    4.3723475    4.3723475    4.3723475     20898.91    20379.364      9599.77    32717.596   -1246.6655   -655.42823    12841.056    83.588015 
   12400    524.65354    -105.1408   0.47471754   -104.66609    -15874.17      4.40004      4.40004      4.40004    -15874.17   -14779.193   -21131.235   -11712.082    410.63518   -51.947902   -2865.4447    85.186323 
   12500    675.20766   -105.27179   0.61094208   -104.66085    22654.525    4.3690967    4.3690967    4.3690967    22654.525    26711.206    7991.2802     33261.09    375.57517   -5536.7594    4413.9863    83.401716 
   12600    575.82937    -105.1912   0.52102251   -104.67018     -3944.86    4.3906056    4.3906056    4.3906056     -3944.86    5705.9745   -7178.3801   -10362.174    622.26974    3177.1099     9516.748    84.639539 
   12700    630.70651   -105.23866    0.5706765   -104.66798    3159.3277    4.3864043    4.3864043    4.3864043    3159.3277    14764.376   -14865.891    9579.4985    2989.4842   -8613.8096   -6052.9682    84.396801 
   12800    679.62388   -105.28056   0.61493797   -104.66562        16099    4.3694109    4.3694109    4.3694109        16099    17457.086    9821.4032    21018.512   -5924.1835    2428.9418    17709.813    83.419706 
   12900    487.58152   -105.10835     0.441174   -104.66717   -6436.0399    4.4000051    4.4000051    4.4000051   -6436.0399    17766.536   -19372.385   -17702.271    4854.5288   -4159.6956   -5477.1323    85.184293 
   13000    745.06235   -105.33792   0.67414807   -104.66377    13037.184    4.3695521    4.3695521    4.3695521    13037.184    9108.2256   -46.293415    30049.621    -9382.218    233.20429    9655.6025    83.427794 
   13100    467.81576   -105.09602   0.42328953   -104.67273    4872.9091    4.3848053    4.3848053    4.3848053    4872.9091    26817.542    406.94852   -12605.763    2502.2318    725.24531     7639.859    84.304536 
   13200    687.38618   -105.28618   0.62196146   -104.66422   -7781.9013    4.3940411    4.3940411    4.3940411   -7781.9013   -4376.0781    -19669.37    699.74421   -5795.0541    -4276.337   -5438.2768    84.838377 
   13300    566.05055   -105.17355   0.51217443   -104.66137     17021.27      4.36445      4.36445      4.36445     17021.27    33008.233    13301.106     4754.472   -2813.1977    4883.8922    19545.339    83.135893 
   13400    612.86853   -105.22265   0.55453632   -104.66811   -7411.8588    4.3960046    4.3960046    4.3960046   -7411.8588    2641.9714   -9370.0177    -15507.53   -280.99204    -7354.972   -9058.8271     84.95216 
   13500    617.47206   -105.22628    0.5587017   -104.66758    1388.6532      4.37871      4.37871      4.37871    1388.6532    5426.7861   -9829.3795    8568.5531    1106.3901    547.62951    16222.671    83.953448 
   13600    502.36528    -105.1228   0.45455066   -104.66825    8038.5867    4.3781683    4.3781683    4.3781683    8038.5867    24107.734     12449.22   -12441.194    3826.0138    -4701.465   -650.46512    83.922296 
   13700    702.93774   -105.29893   0.63603284    -104.6629   -12627.517    4.3927289    4.3927289    4.3927289   -12627.517   -19682.008   -26804.646    8604.1029    3290.1115   -8997.8938    2805.2569    84.762391 
   13800    499.42053   -105.11472   0.45188619   -104.66283    11202.214    4.3720557    4.3720557    4.3720557    11202.214    24550.478     12217.37   -3161.2051   -1458.0121    3135.9762    12718.994    83.571279 
   13900    691.68711   -105.29058   0.62585303   -104.66473   -7146.8213    4.3902964    4.3902964    4.3902964   -7146.8213   -12353.302   -11647.813    2560.6515    7560.1225   -8352.7052   -7273.8072    84.621659 
   14000    523.57856   -105.14022   0.47374488   -104.66647    2886.6396    4.3817641    4.3817641    4.3817641    2886.6396    24091.888   -11344.521   -4087.4481   -5990.2669   -760.69264     17436.75    84.129242 
   14100    602.96199     -105.212   0.54557268   -104.66643    6425.0613    4.3795437    4.3795437    4.3795437    6425.0613    10979.961    9006.5027   -711.27988    8785.6322    -4139.243   -5367.3425    84.001413 
   14200    628.01053   -105.23362   0.56823713   -104.66538   -8543.5669    4.3890417    4.3890417    4.3890417   -8543.5669   -2679.9346    -21220.18   -1730.5858   -10997.273   -1815.2162    9735.4216    84.549126 
   14300    522.89901   -105.13902   0.47313001   -104.66589    7600.4044      4.37634      4.37634      4.37634    7600.4044    25167.612    9681.7095   -12048.108    4298.0723    2807.4435    5633.3924    83.817204 
   14400    735.08835   -105.33098   0.66512338   -104.66586   -7137.0043    4.3865471    4.3865471    4.3865471   -7137.0043   -14615.253   -16013.133    9217.3735    -5649.301    1832.7913   -2833.5082    84.405041 
   14500      458.938   -105.08535   0.41525674    -104.6701    1798.9208    4.3830072    4.3830072    4.3830072    1798.9208    32020.641   -7179.4414   -19444.437   -2084.5963     -370.917    18794.701    84.200863 
   14600    676.58738   -105.28119   0.61219048     -104.669    12992.224    4.3762972    4.3762972    4.3762972    12992.224    1318.3286    3941.9081    33716.436   -3325.3695    8487.1542   -9703.2175    83.814746 
   14700     588.3543   -105.20235   0.53235533      -104.67    -14384.77    4.3949226    4.3949226    4.3949226    -14384.77    10911.775    -30876.19   -23189.894   -122.03257   -4952.8097      15793.3    84.889443 
   14800    575.69846    -105.1864   0.52090407   -104.66549     17077.63    4.3727436    4.3727436    4.3727436     17077.63    17513.233    12744.792    20974.865   -3483.6022    7778.1192   -73.227893    83.610734 
   14900    676.47095   -105.28059   0.61208513   -104.66851    -5484.688    4.3848753    4.3848753    4.3848753    -5484.688    4266.7688   -16105.362   -4615.4705    4409.1857    -1063.122    5243.3068    84.308576 
   15000    456.99961   -105.08078   0.41350285   -104.66728   -5667.7105    4.3898024    4.3898024    4.3898024   -5667.7105    17295.631    -17820.29   -16478.473    -1888.419    -1381.882    14138.668    84.593098 
   15100    768.27374   -105.35411   0.69515023   -104.65896    15001.009    4.3685052    4.3685052    4.3685052    15001.009    11941.041    10428.788    22633.198    4598.6032     4267.577    -5385.009    83.367844 
   15200    491.02674   -105.11062   0.44429131   -104.66633   -21101.741    4.3970398    4.3970398    4.3970398   -21101.741    4404.5088   -31466.304   -36243.429    309.47315   -1973.5888     19468.78    85.012189 
   15300    627.19976   -105.22776   0.56750352   -104.66026    19690.537    4.3738651    4.3738651    4.3738651    19690.537     20188.27    12041.953    26841.387    403.40767    451.32106   -5018.4002    83.675081 
   15400    635.66604   -105.24218   0.57516399   -104.66702    -12362.65    4.3836558    4.3836558    4.3836558    -12362.65    -1011.729   -17315.825   -18760.397    1109.0518    4659.4025      14575.3     84.23825 
   15500    428.11961   -105.05482   0.38737162   -104.66745    6021.8538    4.3867856    4.3867856    4.3867856    6021.8538    21181.204   -5443.0971     2327.455   -99.168536   -4402.2019    8090.6551    84.418808 
   15600    815.58604   -105.40183   0.73795939   -104.66387   -1056.9568    4.3760773    4.3760773    4.3760773   -1056.9568      3461.74   -2756.2736   -3876.3369   -197.27228    6331.3043    1418.0391    83.802109 
   15700    395.73529   -105.03017    0.3580696    -104.6721   -7133.8633    4.3848952    4.3848952    4.3848952   -7133.8633    11890.974   -15496.213   -17796.351   -1908.0309    1472.4705    14425.993     84.30972 
   15800    712.18211   -105.31096   0.64439734   -104.66657     6327.773     4.383564     4.383564     4.383564     6327.773    12044.244    1689.4185    5249.6563   -981.20277   -3945.9634   -2317.9894    84.232958 
   15900    613.71985   -105.22626   0.55530661   -104.67096   -13970.405    4.3805616    4.3805616    4.3805616   -13970.405   -3708.4516   -17255.366   -20947.398   -4124.8324    11190.558    9887.8702    84.059996 
   16000    432.67927    -105.0641   0.39149729   -104.67261    18247.565    4.3796412    4.3796412    4.3796412    18247.565    25889.876    7217.9374    21634.882    518.04439   -10435.585    3761.7674    84.007025 
   16100    801.29844   -105.39286   0.72503166   -104.66783   -18489.308    4.3924664    4.3924664    4.3924664   -18489.308   -17480.334   -25399.395   -12588.194   -3286.2154    9922.1653    1085.7326    84.747196 
   16200    377.22301   -105.00964   0.34131931   -104.66832    23464.979    4.3645966    4.3645966    4.3645966    23464.979    23145.103    15782.225     31467.61   -3320.6879   -4111.6735    12154.547    83.144273 
   16300       771.16   -105.36638   0.69776178   -104.66861   -7930.8269    4.3970404    4.3970404    4.3970404   -7930.8269   -5102.5392   -20823.998    2134.0569   -1375.4993   -262.40981   -5344.6206    85.012223 
   16400    612.97864   -105.22607   0.55463596   -104.67144    925.18506    4.3759929    4.3759929    4.3759929    925.18506    8935.9323   -15916.538    9756.1609   -2500.1452    9593.5792    13424.626    83.797262 
   16500     565.2614   -105.18225   0.51146039   -104.67079    14875.653    4.3731015    4.3731015    4.3731015    14875.653    15614.751    8839.3059    20172.901    -3640.094   -11397.416    809.53121    83.631267 
   16600     714.0773    -105.3101   0.64611215   -104.66399     -7064.44    4.3945976    4.3945976    4.3945976     -7064.44    9774.1608   -30430.664   -536.81703    1636.2356    8175.0529    2815.9319    84.870615 
   16700    548.46463    -105.1613   0.49626232   -104.66504    9230.6083    4.3682084    4.3682084    4.3682084    9230.6083    5235.7596    5530.7818    16925.284   -5373.7149   -6639.2403    12962.641    83.350852 
   16800    559.34994   -105.17587   0.50611158   -104.66976    2650.9643    4.3865361    4.3865361    4.3865361    2650.9643    19898.183   -13986.313    2041.0228    2685.6689   -3270.3874   -11814.482     84.40441 
   16900    747.07716   -105.34347   0.67597111    -104.6675    -6012.693    4.3843291    4.3843291    4.3843291    -6012.693   -2163.5351   -18685.231    2810.6867   -2001.2732     2506.525     15953.31    84.277074 
   17000    377.69037   -105.01338   0.34174218   -104.67164    1650.4304    4.3769649    4.3769649    4.3769649    1650.4304    6695.7071   -3681.7324    1937.3164    8.1011351   -9868.1732   -9946.2723    83.853113 
   17100     825.5914    -105.4168   0.74701245   -104.66979   -2790.9153    4.3813461    4.3813461    4.3813461   -2790.9153    15639.606   -14461.178   -9551.1734    1260.6858   -4695.1966      3946.29    84.105168 
   17200    474.14121   -105.10298   0.42901293   -104.67396   -15269.624    4.3905297    4.3905297    4.3905297   -15269.624   -9440.7764   -23484.208   -12883.889   -155.83238   -1846.4485    3739.5003     84.63515 
   17300    580.54517   -105.19288   0.52528947   -104.66759    17010.152    4.3643726    4.3643726    4.3643726    17010.152    31714.577    12709.295    6606.5826    4157.6349   -15188.503   -10674.794    83.131473 
   17400    684.67621   -105.28718   0.61950942   -104.66767   -18476.174    4.3988065    4.3988065    4.3988065   -18476.174   -11753.153   -38676.787   -4998.5817   -1176.3704    6525.3631    12696.524    85.114699 
   17500    541.42404   -105.16115   0.48989185   -104.67126    7285.3028    4.3658461    4.3658461    4.3658461    7285.3028    19127.622    9923.3629   -7195.0766     6120.476   -16828.063   -8423.7713      83.2157 
   17600    625.65193   -105.24187   0.56610301   -104.67576    1937.3754    4.3849976    4.3849976    4.3849976    1937.3754   -2475.2828   -19123.622    27411.031   -2621.1052   -568.66944    3579.8245    84.315629 
   17700    709.14609   -105.31595   0.64165029    -104.6743   -8693.0052    4.3820737    4.3820737    4.3820737   -8693.0052    -986.4437   -16956.408   -8136.1638    4620.9977   -1322.2428    3600.5524    84.147076 
   17800    393.35793   -105.03204   0.35591852   -104.67612    18686.805    4.3706313    4.3706313    4.3706313    18686.805    9616.7626    8669.6882    37773.965   -479.87401   -16412.407   -6070.6781    83.489627 
   17900    902.80543   -105.48159   0.81687733   -104.66472    -15124.53    4.3934718    4.3934718    4.3934718    -15124.53   -5005.6729   -25701.452   -14666.466    999.60775     10195.78    3749.4467    84.805407 
   18000    360.07875   -104.99315   0.32580682   -104.66734    24863.127     4.361674     4.361674     4.361674    24863.127    16375.315    17673.424    40540.641   -1054.3495   -23473.929    -2600.034    82.977359 
   18100    673.36838   -105.27475   0.60927786   -104.66547   -18889.865    4.3994605    4.3994605    4.3994605   -18889.865   -2915.7857   -29092.398   -24661.412    3309.8749    4358.7151   -7967.8711     85.15267 
   18200    699.44001    -105.2969   0.63286802   -104.66404    26626.214    4.3587301    4.3587301    4.3587301    26626.214    20007.907    18237.468    41633.267   -5019.5155   -13393.705    1969.4067    82.809459 
   18300     381.7009   -105.02486     0.345371   -104.67949   -19817.154    4.3907644    4.3907644    4.3907644   -19817.154    1347.6425   -25618.598   -35180.507    4743.4646   -12319.379   -10561.143    84.648723 
   18400    763.87159   -105.36002   0.69116707   -104.66886    6575.8027    4.3763789    4.3763789    4.3763789    6575.8027    5134.6159   -3987.7792    18580.571   -908.70089    3748.3113   -4835.8855    83.819438 
   18500    499.45882   -105.12701   0.45192083   -104.67509   -4383.7092    4.3715441    4.3715441    4.3715441   -4383.7092    2434.7716   -2078.3945   -13507.505    20.676076   -21950.362     -1913.83    83.541948 
   18600    571.75224   -105.18439   0.51733345   -104.66706    -18457.57    4.3939786    4.3939786    4.3939786    -18457.57   -10686.416   -28288.228   -16398.067    3868.8719    3219.5554    -14066.85    84.834756 
   18700    690.50417   -105.28515   0.62478269   -104.66037    14995.825    4.3623764    4.3623764    4.3623764    14995.825    11552.617    25047.651    8387.2084   -494.92957   -5952.3022    4001.0431    83.017455 
   18800    433.72423   -105.06171    0.3924428   -104.66927   -24229.918    4.3922493    4.3922493    4.3922493   -24229.918    -11303.14   -26580.326   -34806.288    3345.4564     -14327.5    -12991.39    84.734633 
   18900    789.64711   -105.37858    0.7144893   -104.66409     15303.82    4.3688437    4.3688437    4.3688437     15303.82    15963.073    16874.439    13073.949    1573.5226    10271.979   -1189.1991    83.387224 
   19000    454.16014    -105.0844   0.41093364   -104.67347   -10123.929    4.3846151    4.3846151    4.3846151   -10123.929   -4294.2904   -5505.2836   -20572.214    -441.5534   -21751.313   -2234.8717    84.293568 
   19100     700.1634   -105.30388   0.63352255   -104.67036   -4119.8998      4.37712      4.37712      4.37712   -4119.8998    3252.4631   -15096.537   -515.62512     4124.454    5143.0285   -12660.437    83.862027 
   19200    618.29207   -105.23022   0.55944366   -104.67077    10731.454    4.3770793    4.3770793    4.3770793    10731.454    14118.018    16038.416    2037.9277    -3418.075    -10351.69    7285.9148     83.85969 
   19300    605.06261   -105.21835   0.54747336   -104.67087   -20518.587    4.3853942    4.3853942    4.3853942   -20518.587   -18846.919    -27832.55   -14876.292    3420.9261   -14342.896   -14004.079    84.338506 
   19400      596.575   -105.20788    0.5397936   -104.66809    21007.461    4.3688049    4.3688049    4.3688049    21007.461    24197.105    8357.0208    30468.256    259.50662    4980.3385    4464.7623    83.385004 
   19500    681.94274   -105.28807   0.61703612   -104.67103   -13528.668    4.3871209    4.3871209    4.3871209   -13528.668   -20952.891   -6649.6076   -12983.505   -1442.6224   -17819.771   -5414.7082    84.438171 
   19600    503.81854   -105.12671    0.4558656   -104.67085    6784.2208    4.3759435    4.3759435    4.3759435    6784.2208    13927.181   -20985.292    27410.774    6181.5848    5542.2602   -7916.3452    83.794423 
   19700     740.9251    -105.3391    0.6704046    -104.6687    5959.3551    4.3759171    4.3759171    4.3759171    5959.3551    6238.1452    9049.2928    2590.6272   -2623.2886   -5374.0779    1509.9109    83.792908 
   19800    433.20114   -105.06527   0.39196949    -104.6733   -5256.8983    4.3852968    4.3852968    4.3852968   -5256.8983   -5098.9806    -23548.79    12877.076    5361.3875   -4184.4462   -13909.808    84.332891 
   19900    777.76227   -105.37204   0.70373565   -104.66831    3960.7755    4.3744875    4.3744875    4.3744875    3960.7755    15324.371   -8784.9745    5342.9296    4914.2496    1733.6694   -943.29678    83.710808 
   20000    565.57072   -105.18518   0.51174027   -104.67344   -1077.6876    4.3775642    4.3775642    4.3775642   -1077.6876   -9454.2316    2770.4485    3450.7201    1236.0337   -1212.6264     -5848.88    83.887561 
   20100     474.1391   -105.10295   0.42901102   -104.67394    -11723.82    4.3860625    4.3860625    4.3860625    -11723.82    3024.8661   -27960.467   -10235.859    8728.4459   -9435.6559   -13037.467    84.377073 
   20200     843.2648   -105.42936   0.76300371   -104.66636    11762.809    4.3655617    4.3655617    4.3655617    11762.809    3632.2925    15009.657    16646.477    2915.8261    8067.5717    6718.1975     83.19944 
   20300    297.77019   -104.94315   0.26942873   -104.67372   -20744.175    4.3918756    4.3918756    4.3918756   -20744.175   -12136.114   -26789.563   -23306.849    4824.5818   -16189.038    -17213.94    84.713008 
   20400     812.2291   -105.39835   0.73492196   -104.66343    8652.7567    4.3688223    4.3688223    4.3688223    8652.7567     9546.953    847.95976    15563.357     6681.495    4575.7572    2827.8303    83.385997 
   20500    511.17349   -105.13391   0.46252052   -104.67139   -12079.816    4.3825338    4.3825338    4.3825338   -12079.816   -12827.543   -14719.864   -8692.0406    1693.6244   -5054.7348   -8451.4375    84.173587 
   20600    543.10815   -105.16299   0.49141567   -104.67157   -6358.1769    4.3798409    4.3798409    4.3798409   -6358.1769    2646.3258   -14683.577   -7037.2791    8381.9314   -9626.9664   -11323.679    84.018517 
   20700    737.20888   -105.33557   0.66704209   -104.66853    10055.849    4.3738388    4.3738388    4.3738388    10055.849    8736.4052   -6653.2037    28084.346   -3392.7019    5238.7148   -156.01574    83.673575 
   20800    387.34657   -105.02638   0.35047932    -104.6759   -20103.356    4.3862064    4.3862064    4.3862064   -20103.356    -3860.657   -21424.337   -35025.074    7407.1111   -10817.293   -16401.801    84.385379 
   20900    744.03915   -105.34081   0.67322226   -104.66759    20971.299    4.3705315    4.3705315    4.3705315    20971.299    16586.801    143.95117    46183.145   -4300.1677    3502.3319   -159.14154    83.483908 
   21000    565.47559   -105.18546   0.51165419    -104.6738   -22895.472    4.3882898    4.3882898    4.3882898   -22895.472   -17571.254   -18638.673   -32476.491    1584.3593   -3054.2359   -12068.823    84.505683 
   21100    487.89797   -105.11523   0.44146034   -104.67377    13984.329     4.367527     4.367527     4.367527    13984.329    5239.8891   -2797.0735    39510.172     2577.327   -4487.8412   -5357.6282    83.311855 
   21200    842.58191   -105.43244   0.76238582   -104.67005   -8703.3701    4.3888425    4.3888425    4.3888425   -8703.3701   -6219.2538   -2326.0776   -17564.779   -2143.7172    2716.4474   -2016.4445    84.537613 
   21300    292.44444   -104.94329   0.26460987   -104.67868    3043.0338    4.3711732    4.3711732    4.3711732    3043.0338    2351.3438   -15126.552    21904.309    5686.0781   -2251.2086   -8567.3925    83.520687 
   21400    794.93659   -105.39589   0.71927533   -104.67661    879.57943    4.3809525    4.3809525    4.3809525    879.57943   -361.09194    11623.386   -8623.5553    2166.9908   -4534.0336    2717.1564    84.082505 
   21500    565.22185   -105.18782   0.51142461    -104.6764    -1181.397    4.3816406    4.3816406    4.3816406    -1181.397   -5214.0396   -13036.523    14706.372    3525.5018    6506.5063    -3842.399     84.12213 
   21600    506.27493   -105.13501    0.4580882   -104.67692   -4700.9922     4.370822     4.370822     4.370822   -4700.9922   -6708.8624     4397.348   -11791.462     9040.224   -12330.846   -6733.5031    83.500554 
   21700    797.38133    -105.3904   0.72148738   -104.66891    1689.2263    4.3882483    4.3882483    4.3882483    1689.2263   -12493.015    841.01535    16719.679    2873.1067    6404.8424    7291.6907     84.50328 
   21800    515.13217   -105.14159   0.46610241   -104.67549   -5572.6336    4.3710781    4.3710781    4.3710781   -5572.6336    3296.4775   -5726.7769   -14287.601    3553.4299   -6108.0699   -16164.043    83.515232 
   21900    448.35647   -105.08473   0.40568236   -104.67905     7485.918    4.3818551    4.3818551    4.3818551     7485.918   -6555.8084    18355.368    10658.194    4144.7213   -6550.9526    8173.1312    84.134484 
   22000    892.48576   -105.48007   0.80753988   -104.67253   -4536.6749    4.3813274    4.3813274    4.3813274   -4536.6749    7129.6867   -11323.872    -9415.839   -5108.5984    3422.7784   -10585.436     84.10409 
   22100      189.417   -104.85194   0.17138848   -104.68055    7853.8085     4.370177     4.370177     4.370177    7853.8085   -3074.4647    17643.332    8992.5577    8045.2829    -15348.15   -1016.9123    83.463593 
   22200    952.12303   -105.53364   0.86150093   -104.67214   -13189.411    4.3883345    4.3883345    4.3883345   -13189.411   -12568.043   -4869.9934   -22130.196   -7132.9809    93.053977   -893.95805     84.50826 
   22300    457.15741   -105.09115   0.41364563    -104.6775    5516.8266    4.3730868    4.3730868    4.3730868    5516.8266    5847.9105   -4206.6766    14909.246    3508.9977   -5821.9887    -7790.703    83.630422 
   22400    598.94649   -105.22138   0.54193937   -104.67944   -4925.0916    4.3759133    4.3759133    4.3759133   -4925.0916    -5250.143    13420.629   -22945.761    79.652403   -12699.792    1611.1568    83.792691 
   22500    670.77833   -105.27812   0.60693433   -104.67118   -2413.9727    4.3894331    4.3894331    4.3894331   -2413.9727    6643.3091   -20216.204    6330.9771    3.2294956    6754.8881   -5118.1316    84.571749 
   22600    494.41459   -105.12013   0.44735671   -104.67277    2760.2514    4.3630875    4.3630875    4.3630875    2760.2514    1371.4443     11537.18   -4627.8702    7887.5619   -18964.251   -1477.2256    83.058059 
   22700    576.04661   -105.19551   0.52121908   -104.67429   -1490.1538    4.3897822    4.3897822    4.3897822   -1490.1538   -5875.5518   -5865.8795    7270.9698    780.42252    7313.6326    151.32118    84.591925 
   22800    821.98268    -105.4151    0.7437472   -104.67135   -9255.7284    4.3753443    4.3753443    4.3753443   -9255.7284   -7786.3066   -13087.099   -6893.7792    8120.4241   -6442.5469    -4694.959    83.760004 
   22900    271.25968   -104.92295   0.24544146   -104.67751    8965.5168    4.3727017    4.3727017    4.3727017    8965.5168   -1620.8483    12442.871    16074.528    1278.2457     -7010.35    305.46076    83.608329 
   23000    946.65167   -105.52384   0.85655033   -104.66729   -9274.0444    4.3872617    4.3872617    4.3872617   -9274.0444   -9094.4027   -7506.7943   -11220.936    3965.5631     6391.928    540.50971    84.446301 
   23100    368.82674   -105.00715   0.33372218   -104.67343     8701.519    4.3723072    4.3723072    4.3723072     8701.519    2757.8433   -2711.7547    26058.468    1960.9175   -9618.4749   -3390.3686    83.585702 
   23200    620.92992   -105.23519   0.56183044   -104.67336      146.043    4.3780622    4.3780622    4.3780622      146.043    1324.1023     8326.767   -9212.7403    1259.9712    1954.9747    4714.1598    83.916192 
   23300    703.07642   -105.30625   0.63615832    -104.6701    1558.7413    4.3845187    4.3845187    4.3845187    1558.7413   -13181.497   -10324.505    28182.225    960.71104    1435.4359   -2537.7423    84.288008 
   23400    503.42985   -105.12945   0.45551391   -104.67394   -3164.4526    4.3719247    4.3719247    4.3719247   -3164.4526    6400.5369   -3880.3145    -12013.58    1936.0599   -14479.865   -1808.3311    83.563771 
   23500     632.1049   -105.24625   0.57194179   -104.67431    9847.6883    4.3778509    4.3778509    4.3778509    9847.6883   -3055.2525    10322.982    22275.335   -4112.7263    11354.611    5270.4185    83.904044 
   23600    619.22711   -105.23443    0.5602897   -104.67414   -13872.903    4.3878007    4.3878007    4.3878007   -13872.903    3575.6669   -23100.864   -22093.511    3042.2865   -13769.805   -6650.9582     84.47743 
   23700    495.49097   -105.11992   0.44833064   -104.67159    18502.694    4.3609193    4.3609193    4.3609193    18502.694    12592.692    19405.415    23509.975   -5406.0523    2162.5515    4089.3049    82.934292 
   23800    730.31844   -105.33161   0.66080747    -104.6708   -21038.969    4.3955593    4.3955593    4.3955593   -21038.969   -17404.322   -18194.794   -27517.791    4295.6623    3153.8113   -1874.9389    84.926342 
   23900    488.86003   -105.11533   0.44233083     -104.673    12129.326    4.3653032    4.3653032    4.3653032    12129.326     18554.47    3349.1214    14484.387    3722.8602   -12450.266   -5177.6604     83.18466 
   24000    617.37205   -105.23469    0.5586112   -104.67608    -3723.252    4.3785108    4.3785108    4.3785108    -3723.252    3953.6603    1567.6503   -16691.067   -78.713021    16631.715    992.41035    83.941995 
   24100     627.9009   -105.23765   0.56813793   -104.66951   -7344.5934    4.3859866    4.3859866    4.3859866   -7344.5934   -1991.5131   -18004.789   -2037.4779    6430.0436   -5408.7438   -5281.2221    84.372694 
   24200    576.12263    -105.1883   0.52128786   -104.66701    6990.6986    4.3616899    4.3616899    4.3616899    6990.6986    23993.673    7659.6485   -10681.226   -2020.6715    4562.5349   -1897.1832    82.978269 
   24300    584.59632   -105.19801   0.52895503   -104.66905   -12063.757    4.3911483    4.3911483    4.3911483   -12063.757   -6420.6675   -15530.988   -14239.614     5770.327    15011.077    1544.2036    84.670927 
   24400    702.32858   -105.30285   0.63548166   -104.66737    6699.7651    4.3684106    4.3684106    4.3684106    6699.7651    31235.728   -2237.2197   -8899.2131    358.46792   -7351.0419   -8225.4256    83.362428 
   24500    377.56903   -105.01707   0.34163239   -104.67543   -7677.8434    4.3812533    4.3812533    4.3812533   -7677.8434   -2791.2907   -8219.8041   -12022.435    1837.2559    20664.267    3558.6857    84.099825 
   24600     832.5225   -105.42328   0.75328386      -104.67    882.30867    4.3768039    4.3768039    4.3768039    882.30867    14520.147   -3079.2436    -8793.977    1093.5719   -3296.3722    -4569.819    83.843863 
   24700    470.70668   -105.10284    0.4259053   -104.67693   -1887.9635    4.3776715    4.3776715    4.3776715   -1887.9635    6269.4096   -8586.0903   -3347.2097   -3017.6143    466.04052   -705.84966    83.893729 
   24800    547.62014   -105.17114   0.49549821   -104.67564    3457.1449    4.3768674    4.3768674    4.3768674    3457.1449    35499.364   -7213.4983   -17914.431    2678.5377    11120.795    7056.9136     83.84751 
   24900    792.41911   -105.38806   0.71699747   -104.67107   -1639.5185     4.382091     4.382091     4.382091   -1639.5185    2386.4892   -16131.588     8826.543    5880.3447    -4119.696   -4960.9249    84.148075 
   25000     398.0574   -105.03734    0.3601707   -104.67717    2283.5578    4.3715728    4.3715728    4.3715728    2283.5578    27314.604   -5748.0418   -14715.889     1468.877     10317.25    4769.9296    83.543594 
   25100    754.89108    -105.3597   0.68304131   -104.67666    2487.3544    4.3800884    4.3800884    4.3800884    2487.3544    12536.783   -16303.695    11228.975    11805.777    2969.0242   -1268.4916    84.032757 
   25200    577.31874   -105.19786   0.52237013   -104.67549    -4026.448    4.3837335    4.3837335    4.3837335    -4026.448    20035.751   -17317.736   -14797.359   -4990.0567    6155.0253   -3508.2069    84.242732 
   25300    485.01246   -105.11306   0.43884947   -104.67421    9264.9562    4.3595495    4.3595495    4.3595495    9264.9562    9689.8131    6575.2229    11529.833    10641.789    13047.235    5377.2397    82.856169 
   25400    738.94417   -105.33941   0.66861221    -104.6708   -12479.136    4.3948599    4.3948599    4.3948599   -12479.136    3226.0112   -33404.132   -7259.2862   -4950.4552    -3874.791   -2592.9218    84.885809 
   25500    493.66102   -105.12412   0.44667486   -104.67745    3013.6362    4.3658126    4.3658126    4.3658126    3013.6362    18260.174    4509.2524   -13728.517    3469.4109    13634.486    3647.7725    83.213781 
   25600    512.98678   -105.14505   0.46416122   -104.68089    3565.9473    4.3746261    4.3746261    4.3746261    3565.9473    15852.806   -11016.998    5862.0338    2429.3789    3830.3662    644.05709    83.718768 
   25700    776.25723   -105.37399   0.70237385   -104.67162   -12772.085    4.3872798    4.3872798    4.3872798   -12772.085    3832.0248    -21525.58   -20622.698   -7135.4105    1328.6926    -2202.124    84.447346 
   25800     299.6323   -104.94452    0.2711136   -104.67341    12759.432    4.3644969    4.3644969    4.3644969    12759.432    40078.641    -281.7161     -1518.63    7589.5147     11643.28     2153.759    83.138575 
   25900    886.58443   -105.47083   0.80220022   -104.66863   -12933.693    4.3857661    4.3857661    4.3857661   -12933.693   -8615.2222   -24362.933   -5822.9223   -3709.9544   -5518.1058   -3735.6758    84.359966 
   26000    367.33894   -105.00765   0.33237599   -104.67527    8774.5684    4.3736566    4.3736566    4.3736566    8774.5684    48558.034   -13561.039   -8673.2895    3196.7585     12636.13     3881.814    83.663118 
   26100    714.87784   -105.32181    0.6468365   -104.67497   -8180.7996    4.3743553    4.3743553    4.3743553   -8180.7996   -4734.1503   -12500.236   -7308.0124    4732.0093    380.23346    -343.0317    83.703218 
   26200     657.7874   -105.26716   0.59517986   -104.67198    5477.6497    4.3824342    4.3824342    4.3824342    5477.6497    49984.339   -25098.868   -8452.5213   -9194.0162   -953.91544    2636.9112    84.167847 
   26300    518.44185   -105.14448   0.46909708   -104.67539   -4984.6446    4.3722667    4.3722667    4.3722667   -4984.6446    6201.4536   -9334.8148   -11820.573    7876.4744    12975.404    4282.4586    83.583384 
   26400    679.21034   -105.28871   0.61456379   -104.67415    8890.1115    4.3751213    4.3751213    4.3751213    8890.1115    41044.269    -16694.75    2320.8157   -6498.6668   -3773.0893   -1484.7193    83.747197 
   26500      596.069   -105.21508   0.53933575   -104.67574   -9733.1057    4.3838317    4.3838317    4.3838317   -9733.1057    4385.0739   -18918.369   -14666.022   -2834.3098    9498.0986    4201.5825    84.248393 
   26600    472.22371   -105.10022   0.42727794   -104.67295    18188.414    4.3644702    4.3644702    4.3644702    18188.414    48585.502    3284.1595    2695.5815   -861.12432    1231.1838    966.09187    83.137046 
   26700    646.29581   -105.26044   0.58478203   -104.67566   -18674.217    4.3876294    4.3876294    4.3876294   -18674.217   -16656.762   -29398.739   -9967.1514   -16166.816   -5130.3414    930.83898    84.467534 
   26800    680.43738   -105.28786   0.61567404   -104.67219    13494.475    4.3676255    4.3676255    4.3676255    13494.475    40723.321    3343.0866   -3582.9841     8468.393    13307.354     5480.434    83.317488 
   26900    435.07917   -105.07077   0.39366878    -104.6771   -17109.973    4.3843149    4.3843149    4.3843149   -17109.973   -17138.614    -26724.92   -7466.3847   -9710.9754   -11164.676    1390.3458    84.276254 
   27000    627.03406   -105.23841    0.5673536   -104.67106    3992.0755     4.372081     4.372081     4.372081    3992.0755    18921.712   -18744.865     11799.38   -5835.3498    1492.3798    3939.0721     83.57273 
   27100    630.31243   -105.24337   0.57031993   -104.67305   -8856.7677    4.3805903    4.3805903    4.3805903   -8856.7677    5344.2918   -19953.022   -11961.572   -598.30461    543.67411    1006.5607    84.061653 
   27200    489.13059   -105.12105   0.44257564   -104.67847   -13672.129     4.377974     4.377974     4.377974   -13672.129   -16410.718   -32104.237    7498.5691   -20989.734   -3778.1111    1346.1878    83.911123 
   27300      862.357   -105.45324   0.78027873   -104.67297    9645.1367    4.3709663    4.3709663    4.3709663    9645.1367    36699.238    -5928.947    -1834.881    6384.7828    7465.0934    140.15118    83.508823 
   27400    353.59328   -105.00266   0.31993863   -104.68273    1622.1375    4.3798361    4.3798361    4.3798361    1622.1375    36518.733   -27018.958   -4633.3634   -16820.101    -5436.674   -313.30975    84.018241 
   27500    645.56888   -105.26258   0.58412429   -104.67846   -8003.4666    4.3826917    4.3826917    4.3826917   -8003.4666    1315.8543   -18593.816   -6732.4379   -1228.4093    512.64108    3882.2018    84.182685 
   27600    782.98192   -105.37849   0.70845849   -104.67003    21575.748    4.3621993    4.3621993    4.3621993    21575.748    53306.822   -1359.2353    12779.658   -3899.2995   -4241.6207   -2523.0181    83.007342 
   27700    283.54953   -104.93656   0.25656157      -104.68   -23003.493    4.3898606    4.3898606    4.3898606   -23003.493   -17122.968   -43799.086   -8088.4245   -15510.294   -3120.3529    3629.1945     84.59646 
   27800    834.48579   -105.42565   0.75506028   -104.67059    10023.754    4.3679234    4.3679234    4.3679234    10023.754    27061.716   -5973.6135    8983.1588    13051.979   -4742.8353    -1182.656    83.334538 
   27900    529.15353   -105.15673   0.47878924   -104.67794    1310.3445    4.3707969    4.3707969    4.3707969    1310.3445    16370.964   -19353.468    6913.5373   -20333.616   -2230.1126   -1978.9038    83.499117 
   28000    447.63749   -105.07906    0.4050318   -104.67403     -18448.5     4.388646     4.388646     4.388646     -18448.5     -7715.63   -35791.444   -11838.426    6041.6816   -8086.8026    100.85769    84.526258 
   28100    794.40109    -105.3836    0.7187908   -104.66481    15983.118    4.3635549    4.3635549    4.3635549    15983.118    37058.758    2228.9745    8661.6197   -7605.6957    5916.9854    -3208.611    83.084751 
   28200     442.3421   -105.07429   0.40024043   -104.67405   -13908.387    4.3824391    4.3824391    4.3824391   -13908.387   -6985.1302   -29470.836    -5269.193    -5579.954   -5574.4682    2715.1753     84.16813 
   28300    627.82551   -105.23943   0.56806972   -104.67136    1185.0783     4.376793     4.376793     4.376793    1185.0783    20304.228   -15693.592    -1055.401    7981.7293    1353.5676   -1935.7266    83.843232 
   28400    657.31197   -105.26607   0.59474969   -104.67132   -2573.8846    4.3752099    4.3752099    4.3752099   -2573.8846    12634.911   -22152.992    1796.4265   -12591.746    2182.7998    1759.8415     83.75229 
   28500    548.19349   -105.17101   0.49601699   -104.67499    934.38742    4.3732057    4.3732057    4.3732057    934.38742    9558.9102    -16464.87    9709.1221     4040.495   -7278.1074   -515.66531    83.637245 
   28600    645.62617   -105.25752   0.58417612   -104.67334   -8379.3373    4.3852283    4.3852283    4.3852283   -8379.3373     17207.49   -26184.944   -16160.558     658.8628    8040.1576   -4565.0546    84.328937 
   28700    655.24209   -105.26459   0.59287681   -104.67171    21201.825    4.3605196    4.3605196    4.3605196    21201.825    37070.775   -649.03355    27183.734   -1435.1773   -8626.0302    1940.0626     82.91149 
   28800    485.43693   -105.11926   0.43923354   -104.68003   -17136.935    4.3902324    4.3902324    4.3902324   -17136.935   -9232.8488   -21736.145    -20441.81    9845.6566   -1261.4865   -5113.5767    84.617957 
   28900    767.93039   -105.36999   0.69483956   -104.67515     10868.83    4.3696661    4.3696661    4.3696661     10868.83    26760.953   -1646.2508     7491.787   -2777.0356     5683.404    695.71332    83.434327 
   29000    524.38182   -105.15455   0.47447169   -104.68008    11634.409    4.3636494    4.3636494    4.3636494    11634.409    17385.265    3295.8307    14222.131    6622.4452   -4898.2964    543.60294     83.09015 
   29100     471.9729   -105.09961     0.427051   -104.67256   -25324.337    4.3967042    4.3967042    4.3967042   -25324.337   -7974.7566   -36650.788   -31347.466     6607.143    9957.6679    -9169.061    84.992721 
   29200    949.02032   -105.51891   0.85869353   -104.66022    27405.101    4.3524225    4.3524225    4.3524225    27405.101    33504.194    19600.063    29111.047    1167.7154     586.4868    4619.2607     82.45047 
   29300    310.54241   -104.95741    0.2809853   -104.67642   -23105.302    4.3855387    4.3855387    4.3855387   -23105.302   -8175.9793   -36078.531   -25061.397    7920.0388    2121.9824   -8736.0051    84.346846 
   29400    669.18555   -105.27478   0.60549315   -104.66928    3603.5771    4.3784312    4.3784312    4.3784312    3603.5771    24495.239   -10495.042   -3189.4654   -3238.3487    12982.096   -89.108741    83.937414 
   29500    759.97155   -105.35529   0.68763823   -104.66765    2956.8964    4.3669466    4.3669466    4.3669466    2956.8964    18455.404   -4753.6358   -4831.0794   -1357.5782   -8010.7663    2414.7271    83.278645 
   29600    301.33371   -104.94914   0.27265308   -104.67649    -4840.262    4.3790025    4.3790025    4.3790025    -4840.262    12663.616   -14685.576   -12498.826     5058.702    12198.339   -9804.3082    83.970278 
   29700    866.40503   -105.45282   0.78394148   -104.66888   -1486.7592    4.3809086    4.3809086    4.3809086   -1486.7592    24816.051   -18372.593   -10903.736   -8156.8028   -6129.7347    6783.7058    84.079976 
   29800    477.40835   -105.10669    0.4319691   -104.67472    12151.673    4.3649705    4.3649705    4.3649705    12151.673     36593.54    5750.4724   -5888.9951    9634.0674    4285.8623   -8758.4442    83.165638 
   29900    586.72093   -105.21039   0.53087742   -104.67951   -4707.9824    4.3809432    4.3809432    4.3809432   -4707.9824    12490.176   -16873.926   -9740.1976   -7151.6588    5809.8938    1914.0394    84.081967 
   30000    703.93927   -105.30884   0.63693904    -104.6719    1336.8653    4.3799729    4.3799729    4.3799729    1336.8653    20603.578   -2167.5174   -14425.464    2383.3473   -4318.1117   -1473.7789    84.026113 
   30100    499.54519    -105.1228   0.45199899    -104.6708    16862.209    4.3580863    4.3580863    4.3580863    16862.209    34369.969    6133.9962    10082.661    5138.8953    11159.416   -5248.1914     82.77277 
   30200    561.10297   -105.17856   0.50769776   -104.67086   -13686.759    4.3929576    4.3929576    4.3929576   -13686.759   -6843.1088   -13216.418    -21000.75   -5340.2552   -3240.8228    3863.4378     84.77563 
   30300    743.47778   -105.34079   0.67271432   -104.66808    11072.797    4.3633228    4.3633228    4.3633228    11072.797    34956.658    2008.4583   -3746.7258    8220.0104    5115.8386   -6103.6008    83.071495 
   30400    472.74802   -105.10351   0.42775234   -104.67576   -4591.9493    4.3725656    4.3725656    4.3725656   -4591.9493   -6199.2066   -3904.5711   -3672.0703    -7998.252    11088.608   -1134.3189    83.600524 
   30500    632.08704   -105.24117   0.57192564   -104.66924   -8275.1119    4.3853652    4.3853652    4.3853652   -8275.1119    10355.769    -11824.45   -23356.654   -1092.0893   -6503.2245    -513.2995    84.336833 
   30600    723.58347   -105.32055   0.65471353   -104.66583    8760.6398    4.3621198    4.3621198    4.3621198    8760.6398    7972.6119    12957.833    5351.4744   -1906.1356    13800.228    -5642.249    83.002803 
   30700    380.37851   -105.01957   0.34417447   -104.67539   -9447.5717    4.3800742    4.3800742    4.3800742   -9447.5717   -12999.458   -1519.2562   -13824.001   -9632.4747   -4237.5156    5714.8277    84.031944 
   30800    822.74158   -105.41539   0.74443388   -104.67096   -6372.5895    4.3761671    4.3761671    4.3761671   -6372.5895    1223.5726   -9653.9199   -10687.421   -3363.5474    1769.9028   -5810.8368    83.807272 
   30900    518.09006   -105.14244   0.46877877   -104.67366    2605.4452    4.3703789    4.3703789    4.3703789    2605.4452    -2994.295    14687.514   -3876.8838   -5979.3146    6140.9184   -300.49494    83.475165 
   31000    518.60354   -105.14605   0.46924338    -104.6768   -6835.4934    4.3763388    4.3763388    4.3763388   -6835.4934    1181.1794   -14790.446   -6897.2133   -4600.8744   -10585.767    3032.0699    83.817134 
   31100    700.70699   -105.30543   0.63401441   -104.67142   -3806.7793    4.3814619    4.3814619    4.3814619   -3806.7793   -857.52256    4169.1757   -14731.991    4344.3282    4327.5515   -6119.2127     84.11184 
   31200    572.40759    -105.1908   0.51792642   -104.67288    4975.3353    4.3623859    4.3623859    4.3623859    4975.3353   -545.66033    2609.0924    12862.574   -11576.313    -4269.012    8067.4862    83.017995 
   31300    541.07502   -105.16568   0.48957605   -104.67611   -9794.4954    4.3835249    4.3835249    4.3835249   -9794.4954   -991.70898   -9393.0071    -18998.77    6811.2027   -5348.6541   -4516.5084    84.230706 
   31400    692.66766   -105.29856   0.62674026   -104.67182    3155.9386    4.3739484    4.3739484    4.3739484    3155.9386    556.14311    3852.9758    5058.6968   -3641.6417    10137.355    -1665.608    83.679864 
   31500    479.40965   -105.10793   0.43377992   -104.67415    5689.6026    4.3643468    4.3643468    4.3643468    5689.6026     4276.973    11240.327    1551.5077   -890.78342   -10219.484    2289.0248    83.129998 
   31600    627.69987    -105.2396   0.56795603   -104.67164   -12457.981    4.3875545    4.3875545    4.3875545   -12457.981   -12930.126   -7806.3366   -16637.481     7000.954    8360.2203   -1850.1523    84.463208 
   31700    698.68609   -105.30172   0.63218586   -104.66953    11055.299    4.3634902    4.3634902    4.3634902    11055.299    5474.5709    12114.975     15576.35   -11052.187   -5.5413334   -21.062343    83.081057 
   31800    445.88096   -105.07897   0.40344246   -104.67553   -10369.063    4.3798094    4.3798094    4.3798094   -10369.063   -1715.8979   -13493.603   -15897.689    4582.0898   -5519.9425    2035.3438    84.016703 
   31900    744.58393   -105.34411   0.67371518   -104.67039    3140.3691    4.3749952    4.3749952    4.3749952    3140.3691    7743.8775   -3156.3617    4833.5915    556.50598    11696.939   -4854.4968     83.73996 
   32000    562.99526   -105.18244   0.50940995   -104.67303    4542.6515    4.3688414    4.3688414    4.3688414    4542.6515    5943.1713     10943.85    -3259.067   -6758.6724   -14388.075    5654.4198    83.387093 
   32100    526.93829   -105.15123   0.47678484   -104.67445   -9704.7315    4.3794108    4.3794108    4.3794108   -9704.7315   -958.17586   -15281.195   -12874.823    9441.2963    6003.6365    1261.8373    83.993768 
   32200    790.58375   -105.38489   0.71533679   -104.66955    6370.6343    4.3729702    4.3729702    4.3729702    6370.6343    5965.2328    14545.933   -1399.2624   -5997.8101   -7547.5937    1394.5108    83.623732 
   32300    476.55434   -105.10531   0.43119638   -104.67412   -3772.2753    4.3732616    4.3732616    4.3732616   -3772.2753    2491.7698   -9325.8317   -4482.7642    4873.1239   -3562.4855    6217.0142     83.64045 
   32400    549.65709     -105.172   0.49734129   -104.67466    6221.9257    4.3749298    4.3749298    4.3749298    6221.9257    17843.526    4451.7011   -3629.4497    10536.814    3149.7404   -3405.2464    83.736203 
   32500    756.59418   -105.35459   0.68458231   -104.67001    1146.2755    4.3783531    4.3783531    4.3783531    1146.2755   -4206.7513    5055.3146    2590.2631   -4227.9362   -3678.7453    3505.2819    83.932923 
   32600    405.09417   -105.04213   0.36653772   -104.67559    10471.613    4.3637468    4.3637468    4.3637468    10471.613    30244.193   -4289.2384    5459.8839    14100.525    2037.4436    743.11398    83.095714 
   32700    743.06569     -105.344   0.67234145   -104.67166   -6132.1164    4.3851272    4.3851272    4.3851272   -6132.1164   -8952.2315   -3350.6187   -6093.4991   -4646.7817    7093.4066   -4056.1774    84.323104 
   32800    631.34956   -105.24483   0.57125835   -104.67357     11346.07    4.3645868    4.3645868    4.3645868     11346.07    20958.215    1624.1107    11455.884    8301.4462    -3990.037    6048.9904    83.143713 
   32900    406.08274   -105.05006    0.3674322   -104.68263   -423.74698     4.374451     4.374451     4.374451   -423.74698    6317.8168   -1654.9177     -5934.14     5543.455    12669.087   -8374.8276    83.708713 
   33000    822.47838   -105.41412   0.74419572   -104.66992   -1908.0127    4.3816913    4.3816913    4.3816913   -1908.0127    1299.4163   -1905.2838   -5118.1706   -539.58626    56.709787   -1071.3008     84.12505 
   33100    434.37006   -105.06667   0.39302716   -104.67365     8649.864    4.3593625    4.3593625    4.3593625     8649.864     17603.91    6325.9679     2019.714    8394.5089    206.33407    861.49827    82.845506 
   33200    612.32152   -105.22612   0.55404138   -104.67208   -15208.117    4.3872569    4.3872569    4.3872569   -15208.117   -6964.5272    -16276.07   -22383.754   -1309.5912    7740.8389   -8136.4955    84.446025 
   33300    846.44743   -105.43352   0.76588342   -104.66763     14826.78    4.3633683    4.3633683    4.3633683     14826.78    14373.216    18709.741    11397.384    50.922921   -11879.922    6045.3479    83.074097 
   33400    227.41185   -104.88604   0.20576702   -104.68027   -9396.9548    4.3771498    4.3771498    4.3771498   -9396.9548    6756.5868   -12562.169   -22385.283     9932.472    12133.168    -9402.195    83.863741 
   33500    865.51958   -105.45448   0.78314031   -104.67134   -1330.3509     4.375641     4.375641     4.375641   -1330.3509    -3462.269   -970.76817    441.98451   -9294.6221   -5796.1369   -285.27985    83.777047 
   33600     620.8961   -105.23686   0.56179984   -104.67506    1080.5352     4.366766     4.366766     4.366766    1080.5352      11400.5    -3289.366   -4869.5283    9767.3536    5464.6538    3155.5398    83.268311 
   33700    407.46781   -105.04805   0.36868544   -104.67936   -14840.546    4.3796918    4.3796918    4.3796918   -14840.546     -6487.39   -12006.366   -26027.881   -2188.1366    8307.2689   -7662.6355    84.009932 
   33800    859.40176   -105.44633   0.77760477   -104.66872    7444.1639    4.3705359    4.3705359    4.3705359    7444.1639    8262.9549    9451.0512    4618.4857   -1366.6146      1912.89    2748.8276     83.48416 
   33900    347.04808   -104.99089    0.3140164   -104.67687   -7657.9341    4.3766002    4.3766002    4.3766002   -7657.9341    9302.1321   -9544.4034   -22731.531    11341.936    12172.917   -9144.4067    83.832154 
   34000    723.88905   -105.32797   0.65499003   -104.67298     460.3379    4.3689045    4.3689045    4.3689045     460.3379   -2830.1749    572.64143    3638.5472   -10513.899    9772.2579   -5584.0479    83.390706 
   34100    636.84294    -105.2496   0.57622888   -104.67337   -301.87627    4.3785034    4.3785034    4.3785034   -301.87627    16416.282   -15873.225    -1448.686    2705.9989    1372.8175   -1373.2671    83.941566 
   34200    436.60764   -105.07106   0.39505177   -104.67601   -10060.254    4.3727566    4.3727566    4.3727566   -10060.254   -15088.539   -5857.1479   -9235.0755   -876.17291    12152.007   -9071.0927    83.611483 
   34300    763.55918   -105.36256    0.6908844   -104.67167    7073.8774    4.3699611    4.3699611    4.3699611    7073.8774    14194.532   -4661.4617    11688.562   -11807.993   -7876.9794    2526.8552    83.451222 
   34400    540.93624    -105.1634   0.48945048   -104.67395   -10127.895    4.3785316    4.3785316    4.3785316   -10127.895    -4009.554    -7520.403   -18853.729    9116.5836     8204.706   -9266.2521    83.943189 
   34500    514.69051   -105.14012   0.46570279   -104.67441   -4700.7858    4.3699502    4.3699502    4.3699502   -4700.7858   -4280.7534   -11753.773    1932.1693   -19010.203    755.08156   -2900.6529    83.450601 
   34600    796.95784   -105.39054    0.7211042   -104.66944     4137.695    4.3745338    4.3745338    4.3745338     4137.695    16842.481   -5388.6027    959.20694   -328.72858   -3494.4882   -422.74013    83.713469 
   34700    385.75448   -105.02572   0.34903876   -104.67668   -5870.0909    4.3746547    4.3746547    4.3746547   -5870.0909   -6351.7604   -8083.3766   -3175.1357   -2611.4334    11278.142   -6415.1498    83.720411 
   34800    626.47654   -105.23918   0.56684914   -104.67233    2836.0628    4.3739474    4.3739474    4.3739474    2836.0628    14348.414   -14949.734     9109.508   -17260.782   -6013.1411    6995.0938    83.679807 
   34900    723.78946   -105.32535   0.65489991   -104.67045    1366.4904    4.3713435    4.3713435    4.3713435    1366.4904   -1641.0243    7959.9811   -2219.4855    7543.8616    14875.361   -5796.0375    83.530446 
   35000     365.4808   -105.00714   0.33069471   -104.67645   -11594.338    4.3790809    4.3790809    4.3790809   -11594.338    2185.1102   -31735.845   -5232.2792   -20791.446    494.76942    738.65214    83.974783 
   35100    884.69012   -105.46861   0.80048621   -104.66812    3575.8256    4.3674946    4.3674946    4.3674946    3575.8256    6790.1992    3562.0189    375.25881    2187.3039    6224.5457    4014.6448    83.309999 
   35200    398.84335   -105.03712   0.36088184   -104.67624   -4097.3965    4.3757951    4.3757951    4.3757951   -4097.3965    3950.7431   -8660.2925   -7582.6401   -6519.1353    4490.1574   -7523.5415    83.785897 
   35300    638.91563   -105.25065   0.57810429   -104.67255   -11977.802    4.3788602    4.3788602    4.3788602   -11977.802   -3542.1326   -25202.941   -7188.3318    -12353.36    721.19716    9379.8349     83.96209 
   35400    720.00398   -105.31888   0.65147473    -104.6674    18681.133    4.3620181    4.3620181    4.3620181    18681.133    27883.687    18981.662    9178.0514     4040.708    4312.5814   -4004.9533    82.996996 
   35500    386.46897   -105.02545   0.34968524   -104.67577   -14152.202    4.3830804    4.3830804    4.3830804   -14152.202    7794.1284   -39281.094   -10969.639   -17386.701    2041.8901   -325.72863    84.205085 
   35600    752.97501   -105.35199   0.68130761   -104.67069    8411.0684    4.3687919    4.3687919    4.3687919    8411.0684    21728.849     5887.334   -2382.9778    3164.0095   -4472.3424    6738.8047    83.384261 
   35700    567.99195   -105.18683   0.51393106    -104.6729    745.30492    4.3717376    4.3717376    4.3717376    745.30492    13687.876   -8199.0179   -3252.9436   -11208.238     5237.777   -5154.2234     83.55304 
   35800    511.81092   -105.13651   0.46309727   -104.67341   -14892.478    4.3791121    4.3791121    4.3791121   -14892.478    6013.1983   -33783.742    -16906.89   -12632.653   -1513.4626    11511.886     83.97658 
   35900    779.10473   -105.37156   0.70495034    -104.6666    16058.904    4.3627259    4.3627259    4.3627259    16058.904    27620.893    13963.001    6592.8176    2964.5827    6021.6347    586.00063    83.037411 
   36000    449.33461    -105.0799    0.4065674   -104.67334   -19398.059    4.3841307    4.3841307    4.3841307   -19398.059   -575.85879   -40610.999    -17007.32   -16741.414    6075.8341    5892.0318     84.26563 
   36100    659.50949   -105.26662   0.59673805   -104.66988    9871.0415    4.3642032    4.3642032    4.3642032    9871.0415    29724.529   -2970.4816    2859.0771    2855.7188    437.49963    9812.5733    83.121789 
   36200    648.74012   -105.25956    0.5869937   -104.67257    2514.9811    4.3735368    4.3735368    4.3735368    2514.9811    15042.448   -6998.0964   -499.40863   -7400.0682    11195.066   -2092.9018    83.656245 
   36300    448.75427   -105.07951   0.40604229   -104.67347   -15330.253    4.3797302    4.3797302    4.3797302   -15330.253    8213.8616   -31769.912   -22434.708   -10862.636   -2035.4819    16684.332    84.012147 
   36400    709.08006   -105.30823   0.64159054   -104.66664     15303.44    4.3611578    4.3611578    4.3611578     15303.44    23237.906    9465.8111    13206.603    6904.7713    5632.4863   -2416.6294      82.9479 
   36500    564.92274    -105.1819   0.51115396   -104.67075   -23943.923    4.3855281    4.3855281    4.3855281   -23943.923   -9838.3945   -40002.832   -21990.542   -15617.389    2858.3855     12887.44    84.346231 
   36600    609.93396   -105.22262   0.55188107   -104.67074    2961.6428    4.3634382    4.3634382    4.3634382    2961.6428    11748.172   -7689.9423    4826.6981    7284.8176   -3121.3539    7276.0086    83.078087 
   36700    572.90066   -105.19091   0.51837255   -104.67254    1023.1779    4.3747083    4.3747083    4.3747083    1023.1779    6867.5555   -13513.188    9715.1664   -2606.0418    3336.1365   -1221.3981    83.723483 
   36800     521.3244   -105.14488   0.47170527   -104.67317   -15242.915    4.3787148    4.3787148    4.3787148   -15242.915    5038.4697   -34072.202   -16695.011   -8227.1781   -3170.4438    16260.957    83.953724 
   36900    629.84302   -105.23812    0.5698952   -104.66822    15276.129    4.3633679    4.3633679    4.3633679    15276.129    19752.603    4601.6269    21474.158    12742.434    6184.4043   -8284.7284    83.074073 
   37000    698.83095   -105.30099   0.63231693   -104.66867   -21996.909    4.3815118    4.3815118    4.3815118   -21996.909   -12630.145   -32016.467   -21344.114     -11188.8    7736.9981    13882.816    84.114713 
   37100    438.58636   -105.06945   0.39684216    -104.6726    9832.0609    4.3646201    4.3646201    4.3646201    9832.0609    20534.808   -8441.0109    17402.386    8286.7595   -326.30704    3574.2813    83.145613 
   37200    707.47522   -105.31271   0.64013845   -104.67257     -5609.94    4.3785922    4.3785922    4.3785922     -5609.94    5935.5064   -20181.218   -2584.1086    1532.4795    9728.2827   -3820.3565    83.946675 
   37300    621.35916    -105.2368   0.56221882   -104.67458    546.95103    4.3701808    4.3701808    4.3701808    546.95103    12496.508   -16949.212    6093.5572   -7971.5764   -1784.6609      17101.7     83.46381 
   37400    512.97714   -105.13905    0.4641525    -104.6749    6447.5296    4.3714993    4.3714993    4.3714993    6447.5296    16765.899   -10851.921    13428.611    13711.195    5926.8459   -10029.471    83.539379 
   37500    746.17611    -105.3463   0.67515583   -104.67115   -6656.9773     4.378724     4.378724     4.378724   -6656.9773    7457.0773   -22497.647   -4930.3622   -3756.2845   -3120.1326    12083.009    83.954255 
   37600    493.65047   -105.11914   0.44666532   -104.67247    13315.744    4.3664548    4.3664548    4.3664548    13315.744    28330.149   -9912.8803    21529.962    6228.8324    339.29347    3133.7161    83.250514 
   37700    657.55431   -105.26678   0.59496895   -104.67181   -8681.5566    4.3780634    4.3780634    4.3780634   -8681.5566     2535.911   -23963.627   -4616.9536    9176.5203   -3391.7682    -8549.713    83.916266 
   37800    590.49746   -105.20361   0.53429452   -104.66931    11018.182    4.3703715    4.3703715    4.3703715    11018.182    28710.533   -11202.382    15546.395      -3130.6    6317.2993     15319.29    83.474738 
   37900    605.40306    -105.2202   0.54778141   -104.67242   -9188.2484    4.3745321    4.3745321    4.3745321   -9188.2484   -2597.1384   -23093.905   -1873.7017    15296.841   -5507.9684   -13553.991    83.713372 
   38000    568.90481   -105.18513   0.51475702   -104.67038    15176.315    4.3712156    4.3712156    4.3712156    15176.315    41218.632   -10815.051    15125.364   -1053.8929    8448.8032    8805.9463    83.523113 
   38100    657.26054   -105.26651   0.59470314    -104.6718   -12289.493     4.378565     4.378565     4.378565   -12289.493   -2215.4413   -27212.285   -7440.7525    9724.2593   -4205.4602    2073.4557    83.945109 
   38200    475.68179   -105.10392   0.43040688   -104.67351    12426.078    4.3646934    4.3646934    4.3646934    12426.078    29583.227   -7843.0477    15538.055      4297.19    8045.2469   -10888.966    83.149803 
   38300    782.54433   -105.37955   0.70806256   -104.67149   -9118.0369    4.3818116    4.3818116    4.3818116   -9118.0369    13308.184   -22250.101   -18412.193     282.5914   -1449.8338    13590.519     84.13198 
   38400    488.52256   -105.11709   0.44202548   -104.67507    709.58432    4.3690794    4.3690794    4.3690794    709.58432     12372.36   -20000.747    9757.1403    8184.7595    1354.7486   -14434.468    83.400721 
   38500    647.71099   -105.25911   0.58606251   -104.67304    10503.318     4.367802     4.367802     4.367802    10503.318    39194.664   -1566.9633   -6117.7474   -375.65843    619.19562    6333.3029    83.327593 
   38600    668.96628   -105.27485   0.60529474   -104.66956   -18291.964    4.3846152    4.3846152    4.3846152   -18291.964   -11542.083   -26485.502   -16848.308    6165.0504   -2653.8801    479.22721    84.293573 
   38700    494.75172   -105.11584   0.44766175   -104.66818    22860.394    4.3554403    4.3554403    4.3554403    22860.394    52458.744    2383.7873     13738.65    5513.1105    2287.7804   -9154.8237    82.622095 
   38800    697.62416   -105.30152     0.631225   -104.67029   -16423.334    4.3865693    4.3865693    4.3865693   -16423.334   -4065.2753   -18998.877   -26205.848   -2441.5686   -1181.2508    9722.7049    84.406323 
   38900    522.02059   -105.14416    0.4723352   -104.67182    9067.8623    4.3662106    4.3662106    4.3662106    9067.8623    34553.896   -12378.752    5028.4435    12683.742   -1111.5909   -10300.749    83.236546 
   39000     641.7228   -105.25285   0.58064428    -104.6722   -5132.9424     4.371868     4.371868     4.371868   -5132.9424    4397.5284   -10746.351   -9050.0043   -5521.4356    2594.1651    5412.4331    83.560519 
   39100    567.87236    -105.1854   0.51382285   -104.67158   -7449.0924    4.3766749    4.3766749    4.3766749   -7449.0924    6245.4046   -14310.221   -14282.461    10831.135    4988.4939   -1.1249728     83.83645 
   39200    593.73181   -105.20832   0.53722102    -104.6711   -2958.4788    4.3712336    4.3712336    4.3712336   -2958.4788    9586.5318   -17106.138   -1355.8302   -4237.6625    1105.9751   -5442.8514    83.524144 
   39300    609.56724   -105.22225   0.55154925    -104.6707   -453.41841    4.3718169    4.3718169    4.3718169   -453.41841    9734.8468    710.52113   -11805.623   -673.92831    6276.9804    6039.0648    83.557591 
   39400    575.56506   -105.19529   0.52078336    -104.6745    -7678.737    4.3729527    4.3729527    4.3729527    -7678.737    -2040.435   -21991.508    995.73255    5973.8548   -3491.5787   -9772.4415    83.622732 
   39500    616.96637   -105.23261   0.55824414   -104.67437   -6206.5455    4.3757709    4.3757709    4.3757709   -6206.5455     2223.699   -16836.568   -4006.7671   -10585.685    6719.5582    5557.7382    83.784509 
   39600    598.41273   -105.21508   0.54145642   -104.67362    6152.7572    4.3645774    4.3645774    4.3645774    6152.7572    14622.392    2983.5286    852.35085    8108.8399   -7389.1461   -4444.3564    83.143171 
   39700    532.04014   -105.15456    0.4814011   -104.67316    -19590.91    4.3852071    4.3852071    4.3852071    -19590.91   -12670.583   -40517.804   -5584.3421   -11907.416    3850.7677    -2781.122    84.327713 
   39800    716.46539   -105.31683   0.64827294   -104.66856    13101.621    4.3598964    4.3598964    4.3598964    13101.621    19283.388    11892.136    8129.3376   -1354.8017   -6874.0039     4549.343    82.875947 
   39900    496.46212   -105.12449   0.44920936   -104.67528   -14108.154    4.3796021    4.3796021    4.3796021   -14108.154    -4507.887   -26488.895   -11327.682   -756.28847    -622.7662   -8431.9935    84.004774 
   40000    636.33089   -105.24789   0.57576556   -104.67213   -2707.3716    4.3739824    4.3739824    4.3739824   -2707.3716    5491.9749   -20441.807    6827.7168   -13258.235   -2761.8848    6147.7946    83.681813 
   40100    685.37989    -105.2898   0.62014613   -104.66965    8944.2895    4.3626398    4.3626398    4.3626398    8944.2895    22454.637    3325.4427    1052.7891    6422.5831   -3734.7185   -5358.1666     83.03249 
   40200    462.38997   -105.09243   0.41838016   -104.67405   -18387.553    4.3838175    4.3838175    4.3838175   -18387.553   -11338.828    -39464.64   -4359.1918   -15673.837   -44.191696    1215.9944    84.247574 
   40300    811.58737   -105.40093    0.7343413   -104.66659    18810.456    4.3637786    4.3637786    4.3637786    18810.456    33409.905    8008.4698    15012.993     5451.668   -1427.7973    3270.8788    83.097529 
   40400    416.15853   -105.05268   0.37654898   -104.67613   -9153.4731    4.3747443    4.3747443    4.3747443   -9153.4731    879.62547   -17656.993   -10683.051   -5038.6708     389.3269   -3829.6961    83.725555 
   40500    537.59165   -105.16252   0.48642422   -104.67609    2821.6379    4.3751139    4.3751139    4.3751139    2821.6379    14432.656   -20650.433    14682.691    -7189.869    3320.5928    5557.0717    83.746776 
   40600    924.38892    -105.5069   0.83640652    -104.6705   -69.546554    4.3696478    4.3696478    4.3696478   -69.546554    12694.311    -3713.271   -9189.6795    484.57149    1281.0243   -3430.5518    83.433277 
   40700    160.47681   -104.82789   0.14520279   -104.68269   -2398.7197    4.3715235    4.3715235    4.3715235   -2398.7197    13829.996   -32371.744    11345.589   -15457.977   -436.21928    3724.8378    83.540765 
   40800    962.00607    -105.5424   0.87044331   -104.67195   -1883.5628     4.377833     4.377833     4.377833   -1883.5628    11676.777   -12903.497   -4423.9683   -383.27974     5677.059   -423.17974    83.903017 
   40900    461.17669   -105.09579   0.41728236   -104.67851    7218.1843    4.3663323    4.3663323    4.3663323    7218.1843     29593.15   -14189.464    6250.8675   -9721.6074    -4377.501     13.07622    83.243505 
   41000    473.88073   -105.10913   0.42877724   -104.68035   -5172.0449    4.3744292    4.3744292    4.3744292   -5172.0449   -7463.5544   -19360.957    11308.376   -12707.325      3802.94    1045.3393    83.707464 
   41100    884.11277   -105.47079   0.79996381   -104.67083   -1183.2257    4.3766894    4.3766894    4.3766894   -1183.2257    23284.582   -13892.398   -12941.861    2337.5011   -2872.4791   -70.268697    83.837282 
   41200    359.25748    -105.0022   0.32506372   -104.67714     8366.686    4.3621906    4.3621906    4.3621906     8366.686    14702.441   -18677.481    29075.098   -20627.288    651.14014    1414.7615    83.006847 
   41300    749.22357   -105.35135   0.67791323   -104.67343   -14320.203    4.3827208    4.3827208    4.3827208   -14320.203   -6632.9512   -14283.441   -22044.216    8104.3741   -126.62006   -1431.2464    84.184358 
   41400    546.20801   -105.16772   0.49422048    -104.6735    10128.587    4.3652083    4.3652083    4.3652083    10128.587    28817.958   -15764.674    17332.478   -10631.564   -54.362913    5415.9243    83.179237 
   41500    585.35433   -105.20594    0.5296409    -104.6763   -8796.7569    4.3727115    4.3727115    4.3727115   -8796.7569   -9451.7097   -13484.822   -3453.7391   -5810.5305    87.990959   -4657.0842    83.608894 
   41600    586.97112   -105.20299    0.5311038   -104.67189   -1526.3527    4.3775878    4.3775878    4.3775878   -1526.3527    19622.343   -15246.646   -8954.7544    7086.3389    1581.2458      8462.14    83.888916 
   41700    631.46149   -105.24151   0.57135963   -104.67015   -655.86711    4.3651685    4.3651685    4.3651685   -655.86711    4477.4337   -17425.668    10980.633   -16279.727    375.49999    -2025.086    83.176959 
   41800    583.70726   -105.19943   0.52815059   -104.67128   -6466.3024    4.3762457    4.3762457    4.3762457   -6466.3024   -923.15837   -9882.8715   -8592.8774    11788.435    3195.6866    4506.0318    83.811783 
   41900     587.0972   -105.20391   0.53121788   -104.67269    -5099.401    4.3722636    4.3722636    4.3722636    -5099.401    8383.3527   -16936.761   -6744.7951   -11296.822   -18.009611     5498.152    83.583205 
   42000    627.70926   -105.23888   0.56796453   -104.67091   -2343.9572    4.3723389    4.3723389    4.3723389   -2343.9572    5286.3388   -8609.8649   -3708.3455   -7294.5111      1693.11   -4124.1632    83.587524 
   42100    529.35969   -105.15197   0.47897577   -104.67299   -3502.4309    4.3713861    4.3713861    4.3713861   -3502.4309   -1502.0734    262.41847   -9267.6378    1844.4498    1391.5294    11798.501     83.53289 
   42200    584.97376   -105.20442   0.52929656   -104.67513   -11113.804    4.3738225    4.3738225    4.3738225   -11113.804    3136.1609   -24180.554   -12297.019   -18534.036    63.357605   -5857.7784    83.672636 
   42300    716.28331   -105.31955   0.64810819   -104.67144    3328.3389    4.3706502    4.3706502    4.3706502    3328.3389   -180.59938    7709.0025    2456.6136    4405.6805   -878.47937    3807.0699    83.490708 
   42400    453.47272   -105.08651   0.41031165    -104.6762   -14833.741    4.3751302    4.3751302    4.3751302   -14833.741    4134.1705    -24785.69   -23849.703   -9820.3213   -1425.2018    3237.5556    83.747711 
   42500    590.10784   -105.20855   0.53394198   -104.67461    1703.4563    4.3692679    4.3692679    4.3692679    1703.4563    4829.9358   -5124.8669       5405.3    -10087.53    333.08216   -12203.455    83.411517 
   42600    767.13844   -105.36738   0.69412298   -104.67325   -4007.3273    4.3725321    4.3725321    4.3725321   -4007.3273    83.280046    5541.3698   -17646.632    6144.9956   -1700.0305    9373.6586    83.598606 
   42700    301.78737   -104.95099   0.27306355   -104.67792   -12473.311    4.3768092    4.3768092    4.3768092   -12473.311   -4450.2484    -17981.96   -14987.726   -13717.066   -285.50374   -11520.361    83.844165 
   42800       882.75   -105.46757   0.79873075   -104.66884     7972.016     4.366002     4.366002     4.366002     7972.016    12265.698    11352.513    297.83675    7130.9417    1126.6499   -1464.5802    83.224611 
   42900    437.45613   -105.07282    0.3958195     -104.677   -7513.5007    4.3772117    4.3772117    4.3772117   -7513.5007    6129.0278   -5503.6107   -23165.919   -6248.6839   -1940.8148    958.40447      83.8673 
   43000    527.88077   -105.15574   0.47763761    -104.6781   -1851.1578    4.3710329    4.3710329    4.3710329   -1851.1578     2547.965   -1981.2923   -6120.1462   -9092.1085     2055.049   -16665.884    83.512643 
   43100    890.76905   -105.47579   0.80598655   -104.66981    7795.7981    4.3704735    4.3704735    4.3704735    7795.7981     16742.72    15235.135   -8590.4609    2036.2117    722.71318     9880.498    83.480581 
   43200    234.47105   -104.89433   0.21215434   -104.68217   -13260.763    4.3754648    4.3754648    4.3754648   -13260.763   -3544.4773   -18907.668   -17330.142   -12978.163    -1415.988   -16066.352    83.766928 
   43300    852.23197   -105.44591    0.7711174   -104.67479    6464.7378    4.3686708    4.3686708    4.3686708    6464.7378    19764.782    3774.7115   -4145.2802   -8081.7566    527.52817   -2301.5862    83.377326 
   43400    583.12468   -105.20579   0.52762347   -104.67817    1268.5394    4.3747056    4.3747056    4.3747056    1268.5394    17539.956   -1321.9943   -12412.344   -4933.2891   -967.36533   -959.89896    83.723331 
   43500    377.68464   -105.02368     0.341737   -104.68194    -13053.98    4.3737583    4.3737583    4.3737583    -13053.98    782.03563   -22248.421   -17695.555    -16198.24    190.17737   -18122.159    83.668955 
   43600    898.38869    -105.4842   0.81288097   -104.67132    14387.151    4.3683766    4.3683766    4.3683766    14387.151    21649.424    23028.841   -1516.8105    9312.0609    1466.6138    8236.7212    83.360483 
   43700    391.33123   -105.03452   0.35408472   -104.68043   -19063.597    4.3794837    4.3794837    4.3794837   -19063.597    -1503.332   -31146.679   -24540.781   -10753.235   -1459.0664   -19289.518     83.99796 
   43800    584.50134   -105.20602   0.52886909   -104.67715    5132.4353    4.3660139    4.3660139    4.3660139    5132.4353    17750.769    2882.0031   -5235.4665     1003.242   -879.25351    255.64889    83.225296 
   43900    774.92947   -105.37445   0.70117247   -104.67328    -2093.302    4.3749265    4.3749265    4.3749265    -2093.302    9484.6924   -1124.0796   -14640.519    2924.3776    8.1991286   -8541.6793    83.736011 
   44000     283.1251   -104.93578   0.25617754   -104.67961   -13195.321     4.377786     4.377786     4.377786   -13195.321    5100.2863   -27014.109   -17672.142   -12711.761   -157.99353   -12904.568    83.900313 
   44100    862.46769   -105.44988   0.78037889    -104.6695    12469.018    4.3621762    4.3621762    4.3621762    12469.018    15924.179    21630.722   -147.84597     9755.232   -530.38565    3242.0252    83.006021 
   44200     524.9478   -105.15099    0.4749838     -104.676   -7303.7469    4.3809714    4.3809714    4.3809714   -7303.7469    20866.045   -24729.737   -18047.549   -12368.489   -249.01756   -13457.312    84.083592 
   44300    492.69362   -105.12186   0.44579954   -104.67606    -237.1181    4.3702161    4.3702161    4.3702161    -237.1181   -1632.7186    9956.1668   -9034.8025    -5153.502   -3928.8094    1090.1229    83.465832 
   44400    863.59227   -105.45072   0.78139643   -104.66933    8445.2936    4.3685059    4.3685059    4.3685059    8445.2936    22914.391    4878.4782   -2456.9882    1813.9535    140.98282   -1455.1065    83.367885 
   44500    372.40168   -105.01329   0.33695686   -104.67634   -3634.7368     4.378916     4.378916     4.378916   -3634.7368    -465.4973    5123.2965    -15562.01   -15904.313   -4736.5137   -6045.5312      83.9653 
   44600    724.26314   -105.32473   0.65532851   -104.66941    6388.7492    4.3681644    4.3681644    4.3681644    6388.7492    4129.2288    20893.569   -5856.5506      7287.53   -956.36093    5939.1548    83.348334 
   44700    622.39434   -105.23408   0.56315548   -104.67092    3218.8553    4.3729058    4.3729058    4.3729058    3218.8553    11488.723     3485.414   -5317.5714   -10412.942   -1953.9136   -1451.4916    83.620041 
   44800    484.43026   -105.11233   0.43832268   -104.67401   -1591.7104    4.3752507    4.3752507    4.3752507   -1591.7104   -10170.439    14837.114   -9441.8055   -6607.3644   -4103.3194   -171.22798     83.75463 
   44900    820.69975   -105.41103   0.74258638   -104.66844    4697.5316    4.3703779    4.3703779    4.3703779    4697.5316     21883.11    1691.4995   -9482.0145    7433.7258    3268.2068    10350.608    83.475106 
   45000    390.16835   -105.02668   0.35303252   -104.67365    6983.8612     4.372407     4.372407     4.372407    6983.8612    1813.0368    17660.947       1477.6   -16226.293   -3732.7905   -4789.2953    83.591426 
   45100    666.80211   -105.27565   0.60333656   -104.67231   -8436.6595    4.3755109    4.3755109    4.3755109   -8436.6595    4108.3216   -9034.6695   -20383.631    7721.2803    3701.7293    9248.6496    83.769575 
   45200    668.48819    -105.2749   0.60486216   -104.67004    11574.756    4.3677022    4.3677022    4.3677022    11574.756    15865.314      12736.6    6122.3532   -11928.104    1182.5747    3731.0606    83.321878 
   45300    532.38175   -105.15502   0.48171019   -104.67331   -15960.223    4.3785267    4.3785267    4.3785267   -15960.223   -20299.024   -9139.3926   -18442.251    -7420.149    237.31475    257.20903     83.94291 
   45400    554.66389   -105.17435   0.50187154   -104.67248    2518.4507    4.3690489    4.3690489    4.3690489    2518.4507    16854.402    3790.3063   -13089.356    2253.3191    463.80915    13290.365    83.398973 
   45500    703.75727   -105.30937   0.63677437    -104.6726    1602.2338    4.3711663    4.3711663    4.3711663    1602.2338    3065.4253   -2121.8509    3863.1272   -16875.802    679.74606   -5666.3841    83.520289 
   45600    480.99752    -105.1112   0.43521667   -104.67599   -14640.811    4.3777577    4.3777577    4.3777577   -14640.811     5291.257   -19348.149   -29865.542    4288.7968   -2915.3772    8313.3029    83.898687 
   45700    653.07767    -105.2638    0.5909184   -104.67289    9666.2164    4.3668542    4.3668542    4.3668542    9666.2164    20194.656    2058.9736      6745.02   -9481.6979   -614.40551    3935.4993    83.273356 
   45800    695.39229   -105.30201   0.62920555    -104.6728   -6728.5182    4.3758667    4.3758667    4.3758667   -6728.5182     2673.103   -9086.8613   -13771.796    1517.4161   -5401.9006    138.84922    83.790009 
   45900    364.55736   -105.00733   0.32985916   -104.67747   -3279.7321    4.3744385    4.3744385    4.3744385   -3279.7321    24177.471   -11759.739   -22256.928    4395.5131    -1735.788    10324.865    83.707996 
   46000     851.8208   -105.44105   0.77074536    -104.6703    1070.0544    4.3699354    4.3699354    4.3699354    1070.0544    -3761.411    78.815566    6892.7585   -6165.6953   -825.85247   -3265.8151    83.449751 
   46100    466.02284   -105.09905   0.42166726   -104.67738   -7227.4689    4.3719995    4.3719995    4.3719995   -7227.4689    20021.992   -15961.667   -25742.732    1978.8038   -1823.3911    11813.638    83.568061 
   46200    545.29401   -105.16976   0.49339348   -104.67637   -10871.469    4.3787196    4.3787196    4.3787196   -10871.469   -8703.4578   -14157.465   -9753.4845   -1523.7072    1705.8877    1188.2395    83.954005 
   46300    801.01423    -105.3943   0.72477451   -104.66953    9634.4606     4.364186     4.364186     4.364186    9634.4606    20394.716    10071.125   -1562.4596   -7931.7125    1724.9746    4379.8706    83.120806 
   46400    326.52275   -104.97477   0.29544464   -104.67933   -9774.3367    4.3778034    4.3778034    4.3778034   -9774.3367    14771.522   -23045.892    -21048.64    6130.5802    1553.0527    8286.9201    83.901317 
   46500    714.91973    -105.3185    0.6468744   -104.67162   -4572.8222    4.3745758    4.3745758    4.3745758   -4572.8222   -5475.7884   -4370.8139   -3871.8643    -16481.26     4993.238   -2588.2133    83.715877 
   46600    602.90275   -105.21669   0.54551908   -104.67117    4528.7239    4.3646776    4.3646776    4.3646776    4528.7239    33000.113   -11914.308   -7499.6338    4754.5415    522.82867    9012.0825    83.148899 
   46700    534.91781   -105.15635   0.48400487   -104.67234   -18695.566    4.3827281    4.3827281    4.3827281   -18695.566   -17856.932   -18393.861   -19835.903   -9582.8238    4672.2918   -2867.3869    84.184783 
   46800    666.99222   -105.27228   0.60350858   -104.66878    5301.5692    4.3643762    4.3643762    4.3643762    5301.5692    17434.038    5578.7904    -7108.121     -3422.27    564.04137    4189.6725    83.131679 
   46900    531.49032   -105.15497   0.48090361   -104.67407   -8755.6882    4.3750075    4.3750075    4.3750075   -8755.6882    16021.194   -24430.111   -17858.148    2306.0598    -227.5488     1089.406    83.740665 
   47000    646.90354   -105.25704   0.58533192   -104.67171   -5977.2817    4.3751365    4.3751365    4.3751365   -5977.2817   -7802.7377     4155.321   -14284.428   -5427.9698    1334.9536   -1476.8362    83.748072 
   47100    531.03734   -105.15353   0.48049374   -104.67304    2401.0916    4.3678762    4.3678762    4.3678762    2401.0916    33255.127   -13992.103   -12059.749    3673.8775    -3099.081    3776.9733    83.331835 
   47200    717.01965   -105.32095   0.64877445   -104.67218   -4517.5988    4.3748921    4.3748921    4.3748921   -4517.5988    10463.661   -9731.6336   -14284.824    1338.8873    280.56688   -4174.1715     83.73404 
   47300    517.21585   -105.14225   0.46798777   -104.67426     7139.272    4.3716601    4.3716601    4.3716601     7139.272    28106.327    2663.1759   -9351.6873    1389.5893   -1833.0651    4317.4451    83.548595 
   47400    537.94556   -105.16144   0.48674444    -104.6747   -9741.2239    4.3766543    4.3766543    4.3766543   -9741.2239     17997.58   -18691.149   -28530.103     2038.978   -2085.6138   -2791.5878    83.835262 
   47500    765.71419   -105.36165   0.69283429   -104.66881    17172.187     4.363019     4.363019     4.363019    17172.187    22715.869    20753.569     8047.123   -751.08453    1529.4034    68.544341    83.054147 
   47600    400.01004   -105.04004   0.36193749    -104.6781   -22164.976    4.3841227    4.3841227    4.3841227   -22164.976    2916.0991   -28621.012   -40790.017   -2836.8813   -4018.5377    269.31179    84.265168 
   47700    724.56787   -105.33055   0.65560424   -104.67494    7019.7653    4.3635397    4.3635397    4.3635397    7019.7653    21999.759    3296.1382    -4236.601   -2171.2851    3282.9797   -4758.0141    83.083885 
   47800    701.24795   -105.31032   0.63450388   -104.67582   -406.42396    4.3730617    4.3730617    4.3730617   -406.42396    8135.6544    915.25419    -10270.18    -4444.634   -2095.3095    2549.7702    83.628984 
   47900    295.02721    -104.9485   0.26694682   -104.68156   -15320.721    4.3786148    4.3786148    4.3786148   -15320.721    18515.857   -24138.554   -40339.465    536.78176    414.73079   -8286.0129    83.947972 
   48000    893.83834   -105.47863   0.80876372   -104.66987    22167.994    4.3610554    4.3610554    4.3610554    22167.994    16821.835    32980.678    16701.469   -2815.0905    369.11293    4233.8392    82.942061 
   48100    514.34746   -105.14354   0.46539239   -104.67815   -16862.933    4.3817453    4.3817453    4.3817453   -16862.933    3234.5177   -18886.013   -34937.305    3106.7508   -2127.8852   -8870.1968     84.12816 
   48200    438.29111   -105.07569   0.39657501   -104.67911    6662.5441    4.3654614    4.3654614    4.3654614    6662.5441    5618.6109    22607.645   -8238.6235   -2202.0147    1816.0046    270.19927    83.193702 
   48300    955.84054   -105.53575   0.86486461   -104.67088    2355.9271     4.375689     4.375689     4.375689    2355.9271    4144.6124    12113.075   -9189.9059    7275.5324   -734.53526   -2538.1706    83.779805 
   48400    285.54999   -104.93999   0.25837163   -104.68162   -2681.9642    4.3718759    4.3718759    4.3718759   -2681.9642    10222.224    7231.7384   -25499.855   -443.17661    -2031.277   -5267.1561    83.560971 
   48500    658.07638   -105.27237   0.59544134   -104.67693    3732.3001    4.3711348    4.3711348    4.3711348    3732.3001    5025.4016    15251.263   -9079.7643    7213.9946    3947.8086     2928.435    83.518486 
   48600    763.32981   -105.36486   0.69067685   -104.67418    2745.7399    4.3737155    4.3737155    4.3737155    2745.7399    13495.705    5592.7951   -10851.281   -4286.0028   -3265.4062   -6253.8438    83.666497 
   48700    309.56287    -104.9609   0.28009899    -104.6808   -4287.6025    4.3720251    4.3720251    4.3720251   -4287.6025    979.80266    10686.585   -24529.195    1181.7127    5134.6811    2584.6465    83.569525 
   48800    864.28285   -105.45422   0.78202128    -104.6722    3855.6154    4.3716009    4.3716009    4.3716009    3855.6154   -2431.1016    16616.671   -2618.7229   -163.04104   -1327.9052   -410.37753    83.545206 
   48900    489.52906   -105.11961   0.44293618   -104.67667    1202.7937    4.3735293    4.3735293    4.3735293    1202.7937    10531.376    10648.172   -17571.166     215.2434    2179.3467   -2418.0168    83.655813 
   49000    584.52629   -105.20573   0.52889167   -104.67684   -13381.473    4.3739148    4.3739148    4.3739148   -13381.473   -14670.736    490.65077   -25964.335    4468.2365    3287.4247    5374.5009    83.677935 
   49100    704.22684   -105.30888   0.63719925   -104.67168    18238.292    4.3668006    4.3668006    4.3668006    18238.292    19336.618    32406.912    2971.3475   -1504.9664   -2086.3252   -3084.9617    83.270294 
   49200    454.00907   -105.08813   0.41079695   -104.67733   -21437.395    4.3820945    4.3820945    4.3820945   -21437.395    111.38147   -23362.481   -41061.084    5902.7168    4657.6256     4491.284    84.148274 
   49300    599.18795   -105.21519   0.54215785   -104.67303    11302.389    4.3632038    4.3632038    4.3632038    11302.389     4485.064    30718.839   -1296.7349     236.5311    -2815.341    1258.8008      83.0647 
   49400    787.93269   -105.38424   0.71293806    -104.6713   -10169.752    4.3780034    4.3780034    4.3780034   -10169.752    5808.9133    -16034.26   -20283.909    5257.5509    232.61632    1249.7953    83.912816 
   49500    367.10923   -105.00994   0.33216814   -104.67777   -12009.601    4.3734694    4.3734694    4.3734694   -12009.601   -11372.569   -1928.5388   -22727.696    1446.6241    -76.48697    6024.6279    83.652376 
   49600    744.62324   -105.34723   0.67375075   -104.67348    13204.414    4.3632395    4.3632395    4.3632395    13204.414    17055.744    25984.385    -3426.886    882.36173   -6587.1622   -2587.4162    83.066736 
   49700    618.91906   -105.23464   0.56001098   -104.67463    -12693.08     4.384026     4.384026     4.384026    -12693.08    4703.9237   -17998.185   -24784.979   -5278.6488    2431.3848    7184.0024    84.259594 
   49800    365.02702   -105.00716   0.33028412   -104.67687    9327.3302    4.3626034    4.3626034    4.3626034    9327.3302    9507.2422    28652.469    -10177.72    1966.1714   -4872.2504   -1647.2571    83.030415 
   49900    893.99042   -105.47914   0.80890132   -104.67023   -4025.1297    4.3780238    4.3780238    4.3780238   -4025.1297     7811.316   -4859.9974   -15026.708   -4123.9805   -2303.8869    3108.1008    83.913988 
   50000    458.16424   -105.09165   0.41455663   -104.67709    575.44796    4.3701042    4.3701042    4.3701042    575.44796    12775.987    2354.5423   -13404.186   -2306.7448    189.66471    1334.1519    83.459425 
   50100    530.01424   -105.15775   0.47956803   -104.67819   -223.83593     4.371725     4.371725     4.371725   -223.83593    3033.7339     17004.48   -20709.722    2105.8299   -7676.3071   -1489.1467    83.552316 
   50200    829.69072     -105.422    0.7507216   -104.67128    3063.1581    4.3754607    4.3754607    4.3754607    3063.1581    20694.938   -9229.1204   -2276.3439   -8621.5209    4028.9919    3093.5744     83.76669 
   50300    355.33812   -105.00231    0.3215174   -104.68079   -5906.4138    4.3670403    4.3670403    4.3670403   -5906.4138   -11481.366    20420.206   -26658.082    4728.4193   -9781.7605   -1587.8845    83.284002 
   50400    709.65996   -105.31845   0.64211525   -104.67634   -4676.6634    4.3774504    4.3774504    4.3774504   -4676.6634    -4316.732     -3576.87   -6136.3882   -4840.9515     2513.132   -827.32585    83.881018 
   50500    690.14628   -105.30103   0.62445886   -104.67657   -2517.8057    4.3699219    4.3699219    4.3699219   -2517.8057    5854.8634    1439.4239   -14847.704    1489.3208   -4947.8475    1003.7073     83.44898 
   50600    308.07864   -104.95988   0.27875602   -104.68113   -11428.309    4.3752451    4.3752451    4.3752451   -11428.309   -18556.953    9406.8297   -25134.804    518.90185   -2771.2235   -2301.1191     83.75431 
   50700    953.14746   -105.53185   0.86242785   -104.66942    1306.1365    4.3698305    4.3698305    4.3698305    1306.1365    8632.2815   -5561.0253    847.15323   -4148.9188    576.22565    2068.6011    83.443742 
   50800    375.50297   -105.01847   0.33976298   -104.67871   -11847.938    4.3762551    4.3762551    4.3762551   -11847.938     -18097.6     8243.789   -25690.003    2343.9796   -4848.8116   -2058.5789    83.812327 
   50900    626.31216   -105.24257   0.56670041   -104.67587    1938.1318    4.3680507    4.3680507    4.3680507    1938.1318      876.077    12105.962   -7167.6434    2333.9731    3860.9627    1019.7448    83.341827 
   51000    734.21608   -105.33688   0.66433414   -104.67255    2907.6766    4.3762451    4.3762451    4.3762451    2907.6766    12698.829    2603.6414   -6579.4409   -1373.5345   -3870.7228   -1079.3028    83.811748 
   51100    331.55491   -104.97838   0.29999785   -104.67839   -3270.9505    4.3729837    4.3729837    4.3729837   -3270.9505   -11726.221    19700.688   -17787.319    2382.2143    273.65864    2131.0897    83.624508 
   51200    787.52773   -105.38497   0.71257164   -104.67239    4526.2413    4.3698494    4.3698494    4.3698494    4526.2413    17364.669   -4252.5934    466.64814   -6083.3141    2344.5232   -1912.8902    83.444823 
   51300    620.16121   -105.23378   0.56113489   -104.67265   -1871.4423    4.3766342    4.3766342    4.3766342   -1871.4423   -7826.7762    8688.6474    -6476.198    -4813.128   -3413.9612    2452.1442    83.834108 
   51400    406.32308    -105.0433   0.36764966   -104.67565    3321.0837    4.3667382    4.3667382    4.3667382    3321.0837    14333.284    9048.4415   -13418.474   -537.06286     3269.431   -1873.9057     83.26672 
   51500    779.89563   -105.37718   0.70566596   -104.67151   -1863.1046    4.3794689    4.3794689    4.3794689   -1863.1046    477.62441   -12009.951     5943.013   -13600.228   -856.16632    2133.4713    83.997111 
   51600    591.28366    -105.2097   0.53500588   -104.67469    9112.4772    4.3656175    4.3656175    4.3656175    9112.4772    9674.8808    29007.543   -11344.993    3088.0374   -1513.8049    250.99835     83.20263 
   51700    453.11275   -105.08866   0.40998594   -104.67867   -11706.588    4.3785408    4.3785408    4.3785408   -11706.588   -10873.297    -23118.29   -1128.1771   -18573.199     4418.188    1131.6338     83.94372 
   51800    856.78895   -105.44603   0.77524064   -104.67079    8892.3971    4.3711308    4.3711308    4.3711308    8892.3971    11512.924    14854.712     309.5556   -2106.7427   -4339.1474    1879.4584    83.518253 
   51900    454.96604   -105.08914   0.41166283   -104.67748   -3042.5131    4.3687761    4.3687761    4.3687761   -3042.5131   -132.50726   -724.36735   -8270.6648    -7501.895    8781.5662   -728.07248    83.383354 
   52000    470.43564   -105.10285   0.42566005   -104.67719   -4222.0582    4.3789967    4.3789967    4.3789967   -4222.0582   -6640.3897   -4182.8951   -1842.8896   -11236.912   -4509.2836    4127.7124    83.969944 
   52100    937.76139   -105.51812   0.84850622   -104.66962    6606.8622     4.365781     4.365781     4.365781    6606.8622    10238.022    12273.894   -2691.3288    6648.1087    6721.3225   -815.16476    83.211976 
   52200    162.98862    -104.8299   0.14747552   -104.68242   -13894.234    4.3785392    4.3785392    4.3785392   -13894.234   -20890.454   -18058.657   -2733.5912   -17570.207    2154.9611    4934.8005    83.943625 
   52300    980.98286    -105.5605   0.88761391   -104.67289    2924.7509      4.36864      4.36864      4.36864    2924.7509    10444.638   -402.85027   -1267.5353    6337.7764    2617.6578   -994.68998    83.375565 
   52400    454.75082   -105.09162    0.4114681   -104.68015   -2736.4332    4.3763349    4.3763349    4.3763349   -2736.4332   -6587.0645   -8394.1322    6771.8971   -10662.758    2597.8576    2930.9076    83.816909 
   52500    442.89709   -105.08331    0.4007426   -104.68257     -7858.34    4.3711951    4.3711951    4.3711951     -7858.34   -853.58177   -11747.884   -10973.555   -6303.3879   -1916.1104    401.46985     83.52194 
   52600    922.58185   -105.50566   0.83477145   -104.67089    9522.2667    4.3726798    4.3726798    4.3726798    9522.2667    6603.6859    9361.3778    12601.736   -643.01287   -2777.5777    813.38452    83.607073 
   52700    278.64521   -104.93362   0.25212405    -104.6815   -12554.835    4.3758342    4.3758342    4.3758342   -12554.835   -15168.799   -19513.841   -2981.8631   -16089.295    319.88895    2141.8405    83.788147 
   52800    772.02064   -105.37248    0.6985405   -104.67394    8465.1237    4.3679781    4.3679781    4.3679781    8465.1237    10679.638    13615.634    1100.0983    1349.7826   -6945.4894   -2135.7087    83.337671 
   52900    690.67288   -105.29793   0.62493534   -104.67299   -3616.3287    4.3793834    4.3793834    4.3793834   -3616.3287   -3158.4345    -11958.21    4267.6584   -9311.7572    110.48836    1810.7732    83.992191 
   53000    350.32235   -104.99427   0.31697902   -104.67729    3759.6166    4.3656892    4.3656892    4.3656892    3759.6166    14280.773    2821.8529   -5823.7757   -4813.4641   -3854.5797   -1969.0756    83.206726 
   53100    783.61967   -105.38121   0.70903554   -104.67217    2466.6354    4.3784164    4.3784164    4.3784164    2466.6354    220.45649    3230.6665    3948.7833    3497.3743   -8541.9847    244.75881    83.936562 
   53200    615.20103   -105.23133   0.55664682   -104.67468    2667.8525    4.3705016    4.3705016    4.3705016    2667.8525    13189.933   -8910.8888    3724.5135   -10137.941    4113.6309    521.44591    83.482196 
   53300    407.33482   -105.04521    0.3685651   -104.67665     2702.757    4.3713731    4.3713731    4.3713731     2702.757   -4791.4624    12381.136    518.59773    5361.8989   -8552.3784   -1444.4714    83.532143 
   53400    864.25099   -105.45247   0.78199245   -104.67048   -5925.1236    4.3767894    4.3767894    4.3767894   -5925.1236    1393.4752   -7819.7342   -11349.112   -3609.7933    6709.1669    402.90844    83.843025 
   53500    431.41491   -105.06625   0.39035327    -104.6759    12152.504    4.3650968    4.3650968    4.3650968    12152.504    13761.679    9764.5483    12931.284   -1435.8006   -7275.1435    1472.2797    83.172858 
   53600    558.93891    -105.1818   0.50573967   -104.67606   -15377.534    4.3807486    4.3807486    4.3807486   -15377.534    -17053.19   -4109.3919   -24970.019    4429.3643   -2044.3261     2550.384    84.070762 
   53700    782.93533   -105.37745   0.70841634   -104.66903    14984.157    4.3662399    4.3662399    4.3662399    14984.157    15353.294    3681.8477     25917.33   -9162.6337    449.46198    706.08728    83.238221 
   53800    415.43724   -105.05176   0.37589635   -104.67587   -13963.159    4.3778398    4.3778398    4.3778398   -13963.159   -14139.637   -26.638308   -27723.202    3632.8532   -9135.6319    170.68681    83.903405 
   53900    699.84913   -105.30476    0.6332382   -104.67152         4472    4.3705007    4.3705007    4.3705007         4472    4257.0785    362.37587    8796.5455   -5725.7351    4734.7209    48.234134     83.48214 
   54000     661.7204   -105.27115   0.59873852   -104.67241    4529.0633    4.3719404    4.3719404    4.3719404    4529.0633    15109.144   -2647.9555    1126.0012   -1350.5545   -11531.428    903.66434    83.564669 
   54100    373.59655   -105.01681   0.33803801   -104.67877    -10619.38    4.3762965    4.3762965    4.3762965    -10619.38   -18871.056    2400.5757   -15387.659    2230.4663   -3271.9199    1452.8739    83.814706 
   54200    877.91159    -105.4644   0.79435285   -104.67005     11963.66    4.3670355    4.3670355    4.3670355     11963.66    23634.337    1068.4558    11188.188   -5340.4286    6130.7784    673.12294     83.28373 
   54300     435.0085   -105.07069   0.39360483   -104.67708   -15630.465    4.3788892    4.3788892    4.3788892   -15630.465   -19308.594   -5843.4512   -21739.351    5046.7675   -13061.392   -580.86182    83.963756 
   54400    508.42492   -105.13629   0.46003355   -104.67625    5939.6077    4.3688352    4.3688352    4.3688352    5939.6077    7108.5399    8981.3557    1728.9274   -3068.1275    11965.839    -1222.436    83.386739 
   54500    867.28186   -105.45475   0.78473485   -104.67001   -138.52667    4.3741403    4.3741403    4.3741403   -138.52667    4056.9279   -10883.788    6411.2798    1640.4275   -7969.6027     -401.846    83.690879 
   54600    300.58478   -104.95201   0.27197543   -104.68003   -13878.264    4.3740473    4.3740473    4.3740473   -13878.264   -20088.021    6123.7163   -27670.486    2166.7737     8981.504   -74.204801    83.685543 
   54700    793.49082   -105.39302   0.71796717   -104.67506    11539.804    4.3692943    4.3692943    4.3692943    11539.804    19690.794   -86.674081    15015.292   -4000.6303    5858.3672    348.39813    83.413027 
   54800    610.67246   -105.23122   0.55254927   -104.67867   -10833.623    4.3773626    4.3773626    4.3773626   -10833.623   -12106.715   -5363.0862   -15031.069    5264.7077   -4379.0938   -1637.3248    83.875973 
   54900    335.88537   -104.98339   0.30391614   -104.67947    3148.8049    4.3701761    4.3701761    4.3701761    3148.8049    2042.8878    11004.039   -3600.5121   -6162.7989     15767.05    217.73591     83.46354 
   55000    947.15311   -105.52555   0.85700404   -104.66855    4077.3645    4.3719351    4.3719351    4.3719351    4077.3645    9571.1496    3817.0039   -1156.0599     2960.891   -5812.3828   -1750.4974    83.564368 
   55100    350.98029   -104.99336   0.31757434   -104.67579   -11087.551    4.3788432    4.3788432    4.3788432   -11087.551    -16418.12    4462.4091   -21306.943    1894.6766    12869.337    367.64338    83.961111 
   55200    683.33155   -105.28865   0.61829275   -104.67036    11693.929    4.3653933    4.3653933    4.3653933    11693.929    12005.734    16879.614    6196.4401   -192.57067    2414.3636    2270.4089    83.189813 
   55300    622.28006   -105.23611   0.56305208   -104.67306   -3382.4053    4.3773516    4.3773516    4.3773516   -3382.4053   -5870.9328   -2921.6269    -1354.656    8304.6238    1802.8324   -389.49007    83.875339 
   55400     486.5526   -105.11521   0.44024301   -104.67497   -3615.0118    4.3734958    4.3734958    4.3734958   -3615.0118   -10389.867    20081.732     -20536.9   -1759.3634    13606.844    2657.3978    83.653891 
   55500    782.09374   -105.37669   0.70765485   -104.66903    5866.6357    4.3677229    4.3677229    4.3677229    5866.6357    9967.3675   -3671.2266    11303.766    8665.5764   -2896.5928   -2670.0209    83.323066 
   55600    401.14562   -105.03746   0.36296499    -104.6745   -8096.7466    4.3783313    4.3783313    4.3783313   -8096.7466   -22542.141    11698.767   -13446.866    1742.3236    15112.216    1815.3238     83.93167 
   55700    763.28341   -105.36088   0.69063487   -104.67025    1642.3495    4.3692393    4.3692393    4.3692393    1642.3495    6727.3434    2028.4543   -3828.7492     3898.785   -2271.5334   -2276.6807    83.409877 
   55800    547.88865   -105.16819   0.49574117   -104.67245   -2032.4679    4.3736372    4.3736372    4.3736372   -2032.4679   -1315.2721    2813.8052   -7595.9367    3141.8555     8739.229   -242.03103    83.662003 
   55900    539.98169   -105.16224   0.48858678   -104.67365   -3268.7001     4.374684     4.374684     4.374684   -3268.7001   -12243.814    11863.584   -9425.8701    1612.3606    8420.4211   -4833.6489    83.722093 
   56000    717.57477   -105.32013   0.64927673   -104.67086    4122.2945    4.3714689    4.3714689    4.3714689    4122.2945    5929.9758   -391.75583    6828.6634   -1850.4181   -3912.1767   -2159.9178    83.537638 
   56100    444.97205   -105.07852   0.40262006    -104.6759   -1742.8847    4.3721388    4.3721388    4.3721388   -1742.8847   -13281.678    11460.768   -3407.7444   -803.44569     12890.96   -4615.4288    83.576044 
   56200    768.64197   -105.36513   0.69548341   -104.66964   -4857.0621    4.3762157    4.3762157    4.3762157   -4857.0621   -9569.2113    6971.1975   -11973.172   -4159.6829   -9167.7001    4789.0407    83.810063 
   56300    514.53615   -105.13698   0.46556312   -104.67142   -2341.2811    4.3709332    4.3709332    4.3709332   -2341.2811   -270.94267   -6955.7098    202.80931   -4170.7169    12028.874   -3902.7309    83.506927 
   56400    557.87606   -105.17832   0.50477798   -104.67354   -3118.4278    4.3713778    4.3713778    4.3713778   -3118.4278   -18689.739    17080.663   -7746.2074    80.166424    2164.1961    3833.3245    83.532413 
   56500    748.67641   -105.34624   0.67741815   -104.66883   -1094.6409    4.3759625    4.3759625    4.3759625   -1094.6409    -1300.476   -9727.4012    7743.9546   -5801.0474   -2142.3485   -1184.8973    83.795516 
   56600    422.89962   -105.05817   0.38264846   -104.67552   -7569.8126    4.3713077    4.3713077    4.3713077   -7569.8126   -15002.944    6965.9572   -14672.451    1898.0821    14578.798    2277.2237    83.528392 
   56700    744.05657   -105.34556   0.67323802   -104.67233    4977.4327    4.3708692    4.3708692    4.3708692    4977.4327    3347.6353    5633.2574    5951.4055   -4178.4277   -10176.471    1518.7912    83.503257 
   56800    569.55401   -105.18827   0.51534444   -104.67292   -1250.0916    4.3785908    4.3785908    4.3785908   -1250.0916   -6246.4379   -1609.8664    4106.0294    669.36818     15496.35   -541.11013    83.946596 
   56900    511.35878   -105.13577   0.46268817   -104.67308     30.44271    4.3667352    4.3667352    4.3667352     30.44271    1770.5243    9362.0089   -11041.205    -125.6818     17.33409    -1006.847    83.266549 
   57000    735.38945   -105.33489   0.66539583   -104.66949    5399.0866    4.3748579    4.3748579    4.3748579    5399.0866    3721.2118    879.51227    11596.536   -2543.0009   -5724.2136   -2039.7392    83.732073 
   57100    551.82523   -105.17266   0.49930307   -104.67335   -10545.778    4.3768378    4.3768378    4.3768378   -10545.778     -8566.86   -30.644509   -23039.829    2238.8108    15859.809   -2868.7417    83.845808 
   57200    503.19403   -105.12739   0.45530054   -104.67209     14664.43     4.365309     4.365309     4.365309     14664.43    9457.3345     9222.443    25313.513   -5004.2535   -15298.333     1187.391     83.18499 
   57300    774.78773   -105.37187   0.70104422   -104.67082   -7168.5917    4.3777473    4.3777473    4.3777473   -7168.5917   -4943.5747   -5840.9731   -10721.227   -477.02051    13609.049    60.240675    83.898086 
   57400    357.22427   -104.99909   0.32322403   -104.67586    4149.3783    4.3707182    4.3707182    4.3707182    4149.3783     11916.72    5490.9552   -4959.5399   -2284.6084   -2822.9225    4826.4581    83.494603 
   57500    808.44136   -105.40197   0.73149473   -104.67047   -4647.1813    4.3745993    4.3745993    4.3745993   -4647.1813   -6705.7787   -6071.2941   -1164.4711   -3680.8254   -7318.9783   -1252.4798    83.717226 
   57600     508.4448   -105.13212   0.46005154   -104.67206    9419.6756    4.3703476    4.3703476    4.3703476    9419.6756    20929.611    8128.5342    -799.1183    3671.6333    15918.932    4874.3749    83.473371 
   57700    510.69545   -105.13569   0.46208798    -104.6736   -12926.403    4.3772499    4.3772499    4.3772499   -12926.403   -9723.0183   -15382.405   -13673.786    -5809.758   -15492.408   -107.69144    83.869494 
   57800    807.43598   -105.39855   0.73058504   -104.66796    8487.8194    4.3680218    4.3680218    4.3680218    8487.8194    19266.528    6502.6434   -305.71347    1974.5078    11676.976    4107.3367    83.340172 
   57900    441.04302    -105.0742   0.39906499   -104.67513   -6079.0679    4.3756618    4.3756618    4.3756618   -6079.0679   -9755.1203     2302.077    -10784.16   -1722.2842   -5103.3329   -430.91841    83.778239 
   58000    669.13801   -105.27868   0.60545013   -104.67323    -964.3279    4.3729565    4.3729565    4.3729565    -964.3279    1797.2714   -7693.6579    3003.4027   -3572.6918   -8004.8093   -353.35234    83.622949 
   58100    618.19724   -105.23129   0.55935785   -104.67193    13509.079    4.3688465    4.3688465    4.3688465    13509.079    9589.5467    20794.473    10143.218    2250.1772    11233.219    -3784.839    83.387386 
   58200    472.66713   -105.10265   0.42767915   -104.67498   -18612.031    4.3812249    4.3812249    4.3812249   -18612.031   -19193.362   -10498.173   -26144.559   -4461.7873   -20122.142    -2408.549    84.098187 
   58300    781.07465   -105.37414   0.70673276   -104.66741     18980.12     4.360987     4.360987     4.360987     18980.12    21587.395    18174.102    17178.863   -4710.7056    6657.8857    -747.9161    82.938154 
   58400    474.22276   -105.10261   0.42908672   -104.67352   -12095.654    4.3823616    4.3823616    4.3823616   -12095.654   -19634.236   -6081.0434   -10571.682   -711.82715    -8477.779   -3332.9771    84.163664 
   58500    595.82106   -105.21227   0.53911142   -104.67316    497.90702    4.3675794    4.3675794    4.3675794    497.90702     7590.385   -5727.0539   -369.61005   -12360.035   -7791.1758   -299.74512     83.31485 
   58600    747.94524   -105.34717   0.67675658   -104.67041    8624.2178    4.3715959    4.3715959    4.3715959    8624.2178    5048.3677     11047.36    9776.9254   -1335.7966    4208.6344   -6642.1097    83.544915 
   58700    453.32148   -105.08607    0.4101748   -104.67589   -15268.915    4.3776294    4.3776294    4.3776294   -15268.915   -18878.538   -10022.789   -16905.417    -7211.996   -15120.506    3649.7016    83.891308 
   58800    615.12718   -105.22786      0.55658   -104.67128    23313.569    4.3639283    4.3639283    4.3639283    23313.569    21422.609    14550.916    33967.182   -9466.8758     4627.428   -4485.4211    83.106083 
   58900     730.4545   -105.33231   0.66093059   -104.67138   -12840.267    4.3817105    4.3817105    4.3817105   -12840.267   -19676.459     2585.473   -21429.816    1812.0098   -4873.1193    4121.7209    84.126155 
   59000    382.59746   -105.02106   0.34618222   -104.67488    13173.341    4.3637746    4.3637746    4.3637746    13173.341    12584.835    11245.831    15689.359    -13721.61   -4832.1642   -2590.6992    83.097305 
   59100    867.99387   -105.45548    0.7853791    -104.6701   -1609.4397    4.3779131    4.3779131    4.3779131   -1609.4397    4167.9771    -3565.323   -5430.9733    5166.0925    3678.2603    637.00511    83.907623 
   59200    422.86605   -105.06078   0.38261809   -104.67816    2246.2503     4.369246     4.369246     4.369246    2246.2503   -3684.4362    5962.2496    4460.9376   -5801.5939    -15547.62    579.97955    83.410261 
   59300    554.75781   -105.18041   0.50195653   -104.67845    8185.6156    4.3710823    4.3710823    4.3710823    8185.6156    10805.658   -3175.6052    16926.794   -3898.8608     3718.412   -140.62404    83.515473 
   59400     854.6005   -105.44442   0.77326049   -104.67116    111.61056     4.376076     4.376076     4.376076    111.61056   -2218.6739    1652.8303    900.67524    5169.3462   -11386.814   -841.45623    83.802033 
   59500    293.73979   -104.94441   0.26578193   -104.67863    3008.9676    4.3666336    4.3666336    4.3666336    3008.9676    4189.1445   -8658.6276    13496.386   -12387.377   -2867.4155   -873.34719    83.260737 
   59600    827.96955   -105.42043   0.74916425   -104.67126    1918.1628    4.3769671    4.3769671    4.3769671    1918.1628    2288.3743   -873.33338    4339.4475    4715.7708   -4312.4682   -4570.2881    83.853241 
   59700    548.12514   -105.17158   0.49595514   -104.67563    5533.5586    4.3691203    4.3691203    4.3691203    5533.5586    8109.6464   -3589.4525    12080.482   -9674.2969   -7177.1727    1728.4225    83.403063 
   59800    422.43824   -105.05979     0.382231   -104.67756   -4025.6768    4.3761888    4.3761888    4.3761888   -4025.6768   -3749.6167   -6610.5903   -1716.8235   -3795.2694   -344.04779    -6600.608    83.808516 
   59900    927.20796   -105.50709   0.83895725   -104.66813    6984.9658    4.3685959    4.3685959    4.3685959    6984.9658    10003.521    6508.7845    4442.5915   -2137.8544    4845.5467    917.91937     83.37304 
   60000    315.80777   -104.96349   0.28574951   -104.67774   -4816.2592    4.3747191    4.3747191    4.3747191   -4816.2592   -10125.988   -12553.107    8230.3167   -11643.875   -5042.1914   -7327.7348    83.724103 
   60100    755.65271    -105.3552   0.68373045   -104.67147   -2713.4463    4.3724701    4.3724701    4.3724701   -2713.4463   -1997.2836   -5375.5656   -767.48975    963.27508    12919.949   -2650.9109    83.595047 
   60200    587.49349   -105.20376   0.53157645   -104.67218    9487.3584    4.3692387    4.3692387    4.3692387    9487.3584     3467.296   -3432.2943    28427.074   -8199.7354   -3255.0109    279.70417    83.409846 
   60300    541.77226   -105.16529   0.49020693   -104.67508   -21762.368     4.378676     4.378676     4.378676   -21762.368   -16175.878   -20377.121   -28734.106   -721.38395    9711.4742   -5239.9464    83.951493 
   60400    624.87006   -105.23712   0.56539556   -104.67173    13225.105    4.3646687    4.3646687    4.3646687    13225.105    4132.6001     13491.41    22051.305   -1639.7447     8542.186   -137.89317    83.148393 
   60500    638.63231   -105.25199   0.57784794   -104.67415   -15768.165    4.3797127    4.3797127    4.3797127   -15768.165   -17418.531   -28345.018   -1540.9476   -4143.3435   -893.15908   -4285.8473    84.011138 
   60600    454.71781   -105.08565   0.41143823   -104.67421   -664.24099    4.3707653    4.3707653    4.3707653   -664.24099   -8208.1139    10615.248   -4399.8572     1125.202    12224.291   -1744.1463    83.497305 
   60700    754.79579    -105.3527   0.68295509   -104.66974    2656.3803    4.3681617    4.3681617    4.3681617    2656.3803     -3310.83   -7206.0193     18485.99   -5027.0293   -4625.7339   -1808.0917    83.348179 
   60800    500.40056   -105.12469   0.45277294   -104.67192   -11076.272    4.3812336    4.3812336    4.3812336   -11076.272    -12602.01   -11673.494   -8953.3131    133.15293    7866.2811   -2573.9812    84.098687 
   60900    603.98185     -105.216   0.54649547    -104.6695    7158.5474     4.363591     4.363591     4.363591    7158.5474   -4205.5166    8623.1336    17058.025   -2544.9254     6615.357   -5149.3224    83.086817 
   61000    622.31275   -105.23476   0.56308165   -104.67167   -3789.7209    4.3766116    4.3766116    4.3766116   -3789.7209   -10200.883   -12395.291    11227.012   -5961.9365   -3769.7116    525.52173    83.832812 
   61100     598.5328   -105.21439   0.54156506   -104.67283   -6885.5317    4.3735451    4.3735451    4.3735451   -6885.5317   -7100.2621   -1062.9603   -12493.373    520.34886    15690.823   -3875.6444    83.656717 
   61200     598.5243   -105.21344   0.54155736   -104.67189    307.49323    4.3706163    4.3706163    4.3706163    307.49323   -12025.271   -5637.8238    18585.574   -10502.877   -7186.3854     2395.708    83.488764 
   61300    637.38592   -105.24741   0.57672017   -104.67069   -2804.0963    4.3739632    4.3739632    4.3739632   -2804.0963   -2363.2136   -12295.345    6246.2702    2001.9095     12514.83   -3257.5091    83.680712 
   61400    498.93644   -105.12372   0.45144818   -104.67227    2189.4462    4.3724451    4.3724451    4.3724451    2189.4462   -7074.9415    3987.0319     9656.248   -7019.0492    3705.7352    200.10829    83.593616 
   61500    697.27193   -105.30243   0.63090629   -104.67152   -7841.4741    4.3740382    4.3740382    4.3740382   -7841.4741   -8767.8134   -22097.698    7341.0896   -955.29438    -3292.733    1283.2714    83.685019 
   61600    591.39216   -105.20808   0.53510405   -104.67298    10373.116    4.3683081    4.3683081    4.3683081    10373.116    3510.1886    7849.1559    19760.003    2694.7729    3916.5053    -4673.861    83.356561 
   61700    508.95426   -105.13732   0.46051251   -104.67681   -12883.745    4.3759579    4.3759579    4.3759579   -12883.745   -25378.914   -17367.024    4094.7036   -8808.3368   -11557.955    5598.7158    83.795251 
   61800    672.52682   -105.28069    0.6085164   -104.67218    5218.1597    4.3699198    4.3699198    4.3699198    5218.1597    5159.1676   -8725.9152    19221.227    11851.674     818.2221   -7423.6223    83.448856 
   61900    655.19154   -105.26536   0.59283107   -104.67253   -2509.7802    4.3714757    4.3714757    4.3714757   -2509.7802   -5594.6543   -6536.7415    4602.0552   -8199.5947   -4693.8689    303.27588    83.538023 
   62000    411.92325   -105.04978   0.37271682   -104.67706   -4804.9772    4.3746317    4.3746317    4.3746317   -4804.9772   -16953.872   -23818.377    26357.317     9995.721   -5963.8642   -1912.0806    83.719087 
   62100    872.94482   -105.45952   0.78985882   -104.66967    4481.5844    4.3705029    4.3705029    4.3705029    4481.5844    13371.781   -9007.3137    9080.2854    3588.0682    3095.5889   -3818.8428    83.482269 
   62200    361.30049   -105.00495   0.32691228   -104.67804     409.5945    4.3706386    4.3706386    4.3706386     409.5945   -18458.629   -13830.416    33517.829   -46.657796   -5374.7708    1282.6221    83.490042 
   62300    691.05005   -105.30099   0.62527661   -104.67572   -6245.5241    4.3760476    4.3760476    4.3760476   -6245.5241    102.00977   -23604.704    4766.1221    11962.511   -81.494455   -2313.7712    83.800405 
   62400     746.6722    -105.3482    0.6756047    -104.6726    11432.157    4.3687252    4.3687252    4.3687252    11432.157    9265.6678   -2517.9786    27548.782   -4657.6263    3155.5396   -4116.6877    83.380442 
   62500    361.09599   -105.00671   0.32672724   -104.67998   -7176.6815    4.3731558    4.3731558    4.3731558   -7176.6815   -13094.622   -26758.363    18322.941    11627.215   -11515.763    1066.6179     83.63438 
   62600    758.33395   -105.35864   0.68615649   -104.67248    9830.9267    4.3734756    4.3734756    4.3734756    9830.9267    11977.818   -6295.2958    23810.258   -966.92861    6119.8722   -4658.5439    83.652729 
   62700    615.83295   -105.23407   0.55721859   -104.67685    101.98112    4.3685667    4.3685667    4.3685667    101.98112   -8201.4026   -14551.123    23058.469    5599.9147   -8434.5557   -26.702586    83.371364 
   62800    485.09516     -105.116   0.43892429   -104.67708    3091.7701    4.3728806    4.3728806    4.3728806    3091.7701     4641.062   -14337.883    18972.131    4934.7238    -4094.826   -2366.5359    83.618594 
   62900    732.81126   -105.33408   0.66306303   -104.67101   -580.16049    4.3754588    4.3754588    4.3754588   -580.16049   -1911.9268   -9169.0472    9340.4925   -2178.8183    3651.7196   -5822.4483    83.766582 
   63000    486.00695   -105.11305    0.4397493   -104.67331    5354.7591    4.3663102    4.3663102    4.3663102    5354.7591    5954.4162   -14003.589     24113.45    11643.409    -11134.11    1876.2743    83.242241 
   63100    686.17024   -105.29211   0.62086125   -104.67125   -4503.5035    4.3758853    4.3758853    4.3758853   -4503.5035   -1207.8604   -9782.4395   -2520.2107   -5276.4988     12072.21   -7300.2717    83.791078 
   63200    600.40092   -105.21551   0.54325537   -104.67226    258.28296    4.3722445    4.3722445    4.3722445    258.28296    4679.1687   -13508.013    9603.6927    11691.451    2833.4366    490.91617    83.582107 
   63300    584.85916   -105.20376   0.52919286   -104.67457   -822.02731    4.3690685    4.3690685    4.3690685   -822.02731   -4358.2761   -8710.2998    10602.494    1711.1817     1071.457    -4169.738    83.400101 
   63400    555.13544   -105.17653   0.50229822   -104.67424   -7894.3353    4.3789224    4.3789224    4.3789224   -7894.3353   -5291.2201   -13630.686   -4761.0997    1442.6058    19065.913    -7311.168    83.965669 
   63500    712.04825   -105.31479   0.64427622   -104.67051    5388.0038    4.3626418    4.3626418    4.3626418    5388.0038    4911.7895   -5629.1497    16881.372    12181.016   -8496.2006    2269.7155    83.032608 
   63600    417.92296    -105.0534   0.37814548   -104.67526   -17032.758    4.3817718    4.3817718    4.3817718   -17032.758   -16863.822    -11826.48   -22407.971   -6415.2235    18401.125   -6867.5114    84.129685 
   63700    761.85272   -105.35914   0.68934035    -104.6698    3149.5281      4.36648      4.36648      4.36648    3149.5281    7258.7753   -6785.3283    8975.1372    12166.498    3246.3918   -2349.2421    83.251953 
   63800    537.98353   -105.16027    0.4867788   -104.67349    -1352.357    4.3719559    4.3719559    4.3719559    -1352.357   -7326.2477   -6037.8344     9307.011   -4539.0137   -179.11532      439.016     83.56556 
   63900    481.69161   -105.11057   0.43584469   -104.67472   -12504.957     4.376729     4.376729     4.376729   -12504.957   -5925.0858   -10057.115   -21532.671    2155.8328    18700.479   -9445.1164    83.839554 
   64000    836.18873    -105.4256   0.75660113   -104.66899    9632.6171    4.3658456    4.3658456    4.3658456    9632.6171    5457.1546   -1297.7413    24738.438    1672.1372   -6744.8282    4388.5347    83.215668 
   64100    334.00229   -104.97962   0.30221229   -104.67741   -10102.287    4.3773845    4.3773845    4.3773845   -10102.287   -12540.936   -4933.9422   -12831.983   -4608.9243    19910.633   -2690.9635    83.877231 
   64200    737.22467   -105.33842   0.66705637   -104.67136     452.8292    4.3704007    4.3704007    4.3704007     452.8292    1125.1692   -7659.7903    7893.1088    3040.3974    2519.6547   -226.03573     83.47641 
   64300    616.61947   -105.23042   0.55793026   -104.67249   -4805.1082    4.3739778    4.3739778    4.3739778   -4805.1082   -5523.7815   -2570.8417   -6320.7014   -3351.5167    8074.3092    539.28833    83.681551 
   64400    438.45178   -105.07512   0.39672039    -104.6784    -2348.494    4.3700518    4.3700518    4.3700518    -2348.494   -5277.7926   -5148.9072    3381.2178    4.1239734    15407.984   -6529.8449    83.456421 
   64500    850.06046   -105.44207   0.76915257   -104.67291   -1539.2452    4.3768518    4.3768518    4.3768518   -1539.2452    2860.0229   -9678.0026     2200.244     2490.195   -5749.7484    1115.0063    83.846614 
   64600    402.26099   -105.04232    0.3639742   -104.67834    10675.499    4.3657039    4.3657039    4.3657039    10675.499   -2601.9591    10677.766     23950.69   -1709.0064    18969.059   -396.93408    83.207569 
   64700    681.89615   -105.29235   0.61699396   -104.67536   -11325.581    4.3794501    4.3794501    4.3794501   -11325.581     5858.334    -15677.93   -24157.146    2874.4621   -5239.7962   -7403.7757    83.996029 
   64800    648.12193   -105.25789   0.58643434   -104.67145    19066.942    4.3650717    4.3650717    4.3650717    19066.942    8784.1079    12944.853    35471.864    1879.9881    8973.1131    5082.2793    83.171427 
   64900     485.9187   -105.11568   0.43966945   -104.67601   -10165.633    4.3766364    4.3766364    4.3766364   -10165.633    4135.9058   -8450.3643   -26182.439   -2685.4523    10560.315   -12816.692    83.834232 
   65000    666.44213     -105.274   0.60301085   -104.67099    8509.8411    4.3706838    4.3706838    4.3706838    8509.8411    14342.348   -4228.6772    15415.852    6967.8119    -5571.936    2868.9914    83.492637 
   65100    641.21884   -105.25296   0.58018828   -104.67277    2261.8262    4.3678675    4.3678675    4.3678675    2261.8262     8147.705    7029.5688   -8391.7951    -7913.599    16994.396   -1775.2042    83.331339 
   65200    471.90252   -105.10008   0.42698732   -104.67309   -10517.441    4.3813762    4.3813762    4.3813762   -10517.441    6422.2926   -23682.737   -14291.878    3993.0935   -3792.2454   -7424.7516    84.106901 
   65300    760.15107    -105.3554   0.68780066    -104.6676    13313.069    4.3624958    4.3624958    4.3624958    13313.069    13168.793    11012.872    15757.541   -5573.3267    5599.0499    12351.001    83.024273 
   65400    474.01456   -105.10104   0.42889834   -104.67215   -8163.8286    4.3794815    4.3794815    4.3794815   -8163.8286     6895.974   -10197.318   -21190.142   -365.18689    9294.4304   -15310.256    83.997831 
   65500    664.77604   -105.27262   0.60150333   -104.67112   -3094.3086    4.3691111    4.3691111    4.3691111   -3094.3086    7048.8056   -10048.842   -6282.8892    30.834602   -8915.6404    10981.686    83.402537 
   65600    593.63093    -105.2089   0.53712974   -104.67177    11580.772    4.3691568    4.3691568    4.3691568    11580.772    20652.056    10434.221    3656.0404   -2681.8685    9024.8379   -375.56365    83.405157 
   65700    566.19164   -105.18737   0.51230209   -104.67506   -18881.138    4.3789754    4.3789754    4.3789754   -18881.138   -6575.6126   -22056.792   -28011.008    3385.1312   -5288.1308   -5086.0659    83.968714 
   65800    545.40061   -105.16736   0.49348994   -104.67387    12888.722    4.3638222    4.3638222    4.3638222    12888.722    29588.916    4326.5051    4750.7449   -2676.9071   -2763.6512    16703.317    83.100023 
   65900    792.34675   -105.38971   0.71693199   -104.67278   -9488.0659    4.3761449    4.3761449    4.3761449   -9488.0659   -5043.7767   -5861.0448   -17559.376    5947.0536     3938.393   -13828.833    83.805993 
   66000    306.59836   -104.95562   0.27741664    -104.6782   -5110.8762    4.3749406    4.3749406    4.3749406   -5110.8762    13971.025   -18263.329   -11040.324   -2505.4857   -7260.9134    19180.294    83.736825 
   66100    881.35595   -105.46575   0.79746938   -104.66828    12998.624    4.3609845    4.3609845    4.3609845    12998.624    13512.515    21587.067    3896.2897     5518.913    1479.2657    2009.2018    82.938015 
   66200     388.0312   -105.02687   0.35109879   -104.67577   -14552.116    4.3851007    4.3851007    4.3851007   -14552.116   -996.86176   -26106.582   -16552.904   -440.47123    466.17296    3922.0407    84.321575 
   66300    648.34997   -105.26072   0.58664068   -104.67408    4011.6911    4.3610152    4.3610152    4.3610152    4011.6911    16576.233    8621.2335   -13162.393    995.00865   -4343.2557    19114.045    82.939765 
   66400    766.55234   -105.36515   0.69359266   -104.67156    3410.5145    4.3752134    4.3752134    4.3752134    3410.5145     2164.678   -3961.2542     12028.12   -369.85683    5913.1417   -6181.6565    83.752487 
   66500    312.94723   -104.96404   0.28316123   -104.68088   -16881.241    4.3749083    4.3749083    4.3749083   -16881.241    3687.3853    -22977.36   -31353.749   -593.06288   -4209.0943    21754.462    83.734969 
   66600    842.47367    -105.4334   0.76228788   -104.67112     20969.58    4.3623839    4.3623839    4.3623839     20969.58    15330.139    26528.387    21050.213   -2490.1951    316.10955    656.11816    83.017881 
   66700    533.08226   -105.15842   0.48234403   -104.67608   -17570.739    4.3817838    4.3817838    4.3817838   -17570.739   -5569.2947   -22523.779   -24619.144    1782.9034    715.43588    9396.0986    84.130377 
   66800      377.555   -105.01933    0.3416197   -104.67771    13401.474    4.3610042    4.3610042    4.3610042    13401.474     19772.63    21443.565   -1011.7741   -2312.1087   -4708.1722    12271.847    82.939138 
   66900    978.70132   -105.55364   0.88554952   -104.66809   -5947.9785    4.3799278    4.3799278    4.3799278   -5947.9785   -9290.5925   -1440.4238   -7112.9191    481.12769    986.22942   -845.05108    84.023517 
   67000    287.99626   -104.93896   0.26058507   -104.67837    3859.5165    4.3643912    4.3643912    4.3643912    3859.5165    18985.003    6372.3143   -13778.768    2211.0255   -5637.3839    19898.958    83.132531 
   67100     716.3755   -105.32247   0.64819161   -104.67428   -4312.6721     4.377417     4.377417     4.377417   -4312.6721   -13969.032    13667.303   -12636.287   -1216.1043   -2690.6117   -4579.2385    83.879099 
   67200    663.39015   -105.27507   0.60024935   -104.67482    7337.2345    4.3662809    4.3662809    4.3662809    7337.2345    12920.887    3194.8469    5895.9694    5506.6303   -1834.7921    14375.126    83.240563 
   67300    450.40027   -105.08693   0.40753163    -104.6794   -5538.6642    4.3726561    4.3726561    4.3726561   -5538.6642   -477.85146    632.29182   -16770.433   -2411.5237   -7175.6442    8134.9923    83.605715 
   67400    734.29325   -105.33588   0.66440396   -104.67147   -3968.3729    4.3762155    4.3762155    4.3762155   -3968.3729   -11716.703    664.53988   -852.95534    4358.8804    1394.9391   -2473.4714    83.810047 
   67500    529.07667    -105.1511   0.47871969   -104.67238    12760.138    4.3575678    4.3575678    4.3575678    12760.138    25084.289    5182.6557    8013.4687   -2001.2819   -4315.0171    19598.744    82.743227 
   67600    576.45367   -105.19091   0.52158739   -104.66932   -18339.857    4.3879987    4.3879987    4.3879987   -18339.857   -25110.606   -2959.6212   -26949.344    2192.6084   -3636.2652    -8652.192    84.488866 
   67700    668.86493   -105.27123   0.60520304   -104.66603    15691.471     4.355307     4.355307     4.355307    15691.471    16619.359    5835.7338    24619.322    1216.8897    6072.8236    12069.099     82.61451 
   67800    506.17316   -105.13126   0.45799611   -104.67327   -8390.4475    4.3762189    4.3762189    4.3762189   -8390.4475   -1345.1267   -3246.3246   -20579.891    -382.4637   -10300.392    2873.1957    83.810244 
   67900     663.7862   -105.27089    0.6006077   -104.67029   -3315.7988     4.374588     4.374588     4.374588   -3315.7988   -18499.932    728.85588    7823.6793    4849.8246    6179.0856   -6396.8644    83.716579 
   68000    615.48691   -105.22573   0.55690549   -104.66882     10222.39    4.3620939    4.3620939    4.3620939     10222.39    20302.749    5123.8599    5240.5622   -2265.3064   -2858.9102    12885.462    83.001324 
   68100    501.21721   -105.12475   0.45351187   -104.67123   -10582.175     4.378865     4.378865     4.378865   -10582.175   -22937.046   -1567.6154   -7241.8634    3648.0036   -8065.1198   -9961.2425    83.962365 
   68200      647.365   -105.25626   0.58574946   -104.67051    2612.5802     4.367656     4.367656     4.367656    2612.5802    2819.2552    5510.3715   -491.88612    1719.1106    10927.289     5271.792    83.319237 
   68300    629.63615   -105.24121   0.56970802    -104.6715   -1185.8232    4.3694159    4.3694159    4.3694159   -1185.8232    840.89581   -5053.9436     655.5782   -3.1646299   -15899.601    4883.8432    83.419992 
   68400    520.59344   -105.14447   0.47104388   -104.67343    -11218.56    4.3748137    4.3748137    4.3748137    -11218.56   -18589.461   -943.01797   -14123.201    5324.0672     13696.15   -4413.4076    83.729535 
   68500     682.2845   -105.28801   0.61734535   -104.67067    2145.9908    4.3688311    4.3688311    4.3688311    2145.9908    6154.3438   -10636.497    10920.125   -994.47101   -5067.2383    10824.664    83.386502 
   68600    639.16002    -105.2513   0.57832541   -104.67298   -4423.6812    4.3690715    4.3690715    4.3690715   -4423.6812    -6278.522     8256.157   -15248.679    43.138477    3702.1803    -3311.654    83.400269 
   68700    459.67994   -105.09197   0.41592807   -104.67604   -2987.3822    4.3745954    4.3745954    4.3745954   -2987.3822    -12792.44   -4958.7832    8789.0766    4316.9883    11862.582    5390.1496    83.717002 
   68800    743.17158   -105.34428   0.67243727   -104.67184    4401.9388    4.3668068    4.3668068    4.3668068    4401.9388    11602.163    2144.3975   -540.74447   -10111.066   -2705.7244    4934.8148    83.270645 
   68900     482.3344    -105.1124    0.4364263   -104.67597   -6290.8808    4.3744224    4.3744224    4.3744224   -6290.8808   -16807.924    3424.7045   -5489.4233    8773.7359    12423.431   -3341.5597    83.707073 
   69000    633.82735   -105.24686    0.5735003   -104.67336    3331.6937    4.3686291    4.3686291    4.3686291    3331.6937    9603.2055   -11466.657    11858.532   -8588.7632    1358.2327    3132.6979     83.37494 
   69100    705.08943   -105.30933   0.63797974   -104.67135   -1769.8809    4.3729115    4.3729115    4.3729115   -1769.8809   -1397.4182   -4864.7103    952.48571   -3459.4821    2088.1253    762.97463    83.620368 
   69200    413.93728   -105.04905   0.37453915   -104.67451    3826.0779    4.3697922    4.3697922    4.3697922    3826.0779    2379.2423   -899.33158    9998.3229    3349.2672    9343.7198   -2970.2935    83.441546 
   69300    715.58716   -105.31929    0.6474783   -104.67181   -207.48511    4.3716564    4.3716564    4.3716564   -207.48511    2600.2197   -17350.486    14127.811   -17983.157   -4008.4042    6768.8164    83.548388 
   69400    602.15418   -105.21659   0.54484176   -104.67175    8541.5401    4.3704783    4.3704783    4.3704783    8541.5401    9256.0915    9570.2605    6798.2684    8158.8884    9419.8076   -2600.9796    83.480858 
   69500    483.15731   -105.11416   0.43717089   -104.67699   -8370.9242    4.3700898    4.3700898    4.3700898   -8370.9242    -8859.006   -21961.637    5707.8704   -13563.716    932.69065    4732.1653    83.458597 
   69600    749.24042   -105.35031   0.67792848   -104.67238    2910.8082    4.3740488    4.3740488    4.3740488    2910.8082    7516.3979   -729.70961    1945.7362   -860.10392    1443.6002    2125.4847    83.685628 
   69700    598.07511   -105.21646   0.54115093   -104.67531    -7.804865    4.3675568    4.3675568    4.3675568    -7.804865   -2865.1147   -4293.2358     7134.936   -1193.3382    12138.222    633.75024    83.313561 
   69800    394.12535   -105.03613    0.3566129   -104.67952   -7308.2874    4.3735102    4.3735102    4.3735102   -7308.2874    -12512.64   -20103.266    10691.043   -13573.169   -4277.4259    8467.9819    83.654717 
   69900    871.40758   -105.45851   0.78846789   -104.67004    8505.7063    4.3698891    4.3698891    4.3698891    8505.7063    10589.993    9482.4654    5444.6608    6494.3207     11170.16    1298.0081    83.447101 
   70000    370.14331    -105.0153   0.33491344   -104.68039   -12734.918    4.3712716    4.3712716    4.3712716   -12734.918   -21105.863   -24308.601    7209.7104   -15096.097   -1409.9399    3367.1485    83.526323 
   70100    653.83692   -105.26936   0.59160539   -104.67775   -533.69277     4.371366     4.371366     4.371366   -533.69277    1415.1744   -6083.8219    3067.5692    2245.3126   -3135.6663    3877.5167    83.531736 
   70200    768.18611   -105.36964   0.69507093   -104.67457   -3352.7822    4.3714286    4.3714286    4.3714286   -3352.7822    917.45497   -12455.734    1479.9321   -9585.2453    4897.1003   -2499.6005    83.535327 
   70300    269.80493     -104.925   0.24412517   -104.68087   -9030.5807    4.3718554    4.3718554    4.3718554   -9030.5807   -18099.124   -9176.0851    183.46706   -8581.0058   -4253.5533    8617.8509    83.559794 
   70400    859.47419   -105.44938   0.77767031   -104.67171    5292.9281    4.3692963    4.3692963    4.3692963    5292.9281    17965.603   -1978.8239   -107.99466    613.81126   -4647.3763   -1977.9473    83.413144 
   70500    506.37504   -105.13496   0.45817877   -104.67678   -3097.1812    4.3720286    4.3720286    4.3720286   -3097.1812   -12299.131   -6007.8428    9015.4301   -13294.672    2992.7277    2062.4557    83.569729 
   70600    508.95733   -105.13732   0.46051529    -104.6768   -6518.3086    4.3722783    4.3722783    4.3722783   -6518.3086    4577.4471   -10883.078   -13249.295    4370.0091   -12781.111    4108.9636    83.584047 
   70700    816.22626   -105.40974   0.73853867    -104.6712    9974.9374    4.3695213    4.3695213    4.3695213    9974.9374    11721.971    7798.8015     10404.04   -5572.9039    935.30283   -5706.5625    83.426029 
   70800    441.21322   -105.07752   0.39921899    -104.6783   -805.44448    4.3700748    4.3700748    4.3700748   -805.44448    3711.3547   -8210.4906    2082.8024   -1750.2601   -3773.5159    8603.7332    83.457737 
   70900    540.88642   -105.16608    0.4894054   -104.67668    2942.7085    4.3741557    4.3741557    4.3741557    2942.7085    12839.089   -6495.5234      2484.56    5230.2039   -8710.9171   -2018.7102     83.69176 
   71000    856.94302   -105.44645   0.77538005   -104.67107    9261.0174    4.3675653    4.3675653    4.3675653    9261.0174    14415.311    3771.4998    9596.2414   -3813.1207    4288.1502   -1956.9354    83.314048 
   71100    313.32255   -104.96397   0.28350082   -104.68047   -5082.5356    4.3727162    4.3727162    4.3727162   -5082.5356    5148.5767   -12683.655   -7712.5287     5061.241   -12864.896    5559.2225    83.609162 
   71200    792.64812   -105.39126   0.71720468   -104.67405    3101.3626    4.3734489    4.3734489    4.3734489    3101.3626    4413.1557    7200.5154   -2309.5833    1715.2107   -87.899141   -8927.3908    83.651199 
   71300    639.09432   -105.25436   0.57826597    -104.6761    12748.375    4.3642947    4.3642947    4.3642947    12748.375    23846.386    6283.4478    8115.2917   -2290.2226   -3577.2072    10431.428     83.12702 
   71400      324.055   -104.97716   0.29321177   -104.68395   -10608.443    4.3776042    4.3776042    4.3776042   -10608.443   -20730.691   -2046.9062   -9047.7331     7909.778   -12077.855   -3261.9645    83.889862 
   71500    942.77557   -105.52468   0.85304315   -104.67164    13076.419    4.3673275    4.3673275    4.3673275    13076.419    23005.634    7210.7848    9012.8367   -5533.1297    3444.6051   -2876.7307    83.300437 
   71600    401.60579   -105.04429   0.36338136   -104.68091   -9232.6539    4.3714362    4.3714362    4.3714362   -9232.6539   -11949.952   -5012.4249   -10735.585     7285.684   -14324.245    6191.9479    83.535759 
   71700    558.53286   -105.18378   0.50537227   -104.67841   -5646.0982    4.3745713    4.3745713    4.3745713   -5646.0982   -10097.581   -2721.4843   -4119.2289   -1093.6567   -1014.1783   -8173.4906    83.715621 
   71800    841.37111   -105.43298   0.76129026   -104.67169    8273.0988    4.3658632    4.3658632    4.3658632    8273.0988    13806.224      4192.58    6820.4922   -1018.1115   -3265.5854    7543.8997    83.216677 
   71900    248.86781   -104.90633   0.22518082   -104.68115   -13937.387    4.3767291    4.3767291    4.3767291   -13937.387   -19573.961   -7983.2893   -14254.911    3811.4601   -10469.076   -3395.7306    83.839564 
   72000    812.34027    -105.4085   0.73502255   -104.67347    4603.3801    4.3675088    4.3675088    4.3675088    4603.3801    9354.3047    -1011.578    5467.4135   -4477.5711    3587.1633   -664.95005    83.310812 
   72100    665.01515    -105.2763   0.60171968   -104.67458   -2347.1671    4.3717436    4.3717436    4.3717436   -2347.1671     8381.185   -2489.2344   -12933.452     2472.898   -10362.332    1535.3461    83.553383 
   72200    410.34868   -105.04871   0.37129211   -104.67742   -2319.5902    4.3708594    4.3708594    4.3708594   -2319.5902   -5660.4303   -2957.4488    1659.1086   -1063.6601   -155.91439   -6622.1185    83.502699 
   72300    764.81825   -105.36299   0.69202362   -104.67097   -535.05115    4.3752637    4.3752637    4.3752637   -535.05115    14739.672   -11075.852   -5268.9734   -7192.8832   -2779.1387    7016.0026    83.755376 
   72400    552.13709    -105.1741   0.49958524   -104.67451    8850.6141    4.3644865    4.3644865    4.3644865    8850.6141    12015.699    11338.833    3197.3108    4237.6911   -6189.1882   -3632.5703    83.137982 
   72500    481.45417   -105.11481   0.43562985   -104.67918   -7854.5068    4.3767288    4.3767288    4.3767288   -7854.5068    2329.8341   -28113.653    2220.2984   -7641.6051   -666.42519    309.67969    83.839545 
   72600    775.76194    -105.3741   0.70192571   -104.67218    8310.1062    4.3698655    4.3698655    4.3698655    8310.1062    19815.258    -58.00468    5173.0659   -450.71513    -3554.161   -1186.7791    83.445746 
   72700    511.43517   -105.13989   0.46275729   -104.67713    3427.6449    4.3646548    4.3646548    4.3646548    3427.6449    17392.937   -10152.715    3042.7126   -3781.6429   -4649.2492   -7376.4588    83.147595 
   72800    526.98567     -105.152   0.47682771   -104.67517   -8167.1907     4.381652     4.381652     4.381652   -8167.1907   -10009.762   -14603.387    111.57706   -6349.5345    4765.7026    851.53458    84.122784 
   72900    842.62855   -105.43082   0.76242802   -104.66839    17295.431    4.3588395    4.3588395    4.3588395    17295.431      33259.9    8905.5381    9720.8564     3689.193   -5738.9975    -5899.766    82.815692 
   73000    303.19494   -104.95397   0.27433716   -104.67964   -15883.843    4.3798675    4.3798675    4.3798675   -15883.843   -20595.343   -27024.642   -31.542736   -8216.1551    4381.5126   -3368.3008    84.020048 
   73100    820.61101   -105.41418   0.74250608   -104.67167    4519.8007    4.3684349    4.3684349    4.3684349    4519.8007    7139.5316    -1400.311    7820.1814    3992.8204    851.06956   -3182.3894    83.363817 
   73200     585.7845   -105.20486   0.53003012   -104.67483   -1046.3758    4.3678297    4.3678297    4.3678297   -1046.3758    2728.4088   -9309.5882     3442.052   -5748.0989   -939.09129    -8929.137    83.329177 
   73300    349.47741    -104.9951    0.3162145   -104.67888   -15275.633    4.3766082    4.3766082    4.3766082   -15275.633    -26162.19   -24848.008    5183.2986   -1739.4273    5917.4869   -825.45489    83.832615 
   73400    932.71289   -105.51328   0.84393822   -104.66934    10428.636    4.3644909    4.3644909    4.3644909    10428.636    25712.869    958.02328    4615.0154    2973.4695    -1516.147   -5653.6832    83.138232 
   73500    381.41793    -105.0225   0.34511496   -104.67738   -18183.561    4.3784042    4.3784042    4.3784042   -18183.561   -23932.077   -30077.691   -540.91463   -9250.2181    3150.0742    -1867.992     83.93586 
   73600    635.21176   -105.24914   0.57475295   -104.67439    6540.0542    4.3620281    4.3620281    4.3620281    6540.0542    10108.741   -215.66979    9727.0918    3896.7494    3080.7869     451.0758    82.997568 
   73700    744.73275   -105.34617   0.67384984   -104.67232   -5795.4562    4.3784929    4.3784929    4.3784929   -5795.4562    5545.5388   -10578.371   -12353.537   -6566.2347   -437.49864   -5843.8727    83.940961 
   73800    395.79824   -105.03749   0.35812656   -104.67936   -3253.3315    4.3657893    4.3657893    4.3657893   -3253.3315    -10937.31   -13143.397    14320.713   -2679.4092    4369.9979    2371.6252    83.212453 
   73900    707.80819   -105.31561   0.64043972   -104.67517    4334.2612     4.370339     4.370339     4.370339    4334.2612    24207.108   -1510.3591   -9693.9659    5286.5787    3139.1253    -2345.772    83.472876 
   74000    643.31444   -105.25724   0.58208442   -104.67516   -10010.799    4.3762701    4.3762701    4.3762701   -10010.799   -5547.0218   -23046.843   -1438.5336   -8340.2831   -2972.2141   -1639.6775    83.813186 
   74100    473.77481   -105.10317   0.42868141   -104.67449    12379.974    4.3608736    4.3608736    4.3608736    12379.974    28495.352    2171.9804    6472.5892    11984.063    8033.0458    5116.2098    82.931688 
   74200    696.64319   -105.30033    0.6303374   -104.66999   -4753.1145     4.380347     4.380347     4.380347   -4753.1145    5495.9428   -384.78537   -19370.501   -2143.7531   -9539.3163   -4943.0102    84.047647 
   74300    567.05712   -105.18565    0.5130852   -104.67256    9812.3943    4.3638568    4.3638568    4.3638568    9812.3943    29583.869   -9642.0485    9495.3625    7254.9866      3938.09    4088.6635    83.101999 
   74400    580.18829   -105.19896   0.52496656   -104.67399    1915.1437     4.371552     4.371552     4.371552    1915.1437    11012.509    6003.6332   -11270.712    1923.7997   -6021.5595   -2836.6655      83.5424 
   74500    706.92379   -105.31073    0.6396395   -104.67109    382.95206     4.373137     4.373137     4.373137    382.95206    17478.148   -5168.7526   -11160.539   -151.07118   -9010.6488   -1154.8095    83.633305 
   74600    529.38488   -105.15232   0.47899856   -104.67332    6144.4579    4.3671204    4.3671204    4.3671204    6144.4579    13113.233   -2170.1397    7490.2802    6149.8844    546.98863    2505.1859    83.288587 
   74700    606.89565   -105.22218   0.54913194   -104.67305     108.4252    4.3725478    4.3725478    4.3725478     108.4252    10295.324    12764.952   -22735.001   -4445.3869    -17336.31   -2679.0656    83.599502 
   74800    673.00989    -105.2808   0.60895349   -104.67184     3590.629     4.371259     4.371259     4.371259     3590.629    11371.834   -5801.8065    5201.8599    3245.2166    4439.2486    2398.1023    83.525605 
   74900    470.82272   -105.10114   0.42601029   -104.67513   -197.45122    4.3694211    4.3694211    4.3694211   -197.45122    6843.0829    3737.7208   -11173.157   -3124.7295   -13321.684   -795.34154    83.420292 
   75000    723.44381   -105.32676   0.65458716   -104.67217    1546.5759    4.3706579    4.3706579    4.3706579    1546.5759    14991.697    4375.0481   -14727.018   -2709.1329    -1058.945   -3066.7498    83.491148 
   75100    617.62655   -105.23072   0.55884149   -104.67188   -4888.2207     4.372922     4.372922     4.372922   -4888.2207    293.13138   -15429.683    471.88916    7423.2551   -1050.0287    1673.2958     83.62097 
   75200    461.34573   -105.09197   0.41743531   -104.67454    615.11927    4.3660775    4.3660775    4.3660775    615.11927    848.50822     16442.89    -15446.04   -5194.8467   -11956.976   -4158.1021    83.228929 
   75300    771.77887   -105.37012   0.69832174    -104.6718    -6621.541    4.3755849    4.3755849    4.3755849    -6621.541    231.90864    -7591.586   -12504.946    5956.6234    13577.067    1016.9131    83.773825 
   75400    470.18556   -105.10061   0.42543378   -104.67518   -567.09448    4.3675377    4.3675377    4.3675377   -567.09448   -2165.9678    754.00325   -289.31888    2210.5121   -13764.308   -204.55864    83.312463 
   75500    568.71807   -105.19067   0.51458806   -104.67609   -7994.7082    4.3696416    4.3696416    4.3696416   -7994.7082    -5187.858    8948.3566   -27744.623    953.50794    9190.8571   -3291.0486    83.432921 
   75600    737.79891   -105.33986   0.66757596   -104.67228   -4693.0089    4.3745162    4.3745162    4.3745162   -4693.0089      5323.33   -20855.493    1453.1368    7898.9955   -914.34613    1288.4146    83.712454 
   75700     490.3527   -105.11926   0.44368143   -104.67558   -5382.6402    4.3693107    4.3693107    4.3693107   -5382.6402   -504.23182    8675.9871   -24319.676   -3621.0666   -3971.5679   -4514.5519    83.413967 
   75800    623.93523    -105.2381   0.56454971   -104.67355   -2769.1005    4.3694502    4.3694502    4.3694502   -2769.1005    5389.2142   -431.98509    -13264.53    5692.9167    13652.027    220.62496    83.421956 
   75900    669.00962   -105.27798   0.60533397   -104.67265     -1364.55    4.3738175    4.3738175    4.3738175     -1364.55    4712.8024   -3892.6852   -4913.7674   -428.12605   -8317.9982    316.89517    83.672352 
   76000    422.06701   -105.05979    0.3818951   -104.67789   -2874.5277    4.3683395    4.3683395    4.3683395   -2874.5277    1131.9517    18045.627   -27801.162    1127.4278    11733.989   -1459.2241    83.358358 
   76100    746.96039   -105.34842   0.67586546   -104.67256    6537.0571    4.3693436    4.3693436    4.3693436    6537.0571    20276.417   -2304.8419    1639.5959    3195.8889     -190.455    2585.4377    83.415854 
   76200    559.50968   -105.18188   0.50625612   -104.67563   -6939.2213    4.3748781    4.3748781    4.3748781   -6939.2213   -3191.1908    2060.3069    -19686.78   -2623.6799    3386.4138   -2020.6078    83.733232 
   76300    499.67301     -105.129   0.45211464   -104.67689     7507.797    4.3643871    4.3643871    4.3643871     7507.797     24434.56    15514.955   -17426.124   -510.96708    11811.892   -234.61014    83.132296 
   76400    876.97885   -105.46465   0.79350889   -104.67115   -577.89964    4.3762791    4.3762791    4.3762791   -577.89964    18750.381   -14156.547    -6327.533   -2607.5238   -2047.8875    2610.3125    83.813701 
   76500     313.9578   -104.96367   0.28407561    -104.6796    2905.0101    4.3665787    4.3665787    4.3665787    2905.0101    2464.8382    29484.527   -23234.334   -3744.8529    15845.915   -1598.9537    83.257599 
   76600    704.46651    -105.3135    0.6374161   -104.67609     2660.101    4.3699754    4.3699754    4.3699754     2660.101    18487.802   -2289.2067   -8218.2919   -1895.0166   -1131.4291    4485.5708    83.452043 
   76700    678.90601   -105.28748   0.61428843   -104.67319    -1731.028     4.375311     4.375311     4.375311    -1731.028    2502.2829    12456.117   -20151.484   -6462.9316     11209.59    2826.7576    83.758095 
   76800      397.155   -105.03705   0.35935419    -104.6777   -6076.9456    4.3666668    4.3666668    4.3666668   -6076.9456   -5071.8285    5879.0748   -19038.083   -4178.7033    8429.0011   -1798.6656     83.26264 
   76900    775.14849   -105.37558   0.70137065   -104.67421    208.51946    4.3702979    4.3702979    4.3702979    208.51946    17487.718   -1399.5133   -15462.647    1997.2092   -4832.7407    6355.0006    83.470523 
   77000    572.72646     -105.194   0.51821494   -104.67578   -10807.558    4.3752234    4.3752234    4.3752234   -10807.558   -13546.702    1044.5732   -19920.547   -3155.9509    14985.394   -308.52467    83.753063 
   77100    440.67822     -105.075   0.39873492   -104.67626   -4274.5242    4.3673752    4.3673752    4.3673752   -4274.5242    5731.3496    2011.2659   -20566.188    4722.2225   -10680.793    3327.8211    83.303165 
   77200    785.04019   -105.38203   0.71032086   -104.67171    256.41746    4.3698639    4.3698639    4.3698639    256.41746    9069.2366    5696.4302   -13996.414   -1137.2142    8339.3053    5805.1613    83.445654 
   77300    483.81982   -105.11397   0.43777034    -104.6762   -12248.763    4.3758346    4.3758346    4.3758346   -12248.763   -16556.746    2566.9551   -22756.498    372.54424   -2302.5592   -6474.3741    83.788166 
   77400    566.59442   -105.18741   0.51266653   -104.67474    209.16963    4.3647063    4.3647063    4.3647063    209.16963    22957.543   -1259.6674   -21070.367    3263.4586   -8490.9843    9824.8033    83.150542 
   77500    747.41438   -105.34762   0.67627624   -104.67134   -960.91515    4.3749014    4.3749014    4.3749014   -960.91515   -12640.752    15566.503   -5808.4965    -3670.405    4875.1595   -4641.5827    83.734575 
   77600    415.92658   -105.05305   0.37633911   -104.67671   -5484.4766    4.3709626    4.3709626    4.3709626   -5484.4766    3626.3697    8458.9292   -28538.729    3173.0649   -12912.523     5169.464    83.508613 
   77700    684.52522   -105.29227   0.61937281    -104.6729    4137.0324    4.3661889    4.3661889    4.3661889    4137.0324    15438.046    5800.9282   -8827.8771   -5270.6395    3151.8848    2806.2896    83.235302 
   77800    679.32037   -105.28713   0.61466334   -104.67247   -5636.7252    4.3770983    4.3770983    4.3770983   -5636.7252   -14155.826    7843.6704    -10598.02   -3542.1931   -6691.2799   -3854.6496    83.860781 
   77900    469.67936   -105.10099   0.42497576   -104.67601    887.11434    4.3657958    4.3657958    4.3657958    887.11434    26096.641    2441.2896   -25876.588   -465.17238   -5591.5178    9111.3122    83.212826 
   78000     673.6961   -105.28139   0.60957439   -104.67182    1297.6224    4.3738431    4.3738431    4.3738431    1297.6224   -2020.4939    1995.7072     3917.654   -6428.1111   -70.040284   -3344.1019    83.673819 
   78100    614.49459    -105.2301   0.55600762    -104.6741    1669.4869    4.3677647    4.3677647    4.3677647    1669.4869    10696.755     12734.33   -18422.624   -2734.4292   -8149.6574    6070.8807    83.325459 
   78200    510.32613   -105.13801   0.46175381   -104.67626    230.95711    4.3722952    4.3722952    4.3722952    230.95711    13935.501    2137.6679   -15380.298   -1642.3055    1269.1223    105.41172    83.585017 
   78300    769.91824   -105.36777    0.6966382   -104.67113    991.62861     4.371661     4.371661     4.371661    991.62861   -5428.4227    5834.9935    2568.3151   -10667.257   -4009.1907    768.87609    83.548649 
   78400    466.59314   -105.09706   0.42218328   -104.67488    9032.9583    4.3666786    4.3666786    4.3666786    9032.9583    23200.017    22586.838    -18687.98    2851.3427   -5106.3225    5251.5789    83.263312 
   78500    584.39665   -105.20349   0.52877437   -104.67471   -7902.0049    4.3768034    4.3768034    4.3768034   -7902.0049   -8675.0039   -9487.6005   -5543.4104   -7357.3713    1587.7135     252.7367    83.843831 
   78600    704.58239   -105.30828   0.63752095   -104.67076    15880.081    4.3635447    4.3635447    4.3635447    15880.081    15939.373    35704.496   -4003.6257   -3436.9763   -5485.7935    2598.7599    83.084172 
   78700    522.62329   -105.14849   0.47288053   -104.67561    -15655.22    4.3772045    4.3772045    4.3772045    -15655.22   -2772.2171    -24086.76   -20106.682    96.507844    499.51436   -1062.9106    83.866884 
   78800    544.57777   -105.16766   0.49274541   -104.67492    8597.9847    4.3649111    4.3649111    4.3649111    8597.9847    2171.2591    14359.148     9263.547    -11057.87    259.57904   -163.33578    83.162243 
   78900    768.60133   -105.36783   0.69544664   -104.67239   -4948.2963    4.3735382    4.3735382    4.3735382   -4948.2963   -5812.1477    5806.6386    -14839.38    7375.9801    -6767.859    239.21975    83.656323 
   79000    374.78333    -105.0151   0.33911183   -104.67599   -4947.7877    4.3720667    4.3720667    4.3720667   -4947.7877    1292.9758   -14745.167   -1391.1717   -9557.0914    3331.9344   -4201.1965     83.57191 
   79100    730.97504    -105.3338   0.66140158    -104.6724    5231.5658    4.3639318    4.3639318    4.3639318    5231.5658   -7124.4596    19230.829    3588.3278    991.93182   -5292.2397   -824.61611    83.106284 
   79200    655.61997   -105.26448   0.59321873   -104.67126   -13990.236    4.3817469    4.3817469    4.3817469   -13990.236   -9320.7333   -13847.407   -18802.566    421.67821    -546.0268   -5074.9633    84.128253 
   79300     459.3244   -105.08834   0.41560637   -104.67273    10314.398    4.3595045    4.3595045    4.3595045    10314.398    702.84168    16283.174     13957.18   -9160.9974     1211.294    996.65057    82.853599 
   79400     679.7268    -105.2879   0.61503109   -104.67287   -7977.4568    4.3763465    4.3763465    4.3763465   -7977.4568   -20315.795   -1526.5508   -2090.0241    9620.5243   -5983.5255   -1027.3394    83.817576 
   79500    602.15184   -105.21744   0.54483964    -104.6726    2947.5592    4.3703696    4.3703696    4.3703696    2947.5592    3260.1469    5575.7745    6.7561333   -6329.4755    2153.6539    959.53657    83.474628 
   79600    530.95093   -105.15461   0.48041556    -104.6742     -2126.25    4.3652929    4.3652929    4.3652929     -2126.25   -17750.475   -617.98736    11989.712    1485.3085   -3954.5757    1033.1097    83.184072 
   79700    665.47583   -105.27427   0.60213652   -104.67213   -3192.6117    4.3761403    4.3761403    4.3761403   -3192.6117    -10120.43    995.07187   -452.47699    4852.7722   -1663.6002     426.6916    83.805731 
   79800    602.30587   -105.21907   0.54497901   -104.67409    3620.0077    4.3668657    4.3668657    4.3668657    3620.0077   -8207.0358    8472.9332    10594.126   -7784.4815    778.58374    2201.1457    83.274013 
   79900    479.23667   -105.11171   0.43362341   -104.67809   -8357.3143    4.3715604    4.3715604    4.3715604   -8357.3143   -27312.777   -9020.3739    11261.208    16529.634   -5599.2679    3422.3846     83.54288 
   80000    802.86266   -105.39858   0.72644701   -104.67213    8454.0335    4.3694746    4.3694746    4.3694746    8454.0335   -177.38632    14929.116    10610.371   -4537.8249   -1639.0483   -4653.5071    83.423354 
   80100    440.70744   -105.07711   0.39876136   -104.67835   -11875.742    4.3744583    4.3744583    4.3744583   -11875.742    -28340.86   -16438.867    9152.5003    10532.432   -3119.9126    2834.4326    83.709131 
   80200     607.9505   -105.22495   0.55008639   -104.67486    9728.8343    4.3628396    4.3628396    4.3628396    9728.8343    -10171.74    18713.601    20644.642    8835.3089   -4226.9073   -5611.5832    83.043903 
   80300      757.514   -105.35808   0.68541459   -104.67267   -5782.9245    4.3781175    4.3781175    4.3781175   -5782.9245   -14766.594   -3790.9194    1208.7396    1454.9985    2093.6212   -2555.0632    83.919372 
   80400    352.62146    -104.9987   0.31905931   -104.67964   -5141.9783    4.3679702    4.3679702    4.3679702   -5141.9783   -30205.916   -15155.947    29935.928    18025.411   -4709.1248    2012.8971    83.337216 
   80500    812.40743   -105.40959   0.73508332   -104.67451    13564.467    4.3633201    4.3633201    4.3633201    13564.467    758.05063    25645.025    14290.325   -5532.8778   -89.063815   -7825.5292    83.071344 
   80600    519.84321     -105.145   0.47036506   -104.67464   -19413.919     4.383889     4.383889     4.383889   -19413.919   -36355.611    -26846.85    4960.7034    17029.602    2103.2015     4643.666    84.251694 
   80700    497.34293   -105.12224   0.45000633   -104.67223    10802.646    4.3553724    4.3553724    4.3553724    10802.646   -9341.3688    17588.793    24160.513   -1608.1214   -6072.0637   -1713.9287    82.618231 
   80800    813.75047   -105.40761   0.73629853   -104.67132   -11182.671    4.3777453    4.3777453    4.3777453   -11182.671   -24003.808   -1144.3602    -8399.846    6509.6887    10651.968     3059.696    83.897972 
   80900    392.96795   -105.03108   0.35556566   -104.67552   -7909.6752    4.3723637    4.3723637    4.3723637   -7909.6752   -25261.491   -20015.974    21548.439    9892.1772   -7600.4298    2853.1355    83.588942 
   81000    629.87805   -105.24272   0.56992689   -104.67279    1227.2037    4.3598371    4.3598371    4.3598371    1227.2037   -14438.062    19207.541    -1087.868   -9382.0196    5128.4259    1758.8223    82.872568 
   81100    682.40476   -105.28797   0.61745417   -104.67052   -11522.051    4.3801527    4.3801527    4.3801527   -11522.051   -25347.372   -18645.128    9426.3478    12187.807    5687.9377   -3811.9229    84.036463 
   81200    495.15227   -105.12243   0.44802418    -104.6744   -8793.2582    4.3666621    4.3666621    4.3666621   -8793.2582   -29846.337   -1456.8003    4923.3628   -11958.928   -6600.7701    4410.9897    83.262368 
   81300    584.97926   -105.20363   0.52930153   -104.67433   -1206.4372    4.3663214    4.3663214    4.3663214   -1206.4372   -16990.301    15461.609   -2090.6197    5047.8135    16435.643   -5444.8773    83.242882 
   81400    703.96558   -105.30955   0.63696285   -104.67259   -10950.405    4.3776437    4.3776437    4.3776437   -10950.405   -25767.224   -22528.796    15444.806   -2484.8213   -8986.0486    2024.5072    83.892135 
   81500    413.92666   -105.05264   0.37452954   -104.67811   -10119.116    4.3646733    4.3646733    4.3646733   -10119.116   -29535.509    11798.846   -12620.686   -8830.8145    14712.344   -2416.1913    83.148652 
   81600    750.61669    -105.3525   0.67917376   -104.67333    484.53459    4.3686503    4.3686503    4.3686503    484.53459   -7984.0755    4985.0042    4452.6751     4003.279    3597.1037    -1772.162    83.376154 
   81700    596.46451    -105.2163   0.53969362    -104.6766   -18344.716    4.3770308    4.3770308    4.3770308   -18344.716   -35724.745   -17922.798   -1386.6057   -13004.293    4616.9483    1009.3318    83.856899 
   81800    396.79082    -105.0378   0.35902467   -104.67877    9396.9853    4.3584942    4.3584942    4.3584942    9396.9853   -10537.602    33305.442    5423.1157    3662.7789    13830.522    853.53287    82.796013 
   81900     896.4043   -105.48251   0.81108544   -104.67142   -8725.8266    4.3802594    4.3802594    4.3802594   -8725.8266   -19659.731   -15092.781    8575.0324   -6326.8483   -2514.5843   -51.093886    84.042603 
   82000    309.98003   -104.96262   0.28047644   -104.68214    876.85985    4.3634399    4.3634399    4.3634399    876.85985   -23435.573    17905.957    8160.1959   -6200.6086    18112.156     1280.197    83.078184 
   82100    719.78613    -105.3299   0.65127762   -104.67862    654.05566    4.3697465    4.3697465    4.3697465    654.05566   -16986.674    13112.373    5836.4676    672.77214   -988.21359   -1628.3477    83.438933 
   82200     708.4392   -105.31538   0.64101067   -104.67437    -2193.784    4.3743922    4.3743922    4.3743922    -2193.784   -15106.016    -11848.16    20372.824   -8152.4881     6013.635   -3852.9896    83.705336 
   82300    312.12161   -104.96078   0.28241419   -104.67837    2349.7356    4.3603026    4.3603026    4.3603026    2349.7356   -21115.207    31262.187   -3097.7724    756.45319    9315.5933    2065.2945    82.899112 
   82400    867.34664   -105.45474   0.78479347   -104.66995   -6848.3051    4.3790401    4.3790401    4.3790401   -6848.3051   -12810.459    -13562.68    5828.2241   -299.60021   -9622.1877   -6295.8862    83.972437 
   82500    531.01997   -105.15606   0.48047803   -104.67559    4949.0457    4.3610001    4.3610001    4.3610001    4949.0457   -14853.283    18002.768    11697.653   -3850.6475     15599.78    2036.1881    82.938901 
   82600    440.52416   -105.07778   0.39859552   -104.67918   -11594.787    4.3753455    4.3753455    4.3753455   -11594.787   -22292.102    4901.1966   -17393.456    2467.1756   -11962.625   -5754.1933    83.760077 
   82700    816.34968    -105.4091   0.73865034   -104.67045    11317.775    4.3662665    4.3662665    4.3662665    11317.775    1389.2458    1091.6254    31472.453   -1900.2694    2454.8192    1408.3343    83.239739 
   82800    416.75157   -105.05447   0.37708558   -104.67739    -12904.04     4.371373     4.371373     4.371373    -12904.04   -27120.065    8549.6941    -20141.75   -1165.7627    1765.7015   -869.71153    83.532137 
   82900    626.44007   -105.24014   0.56681614   -104.67332    780.41407    4.3688296    4.3688296    4.3688296    780.41407   -11320.453   -168.97306    13830.669    5742.6602   -12002.706    3417.3187    83.386415 
   83000    766.74669   -105.36657   0.69376852    -104.6728   -1326.4673     4.368732     4.368732     4.368732   -1326.4673   -8418.7117    2240.1558    2199.1541    -910.3077    9658.7723    4522.3616    83.380831 
   83100    325.27559   -104.97397   0.29431619   -104.67966    -11939.92    4.3734575    4.3734575    4.3734575    -11939.92   -30230.034    6044.6795   -11634.405    2748.1753   -15131.568   -1888.4871    83.651693 
   83200     820.9786   -105.41452   0.74283869   -104.67168     12831.43    4.3608306    4.3608306    4.3608306     12831.43    8970.0748    11400.459    18123.755    6399.3125    2301.7949    6356.5978    82.929232 
   83300    515.47223   -105.14285   0.46641011   -104.67644   -16910.579    4.3798391    4.3798391    4.3798391   -16910.579   -26127.009    3013.7652   -27618.494   -4202.1829   -4443.2481   -5882.0226     84.01841 
   83400    512.06439   -105.13942   0.46332662   -104.67609    9469.3902    4.3575531    4.3575531    4.3575531    9469.3902   -14451.257    25630.152    17229.276    11538.723   -9466.7121    4287.3846    82.742388 
   83500     812.5884   -105.40774   0.73524706   -104.67249   -3714.0051     4.376401     4.376401     4.376401   -3714.0051   -183.13125    -10203.88   -755.00414    -1160.362    2588.0939    -2477.638     83.82071 
   83600    347.93107   -104.99467   0.31481534   -104.67986   -848.01657    4.3676165    4.3676165    4.3676165   -848.01657     -28404.2    27315.328   -1455.1785    3984.4221   -16722.085    128.15806    83.316974 
   83700     740.9392   -105.34664   0.67041736   -104.67622    5013.7636    4.3645657    4.3645657    4.3645657    5013.7636    3336.8365   -5491.6815    17196.136    7787.5728    4176.5628   -1664.5125    83.142503 
   83800    678.56949   -105.28611   0.61398393   -104.67213   -7570.9584    4.3774144    4.3774144    4.3774144   -7570.9584     -20726.6    8051.2763   -10037.552   -5893.0884   -11325.765    3807.8433    83.878952 
   83900    416.65295   -105.05216   0.37699634   -104.67516     4612.929    4.3579157    4.3579157    4.3579157     4612.929   -12733.907    18437.659    8135.0342    12697.756   -2546.7263   -1109.0914    82.763046 
   84000    720.60819     -105.323   0.65202144   -104.67097   -7492.4968    4.3794112    4.3794112    4.3794112   -7492.4968    -10182.01   -13194.774    899.29317   -4692.4755   -1884.4078    9508.2237     83.99379 
   84100    642.49981   -105.25433   0.58134733   -104.67298    7117.5941    4.3606215    4.3606215    4.3606215    7117.5941   -9856.5139    27187.735    4021.5614    5080.1787   -12160.013    960.09191    82.917307 
   84200    370.92184   -105.01449   0.33561788   -104.67887   -9729.9807    4.3715686    4.3715686    4.3715686   -9729.9807   -10901.202   -18291.692    2.9520227    4529.0067    4706.3346     5647.356    83.543352 
   84300     869.2108   -105.45719    0.7864802   -104.67071    111.28509    4.3700869    4.3700869    4.3700869    111.28509   -11065.695    7502.6092    3896.9413   -9351.2044   -4995.6824    6791.8621    83.458431 
   84400    493.18952   -105.12204   0.44624824   -104.67579   -2820.8557    4.3656247    4.3656247    4.3656247   -2820.8557      -7087.5   -3.0870956   -1371.9798    14778.397   -1731.2576   -5303.0708    83.203043 
   84500    467.64788   -105.10077   0.42313763   -104.67763   -10404.049    4.3722738    4.3722738    4.3722738   -10404.049   -15931.937   -21449.512    6169.3017   -9419.8494    4129.7532    11350.269    83.583786 
   84600    877.44913   -105.46462   0.79393441   -104.67068    9834.5291    4.3649728    4.3649728    4.3649728    9834.5291    8603.5412    12637.245    8262.8013    5889.2811   -6296.2942   -9522.1221    83.165773 
   84700    280.07187    -104.9341   0.25341491   -104.68069   -18186.429    4.3751492    4.3751492    4.3751492   -18186.429   -29117.871   -26610.875    1169.4598    2234.0727    4904.0161    4677.9439      83.7488 
   84800    785.89125   -105.38486   0.71109092   -104.67377    13292.327    4.3602647    4.3602647    4.3602647    13292.327     7060.344    16067.682    16748.954   -11201.331    2737.8747   -2072.6555     82.89695 
   84900    610.33033   -105.22733   0.55223971   -104.67509   -8091.7171     4.378533     4.378533     4.378533   -8091.7171   -13251.819   -4684.3223   -6339.0104    11754.836   -949.13639   -3143.8953    83.943271 
   85000     409.4917   -105.04924    0.3705167   -104.67873    2676.4555    4.3612197    4.3612197    4.3612197    2676.4555   -9827.7211    5167.7223    12689.365   -13231.533    7102.6367    6363.8758    82.951432 
   85100    861.06064   -105.44968   0.77910576   -104.67058    9714.6272    4.3700934    4.3700934    4.3700934    9714.6272    6616.7742    13137.976    9389.1314    1584.1818   -2781.3518   -1739.5878    83.458806 
   85200    456.98594   -105.09184   0.41349048   -104.67835   -5247.0833     4.371341     4.371341     4.371341   -5247.0833   -16480.083   -6097.4247    6836.2577   -3415.0014    3368.9792    2582.4117    83.530305 
   85300     588.3242   -105.20898    0.5323281   -104.67665    10616.847    4.3627513    4.3627513    4.3627513    10616.847   -5789.9339    18893.165    18747.309   -13262.192    2190.8214    4756.1867    83.038859 
   85400    775.87291   -105.37278   0.70202611   -104.67075   -950.19244    4.3751153    4.3751153    4.3751153   -950.19244   -2950.8989    853.24616   -752.92455    5201.2631   -569.18423    -5639.908    83.746857 
   85500    382.90525   -105.02387   0.34646072   -104.67741    5625.8925     4.361685     4.361685     4.361685    5625.8925   -6062.6058    6586.5494    16353.734    -16680.02    6351.8979    5920.2681    82.977987 
   85600    711.09992   -105.31757   0.64341815   -104.67415    -3719.604    4.3755826    4.3755826    4.3755826    -3719.604   -10804.171    11880.079    -12234.72   -1025.0977   -3024.8718   -6152.7269    83.773695 
   85700    717.88763   -105.32252   0.64955981   -104.67296    11397.515    4.3638059    4.3638059    4.3638059    11397.515    7139.3895     12402.88    14650.277   -7773.8538    1288.0558   -3732.0038    83.099094 
   85800    354.93247   -105.00024   0.32115036   -104.67909     -7061.18    4.3709674    4.3709674    4.3709674     -7061.18   -20485.416    4519.0587   -5217.1827   -7362.8733    2665.0144    3018.5787    83.508888 
   85900    791.54253   -105.38793   0.71620432   -104.67172    6188.9577    4.3689702    4.3689702    4.3689702    6188.9577    6499.6021    8308.8727    3758.3985    5642.5474    -6289.059   -14514.337     83.39447 
   86000    582.23839   -105.20206   0.52682153   -104.67524     381.1281    4.3669581    4.3669581    4.3669581     381.1281   -1784.9393   -721.11639      3649.44   -10048.872    7111.4985    14536.922      83.2793 
   86100    431.89748   -105.06811   0.39078991   -104.67732   -8222.1886    4.3716967    4.3716967    4.3716967   -8222.1886   -12296.956   -1494.5871   -10875.023    1678.1067    -8852.055   -10587.982    83.550695 
   86200    846.69868   -105.43679   0.76611076   -104.67068    8824.0248    4.3645353    4.3645353    4.3645353    8824.0248    12317.613   -1576.7485     15731.21    797.94797    687.86405    9398.3571    83.140769 
   86300    418.16338   -105.05534   0.37836302   -104.67698    -12266.56    4.3761591    4.3761591    4.3761591    -12266.56   -21614.442   -899.91363   -14285.324   -8052.6058   -1553.6246     3788.174    83.806812 
   86400    679.56113   -105.28693   0.61488119   -104.67205    12389.796    4.3592229    4.3592229    4.3592229    12389.796     13160.52    6273.4901    17735.379    9239.7922   -5676.6991   -2678.6657    82.837548 
   86500    601.15552   -105.21755   0.54393815   -104.67361    -1761.245    4.3757988    4.3757988    4.3757988    -1761.245    315.50076   -318.87737   -5280.3583   -6492.4872    3252.9826    12553.314    83.786114 
   86600    545.54929   -105.16916   0.49362446   -104.67554   -265.66204    4.3669659    4.3669659    4.3669659   -265.66204   -10210.591    4340.6429    5072.9621   -2573.8766   -6331.5888   -4798.3633    83.279747 
   86700    667.62695   -105.27611   0.60408289   -104.67203      9613.36    4.3648939    4.3648939    4.3648939      9613.36    5897.7096    10889.439    12052.931    8996.6306   -915.37112    3574.4449    83.161262 
   86800    617.37673   -105.23128   0.55861544   -104.67266   -8110.6186     4.374709     4.374709     4.374709   -8110.6186   -11969.452   -7708.1898    -4654.214   -11752.368   -840.49048    2027.2257    83.723526 
   86900    521.57845   -105.14423   0.47193514    -104.6723    10449.357    4.3626726    4.3626726    4.3626726    10449.357   -2111.1538    7778.7872    25680.439    12151.813   -4733.0573   -5734.8774    83.034367 
   87000    696.83089   -105.30107   0.63050723   -104.67056   -4312.8674    4.3731882    4.3731882    4.3731882   -4312.8674    1552.5728   -10486.817   -4004.3583   -444.63755    3204.2609     7585.751    83.636242 
   87100    545.84955   -105.16649   0.49389614   -104.67259    8683.6649    4.3641245    4.3641245    4.3641245    8683.6649    -3749.339    9375.9314    20424.402   -6486.9159    -7707.091    -794.2315    83.117296 
   87200    551.89994   -105.17424   0.49937066   -104.67487   -6465.1719    4.3731087    4.3731087    4.3731087   -6465.1719   -12595.388   -7406.9467    606.81874    18748.481    60.495404    2515.4641    83.631677 
   87300    772.98449   -105.37028   0.69941261   -104.67087     10067.04    4.3641898    4.3641898    4.3641898     10067.04    8620.2234    10469.726     11111.17   -9888.1205    -1698.018    11381.523    83.121023 
   87400    424.20534   -105.06087    0.3838299   -104.67704   -4337.0052    4.3709902    4.3709902    4.3709902   -4337.0052   -14222.329   -1267.0934    2478.4068    15606.247   -4864.7415   -2782.6737    83.510194 
   87500    653.72044   -105.26655   0.59149999   -104.67505   -4560.0394    4.3694941    4.3694941    4.3694941   -4560.0394   -633.65538   -5918.3189   -7128.1439    8095.5605    4082.7861     17798.69    83.424474 
   87600    704.04444   -105.30938    0.6370342   -104.67235    10922.264    4.3626735    4.3626735    4.3626735    10922.264    1185.5618    14135.616    17445.614   -3662.3721   -7865.9189    -1947.111    83.034414 
   87700    418.17567   -105.05492   0.37837414   -104.67655   -22970.222    4.3785721    4.3785721    4.3785721   -22970.222   -27717.981   -21615.631   -19577.055     23571.47   -1413.6108    7808.4155    83.945517 
   87800    749.05806   -105.34767   0.67776347   -104.66991    16497.047    4.3586784    4.3586784    4.3586784    16497.047    21061.028     15483.91    12946.203   -6764.0332    1275.3695    6240.5767     82.80651 
   87900    579.82303   -105.19978   0.52463607   -104.67515   -10913.038    4.3730552    4.3730552    4.3730552   -10913.038   -22121.672   -15419.485    4802.0428    16494.354   -8061.1397   -3972.3693     83.62861 
   88000    404.50881   -105.04298   0.36600807   -104.67697   -1806.0602    4.3695483    4.3695483    4.3695483   -1806.0602    10811.049   -1912.8531   -14316.376    3602.2677    6963.8802    12028.497    83.427579 
   88100    843.11699   -105.43254   0.76286997   -104.66967    6819.8182    4.3635293    4.3635293    4.3635293    6819.8182    909.58613     10479.41    9070.4583    1025.5658   -2134.3692   -4141.0514    83.083293 
   88200     453.7113   -105.08782   0.41052752   -104.67729   -11691.228    4.3730009    4.3730009    4.3730009   -11691.228   -15107.397   -11422.677   -8543.6109    14163.944   -1894.9678    7174.2176    83.625493 
   88300    598.29041   -105.21712   0.54134573   -104.67578    1972.2431    4.3678117    4.3678117    4.3678117    1972.2431    3115.2345    13081.674   -10280.179   -3702.4983    10992.979    7759.8432    83.328147 
   88400    753.89033   -105.35469   0.68213581   -104.67256    2545.9173    4.3657851    4.3657851    4.3657851    2545.9173   -7657.0999   -1396.2717    16691.123    8877.2567   -2653.5104    1448.4929    83.212212 
   88500     339.1439   -104.98535   0.30686453   -104.67848   -2485.0986    4.3725864    4.3725864    4.3725864   -2485.0986   -1932.9755    7943.6443   -13465.965    4858.1022    10733.561    14830.819    83.601716 
   88600    794.84241   -105.39026   0.71919011   -104.67107     1171.168    4.3672565    4.3672565    4.3672565     1171.168   -11668.356    4023.8382    11158.021   -1739.3822    6247.2549    2577.8806    83.296376 
   88700    553.51019    -105.1747   0.50082765   -104.67387     7981.827    4.3644577    4.3644577    4.3644577     7981.827    1930.0268    8772.1955    13243.259    13857.849    581.81677    3772.5368    83.136336 
   88800    545.71331   -105.16824   0.49377287   -104.67446   -10975.517     4.376362     4.376362     4.376362   -10975.517   -14238.153    -651.9806   -18036.417   -5497.4593    12322.162    15045.511    83.818466 
   88900    758.69161   -105.35565   0.68648012   -104.66917    15492.831    4.3607894    4.3607894    4.3607894    15492.831    3947.6255    14463.522    28067.346        11549   -4017.8066   -8497.5086    82.926881 
   89000    430.98243   -105.06519   0.38996196   -104.67523   -4683.3457    4.3726003    4.3726003    4.3726003   -4683.3457   -8743.1047    2307.8332   -7614.7655    1170.1006    10628.185    16490.741    83.602513 
   89100      647.061     -105.258   0.58547439   -104.67253    1400.5133    4.3683245    4.3683245    4.3683245    1400.5133   -5977.0195    8516.7823    1661.7772    3315.4621    3555.5074    303.43933    83.357499 
   89200    616.13061   -105.23025   0.55748793   -104.67276    8726.8202    4.3639834    4.3639834    4.3639834    8726.8202   -4132.8373    14837.299    15475.999    11378.918   -3126.0102   -763.66372    83.109235 
   89300    535.46589    -105.1579   0.48450079    -104.6734   -12846.401    4.3755966    4.3755966    4.3755966   -12846.401   -18680.101   -4810.8256   -15048.276   -3229.3742    12137.101    16990.943    83.774497 
   89400    689.91957   -105.29405   0.62425373   -104.66979    11739.684    4.3621869    4.3621869    4.3621869    11739.684   -4622.3102    24988.759    14852.602    12261.557   -10866.462   -7765.0539    83.006635 
   89500    559.42469   -105.17985   0.50617921   -104.67367   -5723.3796     4.370193     4.370193     4.370193   -5723.3796   -6617.9427   -9995.7833   -556.41271   -1830.4723     12800.89    16176.103    83.464513 
   89600    579.09445   -105.19715   0.52397683   -104.67317    1583.3555    4.3703521    4.3703521    4.3703521    1583.3555   -7479.2856    17044.894   -4815.5418    2697.2388    167.02718    4887.2173    83.473629 
   89700    660.60676   -105.26932   0.59773088   -104.67159    3581.9968     4.365375     4.365375     4.365375    3581.9968    1243.6343    2507.1865    6995.1696    6122.0693   -1385.9458    -2670.243    83.188763 
   89800    452.77007   -105.08704   0.40967587   -104.67736   -6703.0378    4.3681896    4.3681896    4.3681896   -6703.0378   -6667.2526    6503.4938   -19945.355   -5931.7198    12358.079    16722.558    83.349778 
   89900     787.8443   -105.38441   0.71285807   -104.67155    1005.3986    4.3726102    4.3726102    4.3726102    1005.3986   -7809.1761    17751.886   -6926.5143    3797.8077   -9190.7487   -3720.0649     83.60308 
   90000    505.82127   -105.13472   0.45767772   -104.67704   -2859.1341    4.3630183    4.3630183    4.3630183   -2859.1341   -266.98795   -2268.2537   -6042.1607    -3749.555    10581.486    3665.5171    83.054103 
   90100    492.72625   -105.12557   0.44582906   -104.67974   -144.71805    4.3713192    4.3713192    4.3713192   -144.71805    -7299.161    27878.969   -21013.963   -4217.9176     1442.974    12355.902    83.529055 
   90200    875.86127   -105.46561   0.79249769   -104.67311    3530.5459    4.3692938    4.3692938    4.3692938    3530.5459    6493.0956    3314.7664    783.77562    3231.6845    -1418.906   -13628.939    83.412999 
   90300    205.19718   -104.86716   0.18566672   -104.68149    2732.6902    4.3624547    4.3624547    4.3624547    2732.6902    5304.5917    22395.641   -19502.162   -6909.0576    11919.972    17851.902    83.021925 
   90400    934.50505   -105.51673   0.84555981   -104.67117   -5526.7712    4.3756858    4.3756858    4.3756858   -5526.7712     -8642.44    4281.9296   -12219.803    182.17649   -4713.7155   -4538.9178     83.77962 
   90500     467.7131     -105.101   0.42319664    -104.6778    10902.358    4.3599632    4.3599632    4.3599632    10902.358    16611.138    26958.363   -10862.429   -2372.3318    6090.5427    4043.5802    82.879755 
   90600    474.03606   -105.11112   0.42891779   -104.68221   -14420.562    4.3738779    4.3738779    4.3738779   -14420.562   -17199.867   -4003.6293    -22058.19   -6072.9194    7545.7167    14268.442    83.675817 
   90700    883.83609   -105.47002   0.79971347   -104.67031    15486.267    4.3654208    4.3654208    4.3654208    15486.267    14807.304    30435.808    1215.6899    3252.2414   -2333.2639   -4165.7661    83.191385 
   90800    266.82641   -104.92217   0.24143014   -104.68074   -16411.553    4.3724108    4.3724108    4.3724108   -16411.553   -8441.1243   -3919.8633   -36873.671   -8048.0145     13291.19    18027.399    83.591644 
   90900    802.59357   -105.39928   0.72620353   -104.67308    7382.4744    4.3634725    4.3634725    4.3634725    7382.4744    3894.0473    14500.018    3753.3583   -2070.2364   -1514.7233    3680.0334    83.080047 
   91000    562.36889   -105.18544   0.50884319    -104.6766   -3227.1709    4.3716747    4.3716747    4.3716747   -3227.1709   -320.67268    13169.665   -22530.505    329.41078    5032.9647    6981.8598    83.549436 
   91100    477.69026   -105.11044   0.43222419   -104.67822   -14178.854    4.3690477    4.3690477    4.3690477   -14178.854   -12013.148   -8619.6509   -21903.761   -9785.6531    7726.0611    13680.924    83.398905 
   91200    765.12987   -105.36345   0.69230559   -104.67115    14356.098    4.3609249    4.3609249    4.3609249    14356.098    5665.7587    26124.483    11278.051    9733.1281   -3629.0433    -3833.846    82.934612 
   91300    489.84253   -105.11884   0.44321981   -104.67562   -20242.363    4.3778712    4.3778712    4.3778712   -20242.363   -12223.854   -10995.803   -37507.432   -5113.6999    12443.659    18372.211    83.905211 
   91400    604.66362   -105.21887   0.54711235   -104.67176    17005.737    4.3581775    4.3581775    4.3581775    17005.737     3854.943    33803.506    13358.761     1562.643   -3162.5655   -3771.4666    82.777966 
   91500    634.98039   -105.24591    0.5745436   -104.67136   -12031.909    4.3764116    4.3764116    4.3764116   -12031.909   -7968.8141    -4045.035   -24081.879    10392.033    6066.3177    9683.7436    83.821316 
   91600     525.7646   -105.14885   0.47572286   -104.67313    3773.8771    4.3622302    4.3622302    4.3622302    3773.8771   -1197.0498    22432.363    -9913.682     -5102.69    6150.4138    7697.3377    83.009107 
   91700     652.7143    -105.2621   0.59058962   -104.67151   -4165.8726    4.3712722    4.3712722    4.3712722   -4165.8726   -12511.021   -2885.7147    2899.1179    11956.551   -2860.0316   -3787.2187    83.526357 
   91800    587.36874   -105.20364   0.53146358   -104.67217   -4718.9648    4.3685972    4.3685972    4.3685972   -4718.9648   -2955.4776    13478.765   -24680.182   -977.16595    12914.552    15460.719    83.373114 
   91900    557.39943   -105.17594   0.50434672   -104.67159    4284.4651    4.3625839    4.3625839    4.3625839    4284.4651   -804.60768    4872.4569    8785.5461   -1341.8811    338.10114   -5317.3185    83.029298 
   92000     598.5834   -105.21313   0.54161084   -104.67152   -14807.485    4.3762454    4.3762454    4.3762454   -14807.485   -16179.349   -14755.957    -13487.15    10130.314    6234.7088    7984.9558    83.811769 
   92100    658.85141   -105.26633    0.5961426   -104.67019     11779.49    4.3578456    4.3578456    4.3578456     11779.49    2788.0874    34536.204   -1985.8224   -5709.4204    12946.936     3051.459    82.759053 
   92200    528.34154   -105.15138   0.47805453   -104.67333   -13142.727    4.3767192    4.3767192    4.3767192   -13142.727   -18220.402   -19150.856   -2056.9236    9149.9726    -4351.238   -1303.7882     83.83899 
   92300    636.67945   -105.24852   0.57608095   -104.67244     8848.187     4.360905     4.360905     4.360905     8848.187    1144.9813    32843.187    -7443.607    1306.9859    17535.988    7143.4239     82.93348 
   92400     626.8476   -105.23982   0.56718488   -104.67264   -5716.0767    4.3724212    4.3724212    4.3724212   -5716.0767   -3563.7123   -13447.396   -137.12143    4456.2169   -1028.2528   -1028.7258    83.592245 
   92500    519.19317   -105.14444   0.46977689   -104.67466   -6180.9511     4.366845     4.366845     4.366845   -6180.9511   -22571.857    6558.2425   -2529.2388    13979.439     8070.503   -501.68245    83.272829 
   92600    669.38702    -105.2772   0.60567544   -104.67153    7172.2574    4.3644729    4.3644729    4.3644729    7172.2574    5528.1315    19258.794   -3270.1533   -3275.7055    10690.985    3161.7177    83.137205 
   92700    569.60448   -105.18895    0.5153901   -104.67356   -13040.177    4.3741946    4.3741946    4.3741946   -13040.177   -23113.536   -21610.807    5603.8109     14007.95   -5356.2335   -7046.4534    83.693992 
   92800     542.9649   -105.16427   0.49128605   -104.67299    10226.054    4.3586902    4.3586902    4.3586902    10226.054   -2186.0629    32771.805    92.421337   -1360.6848    16799.742    4059.2161    82.807182 
   92900    718.67365   -105.31925   0.65027102   -104.66898   -11911.249    4.3780242    4.3780242    4.3780242   -11911.249   -13391.427   -12998.873   -9343.4481    8505.9336   -4466.0767   -5589.4202    83.914011 
   93000    472.90886   -105.10214   0.42789787   -104.67424    9041.0103    4.3570142    4.3570142    4.3570142    9041.0103   -13197.801    24046.964    16273.868    4431.5635    10903.225   -709.61228    82.711696 
   93100    647.99542   -105.25963   0.58631987   -104.67331   -4358.2428    4.3755108    4.3755108    4.3755108   -4358.2428   -9482.2441    13657.797   -17250.282   -728.04513    5485.1481   -1797.7145    83.769568 
   93200    680.10089   -105.28822   0.61536958   -104.67285    1177.5202    4.3651193    4.3651193    4.3651193    1177.5202   -12277.905    6472.0959    9338.3697    6612.8224   -3813.7827   -4848.9649    83.174147 
   93300    401.96802   -105.04017   0.36370911   -104.67646    3540.4011    4.3629244    4.3629244    4.3629244    3540.4011   -6692.4174    17284.713    28.907485   -318.57797    17602.364    3282.4988    83.048745 
   93400    816.52033   -105.40805   0.73880476   -104.66924   -12263.169    4.3773043    4.3773043    4.3773043   -12263.169   -23114.086    110.78915   -13786.209    1787.5275   -10974.436   -2902.6622    83.872623 
   93500    522.75922   -105.14373   0.47300353   -104.67073    14491.276    4.3563623    4.3563623    4.3563623    14491.276    8963.9883    16006.415    18503.425    4151.3152    15987.644    4488.8624    82.674578 
   93600    474.92117   -105.10426   0.42971866   -104.67454    -16570.88    4.3759224    4.3759224    4.3759224    -16570.88   -30517.577    9956.0105   -29151.072   -4926.7234   -2234.1724   -328.58546    83.793212 
   93700    826.53923   -105.41678   0.74787006   -104.66891     11473.57    4.3626849    4.3626849    4.3626849     11473.57    9014.6295    11101.382    14304.698     5165.051    -7743.857    1623.5356    83.035068 
   93800    429.21384   -105.06395    0.3883617   -104.67559   -8542.7574    4.3697982    4.3697982    4.3697982   -8542.7574   -22992.264     8916.973   -11552.981   -1708.7169    13732.626    505.68329     83.44189 
   93900    561.25207   -105.18345   0.50783267   -104.67562   -6031.4649    4.3678795    4.3678795    4.3678795   -6031.4649    -9520.382    8102.4672    -16676.48   -974.44966   -23948.135    943.66321     83.33203 
   94000    852.54736   -105.44205   0.77140276   -104.67064    9524.2791    4.3646852    4.3646852    4.3646852    9524.2791    5963.6523    6157.7542    16451.431    1629.6577    11993.071   -1072.4281    83.149334 
   94100    302.98039   -104.95469   0.27414302   -104.68055   -21515.361    4.3737886    4.3737886    4.3737886   -21515.361   -37330.384    4098.9719   -31314.669   -5569.5292   -16679.629    1547.2208    83.670691 
   94200    788.05657   -105.38632   0.71305014   -104.67327    17529.038    4.3606333    4.3606333    4.3606333    17529.038    15670.812    14945.842    21970.461    1621.7382   -9287.3104   -2912.7325    82.917978 
   94300    610.56033   -105.23076   0.55244782   -104.67831   -9616.1584    4.3731846    4.3731846    4.3731846   -9616.1584   -23119.099    1289.9091   -7019.2855    -2224.748    3169.6755   -586.74415    83.636035 
   94400    319.08997   -104.97145   0.28871931   -104.68273    3775.8724    4.3652225    4.3652225    4.3652225    3775.8724   -9894.6246    17735.502    3486.7397   -1873.0893   -23955.594    -487.2227    83.180046 
   94500    1037.8972   -105.60866   0.93911119   -104.66955    5400.0059    4.3685584    4.3685584    4.3685584    5400.0059   -1906.4997    2057.9323    16048.585   -773.06947     8888.394   -534.15126    83.370889 
   94600    179.57871   -104.84651   0.16248659   -104.68402   -2380.1759    4.3661729    4.3661729    4.3661729   -2380.1759   -16616.288    22171.176   -12695.416   -4636.0588   -22907.474    2309.1355    83.234387 
   94700    805.87455   -105.40693   0.72917223   -104.67775    1927.6063    4.3705593    4.3705593    4.3705593    1927.6063   -11046.251   -1849.0009    18678.071   -2198.6277    2921.5842   -1085.1898    83.485498 
   94800    665.27071   -105.27949   0.60195092   -104.67754    3794.9165    4.3657459    4.3657459    4.3657459    3794.9165    891.35491    10568.663   -75.268038   -615.67782   -11004.631    2840.5807     83.20997 
   94900    339.21942   -104.98949   0.30693286   -104.68255   -4324.1614    4.3661023    4.3661023    4.3661023   -4324.1614   -22463.811     14908.28    -5416.953   -3519.6116     -15941.9    -2700.718    83.230352 
   95000    910.03276   -105.49423   0.82341677   -104.67081   -1327.9695    4.3735822    4.3735822    4.3735822   -1327.9695   -5541.8419   -11428.496    12986.429    3889.3546    6286.1499    1270.3665     83.65885 
   95100    428.76147   -105.06378   0.38795239   -104.67583    5933.8429    4.3605895    4.3605895    4.3605895    5933.8429   -5094.7549    24527.856   -1631.5724   -3167.3972   -25164.317   -236.36231    82.915478 
   95200    594.71214   -105.21268   0.53810804   -104.67457   -4961.5805    4.3720169    4.3720169    4.3720169   -4961.5805   -19552.291   -1820.0658    6487.6157    1659.5779    9191.9423   -381.08016    83.569058 
   95300    663.79801   -105.27301   0.60061839   -104.67239    1773.9519    4.3677909    4.3677909    4.3677909    1773.9519   -4165.3474    7465.9109    2021.2923    2593.7544   -15333.658    2273.5478    83.326959 
   95400    564.98045   -105.18514   0.51120618   -104.67394    3108.2874    4.3626229    4.3626229    4.3626229    3108.2874   -9901.0592    21202.203   -1976.2812    143.04339   -7943.5303   -1210.4152    83.031526 
   95500    555.77756   -105.17514   0.50287922   -104.67226   -8547.4442    4.3750189    4.3750189    4.3750189   -8547.4442   -11966.003   -12491.371   -1184.9581    3664.8354    9758.3174     1353.146    83.741322 
   95600    671.99693   -105.27838   0.60803694   -104.67034    3854.7527     4.362519     4.362519     4.362519    3854.7527   -4006.6771    21166.683   -5595.7478    239.30188   -20842.354    2158.1217    83.025595 
   95700    600.58753   -105.21577   0.54342421   -104.67235   -5074.5524     4.368917     4.368917     4.368917   -5074.5524   -13140.889   -375.26835   -1707.5001   -967.11918    15591.258    1850.6668    83.391422 
   95800    539.56626   -105.16106   0.48821089   -104.67285   -5706.6538    4.3696293    4.3696293    4.3696293   -5706.6538   -12045.472   -3063.3258   -2011.1641    5242.3112   -9473.8393    3778.7576    83.432218 
   95900    688.24023   -105.29375   0.62273422   -104.67101    1748.8125    4.3650786    4.3650786    4.3650786    1748.8125   -2297.1728    21845.882   -14302.272   -3001.7648   -240.63125    2467.3457    83.171817 
   96000     536.3302   -105.15869   0.48528283   -104.67341   -3580.3758    4.3691529    4.3691529    4.3691529   -3580.3758   -16869.472   -595.74254    6724.0871    6071.7914    11655.258    1150.6203    83.404929 
   96100    620.06649    -105.2338   0.56104919   -104.67275   -3369.5617    4.3681359    4.3681359    4.3681359   -3369.5617   -5361.9385    5886.7365   -10633.483    81.654567   -11984.325     1316.357    83.346703 
   96200    625.04281   -105.23689   0.56555187   -104.67134    2028.6274    4.3675059    4.3675059    4.3675059    2028.6274   -7316.6514    16713.446   -3310.9128    1636.4634    15400.617   -752.52361    83.310648 
   96300    561.84746    -105.1821   0.50837139   -104.67373      -3698.7    4.3653732    4.3653732    4.3653732      -3698.7   -7323.9334   -3345.5738   -426.59263    7765.9815   -8153.9672    1571.0203    83.188662 
   96400    554.31323   -105.17624   0.50155426   -104.67469    -2634.371    4.3718159    4.3718159    4.3718159    -2634.371    -725.0792    15592.907   -22770.941    403.01872     4466.267   -1576.4501    83.557533 
   96500    799.01307   -105.39344   0.72296382   -104.67047    4167.5781    4.3630228    4.3630228    4.3630228    4167.5781   -6474.5265    17450.486    1526.7746    9170.4259    5906.3808   -2023.1762    83.054361 
   96600    298.75879   -104.94966   0.27032323   -104.67934   -8878.3659    4.3707001    4.3707001    4.3707001   -8878.3659    1117.8183   -3478.8174   -24274.099   -1276.4197   -8007.3659    487.57599    83.493567 
   96700    839.58292    -105.4329   0.75967227   -104.67323    160.33254    4.3666733    4.3666733    4.3666733    160.33254   -8668.9695    14090.511   -4940.5443    2464.2544    11281.269   -4723.0118    83.263009 
   96800    571.77387   -105.19359   0.51735301   -104.67624    1572.4358    4.3659127    4.3659127    4.3659127    1572.4358    8937.7353    1371.0808   -5591.5087    388.67735   -9873.7392    6573.0868     83.21951 
   96900    361.66867   -105.00712   0.32724541   -104.67987   -14901.809    4.3724448    4.3724448    4.3724448   -14901.809   -12445.651   -5555.0631   -26704.713   -938.90147    6057.3889   -3344.4316    83.593599 
   97000     965.2542   -105.54236   0.87338228   -104.66897    15960.096    4.3602518    4.3602518    4.3602518    15960.096    8809.6183    29230.328    9840.3405   -3204.5669    2263.6049    4180.5157    82.896216 
   97100    311.49817   -104.96342   0.28185009   -104.68157    -10785.05    4.3726657    4.3726657    4.3726657    -10785.05   -3774.6771   -6420.0743   -22160.398   -809.71681   -6947.7703   -674.19575    83.606263 
   97200    701.29418   -105.30972   0.63454572   -104.67518    2818.6856    4.3666246    4.3666246    4.3666246    2818.6856   -5993.3258    13342.698    1106.6846   -6920.4707    10485.991   -1875.3103    83.260226 
   97300    666.81892   -105.27588   0.60335177   -104.67253    3428.5053     4.367291     4.367291     4.367291    3428.5053    10156.178    13606.982   -13477.644   -194.26465   -10926.259    4149.3393    83.298348 
   97400    465.12286   -105.09796   0.42085294   -104.67711   -5037.1764    4.3672949    4.3672949    4.3672949   -5037.1764   -5228.7069     2634.284   -12517.106   -4404.6482    6767.7662   -6043.0936    83.298572 
   97500    734.44646   -105.33554    0.6645426   -104.67099    6362.5107    4.3695759    4.3695759    4.3695759    6362.5107   -5934.3029     18498.82    6523.0152   -1628.2096    190.25149    1808.9587    83.429161 
   97600    563.97148   -105.18409   0.51029324    -104.6738   -220.71398    4.3654791    4.3654791    4.3654791   -220.71398    3986.7189     10815.12   -15463.981    1228.3995     -4444.02   -4559.3624    83.194713 
   97700    501.78182   -105.12897   0.45402274   -104.67495    4785.1556    4.3672038    4.3672038    4.3672038    4785.1556   -8512.5176    9528.5882    13339.396   -5017.5371    6918.3886   -1335.9827    83.293359 
   97800    769.55488   -105.36735   0.69630943   -104.67104   -2828.1371     4.371061     4.371061     4.371061   -2828.1371   -10539.455    6039.4105   -3984.3665    7596.2795   -8109.6123    101.80743    83.514252 
   97900    484.63263   -105.11224   0.43850579   -104.67374    11037.121    4.3618035    4.3618035    4.3618035    11037.121     11692.44    20830.057    588.86518   -3667.6589    5344.1381    -495.4566    82.984752 
   98000    591.13866   -105.20801   0.53487469   -104.67313   -10334.682    4.3743786    4.3743786    4.3743786   -10334.682   -26668.568   -2788.0262   -1547.4529    7014.0958   -1101.1951   -1854.6294     83.70456 
   98100    695.20538   -105.29972   0.62903644   -104.67068    11784.413    4.3623758    4.3623758    4.3623758    11784.413    14476.854     20516.02     360.3672   -1122.7481   -2280.6352    2000.7634    83.017417 
   98200    539.56054   -105.16214   0.48820572   -104.67394   -6056.3505     4.369014     4.369014     4.369014   -6056.3505   -16923.924   -4557.6924    3312.5646    2170.0601    6227.3205   -3029.4417    83.396978 
   98300    554.27168     -105.174   0.50151666   -104.67248    494.06601    4.3694024    4.3694024    4.3694024    494.06601   -5860.7328    3295.2933    4047.6376    2051.7269    -7534.383    3946.4165    83.419218 
   98400    708.10732   -105.31115   0.64071039   -104.67044    5457.7506    4.3642377    4.3642377    4.3642377    5457.7506   -641.78214    16481.962    533.07187   -933.37105    9014.7079   -2791.4848    83.123762 
   98500    475.57369   -105.10507   0.43030907   -104.67476   -7862.0897    4.3720297    4.3720297    4.3720297   -7862.0897   -19839.203    -11736.36    7989.2945    1578.3514   -2124.9173    -600.1897    83.569789 
   98600    749.41237   -105.34834   0.67808406   -104.67026    9482.1907    4.3630367    4.3630367    4.3630367    9482.1907   -2802.6234    18462.505    12786.691   -2463.9538    3325.6874   -2113.7806    83.055156 
   98700    494.64698   -105.12168   0.44756699   -104.67412   -7547.6911    4.3716616    4.3716616    4.3716616   -7547.6911   -9643.1843   -5879.7685   -7120.1207    746.86983    9398.4473    -5703.867    83.548681 
   98800    564.24292    -105.1845   0.51053885   -104.67396    4076.6807    4.3646487    4.3646487    4.3646487    4076.6807   -13444.048   -276.55385    25950.644    397.49068   -6172.9593    1824.5801    83.147247 
   98900    766.34831   -105.36393   0.69340805   -104.67052    968.13949    4.3684792    4.3684792    4.3684792    968.13949   -4248.8317    15578.808   -8425.5577    992.67784    16311.513   -5340.7405    83.366355 
   99000    398.97616   -105.03628   0.36100201   -104.67528   -6001.0226    4.3692188    4.3692188    4.3692188   -6001.0226   -17408.924   -10074.094    9479.9508    3406.4235   -1741.9899   -1225.0749    83.408707 
   99100    749.91063    -105.3501    0.6785349   -104.67156    3576.8653    4.3629928    4.3629928    4.3629928    3576.8653   -8036.6107     13598.28    5168.9267    1047.0082    8286.6329   -4033.8663    83.052649 
   99200    583.67991   -105.20096   0.52812585   -104.67284   -5611.7002    4.3737953    4.3737953    4.3737953   -5611.7002   -13175.753    1342.4869   -5001.8348     3740.212    11466.306   -2876.0356    83.671078 
   99300    556.00718   -105.17569   0.50308698   -104.67261   -181.45767    4.3635614    4.3635614    4.3635614   -181.45767   -20210.268   -5409.8986    25075.794    3957.5914   -4095.7296   -1760.5071    83.085126 
   99400    611.85544   -105.22438   0.55361966   -104.67076    4712.7086     4.368501     4.368501     4.368501    4712.7086   -4807.0925    25358.416   -6413.1974   -1022.8681    20254.505    2120.2909    83.367604 
   99500    620.60753   -105.23347   0.56153874   -104.67193   -3761.9943    4.3687398    4.3687398    4.3687398   -3761.9943   -21367.249    -3936.489    14017.755    5696.6622   -2186.2097   -1888.1337    83.381275 
   99600    537.56134   -105.15987    0.4863968   -104.67347    1801.3521    4.3661122    4.3661122    4.3661122    1801.3521   -8265.3551    10526.628     3142.783   -4768.5808    12145.559    4317.4041    83.230916 
   99700     731.2271   -105.33187   0.66162965   -104.67024   -3804.5557    4.3683921    4.3683921    4.3683921   -3804.5557   -15249.904    15752.771   -11916.534    3891.0705    10654.523   -1504.9445    83.361369 
   99800    465.14794   -105.09592   0.42087563   -104.67505   -2060.1837    4.3668629    4.3668629    4.3668629   -2060.1837   -13261.225    -7039.392    14120.066   -276.77901   -2756.2603    1671.1061    83.273855 
   99900    666.48678   -105.27591   0.60305125   -104.67286   -4758.1857    4.3703958    4.3703958    4.3703958   -4758.1857   -20440.947    18041.178   -11874.787   -3164.3984    20149.183     4496.472     83.47613 
  100000    644.50874   -105.25446   0.58316505    -104.6713     6481.251     4.362388     4.362388     4.362388     6481.251   -4631.5608    8027.6378    16047.676    3086.8587   -6078.1772   -2039.8286    83.018114 
Loop time of 22.2646 on 1 procs for 100000 steps with 8 atoms

Pair  time (%) = 6.76286 (30.3749)
Kspce time (%) = 5.55752 (24.9612)
Neigh time (%) = 0 (0)
Comm  time (%) = 1.11992 (5.03006)
Outpt time (%) = 0.0264959 (0.119005)
Other time (%) = 8.79782 (39.5148)

Nlocal:    8 ave 8 max 8 min
Histogram: 1 0 0 0 0 0 0 0 0 0
Nghost:    2189 ave 2189 max 2189 min
Histogram: 1 0 0 0 0 0 0 0 0 0
Neighs:    2056 ave 2056 max 2056 min
Histogram: 1 0 0 0 0 0 0 0 0 0

Total # of neighbors = 2056
Ave neighs/atom = 257
Neighbor list builds = 0
Dangerous builds = 0
unfix 20
unfix 21
print "seeds:2483905"
seeds:2483905
