LAMMPS (10 Feb 2015)
# ---- initialize simulations
clear
units metal
dimension 3
boundary p p p
atom_style charge
atom_modify map array
# ---- create atoms
read_data /Users/eugeneragasa/pyflamestk_git/pypospack/tests/tests_integration/workflow/WorkflowLammpsThermalExpansion/param_5861/MgO_NaCl_unit.npt.T700/lammps.structure
  triclinic box = (0 0 0) to (4.2565 4.2565 4.2565) with tilt (0 0 0)
  1 by 1 by 1 MPI processor grid
  reading atoms ...
  8 atoms
# ---- define interatomic potential
include potential.mod
mass 1 24.305
mass 2 15.999

group Mg type 1
4 atoms in group Mg
group O type 2
4 atoms in group O

set group Mg charge 1.63577302612
  4 settings made for charge
set group O charge -1.63577302612
  4 settings made for charge

variable R_cut equal 10.0

pair_style buck/coul/long ${R_cut}
pair_style buck/coul/long 10
pair_coeff 1 1 0.0 0.5 0.0 ${R_cut}
pair_coeff 1 1 0.0 0.5 0.0 10
pair_coeff 1 2 1558.72850733 0.278190610155 0.0 ${R_cut}
pair_coeff 1 2 1558.72850733 0.278190610155 0.0 10
pair_coeff 2 2 26609.5495557 0.148782776904 9.00084075824 ${R_cut}
pair_coeff 2 2 26609.5495557 0.148782776904 9.00084075824 10

kspace_style pppm 1.0e-5

neighbor 1.0 bin
neigh_modify every 1 delay 0 check yes
# ---- define settings
compute eng all pe/atom
compute eatoms all reduce sum c_eng
# ---- run minimization
reset_timestep 0
fix 1 all box/relax iso 0.0 vmax 0.001
thermo 10
thermo_style custom step pe lx ly lz xy xz yz press pxx pyy pzz pxy pxz pyz c_eatoms
min_style cg
minimize 1e-25 1e-25 5000 10000
PPPM initialization ...
  G vector (1/distance) = 0.352653
  grid = 8 8 8
  stencil order = 5
  estimated absolute RMS force accuracy = 3.87471e-05
  estimated relative force accuracy = 2.69083e-06
  using double precision FFTs
  3d grid and FFT values/proc = 3375 512
Neighbor list info ...
  1 neighbor list requests
  update every 1 steps, delay 0 steps, check yes
  master list distance cutoff = 11
Memory usage per processor = 4.06549 Mbytes
Step PotEng Lx Ly Lz Xy Xz Yz Press Pxx Pyy Pzz Pxy Pxz Pyz eatoms 
       0   -109.00108       4.2565       4.2565       4.2565            0            0            0    61252.417    61252.417    61252.417    61252.417 -3.6848803e-11 -3.3369169e-11 3.6549969e-10   -109.00108 
      10    -109.0509     4.299065     4.299065     4.299065            0            0            0    8703.9294    8703.9294    8703.9294    8703.9294 1.5032756e-10 -1.0327816e-11 -1.1009458e-10    -109.0509 
      15   -109.05203    4.3066964    4.3066964    4.3066964            0            0            0 0.0034250328 0.0034250327  0.003425033 0.0034250328 -1.8553982e-10 4.3823803e-11 -1.4551403e-10   -109.05203 
Loop time of 0.00746989 on 1 procs for 15 steps with 8 atoms

Minimization stats:
  Stopping criterion = linesearch alpha is zero
  Energy initial, next-to-last, final = 
        -109.001077098     -109.052033723     -109.052033723
  Force two-norm initial, final = 8.84488 3.43431e-05
  Force max component initial, final = 8.84488 7.26821e-06
  Final line search alpha, max atom move = 0.5 3.63411e-06
  Iterations, force evaluations = 15 22

Pair  time (%) = 0.00201178 (26.9318)
Kspce time (%) = 0.00119615 (16.0129)
Neigh time (%) = 0 (0)
Comm  time (%) = 0.00022316 (2.98746)
Outpt time (%) = 1.19209e-05 (0.159586)
Other time (%) = 0.00402689 (53.9083)

Nlocal:    8 ave 8 max 8 min
Histogram: 1 0 0 0 0 0 0 0 0 0
Nghost:    2189 ave 2189 max 2189 min
Histogram: 1 0 0 0 0 0 0 0 0 0
Neighs:    2344 ave 2344 max 2344 min
Histogram: 1 0 0 0 0 0 0 0 0 0

Total # of neighbors = 2344
Ave neighs/atom = 293
Neighbor list builds = 0
Dangerous builds = 0
unfix 1
# ---- define output variables ----
variable natoms equal "count(all)"
variable tot_energy equal "c_eatoms"
variable length_x equal "lx"
variable length_y equal "ly"
variable length_z equal "lz"
variable tilt_xy equal "xy"
variable tilt_xz equal "xz"
variable tilt_yz equal "yz"
variable tot_press equal "press"
variable press_xx equal "pxx"
variable press_yy equal "pyy"
variable press_zz equal "pzz"
variable press_xy equal "pxy"
variable press_xz equal "pxz"
variable press_yz equal "pyz"

# ---- output ----
print "pypospack:output_section:begin"
pypospack:output_section:begin
print "tot_energy = ${tot_energy}"
tot_energy = -109.052033723467
print "num_atoms = ${natoms}"
num_atoms = 8
print "xx = ${length_x}"
xx = 4.30669636930156
print "yy = ${length_y}"
yy = 4.30669636930156
print "zz = ${length_z}"
zz = 4.30669636930156
print "xy = ${tilt_xy}"
xy = 0
print "xz = ${tilt_xz}"
xz = 0
print "yz = ${tilt_yz}"
yz = 0
print "tot_press = ${tot_press}"
tot_press = 0.00342503281246904
print "pxx = ${press_xx}"
pxx = 0.00342503266517326
print "pyy = ${press_yy}"
pyy = 0.00342503296687446
print "pzz = ${press_zz}"
pzz = 0.00342503280535941
print "pxy = ${press_xy}"
pxy = -1.85539817051957e-10
print "pxz = ${press_xz}"
pxz = 4.38238030577261e-11
print "pyz = ${press_yz}"
pyz = -1.45514027090344e-10
print "pypospack:output_section:done"
pypospack:output_section:done
print "pypospack:lammps_sim:done"
pypospack:lammps_sim:done
#------------------------------------------------------------------------------
# RUN THERMOSTAT
# running using an NPT Nose-Hoover style thermostat
#------------------------------------------------------------------------------
variable tempdamp equal 0.1
variable pressdamp equal 1.0
# set initial velocities
velocity all create 700 1775569 mom yes dist gaussian loop all
# fix for Nose-Hoover style thermostat
fix 20 all npt temp 700 700 0.1 aniso 0.0 0.0 1.0 drag 1.0 couple xyz
variable boxx equal lx
variable boxy equal ly
variable boxz equal lz
variable boxp equal press
variable boxt equal temp
# calculate averages every 10000 steps
reset_timestep 0
fix 21 all ave/time 10 10 100 v_boxx v_boxy v_boxz v_boxp v_boxt file lattice.out
thermo_style custom step temp pe ke etotal press lx ly lz press pxx pyy pzz pxy pxz pyz vol
thermo_modify flush yes
thermo 100
run 100000
PPPM initialization ...
  G vector (1/distance) = 0.352152
  grid = 8 8 8
  stencil order = 5
  estimated absolute RMS force accuracy = 3.96483e-05
  estimated relative force accuracy = 2.75342e-06
  using double precision FFTs
  3d grid and FFT values/proc = 3375 512
Memory usage per processor = 3.06549 Mbytes
Step Temp PotEng KinEng TotEng Press Lx Ly Lz Press Pxx Pyy Pzz Pxy Pxz Pyz Volume 
       0          700   -109.05204   0.63337471   -108.41867    8467.8363    4.3066964    4.3066964    4.3066964    8467.8363    5605.1751    13037.965    6760.3686     -4180.62   -1635.5518   -513.33598    79.879026 
     100    258.31245   -108.56649   0.23372654   -108.33276   -3378.8096    4.3235933    4.3235933    4.3235933   -3378.8096   -3416.5857   -8302.1643    1582.3212    3591.3345    2014.6657   -5955.7225    80.822913 
     200    412.87299   -108.53058   0.37357616     -108.157   -8005.6718     4.324265     4.324265     4.324265   -8005.6718   -1898.0274   -7886.1631   -14232.825   -1743.6475   -3418.0592   -3628.2842    80.860588 
     300    551.65249   -108.50814   0.49914677   -108.00899    18582.025    4.3191335    4.3191335    4.3191335    18582.025    19263.355    18663.016    17819.703    997.42402    1848.8625    62.899719    80.573067 
     400    518.98959   -108.36623   0.46959269   -107.89663   -15820.692    4.3303536    4.3303536    4.3303536   -15820.692    -1480.544   -25174.724   -20806.808    4850.7761    -732.9712    -5632.522    81.202627 
     500    683.59245    -108.4366   0.61852881   -107.81807   -2555.9869    4.3299478    4.3299478    4.3299478   -2555.9869   -1371.2488   -10066.869    3770.1573    3075.6557    7996.0658    2295.9757    81.179801 
     600    1042.0114   -108.72058   0.94283382   -107.77774    6300.3604    4.3291517    4.3291517    4.3291517    6300.3604    3096.0214    3543.2046    12261.855     3411.429    49.865978   -5260.2183    81.135031 
     700    648.98043   -108.35991   0.58721113    -107.7727   -3761.5389    4.3260282    4.3260282    4.3260282   -3761.5389   -622.82449   -15709.153    5047.3608    3786.5577   -2244.8258   -15067.395    80.959542 
     800    460.84297   -108.19431   0.41698041   -107.77733    2031.0889    4.3308088    4.3308088    4.3308088    2031.0889    18446.968    8116.6703   -20470.371   -264.26123   -2497.6972     4504.657    81.228237 
     900     805.2027   -108.50462   0.72856433   -107.77605   -3261.3848    4.3322218    4.3322218    4.3322218   -3261.3848   -13321.472   -6253.0196    9790.3374   -9328.7567   -2526.8896    138.90118     81.30777 
    1000      584.512   -108.31086   0.52887875   -107.78198     3971.998    4.3232645    4.3232645    4.3232645     3971.998    17074.545   -6754.0479     1595.497    5779.4115    4045.4177   -4870.6025    80.804477 
    1100    744.17348   -108.45909    0.6733438   -107.78574   -6317.7651    4.3305442    4.3305442    4.3305442   -6317.7651   -10971.063   -12853.572    4871.3398   -8263.2287      -677.06    7048.5605    81.213349 
    1200    940.51218    -108.6314   0.85099519   -107.78041   -3155.7802    4.3334166    4.3334166    4.3334166   -3155.7802    3472.7195    -2391.541   -10548.519    1711.4724    4492.6127   -3566.0674    81.375061 
    1300    699.45203   -108.41238    0.6328789    -107.7795    6857.5918    4.3234176    4.3234176    4.3234176    6857.5918    18189.527   -1629.0706     4012.319    10454.366   -5378.4402   -7518.8256    80.813063 
    1400    380.48462   -108.12688   0.34427048   -107.78261   -9299.1382    4.3340346    4.3340346    4.3340346   -9299.1382   -14556.129    4698.0339   -18039.319    -6860.796     557.2782    11758.782    81.409882 
    1500    682.11706    -108.3949   0.61719385    -107.7777   -745.04802    4.3286687    4.3286687    4.3286687   -745.04802   -2531.6287   -51.991483    348.47611    4050.1886   -3403.3166   -2818.9726     81.10788 
    1600    907.39691   -108.60042    0.8210318   -107.77939   -7038.2533    4.3247557    4.3247557    4.3247557   -7038.2533   -13168.807   -8581.8701    635.91753    1328.1167    3675.9288   -2842.1346    80.888121 
    1700    517.92945   -108.25435   0.46863345   -107.78571   -9466.8552    4.3357369    4.3357369    4.3357369   -9466.8552   -8365.1906    -1040.696   -18994.679   -4246.4535   -8179.1393    8759.3567    81.505846 
    1800    1076.5092    -108.7503   0.97404815   -107.77625   -208.04974    4.3255183    4.3255183    4.3255183   -208.04974   -5258.1704    3731.0086    903.01261   -5544.2519    5479.9622    574.56334    80.930914 
    1900    535.50174    -108.2659   0.48453323   -107.78136      7558.69    4.3303766    4.3303766    4.3303766      7558.69    8381.3355    5680.8164    8613.9181    4227.7358   -2028.2814    6560.8079    81.203924 
    2000    475.85438   -108.21443   0.43056305   -107.78387   -13133.816    4.3303756    4.3303756    4.3303756   -13133.816   -23244.572     4213.962   -20370.838   -6701.2198   -7422.5675    8933.5294    81.203864 
    2100    712.86606   -108.42635   0.64501619   -107.78133   -760.42264    4.3304458    4.3304458    4.3304458   -760.42264   -7180.5439   -762.04151    5661.3175    4320.6084    153.74109    -4147.135    81.207812 
    2200    796.61568   -108.50174   0.72079461   -107.78094    1027.3605    4.3287226    4.3287226    4.3287226    1027.3605   -2556.3155    -118.4719    5756.8689    4660.1045   -7335.4475    1259.1884    81.110911 
    2300    646.25404   -108.36724   0.58474423    -107.7825    4574.6729     4.327969     4.327969     4.327969    4574.6729    -2170.089   -3389.1645    19283.272   -2502.8788   -11534.543    7878.0687    81.068551 
    2400     910.1826   -108.60198   0.82355235   -107.77842     799.5164    4.3351432    4.3351432    4.3351432     799.5164    9183.0421    1637.0957   -8421.5887    9394.2966    3372.8727   -534.10393    81.472371 
    2500    743.09058   -108.45004   0.67236398   -107.77768     1829.184    4.3271863    4.3271863    4.3271863     1829.184   -6012.7878    13125.686   -1625.3462   -7619.4622    2494.0109    5608.6676     81.02458 
    2600    347.88229   -108.09605   0.31477121   -107.78128   -1723.1197    4.3292694    4.3292694    4.3292694   -1723.1197   -4390.9801    3152.3038   -3930.6829   -2910.0093   -7233.0787   -1881.0017    81.141652 
    2700    746.99822   -108.45273   0.67589969   -107.77683    1888.5528    4.3301975    4.3301975    4.3301975    1888.5528   -11009.439    2270.6235    14404.474   -2998.9481    5184.9454   -7388.7281    81.193847 
    2800    815.70737   -108.51652   0.73806917   -107.77845    6406.7095    4.3285609    4.3285609    4.3285609    6406.7095    11200.505   -7948.8505    15968.474   -3396.6831   -9617.6156    8285.0399    81.101819 
    2900    770.35598   -108.47932   0.69703428   -107.78229     -6808.12    4.3304243    4.3304243    4.3304243     -6808.12    3120.8069   -4766.3195   -18778.847      2565.86   -5630.8275    9663.6703    81.206605 
    3000    813.90217   -108.51609   0.73643578   -107.77965    3503.1969    4.3297687    4.3297687    4.3297687    3503.1969    8229.3496   -5191.5314    7471.7724    3017.9875    5656.0561    -10110.46    81.169729 
    3100    615.85699   -108.33527   0.55724035   -107.77803   -7499.0253    4.3337477    4.3337477    4.3337477   -7499.0253   -20680.673    5352.0144    -7168.417   -1300.1097   -1043.2124    3412.5912    81.393716 
    3200    377.09379   -108.11954   0.34120238   -107.77833    3353.5545    4.3234903    4.3234903    4.3234903    3353.5545   -4820.6679   -1420.1921    16301.524     728.7543   -7192.1964    145.09521    80.817139 
    3300    840.95075   -108.53949   0.76090991   -107.77858   -19001.745    4.3366129    4.3366129    4.3366129   -19001.745   -18648.606    -21962.34    -16394.29    811.59381    3185.8495   -10526.004    81.555259 
    3400    808.67872   -108.50985    0.7317095   -107.77815    9271.9375    4.3255219    4.3255219    4.3255219    9271.9375    17192.587    1524.0906    9099.1351   -7692.6055   -5415.5416    13732.391    80.931121 
    3500    733.29205   -108.44486   0.66349805   -107.78136    467.17222    4.3256182    4.3256182    4.3256182    467.17222    7072.6572   -5109.1623   -561.97824    6547.1235   -5578.0399   -7951.1154    80.936522 
    3600    597.45102   -108.31999   0.54058624    -107.7794   -2915.8061    4.3371548    4.3371548    4.3371548   -2915.8061   -6489.8488   -6592.5838    4335.0143   -6940.9471    7408.1268   -13102.914    81.585838 
    3700    730.79803   -108.43702   0.66124142   -107.77578    7743.7089    4.3197862    4.3197862    4.3197862    7743.7089   -8253.1844    21780.015    9704.2963   -6164.3746   -8943.1471    3804.9501    80.609598 
    3800    559.26378   -108.28876   0.50603362   -107.78273   -18908.945    4.3363918    4.3363918    4.3363918   -18908.945   -22364.148   -19524.678    -14838.01    1291.2205   -1126.5916   -6340.6375    81.542784 
    3900    780.50168   -108.48403   0.70621432   -107.77782    6.2751833    4.3298833    4.3298833    4.3298833    6.2751833   -150.26628   -4053.6388    4222.7306   -7807.9675    5209.5055   -3403.9327    81.176173 
    4000    849.43045   -108.54229   0.76858252    -107.7737    7591.7668     4.328877     4.328877     4.328877    7591.7668   -1125.2023    2700.3537    21200.149    5509.9198    -732.5461   -2949.2638    81.119589 
    4100    640.75495   -108.35787   0.57976855    -107.7781   -6051.9466    4.3326913    4.3326913    4.3326913   -6051.9466   -3562.1128    4147.9525    -18741.68    8150.3217   -2665.0356   -11662.381    81.334208 
    4200    563.06205   -108.28717   0.50947037    -107.7777    13135.509    4.3240468    4.3240468    4.3240468    13135.509    990.48816    28117.057     10298.98   -1705.8203    2504.9833    -871.0831    80.848352 
    4300    787.70244   -108.48859   0.71272972   -107.77586   -16965.665    4.3384751    4.3384751    4.3384751   -16965.665   -33075.605   -2920.2264   -14901.165   -953.13528   -8745.2972    6096.6472    81.660369 
    4400    618.08599    -108.3356   0.55925719   -107.77634    4933.0653    4.3237139    4.3237139    4.3237139    4933.0653   -8374.5661    11486.178    11687.584   -1228.0042   -1666.8711   -6349.7942    80.829675 
    4500    700.82228   -108.41377   0.63411873   -107.77965    280.59721    4.3307187    4.3307187    4.3307187    280.59721   -12141.955   -2652.3566    15636.104   -8971.2829    2392.9818    -7095.966     81.22317 
    4600     869.6045   -108.56315   0.78683643   -107.77631   -4511.5698     4.335776     4.335776     4.335776   -4511.5698   -23514.438    27212.977   -17233.249   -1448.5565   -4439.5989   -3790.8506    81.508052 
    4700    615.33946   -108.33288   0.55677208   -107.77611    16561.543    4.3211666    4.3211666    4.3211666    16561.543    9367.9607    24582.232    15734.435     1520.898    5677.6659   -7706.8938    80.686901 
    4800    683.19947   -108.39446   0.61817324   -107.77629   -23169.549    4.3382783    4.3382783    4.3382783   -23169.549   -28601.972   -21574.229   -19332.446   -3828.4866   -8603.7363    4726.5432    81.649252 
    4900    686.42137   -108.39643   0.62108848   -107.77534    13828.585    4.3230711    4.3230711    4.3230711    13828.585   -9918.8948    33018.782    18385.867   -3568.6022   -5061.7751     392.1186    80.793635 
    5000    591.16002   -108.31542   0.53489401   -107.78052    567.26954    4.3293017    4.3293017    4.3293017    567.26954   -15461.422    10640.897    6522.3337   -2595.7663   -974.84307   -12113.468    81.143467 
    5100    643.86999   -108.36272   0.58258709   -107.78013   -7139.5898    4.3358473    4.3358473    4.3358473   -7139.5898   -26292.218    6727.0415   -1853.5926   -7433.4583   -10071.285    690.66583    81.512071 
    5200    971.98904   -108.65295   0.87947611   -107.77348    11021.278    4.3243597    4.3243597    4.3243597    11021.278   -11847.136    27632.796    17278.173    7609.3994    343.36506    261.12285    80.865903 
    5300    838.83739   -108.53548    0.7589977   -107.77648   -10253.377    4.3338594    4.3338594    4.3338594   -10253.377   -16218.292   -9294.7364   -5247.1018   -6373.9107    2089.7721   -1800.2708    81.400012 
    5400    394.20003   -108.13607   0.35668047   -107.77939    11645.461    4.3276566    4.3276566    4.3276566    11645.461   -17673.489    35155.727    17454.144   -4106.4675    -5425.335    2873.8781       81.051 
    5500    745.11766   -108.45223   0.67419812   -107.77804    2676.7471    4.3290429    4.3290429    4.3290429    2676.7471   -7161.4862    8462.7829    6728.9447    1440.8157   -1742.0717   -6018.0382    81.128916 
    5600    731.56916   -108.44188   0.66193915   -107.77994   -228.82182    4.3304445    4.3304445    4.3304445   -228.82182   -8262.6116   -9950.5696    17526.716   -5285.4364    3256.0264   -6545.1106    81.207741 
    5700    680.54415   -108.39645   0.61577065   -107.78068   -10348.095     4.332152     4.332152     4.332152   -10348.095   -19153.691   -15334.776    3444.1832    4253.9835   -9306.2574    1891.5086    81.303841 
    5800    950.04007   -108.63395   0.85961622   -107.77434   -2462.6352    4.3290698    4.3290698    4.3290698   -2462.6352   -23618.278    16191.567    38.805858    3851.9986    2822.8697    6601.7754    81.130427 
    5900    549.90219    -108.2754   0.49756305   -107.77784    4944.0172    4.3314243    4.3314243    4.3314243    4944.0172   -15439.238    17795.448    12475.842   -3167.3646    1278.0104   -8245.2795    81.262874 
    6000    458.16803   -108.19428   0.41456006   -107.77972    -7503.339    4.3343856    4.3343856    4.3343856    -7503.339   -26537.079   -5577.8574    9604.9195    4510.7761   -7740.9533    3746.7152     81.42966 
    6100    892.29499   -108.58047   0.80736726   -107.77311   -704.75179    4.3274706    4.3274706    4.3274706   -704.75179   -2665.7097   -10862.896    11414.351   -5251.0047   -39.846215   -6989.2198    81.040549 
    6200    688.64774   -108.40195   0.62310295   -107.77885    -3570.702    4.3305734    4.3305734    4.3305734    -3570.702   -13880.485   -14671.954    17840.333     -2074.61   -7959.7275   -327.30983     81.21499 
    6300    717.04792   -108.43111   0.64880003   -107.78231   -7477.3847    4.3272132    4.3272132    4.3272132   -7477.3847   -22554.764   -2355.3311     2477.941    5329.5719    -5848.564     4631.956    81.026089 
    6400    803.22632   -108.50875   0.72677606   -107.78198    3589.9997     4.328889     4.328889     4.328889    3589.9997   -24968.659    19591.644    16147.014    3188.7936    8298.6588    2122.6154    81.120262 
    6500    467.62893    -108.2077   0.42312048   -107.78458    11323.576    4.3301287    4.3301287    4.3301287    11323.576   -6729.6844    4315.0322     36385.38    2813.0596   -4750.4197   -4592.4887    81.189977 
    6600    721.02186   -108.43307   0.65239573   -107.78067    -3214.171    4.3300481    4.3300481    4.3300481    -3214.171   -9145.8378    645.76832   -1142.4435    4033.1412   -5300.0795    12704.616    81.185443 
    6700    865.62128   -108.55917   0.78323233   -107.77594    5817.4846    4.3312067    4.3312067    4.3312067    5817.4846   -1407.5275   -7422.7241    26282.705   -3020.6224    3513.3981    3771.9066    81.250631 
    6800    799.55683   -108.50068   0.72345583   -107.77723    1702.3652    4.3268858    4.3268858    4.3268858    1702.3652   -16457.298    10639.209    10925.184   -3669.4764   -1803.1281   -3164.5819    81.007699 
    6900    532.34389   -108.26191   0.48167594   -107.78023   -4385.0786    4.3345789    4.3345789    4.3345789   -4385.0786   -30717.601   -369.72895    17932.094    2543.0495     3281.076    2778.2997    81.440559 
    7000    750.62103   -108.45453   0.67917769   -107.77535    6589.9909    4.3285121    4.3285121    4.3285121    6589.9909   -12890.903    28799.208    3861.6674   -2474.3554    10141.898   -6218.3307    81.099074 
    7100    712.20045   -108.42178   0.64441394   -107.77737   -299.20023    4.3284721    4.3284721    4.3284721   -299.20023   -1596.6841    -6371.936    7071.0195    5758.2929   -5476.6037    5662.9217    81.096827 
    7200     563.3617   -108.29012    0.5097415   -107.78038   -3690.2884    4.3322152    4.3322152    4.3322152   -3690.2884   -7966.4347   -19250.137    16145.707   -380.99084    269.37031    12668.303    81.307399 
    7300    908.26128   -108.59845    0.8218139   -107.77664    3368.3646    4.3256358    4.3256358    4.3256358    3368.3646   -4.5771168    857.33654    9252.3345   -5138.7561    1885.3923    2902.7686    80.937511 
    7400    665.81154   -108.38261   0.60244028   -107.78017   -12612.981     4.334682     4.334682     4.334682   -12612.981   -23151.301   -12716.917   -1970.7245    2703.6383   -4273.6585   -1731.5969    81.446367 
    7500    500.55828   -108.23498   0.45291565   -107.78206   -4058.3043    4.3279917    4.3279917    4.3279917   -4058.3043   -16399.331   -3612.1305    7836.5482   -1331.0967    10192.435     20232.79    81.069827 
    7600    875.02512   -108.57029   0.79174112   -107.77855    6318.1836    4.3263384    4.3263384    4.3263384    6318.1836   -9425.1059    17207.115    11172.542    1911.2175    2685.9643   -2646.4181    80.976958 
    7700    583.09313   -108.30725   0.52759492   -107.77966   -4833.5232    4.3392335    4.3392335    4.3392335   -4833.5232   -11240.481   -21272.318    18012.229    4266.2648   -2592.9355    12668.088    81.703198 
    7800    734.81686   -108.44036   0.66487774   -107.77549   -7122.5256    4.3266627    4.3266627    4.3266627   -7122.5256   -8898.9162    5511.9616   -17980.622    3936.8816    7566.4562    10493.466    80.995168 
    7900    837.16947   -108.53004   0.75748853   -107.77255    5371.8823    4.3298726    4.3298726    4.3298726    5371.8823   -7690.9488    222.51192    23584.084   -79.794481   -3876.2536   -5951.2407    81.175573 
    8000    598.59737   -108.31806   0.54162348   -107.77644   -13634.256     4.338537     4.338537     4.338537   -13634.256   -15102.565   -18282.301   -7517.9023    135.14416    3730.5295    12383.675    81.663863 
    8100    611.84895    -108.3282   0.55361379   -107.77459    14375.278    4.3205081    4.3205081    4.3205081    14375.278    1363.6725    26215.299    15546.862   -1910.4402    6554.0385    12883.086    80.650021 
    8200    804.40068   -108.50575   0.72783864   -107.77791    2721.7132    4.3362914    4.3362914    4.3362914    2721.7132   -12500.484    12278.059    8387.5646    155.67487   -3778.6414   -6435.0587    81.537123 
    8300    595.38163   -108.31832   0.53871381    -107.7796   -11885.114    4.3352208    4.3352208    4.3352208   -11885.114   -18417.339   -1448.9751    -15789.03    2245.3431     3715.107    10404.881    81.476745 
    8400    698.72809   -108.40788   0.63222386   -107.77566    6149.8083    4.3209735    4.3209735    4.3209735    6149.8083   -11258.702    8966.4287    20741.698   -305.11929    8928.9831    3401.0416    80.676081 
    8500    908.58424    -108.5994   0.82210611   -107.77729   -2196.3272    4.3349456    4.3349456    4.3349456   -2196.3272    -12469.88    3954.1365    1926.7617    3151.2044   -3645.5491    973.22685    81.461231 
    8600    514.51074   -108.24634   0.46554013    -107.7808   -3532.0254    4.3344788    4.3344788    4.3344788   -3532.0254   -4268.9573   -2701.8708    -3625.248   -1224.2289    8011.2397    14026.333    81.434915 
    8700    617.25763   -108.33605   0.55850768   -107.77754    17374.063    4.3240793    4.3240793    4.3240793    17374.063    7853.1915    21498.055    22770.943   -4925.2399   -1087.1887   -4602.3516    80.850175 
    8800    847.90332   -108.54516   0.76720074   -107.77796   -2155.4396    4.3334796    4.3334796    4.3334796   -2155.4396   -8783.6302   -7201.9623    9519.2736    784.37149   -5143.6515   -3987.5722    81.378611 
    8900    486.04055   -108.22044    0.4397797   -107.78066   -15716.042    4.3358767    4.3358767    4.3358767   -15716.042   -18833.805   -8561.3848   -19752.937   -64.102973    14344.421    20444.788    81.513731 
    9000    1034.7736   -108.70909   0.93628492   -107.77281    1146.3218    4.3207607    4.3207607    4.3207607    1146.3218   -9688.4254     7625.355    5502.0357    1562.1963   -2435.4057    5678.4404    80.664164 
    9100     682.4292   -108.39535   0.61747628   -107.77788    689.67925    4.3353028    4.3353028    4.3353028    689.67925   -11277.916   -4997.7314    18344.685     3498.696    2838.8955    96.935231    81.481368 
    9200     445.3767   -108.18355    0.4029862   -107.78056   -8269.4107    4.3333821    4.3333821    4.3333821   -8269.4107   -10379.861   -5532.2151   -8896.1563    3024.4992    10046.083    11543.029     81.37312 
    9300    883.47382   -108.57218   0.79938568    -107.7728    12304.609    4.3248864    4.3248864    4.3248864    12304.609   -415.92825    26069.058    11260.696   -3952.9211   -9658.1249   -4019.0581    80.895454 
    9400    676.73642   -108.38965   0.61232533   -107.77733   -8621.0033    4.3365894    4.3365894    4.3365894   -8621.0033   -13676.818   -1956.2362   -10229.956   -5667.8047    7809.8159    5149.5264    81.553934 
    9500    636.17231   -108.35402   0.57562208    -107.7784    -3646.646    4.3284548    4.3284548    4.3284548    -3646.646   -5885.2473    8838.7907   -13893.482    878.27201    10123.218    11694.351    81.095858 
    9600     921.0431   -108.60587   0.83337915   -107.77249    10188.767    4.3304654    4.3304654    4.3304654    10188.767   -8982.3367    2717.2632    36831.373    30.736034   -995.86099     -6183.62    81.208915 
    9700    549.97445   -108.27578   0.49762844   -107.77815    2804.2858    4.3309553    4.3309553    4.3309553    2804.2858    8982.7594    19821.419   -20391.321    3504.8657    9907.2241     9739.255    81.236481 
    9800    520.68166   -108.25114   0.47112371   -107.78002   -2587.3299    4.3338382    4.3338382    4.3338382   -2587.3299   -12319.149   -14462.576    19019.735   -422.41361    5425.8965    12403.942    81.398812 
    9900    941.59787   -108.62512   0.85197754   -107.77314    9874.6305     4.324631     4.324631     4.324631    9874.6305    3099.0009    13994.143    12530.748    2319.2006   -2516.4876    1445.3242    80.881121 
   10000    541.71637   -108.27213   0.49015636   -107.78198   -8219.3226    4.3326023    4.3326023    4.3326023   -8219.3226   -10613.994   -6308.8916   -7735.0826   -2636.3916    12332.037    8510.6229    81.329195 
   10100    771.14341   -108.47418   0.69774676   -107.77644   -8523.7193    4.3355508    4.3355508    4.3355508   -8523.7193   -17370.495   -8870.3331    669.67055   -2309.9098    726.22084    5110.4221    81.495354 
   10200    832.65936    -108.5257   0.75340768    -107.7723    23189.804    4.3190527    4.3190527    4.3190527    23189.804    3967.4221    49808.574    15793.418    3742.2967   -1076.5758   -7645.8063    80.568544 
   10300     348.3406   -108.10085   0.31518589   -107.78566   -10601.187    4.3400762    4.3400762    4.3400762   -10601.187   -14533.676    -15195.46   -2074.4237    4808.5082    11902.373    17952.864    81.750808 
   10400     844.4589   -108.53967   0.76408416   -107.77558   -5523.5613    4.3303641    4.3303641    4.3303641   -5523.5613   -9347.1933      -8051.3    827.80945   -62.243546   -4556.8234    5145.5935    81.203217 
   10500    758.51522   -108.45922   0.68632051    -107.7729    11792.984    4.3206038    4.3206038    4.3206038    11792.984    11829.042     22352.09    1197.8196   -1538.9014    5361.8929   -6008.8083     80.65538 
   10600    588.71032   -108.31139   0.53267747   -107.77872   -23977.598    4.3431476    4.3431476    4.3431476   -23977.598   -27726.145    478.33061    -44684.98   -1180.8685    11332.083    17666.338    81.924491 
   10700    798.63731   -108.49537   0.72262382   -107.77274    26509.423    4.3211578    4.3211578    4.3211578    26509.423    4621.4251    41127.049    33779.796   -748.54363   -2919.4122    5503.2433    80.686409 
   10800    675.91412   -108.39176    0.6115813   -107.78018    3240.8924    4.3285736    4.3285736    4.3285736    3240.8924   -7234.1104    9581.3019    7375.4856   -1682.7276        11391     3889.988    81.102531 
   10900    586.44961   -108.30779   0.53063193   -107.77716   -19630.313    4.3441856    4.3441856    4.3441856   -19630.313   -19939.055    -32567.42    -6384.463    2672.1676    1867.1625    13328.651    81.983247 
   11000    902.24197   -108.58812   0.81636749   -107.77176    9020.1674    4.3188444    4.3188444    4.3188444    9020.1674    4773.3867     14960.31    7326.8061   -467.27029    287.19169   -7349.9727    80.556887 
   11100    601.24845   -108.32506   0.54402223   -107.78103    5308.4814      4.32544      4.32544      4.32544    5308.4814   -1926.9838    30780.205   -12927.777   -2209.4246    11263.047    5280.5626    80.926524 
   11200    543.92516   -108.26754   0.49215491   -107.77539   -3792.9722    4.3466449    4.3466449    4.3466449   -3792.9722   -24534.588   -10980.639     24136.31   -1986.2671    407.82441    19608.787    82.122561 
   11300    982.61014   -108.65717    0.8890863   -107.76809    19151.173    4.3152551    4.3152551    4.3152551    19151.173    8050.5476    24136.078    25266.895   -3225.8231    4568.1408   -3291.0079    80.356208 
   11400     625.9444   -108.34925   0.56636765   -107.78288   -7612.9321    4.3270709    4.3270709    4.3270709   -7612.9321   -7419.9261   -24529.557    9110.6869    2740.1862    10115.816    9050.6399    81.018094 
   11500    689.06745   -108.40283   0.62348271   -107.77934   -21618.448    4.3403617    4.3403617    4.3403617   -21618.448   -16536.315   -31200.787   -17118.242   -4541.2199   -3530.3545    13468.531    81.766946 
   11600    735.76177   -108.43732   0.66573271   -107.77158    19636.555    4.3162315    4.3162315    4.3162315    19636.555    2159.2124    41410.492     15339.96    3866.5767   -668.53737     1261.413    80.410761 
   11700    406.55105   -108.14801   0.36785593   -107.78015   -4723.0655    4.3351701    4.3351701    4.3351701   -4723.0655   -16989.217    5897.7789   -3077.7587    961.09631    9117.7351    22205.225    81.473887 
   11800    895.81286   -108.58506    0.8105503   -107.77451   -808.61082    4.3258735    4.3258735    4.3258735   -808.61082   -7683.6669    15171.922   -9914.0873    177.26075   -6974.0902    5367.0352    80.950854 
   11900    900.93378   -108.59169   0.81518381    -107.7765   -6191.7177    4.3311513    4.3311513    4.3311513   -6191.7177   -13977.824   -11352.743    6755.4133   -736.63776    3258.6408   -5145.7341    81.247511 
   12000    627.02928   -108.34722   0.56734927   -107.77987   -11803.352    4.3304498    4.3304498    4.3304498   -11803.352   -9564.3941   -18835.194   -7010.4677    504.37965    6586.4026    13852.162    81.208041 
   12100    573.95969   -108.29766   0.51933079   -107.77833    17269.041    4.3215562    4.3215562    4.3215562    17269.041   -1008.1061     33626.55    19188.679    1801.9059   -12669.904     8266.862    80.708727 
   12200    664.52425   -108.37773   0.60127551   -107.77645   -366.16955     4.335567     4.335567     4.335567   -366.16955   -10343.341    18931.878    -9687.046    1477.8974    5043.2722     2218.224    81.496264 
   12300    711.73516    -108.4207   0.64399293   -107.77671    8490.6765     4.317707     4.317707     4.317707    8490.6765    3431.0118    12715.495     9325.523   -679.08498    1852.1964    13069.378    80.493255 
   12400    809.33745   -108.51375   0.73230554   -107.78145   -7054.1111     4.334314     4.334314     4.334314   -7054.1111    -18288.86   -9789.2784    6915.8052   -3195.5967   -9109.1584   -921.93391    81.425629 
   12500    972.33901   -108.65503   0.87979277   -107.77524   -599.67618     4.328935     4.328935     4.328935   -599.67618   -7593.2127    -6234.368    12028.552   -4273.2213    8372.8242    3788.5135    81.122851 
   12600    436.31624   -108.17354   0.39478811   -107.77876    6323.8325    4.3218294    4.3218294    4.3218294    6323.8325    -2873.894    37116.432   -15271.041   -2929.5647   -10535.856    14417.873    80.724032 
   12700    529.77772   -108.25817   0.47935401   -107.77881   -2442.7944    4.3317741    4.3317741    4.3317741   -2442.7944   -15318.789    27994.256   -20003.851   -3583.6238   -9637.4389   -3829.7988    81.282564 
   12800    856.55717   -108.54915   0.77503093   -107.77412    -217.8311    4.3280809    4.3280809    4.3280809    -217.8311   -3014.3209    5534.2928   -3173.4653    5941.2932    2805.4655    963.53653    81.074841 
   12900    682.96762   -108.39845   0.61796345   -107.78049   -19092.897    4.3284045    4.3284045    4.3284045   -19092.897   -23534.054    -8244.485   -25500.153   -785.46693   -17689.155    14333.221    81.093026 
   13000    883.47756     -108.578   0.79938907   -107.77861    16230.191     4.321828     4.321828     4.321828    16230.191   -7415.4674    49622.683    6483.3567   -435.19957   -4462.4317   -427.28581    80.723958 
   13100    741.71553   -108.45042    0.6711198    -107.7793   -11126.184    4.3367896    4.3367896    4.3367896   -11126.184   -20301.774    12395.502    -25472.28   -3367.7117    1269.3058    8823.7893     81.56523 
   13200    327.42696   -108.07678   0.29626279   -107.78052    1116.8063    4.3177537    4.3177537    4.3177537    1116.8063   -2913.6001    33003.118   -26739.099   -349.81943   -18615.338    9625.3484     80.49587 
   13300    853.35908   -108.55221   0.77213723   -107.78007    -1044.962    4.3281742    4.3281742    4.3281742    -1044.962   -9209.4633   -1023.3597     7097.937   -888.45511     213.4693   -7863.5036    81.080087 
   13400    609.75274   -108.33283    0.5517171   -107.78111   -10567.587    4.3380886    4.3380886    4.3380886   -10567.587   -24571.522    26016.709   -33147.947    2292.2702   -7482.5402    13159.169    81.638543 
   13500    676.34967   -108.39052    0.6119754   -107.77855    11940.053     4.314591     4.314591     4.314591    11940.053   -12082.856    43328.603    4574.4116   -3813.2727   -16431.837    9035.2229    80.319114 
   13600     1085.495   -108.75796   0.98217867   -107.77578   -4788.4379    4.3315344    4.3315344    4.3315344   -4788.4379   -20233.028    2549.1453    3318.5695   -1629.6825    4821.9611    -1721.861    81.269074 
   13700    518.10583   -108.25143   0.46879304   -107.78264   -17824.186    4.3320194    4.3320194    4.3320194   -17824.186   -20752.475    4149.5633   -36869.647   -1006.0148   -16553.837    9644.9066    81.296373 
   13800    513.63978   -108.24398   0.46475207   -107.77923    15065.924    4.3162521    4.3162521    4.3162521    15065.924    1737.7411    25607.801     17852.23     1677.005   -5377.1755    1548.9264    80.411915 
   13900    748.13521   -108.45426   0.67692846   -107.77734    5092.9995    4.3319759    4.3319759    4.3319759    5092.9995     -15821.6    37543.896   -6443.2978    749.12176    3582.4541   -2830.6261    81.293924 
   14000    618.60531   -108.33991   0.55972708   -107.78019    54.717377    4.3284251    4.3284251    4.3284251    54.717377   -6124.0437   -5080.0959    11368.292    2270.7624   -19542.672     16240.47    81.094188 
   14100     948.5193   -108.63376    0.8582402   -107.77552    3864.7775    4.3235229    4.3235229    4.3235229    3864.7775   -9728.6139    7499.3377    13823.608   -3652.9184    5824.8318    1664.9295    80.818968 
   14200    741.69163   -108.44635   0.67109817   -107.77525    -1438.227    4.3295964    4.3295964    4.3295964    -1438.227    -15581.41    17621.012    -6354.283   -4386.3484   -734.86851   -10095.553    81.160038 
   14300    552.51803   -108.27954   0.49992993   -107.77961    3551.7573    4.3254439    4.3254439    4.3254439    3551.7573   -3897.3466    30976.657   -16424.039   -1588.9941   -12085.552    16772.931    80.926744 
   14400    618.99503   -108.33934   0.56007971   -107.77926    642.02007    4.3285458    4.3285458    4.3285458    642.02007   -15316.576    10182.858    7059.7787    -1680.975    12300.798    3325.3363    81.100973 
   14500     673.1507   -108.38675    0.6090809   -107.77767   -6606.1585    4.3291607    4.3291607    4.3291607   -6606.1585   -21396.623   -5371.3726    6949.5201    3979.3584   -6253.0833    5517.9675    81.135541 
   14600    775.86084   -108.47824   0.70201519   -107.77622   -8398.1067    4.3266096    4.3266096    4.3266096   -8398.1067   -4264.0354   -20280.159   -650.12601    172.87905   -8967.1516    9934.9536    80.992189 
   14700    897.76986   -108.58704   0.81232104   -107.77472   -10265.698    4.3270459    4.3270459    4.3270459   -10265.698   -23171.977    1050.6564   -8675.7742    1395.1292    5741.7733   -5135.4564     81.01669 
   14800    661.43593   -108.37579   0.59848113   -107.77731    2651.3515    4.3298704    4.3298704    4.3298704    2651.3515   -10479.639    12009.082    6424.6113    2028.2272   -5948.3583    5267.2107    81.175445 
   14900    570.35896   -108.29472   0.51607278   -107.77865    4175.1882    4.3254293    4.3254293    4.3254293    4175.1882   -9768.9401    11896.356    10398.148   -2869.5485   -1066.9225    21415.971    80.925921 
   15000    489.83558   -108.22463   0.44321353   -107.78142   -1658.5724    4.3292843    4.3292843    4.3292843   -1658.5724   -19881.654   -5605.4617    20511.398   -1295.1138    9287.2515    -3561.805    81.142487 
   15100    906.15224   -108.59662   0.81990559   -107.77671   -8619.4951    4.3264112    4.3264112    4.3264112   -8619.4951   -6900.8963   -17068.181   -1889.4083   -184.74239   -1551.1258    6384.6673    80.981048 
   15200    660.80472   -108.37794      0.59791   -107.78003    7414.4167    4.3243166    4.3243166    4.3243166    7414.4167   -11098.248    -4952.745    38294.243   -1951.2324    796.35839    6296.3413    80.863482 
   15300    764.61212   -108.47264   0.69183711    -107.7808    -3222.352    4.3311567    4.3311567    4.3311567    -3222.352   -34260.041    7688.7899    16904.195   -2986.3895    13685.016   -264.76649    81.247817 
   15400    876.58268   -108.57225   0.79315043    -107.7791    9516.8639    4.3231003    4.3231003    4.3231003    9516.8639    45.105888    24896.998    3608.4874   -1302.3775   -5057.6402    11356.104    80.795271 
   15500    411.04354   -108.15938   0.37192083   -107.78746   -9647.3461    4.3309406    4.3309406    4.3309406   -9647.3461   -21602.578    7761.0346   -15100.495   -3896.9289    9821.4648    4362.7174    81.235652 
   15600    673.73186   -108.39123   0.60960674   -107.78162   -4130.2052    4.3266161    4.3266161    4.3266161   -4130.2052   -16535.558    -3050.818    7195.7608   -1449.2491    10127.203   -6909.8065    80.992555 
   15700    783.03185   -108.48486   0.70850367   -107.77635    489.29647    4.3337738    4.3337738    4.3337738    489.29647   -10836.927   -11395.867    23700.683    1158.0152   -5867.2387    5976.8966    81.395186 
   15800     663.3594   -108.38033   0.60022152    -107.7801    1307.2646    4.3236639    4.3236639    4.3236639    1307.2646   -25440.993    23125.048    6237.7387   -2122.0234    10080.816     6791.085    80.826873 
   15900    892.93001   -108.58828   0.80794184   -107.78034    4261.0629    4.3291071    4.3291071    4.3291071    4261.0629   -25596.668    22535.294    15844.562    6942.7293    7886.3794    1801.6714    81.132523 
   16000    901.12822   -108.59426   0.81535975    -107.7789    -3067.529    4.3315744    4.3315744    4.3315744    -3067.529   -13255.616    11314.356   -7261.3274    399.12917   -2349.7931    7145.6696    81.271326 
   16100     397.9031   -108.14459   0.36003109   -107.78456   -2707.0092     4.321055     4.321055     4.321055   -2707.0092   -20050.464   -11461.352    23390.788   -3746.8343    15696.438    238.75441    80.680649 
   16200    636.01216   -108.35768   0.57547717    -107.7822   -4110.3573    4.3299986    4.3299986    4.3299986   -4110.3573   -17382.835   -16216.091    21267.854    4585.0567    1870.2783    2061.3938     81.18266 
   16300    791.65444   -108.49608   0.71630558   -107.77978    179.67246    4.3291753    4.3291753    4.3291753    179.67246   -12732.912    1194.5403    12077.389   -2886.0439    -3630.463    3307.0455     81.13636 
   16400    707.55018   -108.42352   0.64020627   -107.78331   -7777.0535    4.3251654    4.3251654    4.3251654   -7777.0535    -29260.16    9636.6801   -3707.6805   -813.69078    16761.841    874.88345    80.911112 
   16500    871.10595   -108.56762   0.78819497   -107.77943    14246.039    4.3228396    4.3228396    4.3228396    14246.039   -12695.414    10333.647    45099.886   -335.45488    414.74677   -1236.2256    80.780653 
   16600    638.40744   -108.35941   0.57764447   -107.78176   -16640.682    4.3403517    4.3403517    4.3403517   -16640.682   -29443.992   -16748.618   -3729.4362   -1322.3133    1238.2141    10563.876    81.766381 
   16700      501.356   -108.23657   0.45363745   -107.78293   -2975.0148     4.314325     4.314325     4.314325   -2975.0148   -6888.4881   -18413.283    16376.726   -469.16353    15690.187     7462.027    80.304259 
   16800    642.14011   -108.36814   0.58102187   -107.78712    6593.7499    4.3271085    4.3271085    4.3271085    6593.7499   -10243.873    7850.3894    22174.733    1202.8106   -7204.2767   -6083.0295    81.020206 
   16900    635.27105   -108.35529    0.5748066   -107.78048   -22482.933     4.343306     4.343306     4.343306   -22482.933   -35834.311   -8122.1843   -23492.302   -20.274777   -526.64705     5573.331    81.933455 
   17000    854.31796   -108.54087   0.77300485   -107.76786    32011.274    4.2986882    4.2986882    4.2986882    32011.274    14034.555    40243.595    41755.674    4451.0136    15582.202    1090.9745    79.434258 
   17100    899.18976    -108.5905   0.81360579   -107.77689   -21883.619    4.3453429    4.3453429    4.3453429   -21883.619   -33387.221   -11012.963   -21250.671   -124.09335   -13282.352   -100.95637    82.048785 
   17200    624.67832    -108.3458   0.56522207   -107.78058    563.00094    4.3232052    4.3232052    4.3232052    563.00094    -2388.712   -11385.062    15462.777    -1799.221    3751.4699    8132.2056    80.801151 
   17300    468.05694   -108.19791   0.42350776    -107.7744    16066.829    4.3104714    4.3104714    4.3104714    16066.829    8673.8773    14773.138     24753.47     564.3411    2470.3667   -1675.5505    80.089267 
   17400    729.69914   -108.43064   0.66024711    -107.7704   -29098.388    4.3434844    4.3434844    4.3434844   -29098.388   -29848.398   -20855.795   -36590.971   -2941.3578   -15542.811    -5028.253    81.943555 
   17500    694.42905   -108.40114     0.628334    -107.7728    25733.371    4.3144242    4.3144242    4.3144242    25733.371    11097.066    31778.175    34324.874   -1579.3893    6408.3817    15815.736    80.309797 
   17600     917.0126   -108.60694   0.82973227   -107.77721    -6033.756    4.3286352    4.3286352    4.3286352    -6033.756   -20474.511   -4507.5076    6880.7507    201.26074    209.10928   -430.09416    81.105996 
   17700    679.49739   -108.39213   0.61482352   -107.77731    11056.378    4.3292164    4.3292164    4.3292164    11056.378   -8254.4352    4502.8808    36920.689    2664.9013   -13301.591   -4631.9837    81.138672 
   17800    727.16536   -108.43464    0.6579545   -107.77669    -8422.053    4.3267423    4.3267423    4.3267423    -8422.053    2221.7374   -17841.933   -9645.9632   -4343.5238    7052.5054    6898.6187    80.999643 
   17900    567.53598   -108.29096   0.51351848   -107.77744    3499.4786     4.322892     4.322892     4.322892    3499.4786   -5050.8459   -12819.582    28368.864   -493.94418   -2669.2979    778.97238     80.78359 
   18000    577.51062   -108.30371   0.52254374   -107.78117    2348.4304    4.3283069    4.3283069    4.3283069    2348.4304   -959.61635    10917.485   -2912.5777   -33.333055   -8512.0209   -3859.1712    81.087544 
   18100    745.39803   -108.45304    0.6744518   -107.77859    709.09099    4.3276684    4.3276684    4.3276684    709.09099    -5057.119   -7241.1044    14425.496   -1790.0489    10396.332    15606.581    81.051663 
   18200    857.21321   -108.55475   0.77562452   -107.77912    966.74982    4.3216807    4.3216807    4.3216807    966.74982   -5751.4142    9866.1037     -1214.44    169.67022   -10806.671   -10250.613    80.715701 
   18300    616.49825   -108.34013   0.55782058   -107.78231   -2327.5793    4.3263015    4.3263015    4.3263015   -2327.5793   -176.66152   -10679.252    3873.1755    3372.9988   -9008.0856    10812.261    80.974887 
   18400    681.37526   -108.39508   0.61652265   -107.77856   -9169.0557    4.3320619    4.3320619    4.3320619   -9169.0557   -10811.563   -27879.506    11183.902    1777.4234     4237.442    16407.231    81.298766 
   18500    668.76603   -108.38135   0.60511356   -107.77623    -639.8517    4.3225642    4.3225642    4.3225642    -639.8517   -5396.6666    3681.3147   -204.20312   -1017.2197   -10347.905   -16533.563    80.765217 
   18600    642.87687   -108.36224    0.5816885   -107.78055     1004.749    4.3221936    4.3221936    4.3221936     1004.749    -2463.942   -5671.5986    11149.788   -584.39374   -680.74645     16083.64    80.744445 
   18700    834.99153   -108.53465   0.75551789   -107.77913    -11750.65    4.3344277    4.3344277    4.3344277    -11750.65   -21486.802   -20252.641    6487.4932   -1513.8765   -546.42108    9919.1649    81.432034 
   18800    762.69528   -108.46638   0.69010271   -107.77628    26752.489    4.3095528    4.3095528    4.3095528    26752.489    5361.4846    16053.311     58842.67   -1503.0958   -13938.935   -6060.3025    80.038069 
   18900    635.34758    -108.3585   0.57487584   -107.78363   -24512.181    4.3390336    4.3390336    4.3390336   -24512.181   -10984.396   -40017.375    -22534.77   -1698.9462    1802.5119    20540.976    81.691909 
   19000    674.21849   -108.38887   0.61004706   -107.77882    6653.8996    4.3229202    4.3229202    4.3229202    6653.8996   -714.24746   -14150.305    34826.251    338.90869    734.53377    4044.9376    80.785173 
   19100    697.39087   -108.40894   0.63101392   -107.77793    7471.9038    4.3133832    4.3133832    4.3133832    7471.9038     6441.971    3755.2492    12218.491    1889.0552    -7414.051   -6618.3144    80.251678 
   19200    554.38019   -108.28032   0.50161484   -107.77871   -30264.069    4.3411907    4.3411907    4.3411907   -30264.069   -11012.326   -39992.722   -39787.158   -1253.2281    2410.9549    33382.772    81.813808 
   19300    927.31567   -108.61151   0.83905471   -107.77246    20008.275    4.3097499    4.3097499    4.3097499    20008.275    6768.7263    8322.4266    44933.672   -2440.5959    -3425.617   -972.54764    80.049055 
   19400    605.14021   -108.33215   0.54754358    -107.7846   -1802.8267     4.327662     4.327662     4.327662   -1802.8267   -6113.6984   -8756.5581    9461.7764   -480.58076    -12707.99    367.98539    81.051302 
   19500    519.27866   -108.25063   0.46985425   -107.78077   -6693.5279    4.3341641    4.3341641    4.3341641   -6693.5279   -975.50673   -38407.817    19302.741   -3249.5545    3526.0614    19095.997     81.41718 
   19600    934.63615   -108.61833   0.84567843   -107.77265    1539.9065    4.3177149    4.3177149    4.3177149    1539.9065   -1318.0574    4215.6948    1722.0822   -3182.6456    342.34033   -5311.0418    80.493701 
   19700    515.05536   -108.24732   0.46603291   -107.78129    5024.4956    4.3241984    4.3241984    4.3241984    5024.4956   -6761.6685   -12003.686    33838.842    4551.5878   -1390.7019    14929.624    80.856852 
   19800    720.54479    -108.4341   0.65196407   -107.78213   -19901.569    4.3331142    4.3331142    4.3331142   -19901.569   -14170.135   -31602.429   -13932.144    -4916.889    66.239276     18541.23    81.358026 
   19900    871.77799   -108.56454   0.78880305   -107.77573    13626.172     4.315202     4.315202     4.315202    13626.172   -8887.5997    17049.428    32716.686   -500.22329    4796.6255   -9619.6788    80.353241 
   20000    588.00133   -108.31489   0.53203596   -107.78285   -13588.638    4.3305753    4.3305753    4.3305753   -13588.638   -2708.1488   -34367.842   -3689.9219   -222.21518   -5426.6262    25017.282      81.2151 
   20100    600.35553   -108.32429    0.5432143   -107.78107   -1380.9121    4.3258089    4.3258089    4.3258089   -1380.9121    2562.7266   -14758.944    8053.4806   -5097.7378    4872.8547    5560.6914    80.947228 
   20200    806.65228   -108.50656   0.72987594   -107.77669    363.07165    4.3253948    4.3253948    4.3253948    363.07165   -5134.1083    -1095.296    7318.6192   -3406.3359    5359.1389   -66.529252    80.923987 
   20300    651.97287   -108.36864   0.58991875   -107.77873   -10152.574     4.326901     4.326901     4.326901   -10152.574     1551.057   -18825.617   -13183.163   -3553.3683   -6300.2197    20629.237     81.00855 
   20400    607.06192   -108.32801   0.54928239   -107.77873    8278.7981    4.3216214    4.3216214    4.3216214    8278.7981   -12099.063   -3085.7979    40021.256     1505.013    6260.1912   -1034.1453     80.71238 
   20500    742.15004   -108.45051   0.67151295   -107.77899   -7394.1321     4.328625     4.328625     4.328625   -7394.1321   -14825.135   -14339.802    6982.5405    667.26122      8998.05     3551.112     81.10542 
   20600    728.22807   -108.43753   0.65891606   -107.77862    13203.071    4.3155991    4.3155991    4.3155991    13203.071    14573.854   -1547.0121     26582.37   -302.57542   -3132.9615    21444.321    80.375427 
   20700     796.3476   -108.50038   0.72055204   -107.77982   -14813.188    4.3362483    4.3362483    4.3362483   -14813.188   -25434.877   -3299.9461   -15704.739   -940.00443    11589.632   -12442.172    81.534688 
   20800    622.35254   -108.34155   0.56311766   -107.77844    14577.289    4.3176043    4.3176043    4.3176043    14577.289   -1679.4626    14255.067    31156.262    2222.6658    5907.7664    338.63795    80.487514 
   20900    647.27666   -108.36536   0.58566953   -107.77969   -3860.3018    4.3237437    4.3237437    4.3237437   -3860.3018   -2467.3605   -2484.6392   -6628.9056   -6649.8048   -7306.9798    14933.668    80.831349 
   21000    634.06599   -108.35119   0.57371624   -107.77748    -18169.92    4.3321014    4.3321014    4.3321014    -18169.92   -24156.291   -18147.277   -12206.191   -1058.5878     18942.01   -7225.6354    81.300993 
   21100    805.32675   -108.50344   0.72867657   -107.77476    17092.188    4.3116684    4.3116684    4.3116684    17092.188    17018.625    13533.406    20724.533    4270.8887    6511.6453    9478.3053    80.156005 
   21200    767.75055   -108.47297   0.69467683   -107.77829   -12696.762    4.3363429    4.3363429    4.3363429   -12696.762   -14676.779   -19885.205   -3528.3027   -4142.4783   -1818.9686     7879.697    81.540026 
   21300    643.00134   -108.36049   0.58180113   -107.77869    7895.3954    4.3200259    4.3200259    4.3200259    7895.3954   -14018.987    16338.408    21366.765    249.72062    14759.753   -9745.2308    80.623017 
   21400    738.10702   -108.44463   0.66785475   -107.77678    1745.9486    4.3238461    4.3238461    4.3238461    1745.9486   -7582.6011    14795.298   -1974.8515     160.9095   -1729.9684    8255.8845    80.837092 
   21500    599.92532   -108.32189   0.54282504   -107.77906    1295.3743    4.3282554    4.3282554    4.3282554    1295.3743   -19148.125   -6522.2637    29556.511   -3048.7643    1562.9993    11293.759    81.084646 
   21600    610.02848   -108.33573   0.55196659   -107.78376   -1680.8431     4.323984     4.323984     4.323984   -1680.8431     -13769.8    7020.9556     1706.315   -2677.5268    24277.473   -8095.3938    80.844827 
   21700    959.43531   -108.64708   0.86811723   -107.77896    11105.121    4.3189468    4.3189468    4.3189468    11105.121    10928.696    -8812.192    31198.858    5338.3606    1104.0057   -3665.7131    80.562615 
   21800    807.63952   -108.51386   0.73076921   -107.78309   -13106.049    4.3306218    4.3306218    4.3306218   -13106.049   -16232.555   -6415.0127    -16670.58   -2006.4718    4687.3719    2998.1242    81.217715 
   21900    466.49403    -108.2063    0.4220936   -107.78421    -3895.308    4.3235943    4.3235943    4.3235943    -3895.308   -21725.474    13038.455   -2998.9049    2701.6231    14556.494   -6226.8736    80.822973 
   22000    743.92382   -108.44956    0.6731179   -107.77644    10228.659    4.3183803    4.3183803    4.3183803    10228.659   -3686.4905    10488.447    23884.022   -120.33106   -6517.7636    4045.5435     80.53092 
   22100    514.36147   -108.24475   0.46540507   -107.77934   -18513.234    4.3358766    4.3358766    4.3358766   -18513.234   -37007.838     1152.377   -19684.241   -5112.9127    18267.586    8145.3674    81.513727 
   22200    762.58535   -108.46626   0.69000325   -107.77625    8458.5558    4.3141704    4.3141704    4.3141704    8458.5558    5982.6996    14032.423    5360.5451   -2419.0022    10132.616   -14349.831    80.295626 
   22300    958.59084   -108.64408   0.86735313   -107.77673   -3079.7077    4.3279937    4.3279937    4.3279937   -3079.7077    1038.0507    -20835.63    10558.456   -4062.5943   -6062.7854    -4494.293    81.069943 
   22400    627.41776   -108.34815   0.56770078   -107.78045    979.72522    4.3245553    4.3245553    4.3245553    979.72522   -23712.771     12218.55    14433.397    442.43901    17708.208    1531.8838    80.876875 
   22500    567.88309   -108.29339   0.51383255   -107.77956     4621.137    4.3236777    4.3236777    4.3236777     4621.137   -6010.9681     5144.058    14730.321    3657.5476   -1209.1037   -8566.3299     80.82765 
   22600    752.14612   -108.45584   0.68055762   -107.77528    -322.3156    4.3270874    4.3270874    4.3270874    -322.3156   -9830.7372    5927.1524     2936.638    2356.4643    3799.8283   -6169.1787    81.019023 
   22700    586.40261   -108.31015   0.53058941   -107.77956    7326.2579    4.3227895    4.3227895    4.3227895    7326.2579   -18097.653    14786.717    25289.709    74.056838    20009.359   -3030.1718    80.777843 
   22800    766.70907   -108.47152   0.69373448   -107.77778   -11510.274    4.3293401    4.3293401    4.3293401   -11510.274   -1081.7763   -30760.048   -2688.9973    2623.0426   -690.34727    -23002.13    81.145626 
   22900    907.40939   -108.59555   0.82104309    -107.7745    8498.6739    4.3136853    4.3136853    4.3136853    8498.6739   -5240.1609    4453.9808    26282.202   -2743.3588    2467.9554    825.88912    80.268543 
   23000    647.46961   -108.36629   0.58584411   -107.78045   -27415.517    4.3352816    4.3352816    4.3352816   -27415.517   -46829.478     -14055.3   -21361.773   -2207.1525    14659.849   -6418.6369    81.480173 
   23100    541.81324   -108.27053   0.49024401   -107.78029     4417.271    4.3174356    4.3174356    4.3174356     4417.271    6260.0579   -5263.9571    12255.712   -239.00313   -4121.4467   -20399.771    80.478082 
   23200    683.46499   -108.39846   0.61841349   -107.78004    5042.0465    4.3233824    4.3233824    4.3233824    5042.0465   -17271.295    15017.329    17380.105   -3288.9535    11401.742    2607.9459    80.811085 
   23300     707.2833   -108.41855   0.63996479   -107.77859   -15576.244    4.3317317    4.3317317    4.3317317   -15576.244   -12332.943   -14757.435   -19638.353   -2112.6116    9884.7652   -12949.329     81.28018 
   23400    705.80633   -108.41552    0.6386284   -107.77689    9832.3428    4.3130349    4.3130349    4.3130349    9832.3428    14491.464   -9628.0298    24633.594    1330.8503   -8487.1308   -11910.101    80.232241 
   23500    832.57253   -108.52979   0.75332912   -107.77646   -14765.384    4.3316688    4.3316688    4.3316688   -14765.384   -38252.907   -11774.404    5731.1592   -3529.7458    10723.478    6697.5873    81.276638 
   23600    548.19183   -108.27429   0.49601549   -107.77827    2097.1509    4.3216103    4.3216103    4.3216103    2097.1509   -14634.572   -6328.4524    27254.477   -1558.8407    1399.7205   -24528.578    80.711758 
   23700    709.72974   -108.42058   0.64217839    -107.7784   -9669.3638    4.3246215    4.3246215    4.3246215   -9669.3638   -7025.2477    -3689.604    -18293.24    2487.3303   -2072.7561   -10228.244     80.88059 
   23800    756.68879   -108.46134   0.68466791   -107.77667    6520.6309    4.3242288    4.3242288    4.3242288    6520.6309   -11519.643    12533.498    18548.037    192.39121      8699.24    14638.354    80.858559 
   23900    699.51925   -108.41262   0.63293971   -107.77968   -5166.0066    4.3244529    4.3244529    4.3244529   -5166.0066     2410.612   -19365.271    1456.6396    1876.2638   0.95433522   -20884.566    80.871129 
   24000    715.07275   -108.42525   0.64701285   -107.77824   -4404.1953    4.3249701    4.3249701    4.3249701   -4404.1953   -5435.2999   -15594.019    7816.7335    2058.1507   -9214.5033    451.58463    80.900148 
   24100    785.16224   -108.48808    0.7104313   -107.77765    -1046.215    4.3227297    4.3227297    4.3227297    -1046.215    -21000.81    4218.9059     13643.26    688.26953    7520.8582    2741.2419    80.774495 
   24200    521.18821   -108.25304   0.47158205   -107.78146   -6542.0034    4.3263746    4.3263746    4.3263746   -6542.0034   -10449.838   -4774.1556   -4402.0169   -4960.1698   -1661.2357   -22573.993    80.978993 
   24300    665.66787   -108.38215   0.60231028   -107.77984    6115.4183    4.3222465    4.3222465    4.3222465    6115.4183    2568.1957    8690.0041     7088.055    157.53437    2770.0562    13816.655     80.74741 
   24400    780.54432   -108.48479   0.70625291   -107.77854    3736.5862    4.3247067    4.3247067    4.3247067    3736.5862   -1068.1989    747.46973    11530.488   -4448.1148    6061.6513     400.2019    80.885368 
   24500    782.12482   -108.48559   0.70768297    -107.7779   -10303.615    4.3272207    4.3272207    4.3272207   -10303.615    3865.0388   -23495.588   -11280.297   -1055.6076   -3945.3678   -23709.792    81.026513 
   24600    656.31342   -108.37065   0.59384618    -107.7768   -2272.9425    4.3251254    4.3251254    4.3251254   -2272.9425   -18226.784   -9555.2649    20963.221      874.787   -1583.3245    14942.532    80.908868 
   24700    646.63916   -108.36252    0.5850927   -107.77743    8787.5081    4.3173141    4.3173141    4.3173141    8787.5081   -12090.581    17973.833    20479.272    264.62378     1702.645   -2708.4328    80.471284 
   24800    628.77187   -108.35066     0.568926   -107.78173   -7970.7449    4.3314134    4.3314134    4.3314134   -7970.7449   -14761.611   -7121.8324   -2028.7916    700.40715   -4488.9672   -18907.244    81.262261 
   24900    799.17617   -108.50154    0.7231114   -107.77843   -3036.1468    4.3235739    4.3235739    4.3235739   -3036.1468   -3394.9401   -213.21396   -5500.2861   -671.84301    2858.1815    17232.619    80.821826 
   25000    785.93788   -108.48804   0.71113311   -107.77691     10066.14    4.3152638    4.3152638    4.3152638     10066.14    8228.4748   -14779.565    36749.511   -317.67524    71.583523   -9833.2948    80.356694 
   25100    706.24169   -108.41687   0.63902233   -107.77785   -21246.032    4.3353594    4.3353594    4.3353594   -21246.032    -14437.32   -24939.644   -24361.133   -458.78453   -4457.7553   -8376.9313    81.484558 
   25200     531.0486   -108.25849   0.48050393   -107.77799    6800.0979    4.3162239    4.3162239    4.3162239    6800.0979   -9728.0472    14837.701     15290.64    2051.6655   -610.54357    25144.881    80.410342 
   25300    691.37933   -108.40429   0.62557455   -107.77872   -2037.7957    4.3240217    4.3240217    4.3240217   -2037.7957   -4283.6135   -7169.4469    5339.6735    630.78261    1810.5312   -23035.486    80.846942 
   25400    693.54554   -108.40542   0.62753458   -107.77789   -610.60432    4.3280646    4.3280646    4.3280646   -610.60432    2141.4411   -9397.7416    5424.4876    509.00248    10.760116   -3767.0599    81.073925 
   25500    758.81799   -108.46526   0.68659446   -107.77866    873.02792    4.3182182    4.3182182    4.3182182    873.02792    18118.667   -27606.865    12107.282    -4339.586    3727.0944    22562.375    80.521852 
   25600    847.85327   -108.54456   0.76715545   -107.77741   -4510.4055    4.3284767    4.3284767    4.3284767   -4510.4055   -4077.8481   -12043.429    2590.0602   -279.53065    -2685.631   -13147.719    81.097088 
   25700    583.41836   -108.30663   0.52788919   -107.77874   -3817.4164    4.3239025    4.3239025    4.3239025   -3817.4164   -12668.924   -719.76721    1936.4414    478.88237   -5656.3245    6981.8968    80.840258 
   25800     416.4891   -108.15827   0.37684809   -107.78143   -2597.4151    4.3232566    4.3232566    4.3232566   -2597.4151   -18551.523   -14281.946    25041.224   -365.54174   -906.46276    17185.062    80.804035 
   25900    1014.5658   -108.69347   0.91800047   -107.77547    6050.0232    4.3217942    4.3217942    4.3217942    6050.0232   -4763.0989    3004.9914    19908.177    3132.5527   -1049.7813   -13511.607    80.722062 
   26000    700.79838   -108.41624    0.6340971   -107.78214   -14660.503    4.3297716    4.3297716    4.3297716   -14660.503   -6446.0492   -33152.041   -4383.4204    1891.3102   -258.96423    20059.023    81.169894 
   26100    689.48906   -108.40553    0.6238642   -107.78166   -1363.4613    4.3179606    4.3179606    4.3179606   -1363.4613    4459.4872   -19116.317    10566.446   -4358.1412    759.83573    14318.871    80.507441 
   26200    816.17717   -108.51664   0.73849426   -107.77815    9580.2674    4.3249965    4.3249965    4.3249965    9580.2674   -6702.2682    11011.668    24431.402   -2353.0419    1352.2518    -11893.52    80.901632 
   26300    319.28408   -108.07507   0.28889495   -107.78618   -13336.196    4.3287858    4.3287858    4.3287858   -13336.196   -17589.372   -21821.697   -597.51947   -3010.8984   -5919.5858    22270.774    81.114462 
   26400    720.91173   -108.43429   0.65229608     -107.782    9180.9141    4.3132661    4.3132661    4.3132661    9180.9141    8485.4117   -2473.1314    21530.462   -4245.0997    5058.7338    12585.519    80.245145 
   26500     1090.919   -108.76304   0.98708648   -107.77596   -2526.3003    4.3336309    4.3336309    4.3336309   -2526.3003   -4731.0651   -10597.858    7750.0222    5332.6098   -1374.6075   -3404.8791    81.387136 
   26600    457.10828   -108.19892   0.41360118   -107.78532    -1491.647    4.3194089    4.3194089    4.3194089    -1491.647    9803.8784   -24547.056    10268.236    1935.1251    584.94711      20417.4    80.588478 
   26700    657.68733   -108.37921   0.59508932   -107.78413    6526.4913    4.3185117    4.3185117    4.3185117    6526.4913   -959.97148    147.12462    20392.321   -1575.6266    -3462.635    711.09715    80.538273 
   26800    906.24352   -108.59711   0.81998818   -107.77712   -8798.2879    4.3310868    4.3310868    4.3310868   -8798.2879    -18343.71   -461.17047   -7589.9833    -1080.969    694.25541   -2402.5445    81.243879 
   26900    453.90981   -108.19399   0.41070714   -107.78329    2255.4525    4.3174467    4.3174467    4.3174467    2255.4525   -461.50106   -15036.943    22264.802    -4726.185    227.48952    27483.713      80.4787 
   27000    927.95399   -108.62043   0.83963227    -107.7808   -2641.3703    4.3273252    4.3273252    4.3273252   -2641.3703   -4600.3558   -10919.738    7595.9831   -3402.9053    2747.1109   -2405.4044    81.032378 
   27100    732.64182   -108.44069   0.66290972   -107.77778    12635.623    4.3227196    4.3227196    4.3227196    12635.623    10282.219    8059.5057    19565.146    853.17867    4890.2833   -3143.3555    80.773926 
   27200    411.59905   -108.15416   0.37242347   -107.78173   -11574.716    4.3238633    4.3238633    4.3238633   -11574.716    5611.6136   -19426.458   -20909.302   -518.23914   -349.80046    21695.816     80.83806 
   27300      746.047   -108.45179     0.675039   -107.77675    1620.1759    4.3234549    4.3234549    4.3234549    1620.1759   -1446.4337    3882.7848    2424.1768    48.769183    2475.7401   -6913.6178    80.815156 
   27400    836.63001   -108.53441   0.75700041   -107.77741      3937.01     4.320709     4.320709     4.320709      3937.01     6036.479   -3636.8549    9411.4058   -935.94844   -2757.0077    3187.5241    80.661269 
   27500    657.32075   -108.37536   0.59475763    -107.7806   -10280.568    4.3292641    4.3292641    4.3292641   -10280.568   -15143.907   -27256.033    11558.235   -2359.0816    2740.3131    14290.872    81.141355 
   27600    853.21722   -108.54741   0.77200887    -107.7754    8086.0366     4.319625     4.319625     4.319625    8086.0366     5607.418    15722.059    2928.6325    1749.9252    6743.8686   -16558.436    80.600576 
   27700     577.8689   -108.30079   0.52286792   -107.77792   -5641.8013    4.3274648    4.3274648    4.3274648   -5641.8013   -1073.3108   -11132.162   -4719.9316   -785.06781   -1953.4062    11575.666    81.040223 
   27800     546.0962    -108.2719   0.49411932   -107.77778   -5946.2223    4.3244691    4.3244691    4.3244691   -5946.2223   -9063.9679    -12661.48    3886.7815    1071.9048    1680.7522    13928.597    80.872042 
   27900    775.15164   -108.47866   0.70137349   -107.77729    10513.273    4.3190417    4.3190417    4.3190417    10513.273    9914.4292   -3002.0533    24627.444    795.96346   -343.21988    -17169.59    80.567928 
   28000    863.59657   -108.55977   0.78140032   -107.77836    -5585.267    4.3279588    4.3279588    4.3279588    -5585.267    2299.5159   -23643.814    4588.4967   -5259.1204   -4914.0302    6606.3969    81.067978 
   28100    658.47234    -108.3755   0.59579961    -107.7797     7862.643     4.321756     4.321756     4.321756     7862.643    1795.6025    3588.2685    18204.058   -4199.3511     3044.961    2245.2623    80.719919 
   28200    568.17216   -108.29165   0.51409411   -107.77756   -5869.4702    4.3278408    4.3278408    4.3278408   -5869.4702    2284.2359   -9217.9954   -10674.651   -1340.9493    6022.2509   -15365.747    81.061351 
   28300    572.85576   -108.29375   0.51833193   -107.77542   -5825.0727    4.3230274    4.3230274    4.3230274   -5825.0727   -5709.5809   -9040.6162    -2725.021   -4890.0905   -2475.1148    18436.604    80.791182 
   28400    705.19305   -108.41559   0.63807349   -107.77752   -8276.5718    4.3222204    4.3222204    4.3222204   -8276.5718   -10255.531   -13478.281    -1095.904   -2605.0431    844.83068   -13286.273    80.745946 
   28500    931.49592    -108.6211   0.84283708   -107.77827   -8745.7428    4.3249689    4.3249689    4.3249689   -8745.7428   -4760.4499   -17645.556   -3831.2227    4005.4994    4120.0203   -13003.134     80.90008 
   28600     802.0171   -108.50364   0.72568193   -107.77796    -952.7089    4.3250584    4.3250584    4.3250584    -952.7089   -9452.2544   -2766.7958    9360.9235   -8612.3961   -3020.5138    16571.834    80.905106 
   28700    474.55288   -108.20929   0.42938542   -107.77991   -5033.8433    4.3239632    4.3239632    4.3239632   -5033.8433   -5420.7546   -1602.1118   -8078.6634   -3008.9859     11701.92   -12076.996    80.843659 
   28800    588.33609   -108.30932   0.53233886   -107.77699   -2076.4795    4.3216022    4.3216022    4.3216022   -2076.4795    6467.4036   -1177.7421     -11519.1   -1218.9877    312.64229   -7814.2534    80.711302 
   28900    707.52505   -108.41681   0.64018353   -107.77663   -6289.8995    4.3297369    4.3297369    4.3297369   -6289.8995   -7455.8087   -15978.053     4564.163    -9858.145   -684.08313    11410.293    81.167937 
   29000    720.98447     -108.431    0.6523619   -107.77864    6399.3162    4.3190715    4.3190715    4.3190715    6399.3162    8915.5311   -12253.432    22535.849     2588.649    731.33204   -19290.939    80.569594 
   29100    923.12437   -108.61291   0.83526233   -107.77765    5036.2983    4.3238997    4.3238997    4.3238997    5036.2983   -747.37557   -3760.0441    19616.314    671.15762   -4928.8466    1957.6978    80.840096 
   29200    683.46125   -108.39517    0.6184101   -107.77676   -4355.3782    4.3298246    4.3298246    4.3298246   -4355.3782   -13876.187   -5843.0635    6653.1162   -5121.3883    2661.8782    5172.5434    81.172871 
   29300    405.98796   -108.14657   0.36734644   -107.77923    5521.6555    4.3164228    4.3164228    4.3164228    5521.6555    7828.1694    1249.1564    7487.6407     1810.555    6943.6746   -28869.576    80.421456 
   29400    759.12925   -108.46736   0.68687609   -107.78049   -4587.0694    4.3268916    4.3268916    4.3268916   -4587.0694   -11546.568   -8135.4783    5920.8377   -3538.2012   -1913.0529    4517.6561    81.008023 
   29500    774.25661    -108.4834   0.70056366   -107.78284   -6180.4335    4.3257064    4.3257064    4.3257064   -6180.4335   -11830.511   -20500.802    13790.013   -7850.0621   -843.73068    680.73945    80.941474 
   29600    829.40573    -108.5315   0.75046373   -107.78103    7355.1579    4.3164257    4.3164257    4.3164257    7355.1579    11335.429   -4681.8848    15411.929     2915.449    5477.5862   -17878.463    80.421616 
   29700    796.20964   -108.49779   0.72042722   -107.77736   -6201.9639      4.33233      4.33233      4.33233   -6201.9639   -26372.571   -11041.323    18808.002   -3849.0362   -2932.2223    3209.4706    81.313861 
   29800    470.98691   -108.20575   0.42615885   -107.77959   -468.81557     4.317073     4.317073     4.317073   -468.81557    13746.029    2109.2351    -17261.71   -4911.9878    3293.4715   -13544.063    80.457805 
   29900    493.18281   -108.22709   0.44624217   -107.78085    4978.4416     4.323407     4.323407     4.323407    4978.4416    6446.6038   -970.99189     9459.713    7364.3487   -749.65521   -14726.279    80.812468 
   30000    885.72828   -108.57878   0.80142557   -107.77736   -4347.8363    4.3274104    4.3274104    4.3274104   -4347.8363   -13518.268   -8277.0833    8751.8426   -6223.5794   -2589.3581    10993.592    81.037168 
   30100    636.32353   -108.35549    0.5757589   -107.77973    13396.535    4.3195712    4.3195712    4.3195712    13396.535    13117.506   -11672.344    38744.442    -6710.738   -4586.2827   -15282.419    80.597562 
   30200    998.64295   -108.67709   0.90359313   -107.77349   -8324.7595    4.3295122    4.3295122    4.3295122   -8324.7595    -10104.83   -12871.303   -1998.1447    3417.5558    2625.6508   -6101.9865    81.155306 
   30300    622.90392   -108.33812   0.56361656    -107.7745    9227.4194    4.3180136    4.3180136    4.3180136    9227.4194   -10745.995    16885.113     21543.14   -7242.2702   -3912.9105    4005.3523    80.510404 
   30400    456.97233   -108.19337   0.41347817   -107.77989   -3316.8994    4.3261552    4.3261552    4.3261552   -3316.8994    12518.503   -6938.1378   -15531.063   -1271.0423    350.92965   -15041.851    80.966671 
   30500    734.33711   -108.43901   0.66444365   -107.77457    7217.9046    4.3262133    4.3262133    4.3262133    7217.9046   -5195.3729   -2001.9793    28851.066    5532.3939   -1452.8316    1402.0093    80.969935 
   30600    777.99505   -108.48123   0.70394627   -107.77729   -3777.9888    4.3206913    4.3206913    4.3206913   -3777.9888   -43.748819   -17032.931    5742.7134   -7069.7614   -5759.9172    -3898.448    80.660277 
   30700    730.98451   -108.44051   0.66141015    -107.7791   -1798.6389    4.3237797    4.3237797    4.3237797   -1798.6389    9438.5101    -11125.83   -3708.5969   -2158.5654    1843.2155   -21099.793    80.833369 
   30800    859.27237   -108.55228    0.7774877   -107.77479   -5320.0757    4.3267772    4.3267772    4.3267772   -5320.0757   -22430.825    3508.6541    2961.9438    1448.9946    827.82236    8996.3188    81.001597 
   30900    386.46304    -108.1291   0.34967988   -107.77942   -1363.8382    4.3228414    4.3228414    4.3228414   -1363.8382   -4475.5942   -2266.5775    2650.6571   -10581.665    1265.0202   -2098.0163    80.780754 
   31000    653.77471   -108.36874    0.5915491   -107.77719   -135.24669    4.3216129    4.3216129    4.3216129   -135.24669    5077.5399   -13354.943    7871.6631    6365.8923   -1091.4311   -12585.595    80.711901 
   31100     853.4402   -108.54859   0.77221063   -107.77638   -10895.636    4.3294217    4.3294217    4.3294217   -10895.636    -21291.51   -25181.912    13786.513    4574.2947     2208.361    1638.1865    81.150214 
   31200    747.13907   -108.45458   0.67602713   -107.77855    6329.4067    4.3150236    4.3150236    4.3150236    6329.4067     16664.43   -2210.4893    4534.2795    -10126.41   -1946.8337   -12582.155    80.343276 
   31300    662.11624   -108.37848   0.59909669   -107.77939    1592.7139    4.3289686    4.3289686    4.3289686    1592.7139   -12521.227   -5429.2363    22728.605    9770.4591      3426.96   -6462.5651    81.124739 
   31400     715.8308   -108.42428   0.64769876   -107.77658    2017.1256    4.3235639    4.3235639    4.3235639    2017.1256   -11381.984    7779.2034    9654.1577    675.08807    511.95952    10948.919    80.821264 
   31500    523.98788   -108.25085   0.47411525   -107.77673    13888.977     4.315811     4.315811     4.315811    13888.977    17855.267    2500.1728    21311.491   -7598.1315    -5213.797    -11263.32    80.387266 
   31600    847.08884   -108.54096   0.76646378   -107.77449   -24401.868    4.3343232    4.3343232    4.3343232   -24401.868    -20677.64   -32342.124   -20185.838    10798.838    482.99818   -8434.0249    81.426144 
   31700    791.96747   -108.48945   0.71658881   -107.77286     18483.75    4.3145874    4.3145874    4.3145874     18483.75    12829.102    16800.149    25821.999   -1610.5555   -1223.0462    2253.8695    80.318912 
   31800    731.33176   -108.43797   0.66172435   -107.77625   -8370.1756    4.3284366    4.3284366    4.3284366   -8370.1756   -8112.5694   -11712.146   -5285.8115   -4629.3113     1654.376   -17583.019    81.094834 
   31900    519.77166   -108.24756   0.47030032   -107.77726    7265.8039    4.3224542    4.3224542    4.3224542    7265.8039   -3277.5447     15817.63    9257.3263    6322.6542    7470.4593    1792.5483    80.759049 
   32000    704.36477   -108.41337   0.63732405   -107.77605    10849.623    4.3182564    4.3182564    4.3182564    10849.623    2076.8381    8648.4001    21823.632   -2304.8041    4356.8858     436.2032    80.523989 
   32100    750.06184   -108.45558   0.67867171   -107.77691   -20104.012    4.3318091    4.3318091    4.3318091   -20104.012   -5418.3154   -27900.135   -26993.586     996.7663   -745.97615   -14300.747    81.284533 
   32200    711.02043   -108.41977   0.64334623   -107.77643    14696.767    4.3121894    4.3121894    4.3121894    14696.767    12539.577    21251.932    10298.791    11457.102    4797.6665    -529.5372    80.185066 
   32300     859.3739   -108.55366   0.77757957   -107.77608    -9684.909    4.3318739    4.3318739    4.3318739    -9684.909   -23176.062   -14714.198    8835.5331   -7182.1904   -2587.3189    4413.1501    81.288183 
   32400    525.16404   -108.25386   0.47517946   -107.77868    12034.249    4.3175529    4.3175529    4.3175529    12034.249    16714.424     13833.33    5554.9934    5245.4812    1848.9891   -10123.731    80.484638 
   32500    570.14663   -108.29616   0.51588065   -107.78028    6104.7119     4.319379     4.319379     4.319379    6104.7119   -6735.4269    813.22107    24236.341     4754.142    9865.4179    2095.1637    80.586804 
   32600    821.04239   -108.51606   0.74289641   -107.77317   -14431.491    4.3336911    4.3336911    4.3336911   -14431.491   -8614.5017   -23462.666   -11217.305   -5723.3812   -3026.1895   -8496.2205    81.390526 
   32700    833.43854   -108.52589    0.7541127   -107.77177    8921.8513    4.3112393    4.3112393    4.3112393    8921.8513    23113.631    632.34633    3019.5767    6354.1342         3238   -14566.941    80.132078 
   32800    739.16501   -108.44516   0.66881203   -107.77635   -10045.281    4.3306782    4.3306782    4.3306782   -10045.281   -33847.713   -10226.546    13938.417    7242.3855    11023.634    3934.7159    81.220891 
   32900    665.25208    -108.3765   0.60193406   -107.77456    7261.4493    4.3218347    4.3218347    4.3218347    7261.4493   -939.51738    5054.0522    17669.813   -4776.9582   -3713.1989   -2402.4333    80.724329 
   33000    481.73857   -108.21411   0.43588718   -107.77823    3370.1865    4.3193704    4.3193704    4.3193704    3370.1865   -3785.3015    911.41173    12984.449      7536.63    4734.3314   -1594.5529    80.586326 
   33100    671.12911   -108.38279   0.60725172   -107.77554   -7541.0955    4.3273195    4.3273195    4.3273195   -7541.0955   -14740.167   -10324.092     2440.972    11220.988    10235.419    362.86925    81.032058 
   33200    927.30211   -108.61349   0.83904244   -107.77444   -4394.4404    4.3190545    4.3190545    4.3190545   -4394.4404    12437.176   -12416.127    -13204.37    -5267.485   -9007.9977   -8237.3489    80.568642 
   33300    657.66442   -108.37411   0.59506859   -107.77904   -12158.313    4.3263557    4.3263557    4.3263557   -12158.313   -20997.169   -13965.663   -1512.1069    18358.409    4951.9502   -5308.6442     80.97793 
   33400    735.51947   -108.44139   0.66551347   -107.77588    7504.1137    4.3166453    4.3166453    4.3166453    7504.1137   -17088.104    11409.744    28190.701    -252.6216    6517.9265    4002.4565    80.433895 
   33500    508.19485   -108.23961   0.45982538   -107.77978   -9725.4741    4.3295373    4.3295373    4.3295373   -9725.4741   -17247.979   -7161.8057   -4766.6376   -2393.4791   -2348.2423   -11072.157    81.156715 
   33600    546.32043   -108.27286    0.4943222   -107.77854   -5306.8042     4.322894     4.322894     4.322894   -5306.8042   -12622.473   -13324.493    10026.553    14749.598    7530.1511   -330.08745    80.783702 
   33700    1000.9688   -108.67915   0.90569757   -107.77346     1724.328    4.3162484    4.3162484    4.3162484     1724.328    4751.2654    2074.2982   -1652.5795   -741.51714    409.94921   -6535.8509    80.411707 
   33800    711.50265   -108.42198   0.64378255   -107.77819   -14542.756    4.3311522    4.3311522    4.3311522   -14542.756   -11554.473   -25659.546    -6414.248    8133.3513   -4196.8944    -9302.189    81.247564 
   33900    604.19552   -108.32569    0.5466888     -107.779    9526.4501    4.3155958    4.3155958    4.3155958    9526.4501   -17795.608    8090.1258    38284.833    12568.013    4501.9549    8545.9523    80.375241 
   34000    741.09648   -108.44717   0.67055967   -107.77661     5007.489     4.323179     4.323179     4.323179     5007.489   -14660.628    20163.966    9519.1294   -1473.6077    -4723.723    834.23299     80.79968 
   34100    472.65881   -108.20783   0.42767162   -107.78016   -4448.8859     4.327731     4.327731     4.327731   -4448.8859   -12677.666   -11465.308    10796.317    4910.6823   -2236.1469   -11140.617    81.055183 
   34200    853.95822   -108.54902   0.77267934   -107.77634    4181.3537     4.316505     4.316505     4.316505    4181.3537    8493.7458   -358.66498    4408.9804    11645.331    686.92516    3212.3625    80.426052 
   34300    971.18537   -108.65284   0.87874893   -107.77409    3634.6753    4.3262143    4.3262143    4.3262143    3634.6753    3911.8406   -9689.8102    16681.996    -4409.864   -6079.9836   -7107.7632    80.969988 
   34400    490.22394   -108.22376   0.44356492    -107.7802    -2660.444    4.3243004    4.3243004    4.3243004    -2660.444   -15394.213   -4850.0833    12262.965    11212.673    2804.1426   -4632.5208    80.862576 
   34500     598.4846   -108.31973   0.54152144   -107.77821     8265.705    4.3174778    4.3174778    4.3174778     8265.705   -8248.7604    12669.623    20376.253    6856.0055    6008.6944    7764.5932    80.480442 
   34600     802.5605   -108.50382   0.72617361   -107.77765    3565.7064    4.3236742    4.3236742    4.3236742    3565.7064   -6399.2972    13350.081    3746.3349   -5122.7659   -6169.0281   -8668.6772    80.827449 
   34700    592.12182   -108.31812   0.53576426   -107.78236   -6754.3531    4.3250834    4.3250834    4.3250834   -6754.3531    11547.013   -24186.285   -7623.7872    15380.063    755.92167    -10136.58    80.906509 
   34800    910.73684   -108.60134   0.82405383   -107.77729    4618.4167    4.3207076    4.3207076    4.3207076    4618.4167    9854.6751   -14805.301    18805.876    1124.2875   -2912.7314    6088.2509     80.66119 
   34900     774.9041   -108.47731   0.70114951   -107.77616    6164.2762    4.3246723    4.3246723    4.3246723    6164.2762    4368.9146    8792.9729    5330.9412    247.70727    -10036.92    -2338.238    80.883443 
   35000    319.55036   -108.06857   0.28913588   -107.77944   -2597.5927    4.3249205    4.3249205    4.3249205   -2597.5927   -7358.1889   -3056.3418    2621.7526    16597.585    4208.3255    90.415651    80.897366 
   35100    750.85999   -108.45394    0.6793939   -107.77454     3059.419    4.3187573    4.3187573    4.3187573     3059.419   -14457.832    17029.652    6606.4367   -10290.396   -3109.5812    7762.9994    80.552011 
   35200     861.6382   -108.55644   0.77962835   -107.77681   -101.12675    4.3233757    4.3233757    4.3233757   -101.12675    18188.114   -13462.828   -5028.6658    2135.5605   -890.09901   -10503.298    80.810712 
   35300    755.40021   -108.46453   0.68350199   -107.78103   -11312.124    4.3236227    4.3236227    4.3236227   -11312.124    1670.4241   -29631.347   -5975.4474    22097.298    4083.0698   -1811.2147    80.824561 
   35400    736.76904   -108.44521   0.66664411   -107.77856    7936.5988    4.3198396    4.3198396    4.3198396    7936.5988    7036.4746    4806.1678    11967.154   -13957.791    3272.7533    4483.0862    80.612587 
   35500       584.12   -108.30616   0.52852405   -107.77764   -367.61573     4.323981     4.323981     4.323981   -367.61573   -7480.6867    3112.8861    3264.9534    5900.1889   -3303.2962   -2011.0832    80.844659 
   35600    453.45104   -108.18999   0.41029203    -107.7797   -5617.4943    4.3219738    4.3219738    4.3219738   -5617.4943   -17933.936   -4171.7096    5253.1624    11903.093    6068.4444   -720.87064    80.732125 
   35700     849.9613    -108.5464   0.76906285   -107.77733   -4892.6536    4.3239484    4.3239484    4.3239484   -4892.6536    -3301.313   -14260.777    2884.1288   -21870.436   -915.81203    2366.4246    80.842831 
   35800    935.21436   -108.62274   0.84620161   -107.77654   -2367.6461    4.3218275    4.3218275    4.3218275   -2367.6461    6780.5381   -11275.677    -2607.799    12709.949   -5561.2217   -5559.1365    80.723929 
   35900    625.26262   -108.34523   0.56575076   -107.77948   -1550.3724    4.3214922    4.3214922    4.3214922   -1550.3724   -1903.9159    -3452.818    705.61664    6490.2496    2517.7975   -2283.1501    80.705143 
   36000    583.13325   -108.30466   0.52763122   -107.77703    1022.7373    4.3245218    4.3245218    4.3245218    1022.7373   -11245.577    11621.345     2692.443   -20617.669   -6124.8449    5814.4992    80.874999 
   36100    691.46975   -108.40115   0.62565636   -107.77549   -2811.2919    4.3215093    4.3215093    4.3215093   -2811.2919   -13401.912    1416.4936    3551.5423    15686.059    912.32506   -12.571995    80.706098 
   36200    648.67117   -108.36686   0.58693131   -107.77993     -7315.76    4.3232084    4.3232084    4.3232084     -7315.76   -15774.365   -19434.886     13261.97   -2415.7222    1497.2218    1258.6463    80.801329 
   36300    845.38508   -108.54367   0.76492218   -107.77875    585.74044    4.3231044    4.3231044    4.3231044    585.74044    4868.1809   -902.88697   -2208.0726   -14557.179   -3522.9991    895.88688    80.795498 
   36400    823.85199   -108.52228    0.7454386   -107.77684    4011.0533    4.3201372    4.3201372    4.3201372    4011.0533   -1346.7932    5439.3182     7940.635    12406.219     3233.343   -5149.7273    80.629251 
   36500    387.41108    -108.1323   0.35053768   -107.78176    444.97616    4.3233981    4.3233981    4.3233981    444.97616   -55.245652   -6521.2869    7911.4611   -13739.239    -6763.081   -332.37476    80.811968 
   36600    705.17209   -108.41503   0.63805452   -107.77697   -5930.7368    4.3248182    4.3248182    4.3248182   -5930.7368   -8984.9419   -6579.5256    -2227.743   -9670.9121    1139.1742    6592.8381    80.891629 
   36700    868.41336   -108.56101   0.78575866   -107.77525   -2026.2713    4.3219887    4.3219887    4.3219887   -2026.2713   -7890.3154   -9299.1363    11110.638    14177.806    1076.6597   -1420.4737    80.732962 
   36800    672.18859   -108.38877   0.60821036   -107.78056   -3494.3317    4.3197007    4.3197007    4.3197007   -3494.3317   -1327.6173   -10551.969    1396.5911   -14493.404   -3234.4238    605.89306    80.604811 
   36900    776.20134   -108.47984   0.70232328   -107.77751    132.68339    4.3268918    4.3268918    4.3268918    132.68339    11177.094    -1945.288   -8833.7558   -2419.3817    97.392249    6230.2167    81.008037 
   37000    643.34031   -108.35761   0.58210784   -107.77551    3043.0856    4.3217976    4.3217976    4.3217976    3043.0856    11175.715   -2956.6167    910.15898    877.20654   -2117.0727   -8510.5639    80.722254 
   37100    374.06552   -108.11916   0.33846235    -107.7807    3315.9129     4.317865     4.317865     4.317865    3315.9129    15768.784   -17699.275     11878.23   -20323.321   -3154.6231    5101.5616    80.502096 
   37200    922.77742   -108.61182    0.8349484   -107.77687   -5909.2087    4.3288493    4.3288493    4.3288493   -5909.2087    4444.2428   -18631.643   -3540.2255    4289.3946   -1326.0416    7866.0454    81.118032 
   37300    971.65054   -108.65593   0.87916983   -107.77676    7611.1574    4.3177092    4.3177092    4.3177092    7611.1574    11446.636   -4435.2498    15822.086   -6502.7077    4842.8052   -3885.2766    80.493379 
   37400    435.88974   -108.17845    0.3944022   -107.78405   -4563.8419    4.3224525    4.3224525    4.3224525   -4563.8419    23720.575    -23669.65    -13742.45   -16601.272   -4834.7177    7950.1321    80.758953 
   37500     730.8704   -108.43933    0.6613069   -107.77803   -925.96216    4.3256081    4.3256081    4.3256081   -925.96216    15220.762   -58.937153   -17939.712    2574.9859   -4078.3279    728.12108    80.935958 
   37600    626.76487   -108.34585   0.56711003   -107.77874    11186.145     4.317952     4.317952     4.317952    11186.145    16844.814   -1103.2733    17816.895   -14857.712   -836.97979   -2979.6776    80.506962 
   37700    553.36063   -108.28362   0.50069232   -107.78293    -13458.82    4.3268127    4.3268127    4.3268127    -13458.82   -14062.906   -35246.413     8932.859   -8984.3107   -6990.4747    9186.9852    81.003595 
   37800     1111.055   -108.77993    1.0053059   -107.77463    4991.0349     4.322243     4.322243     4.322243    4991.0349    202.99555   -1312.5061    16082.615    7821.9566    6455.3893    7507.0739    80.747211 
   37900    783.97618    -108.4867   0.70935813   -107.77734   -5668.2004    4.3224098    4.3224098    4.3224098   -5668.2004   -2826.6731   -17640.094    3462.1655   -15409.383    2171.8849    1914.2314    80.756559 
   38000    323.30221   -108.07438   0.29253063   -107.78185   -5241.3432    4.3215912    4.3215912    4.3215912   -5241.3432    7335.8827   -13701.729   -9358.1829   -6868.8225   -2917.0923    9826.8373    80.710688 
   38100    710.70933   -108.42001   0.64306474   -107.77695    7905.3012    4.3253533    4.3253533    4.3253533    7905.3012    8410.8197    1.2454554    15303.839    1847.0776   -5834.2054   -4691.0941    80.921656 
   38200    756.00056   -108.46272   0.68404519   -107.77867     10727.79    4.3196967    4.3196967    4.3196967     10727.79    11108.255   -5826.2355     26901.35   -18342.958   -1448.7249    2696.5028     80.60459 
   38300    674.19515   -108.39238   0.61002594   -107.78236   -1955.8937    4.3240808    4.3240808    4.3240808   -1955.8937    1295.0289   -18756.835    11594.125    2023.6466   -6498.4209    10340.888    80.850255 
   38400    995.49728   -108.67467   0.90074686   -107.77393   -1400.3073    4.3247429    4.3247429    4.3247429   -1400.3073   -5794.6327   -6381.9461    7975.6568    7144.4001   -13.863432   -3638.6667      80.8874 
   38500    554.09235   -108.27709   0.50135441   -107.77574    1192.8368     4.317796     4.317796     4.317796    1192.8368    1220.7375   -4743.1666    7100.9395   -10764.285    1447.5754    8826.0073    80.498238 
   38600    386.62845   -108.12951   0.34982954   -107.77968   -16321.884    4.3284867    4.3284867    4.3284867   -16321.884   -9348.7698   -17239.547   -22377.334    4428.2297   -9781.2413    5577.5493    81.097648 
   38700    939.22326   -108.62386   0.84982895   -107.77403     14414.48    4.3173099    4.3173099    4.3173099     14414.48    14693.013    5869.2866     22681.14    2269.3326    4.3303574    -6602.109    80.471049 
   38800    774.71874   -108.47969   0.70098179   -107.77871    3167.3312    4.3238382    4.3238382    4.3238382    3167.3312    19686.756   -16643.545    6458.7819   -10763.302   -3376.3519    14517.457     80.83665 
   38900    639.67519   -108.35795   0.57879155   -107.77915    -6001.972    4.3262541    4.3262541    4.3262541    -6001.972    6086.2873   -17806.523   -6285.6802    8549.0166    1305.9732    3200.7151    80.972227 
   39000    787.16205   -108.48564   0.71224077   -107.77339     8589.064    4.3158812    4.3158812    4.3158812     8589.064    10464.709    1146.9978    14155.485    9150.8056    15.543832    392.37907    80.391187 
   39100    493.36735   -108.22453   0.44640915   -107.77812   -19996.807    4.3301415    4.3301415    4.3301415   -19996.807   -2629.9313   -20925.676   -36434.813   -5533.3408   -2837.2625    14300.216    81.190698 
   39200    674.87583   -108.38809   0.61064184   -107.77745    676.78752    4.3192807    4.3192807    4.3192807    676.78752    14022.167   -11170.317   -821.48767    10235.751   -5159.7944   -5114.5503    80.581303 
   39300    899.19202   -108.58837   0.81360783   -107.77476      10626.6    4.3214223    4.3214223    4.3214223      10626.6    20649.277   -7974.3552    19204.876    3099.1918   -1658.4306    7682.1041    80.701227 
   39400     739.6801   -108.44734    0.6692781   -107.77806     673.6047    4.3231993    4.3231993    4.3231993     673.6047    31259.205   -21012.964   -8225.4272   -3284.8471     3768.485    12610.152    80.800819 
   39500    594.88904   -108.31693    0.5382681   -107.77866    657.97505    4.3211684    4.3211684    4.3211684    657.97505   -1311.8991   -10813.454    14099.278    16727.121    1002.3823   -9782.1085    80.687001 
   39600    627.44368   -108.34419   0.56772423   -107.77647   -14446.616    4.3256003    4.3256003    4.3256003   -14446.616    1461.4112    -19633.22   -25168.039    6556.5724    224.18753    10756.052    80.935522 
   39700    673.84198   -108.38648   0.60970639   -107.77677     -3773.15    4.3184577    4.3184577    4.3184577     -3773.15     19643.29   -13485.937   -17476.803   -4170.8171   -4990.6349    6879.8182    80.535247 
   39800    688.92798   -108.40171   0.62335652   -107.77835   -3562.3895    4.3263594    4.3263594    4.3263594   -3562.3895   -1233.4715    -20072.07    10618.373    15548.373   -1440.4756   -8930.3052     80.97814 
   39900    895.21993   -108.58629    0.8100138   -107.77628    1129.4653    4.3201956    4.3201956    4.3201956    1129.4653    28194.515   -21006.522   -3799.5979    794.37563   -3269.2162    23903.791    80.632521 
   40000    704.00559   -108.41448   0.63699905   -107.77748    3455.5117    4.3209725    4.3209725    4.3209725    3455.5117    4750.3911   -5784.1426    11400.287    8761.8958    515.34494   -2270.7867    80.676028 
   40100    512.42823   -108.24205   0.46365583    -107.7784   -18181.456    4.3266486    4.3266486    4.3266486   -18181.456   -20043.905   -20777.424   -13723.041    18617.917   -2911.0884   -2698.0755    80.994379 
   40200    649.59694   -108.36273   0.58776896   -107.77496   -237.27961     4.315183     4.315183     4.315183   -237.27961    20139.815     765.5405   -21617.195   -4006.7661   -1417.6202     19095.07    80.352179 
   40300    753.16692   -108.45829   0.68148125   -107.77681   -5977.0159    4.3257055    4.3257055    4.3257055   -5977.0159   -822.04173   -17374.277    265.27113    5212.6467    108.35063    -10262.12    80.941428 
   40400    737.01739   -108.44612   0.66686882   -107.77925   -3095.8114    4.3234647    4.3234647    4.3234647   -3095.8114     2942.541   -20294.981    8065.0059    10212.325   -30.361966    2246.6717    80.815704 
   40500    834.53592   -108.53061   0.75510564    -107.7755    13322.457    4.3172621    4.3172621    4.3172621    13322.457    25151.177    10641.688    4174.5071   -282.81382    6555.4401    11079.993    80.468378 
   40600    641.13057   -108.35725   0.58010841   -107.77714    320.27329     4.325361     4.325361     4.325361    320.27329   -2898.5986   -2215.6344    6075.0528    12202.228   -1800.7268   -11982.863    80.922088 
   40700    434.73616   -108.17142   0.39335842   -107.77806   -2038.0194     4.322468     4.322468     4.322468   -2038.0194    5291.5585    6477.7062   -17883.323     9548.923   -1920.0287    6558.2073    80.759822 
   40800    827.48862     -108.522    0.7487291   -107.77327   -3610.8039    4.3209538    4.3209538    4.3209538   -3610.8039    13458.542   -12015.456   -12275.498    -5148.132   -918.31823    12178.802    80.674981 
   40900    773.57091   -108.47556   0.69994322   -107.77561    228.29608    4.3228896    4.3228896    4.3228896    228.29608   -5951.5255   -2808.6163      9445.03     7109.054   -7245.1375   -8954.9507    80.783458 
   41000    789.58004   -108.49077   0.71442862   -107.77635   -315.80798    4.3241532    4.3241532    4.3241532   -315.80798    13818.003   -10554.311   -4211.1157    5499.8768   -6146.1429    11519.363    80.854316 
   41100    805.70033   -108.50394   0.72901459   -107.77493    11620.775    4.3201124    4.3201124    4.3201124    11620.775    11075.362    11540.787    12246.175   -2071.0874    6923.3627   -3630.7795    80.627859 
   41200    551.16986   -108.27712   0.49871008   -107.77841    8287.7631    4.3194373    4.3194373    4.3194373    8287.7631    24718.429    1689.6185   -1544.7579    12783.459    142.40925   -11225.876    80.590066 
   41300    553.22111   -108.27877   0.50056608   -107.77821   -8090.1426    4.3257143    4.3257143    4.3257143   -8090.1426    8557.5178   -17597.287   -15230.659    130.67442   -1673.4458    9455.0792    80.941919 
   41400    756.71418    -108.4611   0.68469089   -107.77641    4924.2279    4.3175182    4.3175182    4.3175182    4924.2279    15502.696    464.08695   -1194.0997   -419.12913    12094.659   -3996.7384    80.482698 
   41500    813.73159   -108.51435   0.73628144   -107.77807   -696.00343    4.3212541    4.3212541    4.3212541   -696.00343    11254.568   -21641.065    8298.4876      11286.8    -9375.318   -4102.0427    80.691805 
   41600    737.93344   -108.44696   0.66769769   -107.77927   -7135.1556    4.3269913    4.3269913    4.3269913   -7135.1556   -10400.904   -11109.838    105.27493   -303.10489   -2977.8572    9843.0884    81.013625 
   41700     713.2605   -108.42228   0.64537309   -107.77691    11614.747    4.3142212    4.3142212    4.3142212    11614.747    29933.636    9302.7992   -4392.1953    5718.8554    10924.516   -10931.903    80.298464 
   41800    624.51847   -108.34272   0.56507744   -107.77764   -7306.2939    4.3247405    4.3247405    4.3247405   -7306.2939   -1081.2711   -7985.9945   -12851.616     8187.927   -6012.8675   -1128.0416    80.887268 
   41900    483.23351   -108.21461   0.43723983   -107.77737   -11080.471    4.3254701    4.3254701    4.3254701   -11080.471    2914.4138   -12089.693   -24066.134    370.16554   -81.317319    11006.406     80.92821 
   42000    815.24348   -108.51159   0.73764943   -107.77394     3525.339    4.3150952    4.3150952    4.3150952     3525.339    12996.674   -3808.1659     1387.509   -2181.7095    9655.8926   -11928.914    80.347274 
   42100    834.34236   -108.53045    0.7549305   -107.77552   -12387.377     4.327113     4.327113     4.327113   -12387.377   -10135.372   -27573.543    546.78453    3974.5189   -8478.3672    8571.8979    81.020463 
   42200    642.87885   -108.36087   0.58169029   -107.77918   -3248.8831     4.320476     4.320476     4.320476   -3248.8831    4861.8095    2053.2112    -16661.67    4.0860315    3084.4419   -1572.3849    80.648222 
   42300      842.148   -108.53765   0.76199321   -107.77566    9403.3188    4.3181336    4.3181336    4.3181336    9403.3188    19972.606    10982.547   -2745.1969   -1158.6316    7652.7637   -12052.805     80.51712 
   42400    598.49655   -108.32049   0.54153225   -107.77896   -5164.3779    4.3246293    4.3246293    4.3246293   -5164.3779    6145.7061    593.54303   -22232.383    10119.006   -11417.529    7566.5177    80.881027 
   42500    484.57401   -108.21909   0.43845275   -107.78063     390.6315    4.3200213    4.3200213    4.3200213     390.6315    10923.376    9871.6783    -19623.16   -3404.5144    5983.4484    83.113167    80.622763 
   42600    905.79515   -108.59525   0.81958249   -107.77566    1480.8056    4.3204828    4.3204828    4.3204828    1480.8056    5847.1569   -14946.119    13541.379    561.80772    1573.3464  -0.78095265    80.648604 
   42700     631.1097   -108.35218   0.57104132   -107.78114    -4498.789    4.3224526    4.3224526    4.3224526    -4498.789    9608.1417   -9793.5997   -13310.909     746.1742   -7722.2082    8045.3717     80.75896 
   42800     695.0233   -108.40984   0.62887169   -107.78097    518.72491     4.321632     4.321632     4.321632    518.72491    2544.1475    10537.277    -11525.25    4013.1895    12138.463   -2155.7739    80.712971 
   42900    877.02576    -108.5686   0.79355134   -107.77505    9677.4413    4.3183589    4.3183589    4.3183589    9677.4413    10535.495    25073.674   -6576.8454   -6644.3915   -3530.3839   -3790.6131     80.52972 
   43000    598.61424   -108.32253   0.54163874   -107.78089   -11315.735    4.3234751    4.3234751    4.3234751   -11315.735   -3377.7989    3329.4749    -33898.88     19.43733   -6564.3455    8373.8407    80.816287 
   43100    651.62306   -108.36797   0.58960224   -107.77837    -3332.955    4.3213937    4.3213937    4.3213937    -3332.955   -7865.3826   -4610.3117    2476.8294    -8540.724    8061.8998    9.2156483    80.699624 
   43200    793.44501   -108.49346   0.71792572   -107.77553   -6267.9517    4.3189827    4.3189827    4.3189827   -6267.9517    1139.1542   -22812.578    2869.5682   -7568.4327   -8864.4504    5367.1431    80.564627 
   43300    450.77709   -108.18879   0.40787258   -107.78092   -3494.8713      4.32399      4.32399      4.32399   -3494.8713   -5263.2511    14568.022   -19789.384    4905.6473   -1371.5045    4059.2677    80.845161 
   43400    833.39757   -108.53004   0.75407564   -107.77597    5911.5848    4.3200243    4.3200243    4.3200243    5911.5848    709.16573    18963.226   -1937.6372   -2093.8391    10145.906   -2480.8658    80.622927 
   43500    757.22782   -108.46219   0.68515564   -107.77703   -3534.8849    4.3232367    4.3232367    4.3232367   -3534.8849   -4582.4149    17426.251   -23448.491    2136.4054   -12202.944    4814.4938    80.802915 
   43600    686.87079   -108.39879   0.62149512   -107.77729   -4644.8108    4.3202068    4.3202068    4.3202068   -4644.8108   -3083.0985    5567.2499   -16418.584   -269.51594    3435.3371    4606.5133    80.633146 
   43700    787.28594   -108.48628   0.71235287   -107.77393   -4965.0976    4.3222433    4.3222433    4.3222433   -4965.0976   -6807.8523     -13497.1    5409.6597   -10576.349    4454.8166   -2225.4892    80.747228 
   43800    486.07129    -108.2191   0.43980752   -107.77929   -5939.7439    4.3199951    4.3199951    4.3199951   -5939.7439   -5370.0363   -861.25863   -11587.937   -3201.9345   -13639.772     3936.645    80.621292 
   43900    611.91035   -108.33427   0.55366934    -107.7806    10472.973     4.316724     4.316724     4.316724    10472.973    6395.0553    28046.498   -3022.6335    678.13428    12480.996    2893.1805    80.438291 
   44000    887.42271   -108.57921   0.80295871   -107.77625   -5344.4707    4.3295126    4.3295126    4.3295126   -5344.4707   -8940.0789    5359.5121   -12452.845    -8852.473   -2830.8526    -4337.528    81.155327 
   44100    674.46596   -108.38954   0.61027097   -107.77926    1971.8319    4.3151404    4.3151404    4.3151404    1971.8319    5708.5139     18001.03   -17794.048   -315.06044    -6880.706     8721.671    80.349798 
   44200    857.15602    -108.5522   0.77557278   -107.77663    2683.7859    4.3205658    4.3205658    4.3205658    2683.7859    1400.4104    11008.537   -4357.5892   -2140.2703    9893.0139    4755.2935    80.653252 
   44300      705.156   -108.41434   0.63803997    -107.7763   -9171.7323    4.3268062    4.3268062    4.3268062   -9171.7323   -9578.2739   -11088.141   -6848.7821   -6423.1079   -10274.439   -8645.9813    81.003227 
   44400    390.78226   -108.13285     0.353588   -107.77926    5521.6705    4.3125354    4.3125354    4.3125354    5521.6705      11958.4    3280.7772    1325.8343    2709.1371   -1137.7146    4525.1532    80.204367 
   44500    835.36237   -108.53131   0.75585343   -107.77546    -2923.931    4.3261858    4.3261858    4.3261858    -2923.931   -502.75522     3597.655   -11866.693   -47.463223    6076.1994    4187.9293    80.968392 
   44600    721.40006   -108.43116   0.65273793   -107.77842    2732.3399    4.3182475    4.3182475    4.3182475    2732.3399    6138.4013    8100.3336   -6041.7153   -6132.1619   -8077.9314   -7981.9607    80.523489 
   44700    689.71623   -108.40572   0.62406974   -107.78165    995.31039    4.3185277    4.3185277    4.3185277    995.31039    932.66559     17340.23   -15286.964    1331.9077   -199.91785    7699.1405    80.539165 
   44800    956.96128   -108.64013   0.86587867   -107.77425   -7719.1427    4.3258714    4.3258714    4.3258714   -7719.1427   -5909.2535    -18313.65    1065.4754     4318.353    3782.1594    4527.1355    80.950736 
   44900    495.79503   -108.22738   0.44860576   -107.77877   -766.94233    4.3151608    4.3151608    4.3151608   -766.94233    5012.0201   -8930.1674    1617.3203   -4408.5248   -7875.4548   -6028.6649    80.350938 
   45000    534.18559   -108.26262   0.48334235   -107.77928   -8656.4515    4.3243387    4.3243387    4.3243387   -8656.4515   -5082.1633   -3991.3533   -16895.838    2477.5616    5765.3613    11008.228    80.864722 
   45100    769.96811   -108.47244   0.69668332   -107.77575    5400.1943    4.3168023    4.3168023    4.3168023    5400.1943    3131.7754    4454.2423    8614.5652    3987.2955   -226.79911   -2548.3019    80.442669 
   45200    656.30122   -108.37561   0.59383513   -107.78178   -8067.8237    4.3236517    4.3236517    4.3236517   -8067.8237    2526.5307    4235.2821   -30965.284   -5957.0494   -6147.5537    -2938.175    80.826192 
   45300    901.27742    -108.5929   0.81549475    -107.7774   -4707.0307    4.3215519    4.3215519    4.3215519   -4707.0307   -119.65161   -11328.935   -2672.5054    12296.234    1747.7768     2839.019    80.708484 
   45400    741.89735    -108.4483   0.67128431   -107.77701    5511.7452    4.3147908    4.3147908    4.3147908    5511.7452    7013.2675    1712.0548    7809.9133     12626.04   -8239.5962   -4511.3548    80.330273 
   45500    455.95559   -108.19026    0.4125582   -107.77771   -17656.289    4.3308601    4.3308601    4.3308601   -17656.289   -6396.7679   -17511.196   -29060.902    -5544.801   -5340.7439   -421.72914    81.231125 
   45600    688.02128   -108.39597   0.62253612   -107.77343    13024.378    4.3077574    4.3077574    4.3077574    13024.378    11802.399    8714.8544    18555.882    12230.213    3857.6848    3511.7661    79.938082 
   45700    713.61105   -108.42735   0.64569028   -107.78166   -10279.804    4.3260255    4.3260255    4.3260255   -10279.804   -796.16312   -9987.9095    -20055.34    3511.0228   -3475.1003   -9724.8269    80.959391 
   45800    814.77161   -108.51673   0.73722248   -107.77951   -5370.2192    4.3255353    4.3255353    4.3255353   -5370.2192     8328.398    4340.3961   -28779.452   -3220.6478    -2979.849   -3806.7295    80.931869 
   45900    872.12033    -108.5612    0.7891128   -107.77209    19672.217    4.3053552    4.3053552    4.3053552    19672.217    16442.854    17879.266    24694.532    22509.187    4777.2715    2698.8083    79.804423 
   46000    471.02565   -108.20238    0.4261939   -107.77618   -16729.699    4.3341156    4.3341156    4.3341156   -16729.699   -6775.9328   -13598.714    -29814.45    2122.9356   -7645.9919   -15637.487    81.414446 
   46100    682.57066   -108.39171   0.61760427   -107.77411    2793.7087     4.312304     4.312304     4.312304    2793.7087    18076.816   -9472.7155   -222.97422   -2066.8702   -2527.0771    5604.9113    80.191459 
   46200    631.54029   -108.34915   0.57143092   -107.77772    31.903963    4.3175874    4.3175874    4.3175874    31.903963   -826.53737   -4829.6859    5751.9351    22152.265    532.00528   -4712.5837    80.486571 
   46300    742.48792   -108.44898   0.67181868   -107.77716   -11441.786    4.3291786    4.3291786    4.3291786   -11441.786    2609.1175    416.44841   -37350.923    572.97058   -8356.1718   -12384.049    81.136547 
   46400    894.31762   -108.58175   0.80919737   -107.77255    21213.413    4.3092755    4.3092755    4.3092755    21213.413    17219.117    37796.415    8624.7062    6001.1764   -2231.7828    5829.1849     80.02262 
   46500    696.64683   -108.40776   0.63034069   -107.77742   -8893.1683     4.326819     4.326819     4.326819   -8893.1683   -4657.8222   -19402.414   -2619.2684    17218.086   -1605.2089   -6478.9144    81.003946 
   46600    555.79316   -108.27955   0.50289333   -107.77666    -3377.816    4.3195377    4.3195377    4.3195377    -3377.816    16629.334   -8617.3764   -18145.406   -5661.4142   -6590.5883   -5490.9272     80.59569 
   46700    661.83025   -108.37353   0.59883792   -107.77469    1604.3391     4.316071     4.316071     4.316071    1604.3391    899.23926   -11865.107    15778.886     8634.318    397.89462    3107.4695    80.401793 
   46800    606.27286   -108.32588   0.54856843   -107.77731   -2346.5031    4.3249874    4.3249874    4.3249874   -2346.5031    335.49751    7476.5569   -14851.564    14468.988   -856.41952   -8452.2307     80.90112 
   46900    908.74806   -108.59883   0.82225434   -107.77657    520.07201    4.3180433    4.3180433    4.3180433    520.07201    5206.2122    12765.094    -16411.09    -1329.862   -3337.2772   -7265.5799    80.512066 
   47000    874.58711   -108.56741    0.7913448   -107.77607    8538.0882    4.3171659    4.3171659    4.3171659    8538.0882    3526.2045    4916.9735    17171.087    15506.109    3152.7357    7423.0644    80.462998 
   47100    567.78178   -108.29323   0.51374088   -107.77949   -12801.559    4.3227604    4.3227604    4.3227604   -12801.559   -411.17291   -21056.857   -16936.648    4101.8722   -4094.5339   -15900.838    80.776212 
   47200    454.95397   -108.19082   0.41165191   -107.77917   -4255.1223    4.3198619    4.3198619    4.3198619   -4255.1223   -3590.8591   -8599.8071   -574.70074   -2027.1884   -3186.3423   -2933.8628    80.613836 
   47300    792.49688   -108.49253   0.71706783   -107.77546    781.15753     4.317532     4.317532     4.317532    781.15753    433.63083   -6481.7572     8391.599    16018.546   -88.114273    1071.0686    80.483469 
   47400    654.64328   -108.37313     0.592335    -107.7808   -8152.6157    4.3221076    4.3221076    4.3221076   -8152.6157     1530.135   -1760.5779   -24227.404    574.54549   -4817.2042   -17744.353    80.739623 
   47500     887.8993   -108.58103   0.80338995   -107.77764    2819.3519    4.3191685    4.3191685    4.3191685    2819.3519    1883.5051    4092.7609    2481.7898   -1551.7674   -4177.3133    2428.6482    80.575026 
   47600    817.71322     -108.516   0.73988411   -107.77611    2488.7116    4.3201654    4.3201654    4.3201654    2488.7116    3860.7943    5286.9527   -1681.6122    7994.5259    1079.3719   -2916.2609    80.630828 
   47700    355.10807   -108.10289   0.32130924   -107.78158   -7431.7078    4.3187793    4.3187793    4.3187793   -7431.7078   -1871.4248   -13916.093   -6507.6057   -1970.4513   -6744.2984   -11985.695    80.553242 
   47800    688.97959     -108.401   0.62340321    -107.7776   -359.63023    4.3210511    4.3210511    4.3210511   -359.63023    1980.8924   -7789.4464    4729.6634   -3289.2498   -505.88618   -318.39272    80.680433 
   47900    824.72979   -108.52336   0.74623284   -107.77712    850.78666    4.3204562    4.3204562    4.3204562    850.78666    9575.2819    389.10525   -7412.0272    8256.0003    3632.8527    -4869.051    80.647113 
   48000    641.87682   -108.36176   0.58078364   -107.78098    8321.5538    4.3155173    4.3155173    4.3155173    8321.5538    7884.1555    22629.273   -5548.7675   -6913.8147   -3604.8923   -13674.725    80.370857 
   48100    931.30213   -108.61919   0.84266174   -107.77652     464.6837    4.3252489    4.3252489    4.3252489     464.6837   -3938.1524    10014.788   -4682.5844    -7834.876    2751.9106    5318.2056    80.915794 
   48200    621.82395   -108.34207   0.56263938   -107.77943    6770.6728    4.3140211    4.3140211    4.3140211    6770.6728    15937.193    509.51695    3865.3083    5798.9971    -3018.573   -11717.497    80.287291 
   48300    475.31946   -108.21225   0.43007904   -107.78217   -4160.3647    4.3225573    4.3225573    4.3225573   -4160.3647    -51.73832    -3702.515   -8726.8408   -3138.8311    -3347.241   -7395.2214    80.764827 
   48400    847.78879   -108.54311   0.76709711   -107.77601   -3824.7905     4.324157     4.324157     4.324157   -3824.7905   -1932.9112   -9751.3921    209.93182   -12632.657   -2632.5362    3691.5465    80.854529 
   48500    673.11707   -108.38569   0.60905047   -107.77664    19449.965    4.3088169    4.3088169    4.3088169    19449.965    28466.986     27711.92    2170.9885    4789.9793    157.41282   -11975.627    79.997078 
   48600    767.84754   -108.47262   0.69476459   -107.77786   -12553.661     4.330621     4.330621     4.330621   -12553.661   -18195.706    3382.4273   -22847.705    -11047.93   -2288.0742   -59.721854    81.217669 
   48700    767.37504    -108.4695   0.69433706   -107.77516    11050.092    4.3140159    4.3140159    4.3140159    11050.092    11750.317    4994.7128    16405.247   -10771.007    496.00563   -2093.6656    80.286997 
   48800    602.37896   -108.32309   0.54504514   -107.77804   -5376.6591    4.3171166    4.3171166    4.3171166   -5376.6591    7803.5757   -13811.149   -10122.404    8478.4504   -1411.5222   -10779.388    80.460242 
   48900    594.42666   -108.31429   0.53784973   -107.77644   -8572.6416    4.3266648    4.3266648    4.3266648   -8572.6416   -12259.046   -8131.7005   -5327.1781   -14033.951   -541.63016   -978.55359    80.995288 
   49000    754.03073   -108.45691   0.68226285   -107.77465    11381.923    4.3125857    4.3125857    4.3125857    11381.923    24371.344   -2551.5805    12326.007   -12107.788    1741.7217   -82.745553    80.207176 
   49100    712.36532   -108.42198   0.64456311   -107.77742   -7322.6648    4.3253535    4.3253535    4.3253535   -7322.6648    5323.4789    592.22892   -27883.702    1589.7874   -1393.7988   -14005.506    80.921666 
   49200    863.85238   -108.55642   0.78163178   -107.77478    7003.2035    4.3157543    4.3157543    4.3157543    7003.2035    5114.3302    620.35451    15274.926   -9762.7033    1522.6217    3073.3428    80.384099 
   49300     586.8087   -108.30955   0.53095684   -107.77859   -2374.2484    4.3203711    4.3203711    4.3203711   -2374.2484    8598.3662   -5187.2424   -10533.869   -2188.5959   -817.42097   -8992.5861    80.642345 
   49400     609.5237   -108.32933   0.55150985   -107.77782   -8261.8097    4.3210511    4.3210511    4.3210511   -8261.8097    280.27447   -8177.6704   -16888.033    4847.9361   -1608.5803   -8216.7093    80.680428 
   49500    745.72788   -108.45056   0.67475026   -107.77581     7186.289    4.3162055    4.3162055    4.3162055     7186.289    5212.1338    1957.2598    14389.473   -15128.675    -1038.474    4642.5918    80.409311 
   49600    666.78311   -108.38257   0.60331937   -107.77925   -14062.252    4.3250808    4.3250808    4.3250808   -14062.252    15874.926   -28454.506   -29607.177   -4410.0384    2405.9605   -10068.898     80.90636 
   49700    795.06025   -108.49654   0.71938722   -107.77715    10797.668    4.3155211    4.3155211    4.3155211    10797.668    8833.8278    26923.815   -3364.6402    2544.9632   -1932.5592   -259.46133    80.371069 
   49800    850.21651   -108.54517   0.76929376   -107.77588   -537.23084    4.3209766    4.3209766    4.3209766   -537.23084    2818.3274   -6338.5401    1908.5202      -7194.8    485.94687   -2231.4107     80.67626 
   49900    401.93215   -108.14435   0.36367665   -107.78068   -8857.4806    4.3198848    4.3198848    4.3198848   -8857.4806    6978.8066   -7234.8559   -26316.392    1951.9226    2064.2171   -2623.4752    80.615117 
   50000    770.20926   -108.47403   0.69690153   -107.77713   -2257.0518    4.3177634    4.3177634    4.3177634   -2257.0518   -3321.0249   -9110.3024     5660.172     3300.264    285.92996    -202.6486    80.496411 
   50100    710.57185    -108.4209   0.64294034   -107.77796   -4989.8674    4.3229168    4.3229168    4.3229168   -4989.8674    10675.824    -15427.03   -10218.397   -4913.7618   -1352.4354    1746.1139    80.784984 
   50200    599.47131   -108.32405   0.54241424   -107.78163   -2034.4097    4.3171105    4.3171105    4.3171105   -2034.4097    15235.496   -775.48994   -20563.236    5218.9471    5901.2096   -5086.0884    80.459902 
   50300    957.27791   -108.64333   0.86616517   -107.77716    6800.6472    4.3200222    4.3200222    4.3200222    6800.6472    2915.2199    8860.2462    8626.4756    10346.244    38.173709    165.31169    80.622811 
   50400    719.28849   -108.43031   0.65082734   -107.77948   -1789.0448    4.3204431    4.3204431    4.3204431   -1789.0448    14025.463   -8865.4862   -10527.111   -5606.5104   -1851.3208   -1324.0558     80.64638 
   50500    454.36285    -108.1915   0.41111706   -107.78038   -10777.746    4.3205564    4.3205564    4.3205564   -10777.746    221.29151   -19835.881   -12718.649    2902.8575    4901.5295   -6166.0976    80.652722 
   50600    743.11512   -108.44802   0.67238618   -107.77564    4317.6245    4.3169737    4.3169737    4.3169737    4317.6245    -700.5941   -283.34661    13936.814     11603.92   -3186.2377    2835.8775    80.452252 
   50700    649.47453   -108.36713   0.58765821   -107.77947   -4277.6969    4.3215347    4.3215347    4.3215347   -4277.6969    17725.931   -12940.151   -17618.871   -541.82111    2203.1071   -8365.5011    80.707522 
   50800    735.49871   -108.44532   0.66549469   -107.77982    1989.9996      4.32081      4.32081      4.32081    1989.9996    7515.1528    621.69843   -2166.8523    13600.156    6715.6978   -2593.2078    80.666929 
   50900    957.97832   -108.64153   0.86679892   -107.77473    3800.0387    4.3183127    4.3183127    4.3183127    3800.0387    10919.977   -12365.196    12845.335    12148.597    2491.3871    -1683.007    80.527138 
   51000    522.99203   -108.25194   0.47321418   -107.77872   -4956.6503    4.3204872    4.3204872    4.3204872   -4956.6503    12704.728   -8249.1531   -19325.526   -7372.9104    1253.2015   -9212.5133    80.648846 
   51100    568.40559   -108.29156   0.51430532   -107.77725   -8824.2575    4.3198399    4.3198399    4.3198399   -8824.2575    -8287.829   -16959.613   -1225.3308    14493.313    4635.5093    1618.4236    80.612606 
   51200    649.92316   -108.36464   0.58806413   -107.77658    1035.9264    4.3189163    4.3189163    4.3189163    1035.9264    8096.4408   -8700.7584     3712.097    7892.3727    -5254.185   -3930.9875    80.560912 
   51300    748.41118   -108.45676   0.67717816   -107.77958   -2632.2643    4.3186174    4.3186174    4.3186174   -2632.2643     26226.22   -14747.451   -19375.561   -1996.0088    2134.2942   -6672.6397    80.544183 
   51400    873.78761    -108.5689   0.79062139   -107.77828    2996.3606    4.3211718    4.3211718    4.3211718    2996.3606    8801.4478   -7052.1815    7239.8154    16913.474    4618.3059    3277.5098    80.687193 
   51500    760.17117   -108.46577   0.68781885   -107.77795   -153.99595    4.3179205    4.3179205    4.3179205   -153.99595    13019.501   -9343.2567   -4138.2318   -369.92586    -2285.354   -5516.4009    80.505199 
   51600    486.03852   -108.21843   0.43977787   -107.77866   -9635.8444    4.3212785    4.3212785    4.3212785   -9635.8444     11220.91   -16043.534   -24084.909   -1629.8784    4299.4208   -1097.0709    80.693168 
   51700    674.85763   -108.38593   0.61062536   -107.77531   -1017.5415    4.3193598    4.3193598    4.3193598   -1017.5415    3635.4827   -12691.897    6003.7894    16645.864    1259.1398    3314.2371    80.585732 
   51800    670.05718   -108.38461   0.60628181   -107.77833    906.34711    4.3184419    4.3184419    4.3184419    906.34711    29161.897   -20156.258   -6286.5978    -3294.132     -3219.88   -9121.5459    80.534367 
   51900    814.04927   -108.51571   0.73656889   -107.77914   -1435.6701    4.3222088    4.3222088    4.3222088   -1435.6701    14006.862   -5216.5465   -13097.326   -4008.9158    8101.9486     4575.821    80.745294 
   52000    988.18647   -108.66954   0.89413188   -107.77541    9427.3237    4.3141759    4.3141759    4.3141759    9427.3237    9205.8118    3381.0978    15695.061    10315.144    748.34448   -2531.6599    80.295934 
   52100    406.54179   -108.14933   0.36784756   -107.78148    -13564.95    4.3235987    4.3235987    4.3235987    -13564.95    1012.2437   -16326.712    -25380.38   -5814.2728   -343.38144   -5095.8219    80.823216 
   52200    613.69027   -108.33296   0.55527986   -107.77768   -6481.6312     4.319029     4.319029     4.319029   -6481.6312    3985.2416   -16889.316   -6540.8189    2210.3774    4795.1585    6852.5927    80.567218 
   52300    807.33387   -108.50575   0.73049265   -107.77525    6786.0207     4.317899     4.317899     4.317899    6786.0207    14662.272    -4793.943    10489.733    6715.2319   -6153.7489   -4993.2437    80.503996 
   52400    588.86777   -108.31518   0.53281993   -107.78236   -7359.1421    4.3235451    4.3235451    4.3235451   -7359.1421     16824.77   -21551.789   -17350.407   -8194.3772   -669.87373   -3317.5479    80.820214 
   52500    948.20418   -108.63424   0.85795507   -107.77629     15485.51    4.3154175    4.3154175    4.3154175     15485.51    17794.391    9233.1707    19428.967    -7298.247    3911.4273    6752.2979    80.365278 
   52600    714.61406   -108.42384   0.64659782   -107.77725   -2267.0728    4.3238641    4.3238641    4.3238641   -2267.0728    623.88066    5017.7549   -12442.854   -1097.4594   -4810.6705   -5744.7893    80.838099 
   52700    329.05147   -108.07917   0.29773269   -107.78144   -7127.0801    4.3167983    4.3167983    4.3167983   -7127.0801    2830.8552   -17447.822   -6764.2734   -5776.0039    491.96607   -689.11966    80.442445 
   52800    869.87458   -108.56436    0.7870808   -107.77728    5959.8044    4.3182068    4.3182068    4.3182068    5959.8044    7589.9813   -2114.2162    12403.648   -1624.5646    3332.2939    7541.3476    80.521215 
   52900    832.07418   -108.53176    0.7528782   -107.77889   -2765.6521    4.3240055    4.3240055    4.3240055   -2765.6521    1989.3833   -14128.945    3842.6053     2875.919   -7745.8086    -10966.71    80.846033 
   53000    572.04593   -108.29974   0.51759918   -107.78214    10502.655    4.3144695    4.3144695    4.3144695    10502.655     23325.91    2448.6572    5733.3969   -9401.2415    4134.7187    6397.6079    80.312326 
   53100    874.48635   -108.56825   0.79125363     -107.777    5942.8746    4.3222146    4.3222146    4.3222146    5942.8746    6333.1974    7539.8968    3955.5295   -2918.4382   -1518.6104    1082.0621    80.745623 
   53200    551.70411   -108.27914   0.49919348   -107.77994    3608.2671    4.3170778    4.3170778    4.3170778    3608.2671    17363.861   -3207.2635   -3331.7962    85.697451    -8078.265   -5977.0841     80.45807 
   53300    519.71005   -108.25197   0.47024457   -107.78172   -11288.398    4.3212316    4.3212316    4.3212316   -11288.398    3660.1578   -29707.669   -7817.6825   -8132.5363     3678.396    6190.3304    80.690542 
   53400    944.46278    -108.6302   0.85456977   -107.77563   -863.72332    4.3202705    4.3202705    4.3202705   -863.72332   -7308.4873   -12913.303     17630.62    738.41478   -5597.6051   -1586.5461    80.636712 
   53500    743.66958   -108.45182   0.67288787   -107.77893    1699.0207    4.3162055    4.3162055    4.3162055    1699.0207    12860.171    1684.5232    -9447.632   -1992.2273    -3904.667   -515.66491    80.409312 
   53600    638.38855   -108.35763   0.57762738      -107.78   -5602.0976    4.3245386    4.3245386    4.3245386   -5602.0976     12145.66   -19640.185   -9311.7679   -12015.766    3994.0224    11476.813    80.875936 
   53700    714.93119   -108.42174   0.64688477   -107.77485    9455.0033     4.315051     4.315051     4.315051    9455.0033    15957.485    6005.4223    6402.1027    5532.3017   -1958.9094   -2703.1517    80.344804 
   53800    502.33347   -108.23408   0.45452188   -107.77955   -12049.541    4.3228346    4.3228346    4.3228346   -12049.541    16694.784   -29964.659   -22878.748    642.65679   -904.06115    5007.6484    80.780372 
   53900    736.89988   -108.44286    0.6667625   -107.77609   -9240.0854    4.3211355    4.3211355    4.3211355   -9240.0854   -693.31385   -30166.427    3139.4846   -4632.0566    2124.1585    11016.706    80.685156 
   54000    818.88912   -108.51643   0.74094809   -107.77549   -45.473839    4.3147305    4.3147305    4.3147305   -45.473839   -2132.0929   -5615.1035    7610.7749    11187.392   -8286.9756    -10206.01    80.326906 
   54100    665.72731   -108.38125   0.60236406   -107.77889   -15460.295    4.3265683    4.3265683    4.3265683   -15460.295    9089.8064   -22852.326   -32618.366   -6162.4389   -3925.9133    17472.134    80.989865 
   54200    844.13811   -108.53784    0.7637939   -107.77405    10872.867    4.3142648    4.3142648    4.3142648    10872.867    19879.018    1553.1423     11186.44   -810.02088     1503.811    4816.5118    80.300896 
   54300    508.80365   -108.23945   0.46037624   -107.77907   -6505.9843    4.3210999    4.3210999    4.3210999   -6505.9843    11145.207   -16572.861     -14090.3    12576.472   -4833.6547   -3355.8173    80.683164 
   54400    531.61499   -108.26077   0.48101641   -107.77975   -11149.323    4.3216281    4.3216281    4.3216281   -11149.323    14640.208   -30477.203   -17610.973   -502.25901    1459.1941    18232.001    80.712755 
   54500     938.4847   -108.62305   0.84916068   -107.77389    5766.7678    4.3152051    4.3152051    4.3152051    5766.7678    4415.0324   -10178.655    23063.927    4943.2193    409.05665    -2534.776    80.353415 
   54600     575.4551   -108.30192   0.52068386   -107.78124   -17431.177    4.3257612    4.3257612    4.3257612   -17431.177   -10370.115   -20548.829   -21374.588     9701.527   -5281.2427    3944.5117    80.944552 
   54700    807.81019   -108.51015   0.73092364   -107.77923    7722.5693    4.3156177    4.3156177    4.3156177    7722.5693    22478.874   -3588.0839    4276.9174   -5508.7493    2440.4604    13614.012    80.376466 
   54800    929.25382   -108.61561   0.84080838    -107.7748    3747.9695    4.3223728    4.3223728    4.3223728    3747.9695    7591.6085     1681.291    1971.0091    7228.9525   -801.82592   -920.52787    80.754489 
   54900    303.28978    -108.0585   0.27442297   -107.78408   -7028.6911    4.3190233    4.3190233    4.3190233   -7028.6911    14476.981   -22958.248   -12604.806    10781.105   -2017.6907    9774.7698    80.566897 
   55000    708.30764    -108.4208   0.64089164   -107.77991    3298.4108    4.3181692    4.3181692    4.3181692    3298.4108    12892.367   -7731.3567    4734.2227   -1149.7977   -2222.9695    10677.935    80.519109 
   55100    838.62439   -108.53657   0.75880497   -107.77777   -3424.7928     4.323934     4.323934     4.323934   -3424.7928   -7287.8833   -9074.4279    6087.9328    3561.0269    102.41031   -1077.7735    80.842021 
   55200    528.25853   -108.26052   0.47797942   -107.78254   -4951.9012    4.3175684    4.3175684    4.3175684   -4951.9012    -1295.739   -5969.1736   -7590.7912    3522.7896   -4800.0701     17963.71    80.485507 
   55300    1016.9062   -108.69673   0.92011809   -107.77661    3752.0038    4.3223299    4.3223299    4.3223299    3752.0038     3883.687    2382.1486    4990.1759    -6853.395    2187.8676    82.354177     80.75208 
   55400    780.83605   -108.48485   0.70651686   -107.77833    7214.7832    4.3181816    4.3181816    4.3181816    7214.7832    11970.855    7915.1194    1758.3754     2321.359    5375.5694   -1115.3727    80.519803 
   55500    391.47678   -108.13757   0.35421642   -107.78335   -1701.5812    4.3208986    4.3208986    4.3208986   -1701.5812    20541.033   -8555.6364    -17090.14    6487.3076   -5150.0452    17276.624    80.671886 
   55600    765.72761   -108.46831   0.69284643   -107.77546    3030.2547    4.3220288    4.3220288    4.3220288    3030.2547    11099.308   -12955.304     10946.76   -8717.9945    166.05242   -3912.3658    80.735207 
   55700    630.08535   -108.34787   0.57011446   -107.77776    1878.6693    4.3173728    4.3173728    4.3173728    1878.6693    1433.3121     7030.698   -2828.0022    1759.3143   -2448.3755    7408.2435    80.474568 
   55800    674.60717   -108.39023   0.61039874   -107.77983   -10394.506    4.3242898    4.3242898    4.3242898   -10394.506   -5530.9957   -13690.593   -11961.931    853.88909   -7020.3532    17356.437    80.861981 
   55900    985.68437   -108.66638   0.89186793   -107.77452    15078.081      4.31536      4.31536      4.31536    15078.081    8229.9492    25089.489    11914.804   -10265.695    2586.8712   -9555.4377    80.362069 
   56000    690.53192   -108.40374   0.62480779   -107.77894   -5836.8811    4.3252751    4.3252751    4.3252751   -5836.8811    13089.618    -15183.84    -15416.42     5842.867    1479.2601    11273.071    80.917268 
   56100    529.38472   -108.25686   0.47899842   -107.77786    776.40097    4.3197411    4.3197411    4.3197411    776.40097    19914.459   -14239.508   -3345.7486   -4189.4292   -2901.0233    16790.055    80.607074 
   56200    697.31723   -108.40546   0.63094729   -107.77451     8520.589    4.3155259    4.3155259    4.3155259     8520.589    2266.5447     4271.487    19023.735   -14098.763    892.10706   -8519.0298    80.371337 
   56300    557.78823   -108.28162   0.50469851   -107.77692   -14563.562     4.328673     4.328673     4.328673   -14563.562   -9188.0505   -15695.387    -18807.25    3236.6075   -1355.1284    18026.233    81.108118 
   56400    758.24092     -108.462   0.68607232   -107.77593    7273.7251    4.3150662    4.3150662    4.3150662    7273.7251   -4029.5979    15291.069    10559.704   -6986.9344   -1841.0977    6483.8759    80.345654 
   56500    941.89663   -108.62786   0.85224786   -107.77561   -3287.5546     4.321169     4.321169     4.321169   -3287.5546   -446.69417   -11732.288    2316.3179   -10494.473    3967.5734   -1009.4264    80.687036 
   56600    638.44393   -108.35629   0.57767748   -107.77861   -1271.4651    4.3221827    4.3221827    4.3221827   -1271.4651     21304.94    -7529.822   -17589.514    4267.9897   -1830.2406    20773.403    80.743831 
   56700    632.47724   -108.34942    0.5722787   -107.77714   -307.21286    4.3195219    4.3195219    4.3195219   -307.21286    1039.4426   -12358.679    10397.598   -18685.996   -3176.2414    1120.0925    80.594804 
   56800    555.71697   -108.27902    0.5028244   -107.77619   -1389.1838     4.322184     4.322184     4.322184   -1389.1838   -5367.7641   -2433.0655    3633.2783   -10633.547   -600.47657     1839.737    80.743906 
   56900    630.15236    -108.3478    0.5701751   -107.77763   -4467.8712    4.3192804    4.3192804    4.3192804   -4467.8712    6546.9111    -10630.48   -9320.0443    3794.8237   -6749.3058    14611.524    80.581285 
   57000     779.1031   -108.48172   0.70494886   -107.77677   -8001.3451    4.3259852    4.3259852    4.3259852   -8001.3451   -27981.311   -11328.026    15305.301   -19494.236   -717.87843   -4680.4198    80.957129 
   57100    948.69387   -108.63265   0.85839815   -107.77425    2901.2327    4.3147374    4.3147374    4.3147374    2901.2327    17560.559    -2755.087    -6101.774   -303.84734    908.90465    12651.056    80.327291 
   57200    637.36168   -108.35532   0.57669824   -107.77862    -3285.279    4.3237565    4.3237565    4.3237565    -3285.279    12145.342   -11945.423   -10055.756   -8501.4246   -918.34034    16006.776    80.832069 
   57300    590.93054   -108.31099   0.53468637   -107.77631   -4890.3532    4.3237578    4.3237578    4.3237578   -4890.3532   -5697.1659   -23129.903    14156.009   -24101.089   -1996.7138   -5708.5667    80.832139 
   57400    624.47976   -108.33894   0.56504241    -107.7739    4051.4322    4.3128655    4.3128655    4.3128655    4051.4322     24901.08   -6965.2418   -5781.5419    6303.8258    2501.0348    20647.003    80.222785 
   57500    591.71336   -108.31215   0.53539468   -107.77675   -14608.752    4.3286439    4.3286439    4.3286439   -14608.752   -22898.304   -24379.956    3452.0055   -13898.022   -3674.2281    6257.3207    81.106483 
   57600     889.9823   -108.58036   0.80527469   -107.77509   -1083.2558    4.3157466    4.3157466    4.3157466   -1083.2558   -7477.9986   -5627.2855    9855.5167    -10262.67   -1365.9295   -890.24667    80.383666 
   57700    755.62937    -108.4618   0.68370934   -107.77809    2882.6921    4.3191787    4.3191787    4.3191787    2882.6921    37887.149    -13191.38   -16047.693    600.45505    3848.7552    20165.335    80.575594 
   57800    741.86212   -108.44876   0.67125244   -107.77751   -1866.1902    4.3237856    4.3237856    4.3237856   -1866.1902    9304.2891   -23772.199    8869.3398   -17522.799    -6089.132   -2573.8413    80.833697 
   57900    609.51741   -108.32718   0.55150417   -107.77568    4573.9307    4.3173041    4.3173041    4.3173041    4573.9307    24638.407   -13695.821    2779.2054   -7958.7681   -151.80839    6913.5064    80.470726 
   58000    558.47962   -108.28115    0.5053241   -107.77582   -10297.173    4.3238656    4.3238656    4.3238656   -10297.173    4485.0507   -24111.967   -11264.602    3097.9708   -2914.4137    14969.219    80.838188 
   58100    803.82205   -108.50027   0.72731508   -107.77295    3559.1009    4.3163738    4.3163738    4.3163738    3559.1009   -9096.7729    -2253.951    22028.027   -12523.328   -2033.1106   -4638.1683    80.418717 
   58200    693.33478   -108.40334   0.62734388   -107.77599   -8140.2959    4.3262674    4.3262674    4.3262674   -8140.2959    13026.999   -18726.447    -18721.44    1185.6781   -1881.1258    16885.154     80.97297 
   58300    731.20886   -108.43839   0.66161314   -107.77677    5152.2421    4.3163533    4.3163533    4.3163533    5152.2421    33321.885   -18856.793    991.63392    317.18099    1588.6114    7733.5944    80.417572 
   58400    807.41257   -108.50647   0.73056386   -107.77591    9786.9339      4.31694      4.31694      4.31694    9786.9339    19115.771   -1891.4362    12136.467   -15828.035   -4087.7653    -3770.497    80.450371 
   58500    529.20462   -108.25694   0.47883546    -107.7781   -13711.713     4.328913     4.328913     4.328913   -13711.713    1604.1238   -25859.448   -16879.814    4296.4051   -1747.9656    22542.715    81.121613 
   58600    696.14214   -108.40411   0.62988404   -107.77423    10767.782     4.309172     4.309172     4.309172    10767.782    7403.8536    2991.4094    21908.084   -57.815495    165.30453   -8113.5197    80.016858 
   58700    776.95833   -108.47792   0.70300823   -107.77492   -8987.8539    4.3265783    4.3265783    4.3265783   -8987.8539   -22038.845   -1006.1671   -3918.5495   -5630.3395    -3962.787     4341.402    80.990429 
   58800    606.36307    -108.3278   0.54865005   -107.77915   -5572.1573    4.3190852    4.3190852    4.3190852   -5572.1573    12845.852   -21396.117   -8166.2065    6799.8239    2817.2585    22504.285    80.570364 
   58900    757.34532   -108.46236   0.68526196    -107.7771    13014.522    4.3149997    4.3149997    4.3149997    13014.522    21660.875    4817.5756    12565.115   -4359.5596   -4220.7704   -14940.622    80.341938 
   59000    810.17251   -108.50804   0.73306112   -107.77498   -2224.9886     4.326804     4.326804     4.326804   -2224.9886    12400.495   -18086.307   -989.15376   -5842.6217   -1732.8333    13168.465    81.003103 
   59100    540.44134   -108.26664   0.48900268   -107.77763    9135.6387    4.3140864    4.3140864    4.3140864    9135.6387    28735.716   -7526.3732     6197.573    4043.1515    173.69568    14075.355    80.290933 
   59200    765.59017   -108.46795   0.69272208   -107.77523   -3841.8186    4.3222494    4.3222494    4.3222494   -3841.8186   -6623.1242   -4864.2695   -38.062114     1089.668   -281.48034   -21092.209     80.74757 
   59300    733.57999   -108.43961   0.66375859   -107.77585    -2083.919    4.3181129    4.3181129    4.3181129    -2083.919   -4624.5981   -377.13943   -1250.0195    -1912.702   -1180.1176    20598.647     80.51596 
   59400    492.00157   -108.22625   0.44517336   -107.78108   -5300.4066    4.3207765    4.3207765    4.3207765   -5300.4066    8764.5991   -14394.778   -10271.041    3155.8526    2415.2312    1244.5292    80.665052 
   59500    869.47025   -108.56327   0.78671495   -107.77655   -1128.2895    4.3188547    4.3188547    4.3188547   -1128.2895     8840.563   -15538.203    3312.7717    1070.3233   -3516.2097   -18817.312    80.557461 
   59600    733.29702   -108.44131   0.66350255   -107.77781    8124.4825    4.3176141    4.3176141    4.3176141    8124.4825    31227.307   -9977.2113    3123.3522   -4959.5241   -3106.1409    27604.661    80.488061 
   59700    692.99721   -108.40486   0.62703844   -107.77782   -8378.8661    4.3259223    4.3259223    4.3259223   -8378.8661    21167.485   -25823.095   -20480.988    9320.4776   -933.96345    -9862.218    80.953596 
   59800    754.67196   -108.45649   0.68284305   -107.77365    15136.155    4.3120387    4.3120387    4.3120387    15136.155    25448.911    15258.244    4701.3104    4711.9739    273.47058   -1726.7059    80.176659 
   59900    611.45877   -108.33018   0.55326074   -107.77692   -12339.403    4.3251912    4.3251912    4.3251912   -12339.403    6405.4494   -17906.915   -25516.744    1451.9496   -533.09043    23769.533    80.912557 
   60000    602.35075   -108.32027   0.54501962   -107.77525   -7038.1329     4.320046     4.320046     4.320046   -7038.1329    5996.9087   -18074.634   -9036.6733    3707.5953    2852.0177   -22682.609    80.624144 
   60100    766.76996   -108.46723   0.69378957   -107.77344    4076.2914    4.3145514    4.3145514    4.3145514    4076.2914    18851.357     -13260.3    6637.8178   -13.459412    980.16191    10732.198      80.3169 
   60200    753.76116   -108.45785   0.68201893   -107.77583   -9849.7626    4.3269702    4.3269702    4.3269702   -9849.7626    20938.039   -24689.987    -25797.34   -3761.3227    -1546.452     8651.068    81.012439 
   60300     736.9244   -108.44247   0.66678469   -107.77569     13187.99    4.3141819    4.3141819    4.3141819     13187.99    35844.948    1037.9749     2681.046    8543.9924    135.84161   -22658.282    80.296267 
   60400    806.60601   -108.50591   0.72983407   -107.77608   -5014.9001    4.3204686    4.3204686    4.3204686   -5014.9001    13766.863   -10909.089   -17902.474    3059.9586   -1144.3233    24261.688    80.647804 
   60500    578.09326   -108.30027   0.52307093    -107.7772   -2414.9338    4.3191401    4.3191401    4.3191401   -2414.9338    20965.774   -12351.481   -15859.095   -2059.5948   -1027.2403   -3176.9823    80.573434 
   60600    654.63514   -108.36918   0.59232763   -107.77685   -11939.205     4.319863     4.319863     4.319863   -11939.205   -6201.5027   -29371.431   -244.68146     5284.219   -513.42866   -14061.363      80.6139 
   60700    621.92198   -108.33969   0.56272808   -107.77696   -6762.7661    4.3207446    4.3207446    4.3207446   -6762.7661    4590.4659    -14859.03   -10019.735    227.30644    1958.8122    24529.221    80.663266 
   60800    708.98013   -108.41857   0.64150012   -107.77707    4382.7118    4.3170883    4.3170883    4.3170883    4382.7118    31759.316   -6575.8362   -12035.344    3950.8779    -6009.265   -18905.259    80.458657 
   60900    803.14278   -108.50192   0.72670046   -107.77522    -1032.874    4.3242099    4.3242099    4.3242099    -1032.874    19744.895   -11700.172   -11143.345    3722.5531    3431.7979   -787.12962    80.857497 
   61000    764.57519   -108.46693    0.6918037   -107.77513   -1730.1759    4.3162386    4.3162386    4.3162386   -1730.1759    18786.772   -9295.3007   -14681.999    2142.8259   -2769.6773    13838.825    80.411161 
   61100    637.05146   -108.35296   0.57641755   -107.77654   -10119.386    4.3220729    4.3220729    4.3220729   -10119.386    8510.0896   -26812.652   -12055.597    -2522.647   -845.13872    -24395.46    80.737677 
   61200    698.82289   -108.40746   0.63230964   -107.77515   -5082.7025    4.3183917    4.3183917    4.3183917   -5082.7025     -2984.58   -14998.176    2734.6482    5563.6995     3925.414    13432.377     80.53156 
   61300    453.59075   -108.19006   0.41041844   -107.77964    3986.5035    4.3173089    4.3173089    4.3173089    3986.5035     31101.32   -5595.6382   -13546.172   -236.15298   -1062.7958   -447.07822    80.470994 
   61400    835.58254   -108.53306   0.75605264   -107.77701   -1818.5735    4.3233572    4.3233572    4.3233572   -1818.5735    19261.592   -10220.307   -14497.006    3786.6969   -4841.5362   -18455.815    80.809677 
   61500    837.95999   -108.53422   0.75820381   -107.77602    11240.435    4.3143303    4.3143303    4.3143303    11240.435    32637.207   -1193.9416    2278.0402   -447.54842    1201.0352    18565.324    80.304553 
   61600    602.32408   -108.32396   0.54499549   -107.77896   -16834.026    4.3251939    4.3251939    4.3251939   -16834.026     5534.803   -25294.785   -30742.095   -611.69381   -2609.6373   -16580.306    80.912708 
   61700    864.87954    -108.5562   0.78256118   -107.77363    3552.0006    4.3160188    4.3160188    4.3160188    3552.0006    19841.608   -16986.078    7800.4719    733.01455   -750.27037   -8854.9747    80.398878 
   61800     544.0098   -108.27076    0.4922315   -107.77853    1470.7972    4.3187298    4.3187298    4.3187298    1470.7972    22773.473    -8082.949   -10278.132    5683.0738    7356.1914    13002.149    80.550473 
   61900    490.52152   -108.22411   0.44383418   -107.78028    -6517.308    4.3243455    4.3243455    4.3243455    -6517.308    26394.666   -18461.713   -27484.877    1891.6314   -1250.3595   -20367.227    80.865103 
   62000     961.8624   -108.64248   0.87031331   -107.77216    13632.039    4.3128048    4.3128048    4.3128048    13632.039    20308.946    11703.852    8883.3192   -902.47915    879.56416    5798.5769    80.219401 
   62100    615.37102   -108.33612   0.55680063   -107.77932   -16243.332    4.3250909    4.3250909    4.3250909   -16243.332    8115.8439   -23942.298    -32903.54    1006.2121    3155.5443    5076.6514    80.906929 
   62200     739.0881   -108.44638   0.66874245   -107.77764   -3549.0196    4.3171493    4.3171493    4.3171493   -3549.0196    13894.718   -22944.122    -1597.654   -6299.8411   -2909.1051   -17663.347     80.46207 
   62300    793.05875   -108.49185   0.71757622   -107.77428    6146.8099    4.3195749    4.3195749    4.3195749    6146.8099    30586.047   -15652.458    3506.8401   -2182.9603   -1015.6856    12159.299    80.597773 
   62400    489.25483   -108.22301   0.44268805   -107.78032   -2240.0728    4.3208914    4.3208914    4.3208914   -2240.0728    33642.477   -18575.999   -21786.696    6668.6058    5873.3034   -6205.1441    80.671487 
   62500    785.01561   -108.48614   0.71029862   -107.77584    12531.552     4.315473     4.315473     4.315473    12531.552    20537.439    8385.5277    8671.6882   -3430.9063   -4507.7138   -11864.897    80.368377 
   62600    802.37705   -108.50175   0.72600762   -107.77574    -10138.48     4.325454     4.325454     4.325454    -10138.48   -3280.6766   -12494.008   -14640.756   -5815.8182    3713.4092    11945.219    80.927308 
   62700    580.59682   -108.30347    0.5253362   -107.77814    5734.0234    4.3126502    4.3126502    4.3126502    5734.0234    30417.162   -13463.504    248.41241    1536.2609    3518.5211   -16304.354    80.210774 
   62800    820.53719   -108.51803   0.74243929   -107.77559   -2957.1974    4.3261363    4.3261363    4.3261363   -2957.1974     17019.14   -28776.992    2886.2595   -7396.2814   -29.830591    78.236894    80.965608 
   62900    584.30205   -108.30778   0.52868877   -107.77909     2744.773    4.3178459    4.3178459    4.3178459     2744.773    27591.314   -20718.535    1361.5408   -5667.7998   -1570.4563    7033.7796    80.501025 
   63000    668.97275   -108.38358    0.6053006   -107.77828    10703.457    4.3116972    4.3116972    4.3116972    10703.457    21019.823    11422.326   -331.77928    6267.0527    7575.6333   -16187.613    80.157612 
   63100    942.10423   -108.62548   0.85243571   -107.77304   -14335.181    4.3300063    4.3300063    4.3300063   -14335.181   -22626.387   -13062.256   -7316.8996   -14511.662    -3475.203    8431.7191     81.18309 
   63200    544.95792   -108.27065   0.49308938   -107.77756    7147.4344    4.3097747    4.3097747    4.3097747    7147.4344    16163.855   -6738.1312    12016.579   -6190.8515    4081.3762   -1835.9066    80.050437 
   63300    733.61802   -108.44229     0.663793    -107.7785   -6998.5214    4.3240555    4.3240555    4.3240555   -6998.5214    13223.563   -24901.272   -9317.8547    2075.1547    2824.1536   -14726.863     80.84884 
   63400    742.71753   -108.44745   0.67202643   -107.77543    3432.2233    4.3210844    4.3210844    4.3210844    3432.2233    16246.233   -22527.619    16578.055   -8399.6421   -2706.5448    8152.1437    80.682295 
   63500    406.21623   -108.14801   0.36755298   -107.78046    8990.8821    4.3123701    4.3123701    4.3123701    8990.8821     30276.31    1199.0818    -4502.746    1955.1908    2076.7118   -11262.725    80.195146 
   63600     932.4541    -108.6172   0.84370406    -107.7735   -9728.7044    4.3280498    4.3280498    4.3280498   -9728.7044    -3223.245   -7870.5083    -18092.36    3557.1008    594.42882   -10590.705    81.073097 
   63700     804.8379   -108.50318   0.72823424   -107.77494    12763.183    4.3119259    4.3119259    4.3119259    12763.183    3510.0482    12381.033    22398.467   -7592.4416    1671.6073    7578.5183    80.170363 
   63800    532.57152   -108.26257   0.48188191   -107.78069   -17180.669    4.3235263    4.3235263    4.3235263   -17180.669     3528.493   -33671.477   -21399.022   -3803.6018   -559.68339   -14661.984    80.819158 
   63900    869.16171   -108.56038   0.78643578   -107.77394    7616.2399    4.3177129    4.3177129    4.3177129    7616.2399    10768.248   -7978.5474    20059.019    5293.5628    2700.0866   -488.19069    80.493589 
   64000    547.42001   -108.27425   0.49531713   -107.77894    2464.7138    4.3178906    4.3178906    4.3178906    2464.7138    19073.682   -9087.2093    -2592.331   -4951.9864   -1824.1921    263.53934    80.503524 
   64100    507.73555   -108.24103   0.45940979   -107.78162   -9421.7769    4.3233775    4.3233775    4.3233775   -9421.7769    19380.819   -17593.538   -30052.612     2086.999    3709.6556   -17012.786    80.810813 
   64200    1002.6015   -108.68116   0.90717487   -107.77398    17166.731    4.3110619    4.3110619    4.3110619    17166.731    15662.094    17740.972    18097.127    6857.6277   -1665.9596    1764.3381    80.122184 
   64300    667.48839   -108.38368   0.60395753   -107.77972   -17267.263    4.3277745    4.3277745    4.3277745   -17267.263    1403.1919   -32546.906   -20658.073   -7844.1562    788.60653   -8856.7058    81.057625 
   64400    648.29836    -108.3645   0.58659398    -107.7779    236.62723    4.3141966    4.3141966    4.3141966    236.62723    13998.691   -17437.664    4148.8542    4711.7995   -1467.4662   -8840.1829    80.297086 
   64500    818.40786   -108.51512   0.74051263   -107.77461    1259.2714    4.3185843    4.3185843    4.3185843    1259.2714    4607.1517   -15327.834    14498.497    13251.805   -2385.3211    5217.3544    80.542335 
   64600    464.78186   -108.19933   0.42054439   -107.77878   -9531.1487    4.3243394    4.3243394    4.3243394   -9531.1487    26019.951   -24446.402   -30166.995    -2574.165   -1042.1604   -14035.897    80.864761 
   64700    748.50761   -108.45168   0.67726541   -107.77442     9344.378    4.3108733    4.3108733    4.3108733     9344.378    26748.339   -1796.4734    3081.2687    10582.812    4013.1328   -1624.0282    80.111668 
   64800    809.91993   -108.50753   0.73283257   -107.77469   -4324.9796    4.3246298    4.3246298    4.3246298   -4324.9796    6237.2028   -21355.201    2143.0591     10122.21    1527.7633   -225.81476    80.881057 
   64900    666.68304   -108.37987   0.60322883   -107.77664   -5018.5637    4.3171023    4.3171023    4.3171023   -5018.5637    19715.832   -26903.295   -7868.2282   -4959.9517   -37.374746   -17091.001    80.459441 
   65000    739.11615   -108.44436   0.66876782   -107.77559   -4607.3551    4.3181096    4.3181096    4.3181096   -4607.3551   -4412.0092   -32409.357    22999.301    19804.792   -242.96124    1740.5255    80.515778 
   65100    623.94855   -108.34038   0.56456176   -107.77582   -4401.5145    4.3209558    4.3209558    4.3209558   -4401.5145      19054.2   -25409.782   -6848.9621    9132.7958   -3630.5671   -9152.6135    80.675093 
   65200    624.14524   -108.34154   0.56473973    -107.7768   -839.52978    4.3164393    4.3164393    4.3164393   -839.52978    32284.842    -13980.77   -20822.661    376.85249   -798.10562   -11954.486    80.422378 
   65300    794.23246   -108.49373   0.71863822   -107.77509   -2975.5754    4.3216402    4.3216402    4.3216402   -2975.5754   -4414.2439   -15899.747    11387.265    21132.302    1529.9748    4479.7973    80.713433 
   65400    739.91695    -108.4459    0.6694924   -107.77641   -1456.1324    4.3148443    4.3148443    4.3148443   -1456.1324    13976.702    -19889.73    1544.6302   -1892.2593     1034.678   -11678.231     80.33326 
   65500    643.33813   -108.35983   0.58210586   -107.77772   -9506.5572    4.3222832    4.3222832    4.3222832   -9506.5572    3343.2458   -38575.913     6712.996     4970.455   -5721.2365    551.47051    80.749466 
   65600    759.62724   -108.46183   0.68732669    -107.7745   -3100.2335    4.3187604    4.3187604    4.3187604   -3100.2335    1368.0253   -27417.437    16748.711    18786.857    2348.6964    952.70764    80.552185 
   65700    564.97777   -108.28908   0.51120375   -107.77788    4295.5968    4.3140947    4.3140947    4.3140947    4295.5968    37945.181   -12910.154   -12148.236   -5272.5735    70.678652   -16129.957      80.2914 
   65800    733.74101   -108.44049   0.66390429   -107.77658   -6977.8127     4.324896     4.324896     4.324896   -6977.8127    5485.6115   -18018.781   -8400.2686    10516.118    3144.3969    4389.3289    80.895993 
   65900    822.68826   -108.51902   0.74438563   -107.77464    8679.5954    4.3136654    4.3136654    4.3136654    8679.5954     8189.108   -6219.6815     24069.36    11846.888    2874.5082   -9124.5091    80.267434 
   66000     555.0829   -108.28038   0.50225067   -107.77813   -11331.732     4.321597     4.321597     4.321597   -11331.732    2769.2428   -34823.926   -1940.5139   -7471.9697   -557.80033   -13409.874    80.711012 
   66100      788.471   -108.48784   0.71342513   -107.77441   -6614.5828    4.3200827    4.3200827    4.3200827   -6614.5828    202.67027   -32546.397    12499.978    7056.3897   -7319.8789    12332.881    80.626199 
   66200    727.72764   -108.43299   0.65846326   -107.77452    3469.9953    4.3149424    4.3149424    4.3149424    3469.9953    14849.454   -6380.5787    1941.1101    4049.4687    2272.1224   -13411.691    80.338739 
   66300    561.49213   -108.28798   0.50804988   -107.77993   -9648.6272     4.323585     4.323585     4.323585   -9648.6272    13359.903   -22897.155    -19408.63   -10155.244    81.291598   -2401.8593    80.822448 
   66400    878.06252   -108.56804   0.79448942   -107.77355    13820.484    4.3158751    4.3158751    4.3158751    13820.484    17804.207    3486.9716    20170.274    5157.6551     2127.096    10796.511    80.390847 
   66500    633.27037   -108.35061   0.57299634   -107.77762    -2952.515    4.3198461    4.3198461    4.3198461    -2952.515    6811.9706   -18748.063    3078.5474   -23.929922    8657.4318   -19968.985    80.612955 
   66600    519.72686   -108.24954   0.47025979   -107.77928   -10097.283    4.3186418    4.3186418    4.3186418   -10097.283    10071.326   -40213.376   -149.80037   -4545.6859   -4380.1054    4206.2592    80.545552 
   66700    912.60213   -108.59923   0.82574159   -107.77348    3246.2675    4.3182155    4.3182155    4.3182155    3246.2675    6009.9324   -4414.7971    8143.6672    3931.8862    2453.3257    3542.0502    80.521702 
   66800    597.72544   -108.32057   0.54083454   -107.77973   -7353.7192    4.3215383    4.3215383    4.3215383   -7353.7192    4209.6989   -16844.433   -9426.4233   -1126.1456    1733.1762   -19774.977    80.707726 
   66900    660.77454   -108.37884   0.59788269   -107.78095     11106.99    4.3129202    4.3129202    4.3129202     11106.99    28154.555   -1956.4565    7122.8718   -1423.8604    3553.4115    14891.682    80.225838 
   67000    956.29463   -108.64151   0.86527548   -107.77624    6167.3805    4.3216247    4.3216247    4.3216247    6167.3805    14332.471   -2537.2193    6706.8893    976.86069   -140.43778   -4451.9728    80.712564 
   67100    457.84702    -108.1961   0.41426961   -107.78183   -8000.9787    4.3196561    4.3196561    4.3196561   -8000.9787    27365.547   -38767.855   -12600.628   -1768.4925    4064.4026   -12019.066    80.602318 
   67200    620.55148   -108.33982   0.56148802   -107.77834   -943.89719    4.3162487    4.3162487    4.3162487   -943.89719    15330.532   -22987.989    4825.7645   -6141.2277   -7232.5664    20906.711    80.411726 
   67300    883.36348    -108.5725   0.79928584   -107.77321   -2380.7247    4.3225554    4.3225554    4.3225554   -2380.7247    2018.2525   -13743.468    4583.0409   -236.50517    1195.4312   -13435.481    80.764721 
   67400     555.5337   -108.28191   0.50265857   -107.77925    574.25421    4.3168037    4.3168037    4.3168037    574.25421    20751.269   -10778.804   -8249.7027   -4535.1283      6080.13   -1291.5862    80.442749 
   67500    898.62235   -108.58818   0.81309239   -107.77508    2412.7011    4.3203776    4.3203776    4.3203776    2412.7011    16682.175   -9116.1673   -327.90483   -1220.8484    2317.3727    16259.886    80.642711 
   67600    788.69653   -108.48819    0.7136292   -107.77457    1436.0702    4.3188423    4.3188423    4.3188423    1436.0702    31863.212   -21122.091   -6432.9103    2304.4576    4993.8651   -18993.725     80.55677 
   67700    391.05594   -108.13446   0.35383563   -107.78062   -5531.4215    4.3157881    4.3157881    4.3157881   -5531.4215      28554.8   -34233.263   -10915.801   -1770.9176    710.23212    12538.405    80.385983 
   67800    791.38382   -108.49196   0.71606071    -107.7759    -783.6571    4.3220567    4.3220567    4.3220567    -783.6571    10982.942    -25130.77    11796.856   -79.597083   -815.71987    7260.4316    80.736773 
   67900     727.3109   -108.43566   0.65808619   -107.77757    166.24009    4.3172693    4.3172693    4.3172693    166.24009    11905.935   -5240.7867    -6166.428    2371.8712   -118.97772   -13045.911    80.468781 
   68000    659.38823   -108.37656   0.59662833   -107.77993   -2996.7605    4.3174532    4.3174532    4.3174532   -2996.7605    13491.408   -11631.421   -10850.269   -4415.5834    7996.2856    19987.572    80.479066 
   68100    937.21368   -108.62243   0.84801064   -107.77442    4133.2127    4.3206132    4.3206132    4.3206132    4133.2127    23475.039   -14235.681    3160.2804    2543.7099   -5431.3908   -3214.0926    80.655902 
   68200    512.73969   -108.24418   0.46393765   -107.78024   -1890.2553    4.3166992    4.3166992    4.3166992   -1890.2553    22978.652   -27427.024   -1222.3935    1251.2332    186.12364    470.80529    80.436909 
   68300    542.49064   -108.27024   0.49085693   -107.77938   -4013.9773    4.3194253    4.3194253    4.3194253   -4013.9773    18610.697   -36204.976    5552.3471   -3688.3719     643.3986    17891.387    80.589396 
   68400    910.58255   -108.59787   0.82391423   -107.77396    1607.0724    4.3177017    4.3177017    4.3177017    1607.0724   -659.98325   -6653.2535    12134.454    3124.2661   -1502.1567   -8538.8593    80.492962 
   68500    521.85366    -108.2534   0.47218416   -107.78122   -10242.375    4.3190991    4.3190991    4.3190991   -10242.375    -48.24217   -13117.889   -17560.994      1601.06    4034.2791    11511.039    80.571138 
   68600    934.04501   -108.62219   0.84514355   -107.77704   -853.55892    4.3184179    4.3184179    4.3184179   -853.55892    15336.913   -10893.166   -7004.4237   -5574.0217    6197.9324    11489.502    80.533022 
   68700    720.61608   -108.42867   0.65202857   -107.77664    5191.7683    4.3190197    4.3190197    4.3190197    5191.7683    15928.295    -12473.03    12120.039    3584.3353   -10991.859   -7724.4247    80.566695 
   68800    326.82999   -108.07839   0.29572264   -107.78267   -11092.065    4.3201524    4.3201524    4.3201524   -11092.065    21211.275   -47672.445   -6815.0239     2184.012    108.64931    21878.735    80.630098 
   68900    927.04625   -108.61284   0.83881093   -107.77403    6453.8808    4.3154601    4.3154601    4.3154601    6453.8808    17277.324   -14443.747    16528.065   -2029.5318   -332.43173    2620.7474    80.367659 
   69000    712.08621   -108.42385   0.64431057   -107.77954   -9393.8289    4.3210748    4.3210748    4.3210748   -9393.8289   -7264.4172    -7277.687   -13639.383    4397.7808   -8949.5199    930.98315     80.68176 
   69100    634.32643   -108.35664   0.57395188   -107.78268   -10897.988    4.3181604    4.3181604    4.3181604   -10897.988    8746.7285   -21026.722   -20413.969    3667.5414    5113.3233    24575.886    80.518617 
   69200     975.7247   -108.65784   0.88285621   -107.77498     15053.02    4.3156189    4.3156189    4.3156189     15053.02    14852.908    5289.5634    25016.589   -1415.7076   -7882.2657   -4619.1003    80.376533 
   69300    393.97366   -108.13963   0.35647564   -107.78315   -9766.3222    4.3224183    4.3224183    4.3224183   -9766.3222    16913.061   -37151.322   -9060.7052    115.20122   -10760.896     11839.51     80.75704 
   69400    542.19811   -108.27071   0.49059224   -107.78011   -2168.0176     4.316324     4.316324     4.316324   -2168.0176      34843.8   -38791.498   -2556.3541    1193.2809    3036.2153    15239.031    80.415934 
   69500    989.19982   -108.66865   0.89504878    -107.7736   -673.97281    4.3198803    4.3198803    4.3198803   -673.97281    2925.3539   -7494.6823      2547.41   -5283.8715   -845.61146   -6012.5968    80.614869 
   69600    568.79952    -108.2969   0.51466176   -107.78224   -8877.3884    4.3183498    4.3183498    4.3183498   -8877.3884    12487.927   -16242.758   -22877.334   -373.25732   -5411.3358    19714.563    80.529216 
   69700    916.92193   -108.60721   0.82965024   -107.77756     5501.328     4.318624     4.318624     4.318624     5501.328     16691.35   -9433.4054    9246.0398   -5108.7559    3926.3738    2350.7144    80.544555 
   69800    725.21363   -108.43278   0.65618853   -107.77659   -653.60222    4.3214135    4.3214135    4.3214135   -653.60222    12463.542   -17498.253    3073.9048   -1752.7263      -9904.5    4340.9675    80.700732 
   69900     238.4157   -107.99849   0.21572354   -107.78276   -395.11989    4.3127484    4.3127484    4.3127484   -395.11989    45515.036   -37063.974   -9636.4217    1302.8891   -6834.0773    23193.975    80.216255 
   70000     937.7566   -108.62387   0.84850188   -107.77536   -4349.0887    4.3228833    4.3228833    4.3228833   -4349.0887    6113.5566   -24666.167    5505.3446    1580.0269    138.94363   -5079.8478    80.783106 
   70100    675.00608   -108.39152   0.61075968   -107.78076    2815.0491    4.3188191    4.3188191    4.3188191    2815.0491    28222.202   -9821.1187   -9955.9362   -2202.0593   -2124.0727    15716.406    80.555468 
   70200    735.63992   -108.44682   0.66562246    -107.7812   -2056.2419    4.3171375    4.3171375    4.3171375   -2056.2419    15665.726   -7542.4823   -14291.969    488.20872   -8998.3164    13192.938    80.461413 
   70300    1028.0602   -108.70404   0.93021044   -107.77383    10689.828    4.3187797    4.3187797    4.3187797    10689.828    27971.864   -5324.3834    9422.0045   -7372.6263    5113.8914   -8000.6434    80.553264 
   70400    310.81776   -108.06517   0.28123444   -107.78394   -5622.4091    4.3197884    4.3197884    4.3197884   -5622.4091    33218.116   -37304.989   -12780.354   -2017.0309   -4851.6146     23823.17    80.609721 
   70500    619.43814   -108.34058   0.56048064    -107.7801   -5057.5322    4.3170001    4.3170001    4.3170001   -5057.5322    17025.954   -25985.481   -6213.0689   -929.67611   -2784.2895    3152.2423    80.453729 
   70600    915.37639   -108.60469   0.82825179   -107.77644     4134.329     4.317645     4.317645     4.317645     4134.329    17886.989    -13068.71     7584.707   -806.18798    3700.9317    1408.6659    80.489791 
   70700    491.38959   -108.22896   0.44461963   -107.78434   -18909.499    4.3243829    4.3243829    4.3243829   -18909.499   -1395.3224    -22346.08   -32987.093   -2279.2646   -5067.6863    27280.271    80.867203 
   70800     917.1292   -108.60603   0.82983777    -107.7762    11384.064    4.3123945    4.3123945    4.3123945    11384.064    24610.745    6291.4943    3249.9536    316.66807    -11753.21   -4998.2728    80.196507 
   70900    677.16609   -108.39171   0.61271411     -107.779   -1082.5832     4.321574     4.321574     4.321574   -1082.5832    32939.425   -29734.402    -6452.773   -3962.9752    2975.1298    13426.309    80.709725 
   71000    454.52144   -108.19228   0.41126055   -107.78102   -15634.104    4.3224596    4.3224596    4.3224596   -15634.104    11097.677   -34123.711   -23876.277    1467.9454   -8364.5437    15623.173    80.759352 
   71100    920.72567   -108.60588   0.83309194   -107.77279    9410.4287    4.3139009    4.3139009    4.3139009    9410.4287    26199.801   -7117.9496    9149.4349    3578.8814    -4164.654   -6513.2231    80.280577 
   71200    633.12733   -108.35213   0.57286691   -107.77926   -13228.538    4.3215193    4.3215193    4.3215193   -13228.538    13931.384    -27682.24   -25934.759    908.34038    5850.7782    22749.562    80.706659 
   71300    634.70893   -108.35338   0.57429798   -107.77909     4809.789    4.3173035    4.3173035    4.3173035     4809.789    25432.214     2461.851   -13464.698   -4040.1972   -7696.6076    1.9964565    80.470691 
   71400    858.32603    -108.5518   0.77663143   -107.77517   -349.19039    4.3206666    4.3206666    4.3206666   -349.19039    18205.325    -15553.69   -3699.2059    2836.8491      420.476     5452.341    80.658894 
   71500    537.61255   -108.26615   0.48644314    -107.7797     -3583.93    4.3157637    4.3157637    4.3157637     -3583.93    28539.914    -27012.71   -12278.995   -176.56736    4848.7425    24899.236    80.384622 
   71600    818.59182   -108.51665   0.74067908   -107.77597    -2365.375    4.3217092    4.3217092    4.3217092    -2365.375    9947.7002   -12239.408   -4804.4167   -1436.0973     -6852.42   -8231.0675      80.7173 
   71700    658.25481   -108.37417   0.59560279   -107.77857   -4849.3763    4.3194564    4.3194564    4.3194564   -4849.3763    26801.008   -28387.291   -12961.846    11084.204   -4718.5115    19842.195     80.59114 
   71800    615.99072   -108.33678   0.55736135   -107.77942    5278.7018    4.3144393    4.3144393    4.3144393    5278.7018    31616.123   -4615.1563   -11164.861    2030.2178   -86.289245    12538.307    80.310639 
   71900    900.73902   -108.58828    0.8150076   -107.77327   -7306.1853    4.3257569    4.3257569    4.3257569   -7306.1853   -3506.2005   -7118.1947   -11294.161    2929.8084   -10543.099   -9018.2441    80.944308 
   72000     537.2157   -108.26502   0.48608406   -107.77893   -2723.1185     4.312592     4.312592     4.312592   -2723.1185    18193.381   -27507.108     1144.372    7030.1742    3697.8111    28562.536    80.207525 
   72100    709.95851   -108.42192   0.64238538   -107.77953    569.34877    4.3187766    4.3187766    4.3187766    569.34877    18758.559   -12578.726   -4471.7866    73.322965    2401.4935   -830.46831    80.553093 
   72200    749.08329    -108.4561   0.67778631   -107.77832     127.7869    4.3201238    4.3201238    4.3201238     127.7869    22637.333   -13980.833   -8273.1392   -2589.9469    1660.2343    4737.5203    80.628499 
   72300    422.82503   -108.16506   0.38258098   -107.78248    1723.0004    4.3177276    4.3177276    4.3177276    1723.0004    42076.563   -18491.838   -18415.724    7621.5899   -3366.2163    27784.523    80.494411 
   72400    1093.1833   -108.76138   0.98913521   -107.77225    384.64334    4.3200259    4.3200259    4.3200259    384.64334    4926.4559    5446.8506   -9219.3765   -1316.2787    5094.7012   -8067.3005     80.62302 
   72500    650.06885   -108.36737   0.58819596   -107.77917    4445.9415    4.3142631    4.3142631    4.3142631    4445.9415    25922.857   -9764.4502   -2820.5822    3572.7349   -4465.5792    21963.715    80.300801 
   72600    589.77548    -108.3157   0.53364125   -107.78205   -14033.602    4.3242466    4.3242466    4.3242466   -14033.602    6504.1092   -37745.409   -10859.507    8998.7501    3879.9147    15558.699    80.859559 
   72700    857.35177    -108.5499    0.7757499   -107.77415    15984.339    4.3131288    4.3131288    4.3131288    15984.339    32854.423    7147.6592    7950.9346    1665.0215   -1396.4935   -6819.8653    80.237483 
   72800    358.51816   -108.10865   0.32439476   -107.78425   -7848.2479    4.3195628    4.3195628    4.3195628   -7848.2479    29108.391   -24000.954   -28652.181    1455.8028   -1736.8298    30095.444    80.597093 
   72900    768.86043   -108.47541   0.69568108   -107.77973    -6839.231     4.320629     4.320629     4.320629    -6839.231   -1966.7811   -7065.5339   -11485.378    14238.918   -7039.0666    1726.5237     80.65679 
   73000    970.81518   -108.65402   0.87841398    -107.7756    5810.2456    4.3134417    4.3134417    4.3134417    5810.2456     13240.53    4661.6718   -471.46546   -3214.6729    5315.7447    6046.5268    80.254944 
   73100    502.51074   -108.23655   0.45468227   -107.78187   -20919.782    4.3251403    4.3251403    4.3251403   -20919.782   -606.32716    -41919.85   -20233.168    8239.5172    1.4158264    32567.204    80.909703 
   73200    876.87471   -108.56836   0.79341466   -107.77494    9188.4503    4.3131832    4.3131832    4.3131832    9188.4503    11114.824   -1997.0844    18447.611    6273.5221    1054.8941   -8232.6434    80.240514 
   73300    641.17551   -108.35784   0.58014908   -107.77769   -1835.0797    4.3201731    4.3201731    4.3201731   -1835.0797     30117.92     -13842.2   -21780.959   -3697.4936     1655.388    21265.287    80.631261 
   73400    444.67353   -108.18278   0.40234995   -107.78043   -9425.1696     4.319239     4.319239     4.319239   -9425.1696    4327.3762   -13806.671   -18796.214    8138.3255   -4538.0086    17463.904    80.578967 
   73500    839.34225   -108.53389    0.7594545   -107.77443    2537.2188    4.3168545    4.3168545    4.3168545    2537.2188   -3074.7202    8695.2007    1991.1759    10778.745   -2302.4916   -6686.5041    80.445588 
   73600    737.56036   -108.44508   0.66736012   -107.77772   -7534.0529    4.3197575    4.3197575    4.3197575   -7534.0529    9548.1182   -19100.456   -13049.821   -2722.7086    2280.9701    26172.642    80.607991 
   73700    710.94203   -108.42202   0.64327529   -107.77874    2815.9075    4.3145235    4.3145235    4.3145235    2815.9075    3523.5638   -8454.2966    13378.455    16316.405   -1967.0899    4824.3222    80.315343 
   73800    840.88836   -108.53651   0.76085346   -107.77566    529.42726    4.3229875    4.3229875    4.3229875    529.42726    11628.356   -10225.559    185.48472    6777.1722   -3897.2927   -487.84517    80.788944 
   73900    605.26875   -108.32597   0.54765988   -107.77831    5831.7096     4.313526     4.313526     4.313526    5831.7096     26197.71   -3725.1812   -4977.4003   -5587.1964     673.1674    21264.605    80.259652 
   74000    534.82042   -108.26341   0.48391676   -107.77949    -4017.103     4.319117     4.319117     4.319117    -4017.103   -11052.655    980.84609   -1979.5003    21204.354   -4246.1317    85.924211    80.572144 
   74100    742.22945   -108.44762    0.6715848   -107.77603   -3069.1549    4.3203339    4.3203339    4.3203339   -3069.1549   -5162.3875   -6637.2227    2592.1453      -87.136    670.87148    6851.3459    80.640262 
   74200    737.32527   -108.44378    0.6671474   -107.77664    3718.3968    4.3133923    4.3133923    4.3133923    3718.3968    12673.743   -4451.7222    2933.1692    198.02444    2751.7425    18201.999    80.252185 
   74300    798.55646   -108.49993   0.72255067   -107.77738   -5860.7526    4.3229608    4.3229608    4.3229608   -5860.7526   -17189.497   -16702.174    16309.413    18331.115    2907.4764   -5764.7493     80.78745 
   74400    800.74058   -108.49967    0.7245269   -107.77515    7822.8069    4.3152514    4.3152514    4.3152514    7822.8069    22081.116   -698.20758    2085.5124   -2651.1792   -4015.5556    8570.0826    80.356002 
   74500    544.19046   -108.27028   0.49239497   -107.77789    -4574.419    4.3187081    4.3187081    4.3187081    -4574.419    1998.6781   -10388.471   -5333.4643    6772.4368    2340.8992    9489.4545    80.549262 
   74600    581.66704   -108.30241   0.52630456   -107.77611   -3859.4027    4.3194111    4.3194111    4.3194111   -3859.4027   -18157.729    1567.1044    5012.4163    21393.628   -1899.3717   -2087.8611    80.588602 
   74700    697.39796   -108.40714   0.63102033   -107.77612    2040.0329    4.3156768    4.3156768    4.3156768    2040.0329    11705.466   -639.95154   -4945.4153   -7464.8593    1075.0421    14161.185    80.379767 
   74800    760.90439   -108.46615   0.68848228   -107.77767   -8582.9731     4.320736     4.320736     4.320736   -8582.9731   -14438.392   -19647.352     8336.825    8338.2156    3057.6352    4887.4139    80.662783 
   74900    874.17153   -108.56685   0.79096877   -107.77588    6129.0096    4.3158694    4.3158694    4.3158694    6129.0096   -353.65109    2372.6209    16368.059    12952.372   -1355.8999   -3078.2101    80.390526 
   75000     684.9111   -108.39709   0.61972195   -107.77737    -4088.894    4.3202331    4.3202331    4.3202331    -4088.894    7970.1769   -16135.945   -4100.9135   -8817.7168   -577.63266    11465.901    80.634617 
   75100    515.52249   -108.24458   0.46645558   -107.77812    1611.1271     4.315309     4.315309     4.315309    1611.1271   -12076.935    11030.619     5879.698    17786.314   -883.94887    2370.3211    80.359215 
   75200     657.7045   -108.37198   0.59510485   -107.77687    3500.2954    4.3186999    4.3186999    4.3186999    3500.2954    188.54359    6311.2389    4001.1038    6307.3921    1402.0583   -1598.8657    80.548803 
   75300    686.63776   -108.39887   0.62128428   -107.77759    -7347.223    4.3209742    4.3209742    4.3209742    -7347.223    4496.9081   -19416.048   -7122.5291   -5440.3108   -1734.2846    9914.6379    80.676121 
   75400    852.82331   -108.54782   0.77165246   -107.77616    10039.085    4.3128701    4.3128701    4.3128701    10039.085   -8222.4356     9275.782     29063.91    12549.472     6252.729   -1522.8752    80.223042 
   75500    850.46096   -108.54452   0.76951495   -107.77501   -5621.2618     4.323132     4.323132     4.323132   -5621.2618     269.4193   -15355.752   -1777.4523    540.35114    559.33758    3681.7181    80.797047 
   75600    504.12427   -108.23438   0.45614224   -107.77824    598.78245    4.3161098    4.3161098    4.3161098    598.78245   -921.26242    2455.0453    262.56452   -2403.3028    38.434083    10488.483    80.403963 
   75700    696.99838   -108.40617   0.63065879   -107.77551    1815.9318     4.316214     4.316214     4.316214    1815.9318   -13231.588    5067.6531     13611.73    16752.818   -335.57326   -1401.4954    80.409785 
   75800     642.0742   -108.35856   0.58096223    -107.7776   -5010.4914    4.3202534    4.3202534    4.3202534   -5010.4914    8002.3979   -13389.548   -9644.3242   -3827.7326   -1994.9276   -1300.8248    80.635758 
   75900    657.79364   -108.37524   0.59518551   -107.78005   -81.003243    4.3170405    4.3170405    4.3170405   -81.003243     5907.211   -14387.276    8237.0556     -3743.01   -583.70943    3484.3193    80.455987 
   76000    991.66086   -108.67216   0.89727559   -107.77489     4253.766    4.3175419    4.3175419    4.3175419     4253.766    -4255.636   -1233.4085    18250.342     7242.552    424.25749   -2310.8287    80.484022 
   76100     502.9866   -108.23626   0.45511285   -107.78115   -5561.4111    4.3191213    4.3191213    4.3191213   -5561.4111    9051.6218   -19746.985   -5988.8699   -8038.9169    3022.5056    5990.0094    80.572382 
   76200      604.328   -108.32622   0.54680867   -107.77941   -7675.7026    4.3185151    4.3185151    4.3185151   -7675.7026   -14928.507    -13923.27    5824.6688    1399.4639    -3610.548    6361.1226    80.538461 
   76300     884.7172   -108.57432   0.80051072   -107.77381    2562.5516    4.3163505    4.3163505    4.3163505    2562.5516   -5424.4685    3099.6467    10012.477    5427.3316    2170.2156    -3650.545    80.417416 
   76400     501.1504   -108.23624   0.45345142   -107.78279     -11581.4    4.3202985    4.3202985    4.3202985     -11581.4    6260.3331   -29675.162   -11329.372   -10160.319   -1678.7086    1278.0735    80.638279 
   76500    865.42652   -108.56267   0.78305611   -107.77962    8903.1607    4.3165849    4.3165849    4.3165849    8903.1607    1506.9326   -2850.3822    28052.932   -1356.9292     3187.261    2731.3851    80.430516 
   76600     860.9778   -108.55666   0.77903081   -107.77763    6178.4266    4.3175967    4.3175967    4.3175967    6178.4266    10817.492   -11724.817    19442.605   -4.4513038    2056.7942   -1738.6486    80.487088 
   76700    243.74376   -108.00635   0.22054448    -107.7858   -11891.437    4.3206981    4.3206981    4.3206981   -11891.437    4915.5013   -36752.454   -3837.3588   -11976.948    332.75248    4373.9198     80.66066 
   76800    909.70951   -108.59976   0.82312428   -107.77663    4236.2607    4.3156003    4.3156003    4.3156003    4236.2607   -2714.5868    9686.5821    5736.7868    3511.0477    113.37944    883.25205    80.375491 
   76900    780.23645   -108.48619   0.70597434   -107.78022   -4618.1181    4.3194858    4.3194858    4.3194858   -4618.1181   -2856.2168   -15150.456    4152.3188   -3612.3292   -4956.8352   -563.47486    80.592783 
   77000    464.02972    -108.2066   0.41986384   -107.78673   -4117.5732    4.3185725    4.3185725    4.3185725   -4117.5732    2407.1638   -22140.631     7380.748   -10495.059    212.13792    7234.7535    80.541675 
   77100    1118.5915    -108.7874    1.0121251   -107.77527    9178.3739     4.316365     4.316365     4.316365    9178.3739   -687.49853   -1577.8669    29800.487    651.49449   -1893.5828   -62.112203    80.418227 
   77200    505.27946   -108.24115   0.45718747   -107.78396    -8824.799    4.3203033    4.3203033    4.3203033    -8824.799    9866.8088   -28327.865   -8013.3406   -6666.0785    4026.0591   -711.68346    80.638548 
   77300    414.35874   -108.15945    0.3749205   -107.78453     -7341.12    4.3181287    4.3181287    4.3181287     -7341.12    2467.2348   -14457.902   -10032.693   -8520.5967   -3574.0617    3247.9147    80.516844 
   77400    1007.6991   -108.68629   0.91178729   -107.77451    9356.8013    4.3168328    4.3168328    4.3168328    9356.8013    1846.4277    9129.6092    17094.367    5361.4045    211.01026    678.55969    80.444376 
   77500    541.14188    -108.2737   0.48963655   -107.78406    1881.5346    4.3186486    4.3186486    4.3186486    1881.5346     5853.557   -15936.112    15727.159   -4155.6232   -271.75614    5772.7388    80.545933 
   77600    776.96254    -108.4832   0.70301204   -107.78019   -1014.9735    4.3201092    4.3201092    4.3201092   -1014.9735    4597.5199   -16913.811    9271.3706   -3188.8711   -2852.7369    3134.8199    80.627684 
   77700    915.69455   -108.60309   0.82853967   -107.77455     6157.211     4.315195     4.315195     4.315195     6157.211    2413.8903   -3471.9275     19529.67    6811.3453    4875.9556   -1142.8516     80.35285 
   77800    363.30534   -108.11092   0.32872631    -107.7822   -10014.502    4.3210421    4.3210421    4.3210421   -10014.502    1236.8174   -24245.825   -7034.4988   -8072.9324    626.42184    2187.2246    80.679925 
   77900    706.60575   -108.41821   0.63935173   -107.77886    2844.0971    4.3185264    4.3185264    4.3185264    2844.0971    510.52098    1095.1947    6926.5757    980.64564    353.14637   -311.48384    80.539091 
   78000    875.50787   -108.56845   0.79217792   -107.77627    7577.2995    4.3152363    4.3152363    4.3152363    7577.2995   -5146.0185    4981.4144    22896.503    9220.0498   -336.35179    4459.1557    80.355153 
   78100    666.82223   -108.38387   0.60335477   -107.78052   -4810.7172    4.3209011    4.3209011    4.3209011   -4810.7172    5059.1281   -19893.426    402.14653   -7687.4348    2211.4733    2750.4169    80.672027 
   78200    858.36889   -108.55208   0.77667021   -107.77541    4635.1803    4.3149302    4.3149302    4.3149302    4635.1803     12423.96   -9405.7173    10887.298     7974.728   -1062.2005   -2435.8887    80.338059 
   78300    554.01814   -108.27988   0.50128725   -107.77859   -4779.6802    4.3208329    4.3208329    4.3208329   -4779.6802   -9341.6379   -18492.939    13495.536    7405.2462    1614.7557    3961.0595    80.668209 
   78400    498.18914   -108.23006   0.45077201   -107.77928   -3372.9423     4.318192     4.318192     4.318192   -3372.9423    14083.077   -9186.5742    -15015.33   -9526.2706    2599.6919    6054.0953    80.520387 
   78500      798.581   -108.49849   0.72257287   -107.77591     5176.923    4.3148158    4.3148158    4.3148158     5176.923   -7755.7519    7422.8218    15863.699    16685.017   -4159.1573   -2005.4526    80.331667 
   78600    838.21722   -108.53521   0.75843656   -107.77678   -10001.876    4.3236977    4.3236977    4.3236977   -10001.876    -16132.44   -17352.782    3479.5939    7086.4981    953.00754    7718.5899    80.828771 
   78700    795.69168   -108.49605   0.71995855   -107.77609    3793.3102    4.3135992    4.3135992    4.3135992    3793.3102    23677.693   -11855.652    -442.1109   -2461.1673    -490.4068    1637.3348    80.263733 
   78800    645.18641   -108.36098   0.58377822    -107.7772   -8232.2276    4.3206871    4.3206871    4.3206871   -8232.2276    -13990.45   -24822.499    14116.266    19938.851    6279.5888   -3759.8771    80.660043 
   78900    497.30924   -108.22697   0.44997585     -107.777   -698.83099    4.3190333    4.3190333    4.3190333   -698.83099    6495.5959   -10144.243    1552.1543    462.24205    2498.7164    10387.417    80.567456 
   79000    621.08344   -108.33777   0.56196935    -107.7758    2242.8395    4.3157827    4.3157827    4.3157827    2242.8395    7589.4497    2831.2021   -3692.1332   -1117.7835    2345.0044    3308.4327    80.385683 
   79100    776.16142   -108.47872   0.70228717   -107.77643   -11185.569     4.321726     4.321726     4.321726   -11185.569   -28639.427    -13198.93     8281.651    22923.958    576.94705   -3452.8405    80.718241 
   79200    932.65849   -108.61934     0.843889   -107.77545    2232.0496     4.314347     4.314347     4.314347    2232.0496    8188.5685   -3404.3287    1911.9091    -3564.123    -3847.723     11356.64    80.305489 
   79300    728.47714   -108.43677   0.65914142   -107.77763   -8384.2559    4.3205327    4.3205327    4.3205327   -8384.2559     539.2765   -27589.682    1897.6382    8694.9311   -315.70449     1899.595    80.651398 
   79400    532.06513   -108.25994   0.48142371   -107.77851    159.95444    4.3163632    4.3163632    4.3163632    159.95444   -7887.1764   -7382.3112    15749.351     17926.44   -698.59979    253.39211    80.418123 
   79500    542.07345   -108.26774   0.49047945   -107.77726    3683.8508    4.3177293    4.3177293    4.3177293    3683.8508    22689.108    2737.2284   -14374.784   -6967.8983    2343.5358    18984.715    80.494505 
   79600    658.25768   -108.37291   0.59560538   -107.77731   -8382.8988    4.3205971    4.3205971    4.3205971   -8382.8988    -14999.03   -11471.176    1321.5098    18848.428   -2870.1319   -2343.8083    80.655001 
   79700    893.35369   -108.58444   0.80832519   -107.77612    2448.2633     4.314369     4.314369     4.314369    2448.2633   -3648.7845    1256.5882    9736.9862    11071.266    1615.0491    664.09238    80.306713 
   79800    875.17301   -108.56843   0.79187493   -107.77656   -3499.9173    4.3214562    4.3214562    4.3214562   -3499.9173    13398.708   -20196.389   -3702.0704   -2178.7933   -1473.8342    15188.728    80.703123 
   79900    683.92092   -108.39607   0.61882602   -107.77725    2208.8389    4.3153712    4.3153712    4.3153712    2208.8389    262.20575   -13712.221    20076.533    14499.408    2899.2437    -3078.128    80.362692 
   80000    480.45802   -108.21248   0.43472851   -107.77775    6425.1737    4.3176949    4.3176949    4.3176949    6425.1737    17486.762    1258.7189    530.04008    2597.0911    3200.0713    10821.359     80.49258 
   80100    538.10941   -108.26386   0.48689271   -107.77697   -5292.3083    4.3215847    4.3215847    4.3215847   -5292.3083    8709.8787   -6910.0825   -17676.721   -2727.6129    208.86296    16227.385    80.710321 
   80200    789.62538   -108.48943   0.71446964   -107.77496    5387.7839     4.312693     4.312693     4.312693    5387.7839   -3339.9856     4459.291    15044.046    15878.102    743.02511   -8296.8445    80.213158 
   80300    886.22925   -108.57916   0.80187885   -107.77728   -7509.7292    4.3211476    4.3211476    4.3211476   -7509.7292    246.48641   -13340.526   -9435.1481    1042.1001   -2069.8649     15897.67    80.685835 
   80400    812.97544   -108.51316   0.73559726   -107.77757    2035.0416    4.3181937    4.3181937    4.3181937    2035.0416     12511.23   -12443.528    6037.4229    2121.5904   -48.179134    9296.2468    80.520479 
   80500    738.66474   -108.44398   0.66835938   -107.77562    5299.5658    4.3165283    4.3165283    4.3165283    5299.5658   -348.84399   -2280.9427    18528.484    13069.254   -1980.6162   -1664.0953    80.427354 
   80600    355.94564   -108.10153   0.32206709   -107.77946   -921.58997    4.3182823    4.3182823    4.3182823   -921.58997    19763.964    1074.3935   -23603.127   -4798.2818    878.84124    26024.344    80.525436 
   80700    663.81194   -108.37767   0.60063099   -107.77704    -3287.265    4.3172072    4.3172072    4.3172072    -3287.265   -4404.0846    1945.1535    -7402.864    8373.0495   -3078.7767    1624.7937    80.465306 
   80800    846.98238   -108.54287   0.76636746   -107.77651   -6787.6033    4.3198566    4.3198566    4.3198566   -6787.6033   -16336.864   -6494.2354     2468.289    7103.6201    459.27541    2494.6462    80.613539 
   80900     704.8959   -108.41919   0.63780463   -107.78139    2061.0031    4.3145116    4.3145116    4.3145116    2061.0031    15108.244   -4249.7466   -4675.4883   -1194.0295   -2163.6039    24105.286    80.314678 
   81000    972.65188   -108.65668   0.88007586    -107.7766    3206.0694      4.32148      4.32148      4.32148    3206.0694   -2490.8005   -11410.816    23519.825    2138.8806    5995.4529   -3371.7993     80.70446 
   81100    573.92485   -108.29879   0.51929926   -107.77949    4523.8193    4.3167917    4.3167917    4.3167917    4523.8193    16013.559    2503.8095   -4945.9105    4027.5061    4382.1545    12075.681     80.44208 
   81200    426.94894    -108.1661   0.38631237   -107.77978     -5023.11    4.3170117    4.3170117    4.3170117     -5023.11    10696.267    1282.7712   -27048.368   -6362.4909   -1096.2187    22800.989    80.454376 
   81300    770.00552   -108.47008   0.69671718   -107.77336   -4571.0071    4.3217986    4.3217986    4.3217986   -4571.0071   -17694.161   -2584.0809    6565.2204    2915.5637    1294.0863   -9849.9103    80.722307 
   81400    617.56354   -108.33676   0.55878447   -107.77797   -2298.1307    4.3136186    4.3136186    4.3136186   -2298.1307   -1555.5679   -5063.0274   -275.79688    5528.6946   -2388.6298    24305.364    80.264821 
   81500     819.7327   -108.52123   0.74171138   -107.77951   -763.69911    4.3210691    4.3210691    4.3210691   -763.69911    2906.2648   -10831.596     5634.234    -3167.614   -1829.9701    14515.989    80.681441 
   81600    999.39528   -108.68011   0.90427385   -107.77584    5601.0944    4.3167695    4.3167695    4.3167695    5601.0944    1871.6247    -114.7045    15046.363    5900.2336    562.47725   -3208.1806    80.440835 
   81700    443.37185   -108.18371   0.40117217   -107.78254   -1637.4976    4.3168467    4.3168467    4.3168467   -1637.4976    22813.966   -222.27424   -27504.185    -652.5006    4068.4767    28274.603    80.445154 
   81800    688.76932   -108.39996   0.62321295   -107.77675   -7021.4864    4.3207086    4.3207086    4.3207086   -7021.4864   -6211.8588    1227.3175   -16079.918   -2195.7569   -5991.3612    270.39571    80.661244 
   81900    625.92856   -108.34266   0.56635331    -107.7763    1803.0509    4.3144671    4.3144671    4.3144671    1803.0509   -11711.038    1129.9835    15990.207   -1792.1815    2830.3714     843.5824    80.312195 
   82000    568.23403   -108.29479    0.5141501   -107.78064   -8182.1785     4.321569     4.321569     4.321569   -8182.1785   -1197.3588    -10423.52   -12925.656    4528.4953    401.97954    25080.644    80.709445 
   82100    1009.9095   -108.68878   0.91378737   -107.77499    9914.2016    4.3145688    4.3145688    4.3145688    9914.2016    1550.4468    7581.4691    20610.689   -10494.604    330.87593   -2015.6211    80.317875 
   82200    714.74846   -108.42632   0.64671943    -107.7796    453.63419    4.3186188    4.3186188    4.3186188    453.63419    11525.312   -417.87685   -9746.5327   -529.09261    4188.7109    10299.625    80.544263 
   82300    638.17496   -108.35567   0.57743411   -107.77823   -6786.4197    4.3206966    4.3206966    4.3206966   -6786.4197     16003.32   -1799.3254   -34563.253    -1322.691    4385.4119    19369.018    80.660573 
   82400    687.97416   -108.39751   0.62249348   -107.77501    8219.0236    4.3126349    4.3126349    4.3126349    8219.0236    181.77577    8949.5307    15525.764   -11015.263   -4142.5125   -10063.661    80.209919 
   82500    499.22629   -108.23105   0.45171044   -107.77934    -12442.06    4.3230751    4.3230751    4.3230751    -12442.06   -10561.303   -14677.235   -12087.642    6036.6411    2381.6047     16079.26    80.793859 
   82600    783.67281   -108.48504   0.70908362   -107.77595    4909.0257     4.316302     4.316302     4.316302    4909.0257     569.0295    8743.4142    5414.6333   -500.70752     2193.915    11790.899    80.414702 
   82700    831.13222   -108.52785    0.7520259   -107.77583   -1600.5549    4.3180228    4.3180228    4.3180228   -1600.5549   -9206.3189   -4321.3331    8725.9874   -14606.522   -2467.5996   -6144.0975    80.510921 
   82800    706.38793   -108.41689   0.63915465   -107.77773   -4435.8658    4.3181114    4.3181114    4.3181114   -4435.8658    20468.021   -8674.3602   -25101.258     1705.386    3553.9182    19528.736    80.515876 
   82900    735.90395   -108.44145   0.66586136   -107.77558    2952.7233     4.316947     4.316947     4.316947    2952.7233    13222.683    2968.6662   -7333.1797   -5959.3016    1243.0262   -1699.8788    80.450757 
   83000    537.16172   -108.26412   0.48603521   -107.77808   -10822.184    4.3211745    4.3211745    4.3211745   -10822.184   -8269.0638   -19637.644   -4559.8439   -15664.738   -683.23029   -2490.8154    80.687342 
   83100    669.56381   -108.38294    0.6058354    -107.7771    6939.0436       4.3125       4.3125       4.3125    6939.0436    11473.828    5413.0606    3930.2418    10125.649   -488.68024    15613.519    80.202394 
   83200    796.67237   -108.49759    0.7208459   -107.77674   -7231.3619    4.3224579    4.3224579    4.3224579   -7231.3619   -24626.514   -6932.3146    9864.7431    -16754.33     6711.294   -4688.3598    80.759256 
   83300    696.19592   -108.40913    0.6299327    -107.7792   -5152.9706    4.3171308    4.3171308    4.3171308   -5152.9706    7316.7649   -21388.777   -1386.8999   -12459.326   -1891.6454    1956.2575    80.461035 
   83400    776.69221   -108.47867   0.70276744    -107.7759    6339.4979    4.3148053    4.3148053    4.3148053    6339.4979      31237.7    799.93884   -13019.145    5718.5761    6464.0478     14185.36     80.33108 
   83500    588.08373   -108.30963   0.53211052   -107.77752    -9703.186    4.3228453    4.3228453    4.3228453    -9703.186   -3230.2281   -18642.095   -7237.2349   -15649.163    67.048557   -8604.0175    80.780971 
   83600    592.46343   -108.31328   0.53607336    -107.7772    2702.6839    4.3149441    4.3149441    4.3149441    2702.6839    8819.9768   -5882.3591     5170.434    -1869.046   -1312.2132    8921.8164    80.338835 
   83700    919.73456   -108.60628   0.83219516   -107.77408   -1047.4505    4.3182294    4.3182294    4.3182294   -1047.4505   -9225.7069    2977.9277    3105.4277   -114.45939     3247.542    9576.5327    80.522479 
   83800    608.19833   -108.32932   0.55031063   -107.77901    -6766.303    4.3211296    4.3211296    4.3211296    -6766.303    -12588.22   -18886.812    11176.123   -22987.259    1824.0145    -8187.108    80.684826 
   83900    723.54272   -108.43184   0.65467665   -107.77716    3858.2479    4.3156062    4.3156062    4.3156062    3858.2479    31757.393   -9776.4799   -10406.169   -3196.1697    283.69018    11480.652    80.375821 
   84000    713.32006   -108.42148   0.64542698   -107.77605    3068.4442    4.3174398    4.3174398    4.3174398    3068.4442    18700.297    5199.1985   -14694.162   -3341.7998    8426.6349    -596.9626    80.478314 
   84100    486.79618   -108.22182   0.44046342   -107.78136   -6548.9851    4.3193202    4.3193202    4.3193202   -6548.9851    -6021.858   -12867.097   -758.00073   -21473.666    3098.2138   -4050.0731    80.583512 
   84200    947.96153   -108.63435   0.85773551   -107.77662    1590.9061    4.3171932    4.3171932    4.3171932    1590.9061    6573.8173    482.95322   -2284.0522    5760.6139   -1244.9524    7753.3794    80.464528 
   84300    766.98918   -108.47205   0.69398793   -107.77806    629.25927    4.3179999    4.3179999    4.3179999    629.25927   -9375.4722    741.34715    10521.903   -13324.205    7619.6168   -731.51677     80.50964 
   84400    515.86231   -108.24811   0.46676306   -107.78135   -3528.6308    4.3187924    4.3187924    4.3187924   -3528.6308    8501.0337   -20564.902    1477.9756   -14750.875   -115.95003   -4755.9842    80.553974 
   84500    797.42643   -108.49565   0.72152819   -107.77413    4982.8359     4.317481     4.317481     4.317481    4982.8359    25736.585     8681.405   -19469.482    7558.5976    1883.9977    4792.3986    80.480617 
   84600    510.36145   -108.24196   0.46178576   -107.78018   -9177.1098    4.3176368    4.3176368    4.3176368   -9177.1098   -12026.732   -2000.9152   -13503.682   -17006.387    7178.7188   -3475.0901     80.48933 
   84700    651.76042    -108.3717   0.58972653   -107.78197   -3390.7828    4.3182382    4.3182382    4.3182382   -3390.7828    2757.0679   -11566.935   -1362.4812   -13728.219   -1604.3908   -5144.6295    80.522972 
   84800    1075.9623   -108.74862   0.97355328   -107.77506    7567.9333    4.3183198    4.3183198    4.3183198    7567.9333    13015.503    7055.9423    2632.3542    3709.9273    2545.3397    6436.4676    80.527534 
   84900    527.04526    -108.2602   0.47688162   -107.78332   -2985.9936     4.317205     4.317205     4.317205   -2985.9936    66.859602   -20373.562    11348.721   -19762.717    7192.2021    -6263.346    80.465183 
   85000    652.80695   -108.37013   0.59067345   -107.77946   -1247.1318    4.3188731    4.3188731    4.3188731   -1247.1318    14996.851   -10767.313   -7970.9334   -7585.0664     1016.638   -1139.5311    80.558492 
   85100    788.43087   -108.48857   0.71338882   -107.77518   -3746.0855    4.3191977    4.3191977    4.3191977   -3746.0855   -4443.0926    10331.839   -17127.003    4872.7718    6359.1797    1229.0757    80.576657 
   85200    360.97523   -108.10958   0.32661797   -107.78297   -7759.6163    4.3169544    4.3169544    4.3169544   -7759.6163   -2547.2037   -14260.959    -6470.686   -19824.219    2884.0734   -6284.0721    80.451174 
   85300    945.10334   -108.63372   0.85514936   -107.77857    7751.7579    4.3186995    4.3186995    4.3186995    7751.7579    20229.442   -431.82474    3457.6568   -146.13408   -1935.8763   -4549.3052    80.548779 
   85400    892.96763    -108.5868   0.80797588   -107.77883    3775.9473    4.3181318    4.3181318    4.3181318    3775.9473    9001.3955   -7990.3612    10316.808   -1761.9768   -1242.7681   -894.77118    80.517016 
   85500    462.81577   -108.20267   0.41876543    -107.7839   -9212.8913     4.318111     4.318111     4.318111   -9212.8913   -5261.6415   -26278.699    3901.6662   -18142.306    4052.3473   -10184.463    80.515853 
   85600    886.38229    -108.5776   0.80201733   -107.77558       2392.7     4.316703     4.316703     4.316703       2392.7    7491.7096    11641.565   -11955.175    3134.7114   -3836.5656   -2096.6007    80.437121 
   85700    526.60729   -108.25799   0.47648534   -107.78151   -7993.2575    4.3201859    4.3201859    4.3201859   -7993.2575   -488.13066   -1852.8388   -21638.803   -3166.6766    4233.8304   -232.96978    80.631979 
   85800    474.55199   -108.21381   0.42938461   -107.78442    1874.2446    4.3179168    4.3179168    4.3179168    1874.2446    13294.925   -4930.7154   -2741.4758   -18209.933    1127.8487   -11460.926    80.504989 
   85900    1109.9126   -108.77918    1.0042723   -107.77491    10434.705    4.3152704    4.3152704    4.3152704    10434.705    14436.949    11296.445    5570.7192    5358.9092   -1542.0379    5399.9587    80.357061 
   86000    599.68304   -108.32517   0.54260582   -107.78256     -10804.6    4.3217566    4.3217566    4.3217566     -10804.6   -18570.253   -20895.462    7051.9131   -8193.3091     1764.817   -5244.9857    80.719954 
   86100    672.29665    -108.3883   0.60830814   -107.77999   -46.178739    4.3156371    4.3156371    4.3156371   -46.178739    2503.8848   -3659.2288    1016.8077   -14475.512      2627.97   -5090.3652    80.377545 
   86200    769.82365   -108.47262   0.69655261   -107.77607      3791.87     4.318351     4.318351     4.318351      3791.87    18702.771    15913.874   -23241.035    8396.7651   -7863.6743    4139.1899    80.529278 
   86300    434.86541   -108.17542   0.39347536   -107.78194   -3200.0875    4.3200398    4.3200398    4.3200398   -3200.0875    8457.9012   -3103.0544   -14955.109   -12538.736     730.7009   -5427.7294    80.623794 
   86400    867.42664    -108.5616   0.78486586   -107.77673    6863.7733    4.3159807    4.3159807    4.3159807    6863.7733    7727.1909     6914.754     5949.375   -7717.9474   -3404.1492   -4702.6191    80.396747 
   86500    838.58401    -108.5353   0.75876843   -107.77653   -5456.1688    4.3197389    4.3197389    4.3197389   -5456.1688   -10818.284    -3855.344   -1694.8781    5754.4404     -8165.55    2507.5801    80.606953 
   86600    535.93349   -108.26519   0.48492388   -107.78026   -2418.1379    4.3185468    4.3185468    4.3185468   -2418.1379    3399.3731   -22295.864    11642.077   -9122.9604    6089.0246   -7299.4778    80.540233 
   86700    766.30097    -108.4693   0.69336522   -107.77593     3904.071    4.3182008    4.3182008    4.3182008     3904.071    20570.027     2511.685   -11369.499   -3432.6141   -3411.0181   -903.52599    80.520877 
   86800    605.11823   -108.32636   0.54752369   -107.77884   -1757.5248    4.3162095    4.3162095    4.3162095   -1757.5248    16090.852    5633.2784   -26996.705    3676.3474   -6326.9092    8931.9506    80.409536 
   86900    723.32739   -108.43335   0.65448182   -107.77886   -8240.4562    4.3209372    4.3209372    4.3209372   -8240.4562    -11592.83   -5316.8887   -7811.6504   -18278.886    5090.3507   -7899.8104    80.674052 
   87000    862.66234   -108.55645   0.78055502    -107.7759   -493.01375    4.3163787    4.3163787    4.3163787   -493.01375    3805.1866   -157.45515   -5126.7727   -1057.8103   -7893.2475    10766.003    80.418991 
   87100    565.49412   -108.29145   0.51167096   -107.77977   -3512.0495     4.316607     4.316607     4.316607   -3512.0495    10734.149   -19421.772   -1848.5254   -410.65718   -1190.3912     3439.253    80.431754 
   87200    677.06228   -108.38957   0.61262018   -107.77694   -1506.0419    4.3218206    4.3218206    4.3218206   -1506.0419    11195.082   -19683.821    3970.6133   -15675.774    5499.2363    -5420.345    80.723539 
   87300     696.3087   -108.40668   0.63003474   -107.77664   -1171.5261    4.3144362    4.3144362    4.3144362   -1171.5261    13553.765    5895.3757   -22963.719    4861.9198   -10245.504    13435.059    80.310468 
   87400    651.64692   -108.36915   0.58962383   -107.77952   -11565.982    4.3190984    4.3190984    4.3190984   -11565.982   -10421.129   -41.300913   -24235.516   -5253.2928   -4477.7794   -2875.8465      80.5711 
   87500    870.76155   -108.56372   0.78788335   -107.77584    1515.7419    4.3189759    4.3189759    4.3189759    1515.7419    9629.2781   -1319.7063   -3762.3461   -6118.6669     1610.902    1317.8014    80.564247 
   87600    607.51591   -108.32843   0.54969316   -107.77874     -1201.83    4.3173703    4.3173703    4.3173703     -1201.83     23432.27   -10860.373   -16177.387    8218.8467   -11698.281    11196.324    80.474426 
   87700    654.79933   -108.36984    0.5924762   -107.77736   -3390.1791     4.319255     4.319255     4.319255   -3390.1791    5277.7516   -20812.786    5364.4969    -3669.599    4433.1516    -3373.984    80.579864 
   87800    800.63957   -108.49927   0.72443551   -107.77483    2349.2273    4.3163282    4.3163282    4.3163282    2349.2273    11923.737   -1175.0986    -3700.957   -6907.0426    2568.4271    8475.5899    80.416167 
   87900    545.51051    -108.2732   0.49358937   -107.77961   -14136.053    4.3197864    4.3197864    4.3197864   -14136.053   -3100.4945   -2632.6396   -36675.024    3697.1779   -12874.357    12115.614    80.609611 
   88000    750.77151   -108.45663   0.67931384   -107.77732    6758.6949     4.316414     4.316414     4.316414    6758.6949    17686.621    11206.492   -8617.0281   -2504.5858    3284.3803    -4597.662    80.420967 
   88100     783.2485    -108.4855    0.7086997    -107.7768    342.95345    4.3201793    4.3201793    4.3201793    342.95345    22924.164   -8188.5387   -13706.765   -3013.0433   -4961.1522    15742.673    80.631608 
   88200      596.022   -108.31922   0.53929323   -107.77992   -3124.6933     4.315403     4.315403     4.315403   -3124.6933    7356.6049   -11282.049   -5448.6358    6951.4884   -9954.9428    3107.9433    80.364471 
   88300    900.57227   -108.59098   0.81485672   -107.77613    1652.3802     4.317141     4.317141     4.317141    1652.3802    1995.9723   -6878.8375     9840.006   -4301.0019    2286.4915   -2939.9525    80.461608 
   88400    582.98123   -108.30611   0.52749367   -107.77862   -11325.474    4.3236448    4.3236448    4.3236448   -11325.474    11402.539   -14000.962   -31377.998   -335.12435   -4199.0092    19603.636    80.825804 
   88500    503.96443   -108.23474    0.4559976   -107.77874    6144.9592    4.3118243    4.3118243    4.3118243    6144.9592    24324.722    14083.375    -19973.22    7329.7926   -12823.566   -2878.5796    80.164698 
   88600    823.10421   -108.52176   0.74476199     -107.777    3771.0237    4.3200438    4.3200438    4.3200438    3771.0237    22050.512    2506.3191    -13243.76    2175.7516    6520.8207    8390.2483    80.624023 
   88700    740.80444   -108.44896   0.67029542   -107.77867   -2841.4404    4.3202223    4.3202223    4.3202223   -2841.4404    9203.2067   -7662.9471   -10064.581    2848.1005   -7639.0856    15949.335    80.634012 
   88800    788.74628    -108.4909   0.71367421   -107.77722     1296.514    4.3147155    4.3147155    4.3147155     1296.514   -2925.1442   -181.47117    6996.1573    3318.8355   -7577.8106   -4817.4721    80.326068 
   88900    740.81883   -108.44605   0.67030845   -107.77574    1659.0031    4.3203635    4.3203635    4.3203635    1659.0031    23893.742   -11272.021   -7644.7117   -364.88732    4878.8333     13452.43    80.641919 
   89000    510.82313    -108.2395    0.4622035    -107.7773    1972.0705    4.3186251    4.3186251    4.3186251    1972.0705    29032.552    3301.5467   -26417.887   -2541.4341   -8989.6432    6386.2452    80.544616 
   89100    627.92906    -108.3453   0.56816341   -107.77713   -4143.4822    4.3172705    4.3172705    4.3172705   -4143.4822    -31.07628    11730.421   -24129.791    12070.786   -10205.754   -3832.8224    80.468848 
   89200    795.01664   -108.49645   0.71934777    -107.7771     5126.953    4.3157607    4.3157607    4.3157607     5126.953     14315.74     867.8034    197.31526   -236.11636    5303.8775    18156.924    80.384455 
   89300     885.6394   -108.57822   0.80134514   -107.77687     -5964.13    4.3225825    4.3225825    4.3225825     -5964.13    -9606.985    303.92014    -8589.325    2324.7003    -16812.21    3035.4869    80.766242 
   89400    642.04792   -108.35882   0.58093845   -107.77788    4565.2446    4.3154459    4.3154459    4.3154459    4565.2446    9539.9439     187.9024    3967.8876    4797.3933   -5815.9602    3897.8846    80.366867 
   89500    617.23063   -108.33571   0.55848324   -107.77722    3858.9843    4.3151232    4.3151232    4.3151232    3858.9843    35725.765   -8879.4082   -15269.404   -217.99194    1646.9934    20996.757    80.348839 
   89600    615.33567   -108.33326   0.55676865   -107.77649   -13452.876    4.3241157    4.3241157    4.3241157   -13452.876   -3994.2352    3627.5885   -39991.982    1048.7967   -14157.271   -4619.4055    80.852214 
   89700     596.0075    -108.3177   0.53928011   -107.77842    159.87614    4.3124655    4.3124655    4.3124655    159.87614    4450.4228     4111.233   -8082.0273    11367.306   -1102.8381    13937.457    80.200467 
   89800    952.56945   -108.63954   0.86190486   -107.77764   -947.72172    4.3187096    4.3187096    4.3187096   -947.72172     10078.34   -5536.9541   -7384.5505   -2499.1734    3804.6997    13437.123    80.549343 
   89900    817.79932   -108.51785   0.73996201   -107.77789    2269.9722    4.3206927    4.3206927    4.3206927    2269.9722    5551.4049    5915.3761   -4656.8646   -986.37502   -15461.788   -6291.9458    80.660357 
   90000    529.30553    -108.2588   0.47892677   -107.77987      3832.61    4.3128146    4.3128146    4.3128146      3832.61    28216.542     -9955.98    -6762.732    8890.3022    464.80351    17828.734    80.219948 
   90100    654.84105   -108.36823   0.59251394   -107.77572   -8626.6648    4.3221737    4.3221737    4.3221737   -8626.6648    14273.339   -4924.0143   -35229.319   -1963.4636   -4379.2591    4284.2751    80.743327 
   90200    633.14646   -108.35002   0.57288422   -107.77714   -7441.2561    4.3166084    4.3166084    4.3166084   -7441.2561   -2577.1832    6362.5675   -26109.153    5334.5306   -15492.614    198.09344    80.431829 
   90300    655.01617   -108.37361    0.5926724   -107.78094   -3585.4561    4.3170103    4.3170103    4.3170103   -3585.4561    14378.439   -14843.783   -10291.024    7459.1484    5150.7328     21987.72    80.454299 
   90400    1019.7639   -108.69798   0.92270377   -107.77528    4261.8333    4.3207913    4.3207913    4.3207913    4261.8333    12735.822    1961.2277   -1911.5501   -4384.1242   -5095.7592   -1175.6332    80.665876 
   90500    684.46226   -108.39808   0.61931584   -107.77876    3752.0064    4.3159626    4.3159626    4.3159626    3752.0064    13129.803    2377.3611   -4251.1447   -3107.4523   -6655.5921    7406.7756    80.395734 
   90600    447.70801   -108.18494   0.40509562   -107.77985   -7045.2412    4.3190846    4.3190846    4.3190846   -7045.2412    16465.422   -12643.748   -24957.397     8241.095    4765.2673    18147.483     80.57033 
   90700    752.15101   -108.45501   0.68056204   -107.77444   -4817.6442    4.3169946    4.3169946    4.3169946   -4817.6442    3846.0582    9211.1228   -27510.114   -4741.3787   -5763.1402   -9331.7723    80.453421 
   90800     565.8795   -108.29172   0.51201966    -107.7797   -10432.539    4.3195607    4.3195607    4.3195607   -10432.539     5912.871    -11369.48   -25841.007    7654.3507   -2586.8665    17149.435    80.596977 
   90900    785.22209   -108.49126   0.71048545   -107.78078    1992.4016    4.3153738    4.3153738    4.3153738    1992.4016    16286.185    -9171.462   -1137.5179    7231.1971    6230.0545    8625.0355     80.36284 
   91000    1028.4169   -108.70712   0.93053323   -107.77659    5458.0625    4.3184598    4.3184598    4.3184598    5458.0625    10547.835    4415.9665    1410.3857   -3354.3835   -6683.9548   -8541.2309    80.535369 
   91100    487.58799   -108.22276   0.44117986   -107.78158   -4137.1891    4.3203875    4.3203875    4.3203875   -4137.1891    14933.528   -8686.7891   -18658.306    3296.7496    1045.7126    23522.107    80.643267 
   91200    565.00011   -108.28933   0.51122397   -107.77811   -3123.5695    4.3130277    4.3130277    4.3130277   -3123.5695    8915.4167    2788.4055   -21074.531    9927.8281   -426.20649   -3822.8164     80.23184 
   91300    717.41115   -108.42596   0.64912869   -107.77684   -7309.6566     4.321242     4.321242     4.321242   -7309.6566    10670.316   -4006.5224   -28592.764   -2444.8242   -3639.6733   -2311.9263    80.691124 
   91400    666.90317   -108.38345   0.60342801   -107.78002   -267.08097    4.3172357    4.3172357    4.3172357   -267.08097    15726.943   -4196.6244   -12331.561    4236.0338   -200.85304    22262.788    80.466902 
   91500     885.4527    -108.5786   0.80117622   -107.77742    5782.4661    4.3173842    4.3173842    4.3173842    5782.4661    13080.503   -2074.4494    6341.3452    2536.1886    3071.2361    -15452.63    80.475206 
   91600    782.98053   -108.48456   0.70845724    -107.7761    5436.1226    4.3194322    4.3194322    4.3194322    5436.1226    21849.525    1735.3249   -7276.4817   -7898.6959   -4223.8489    4825.0132    80.589782 
   91700     494.1096   -108.22511   0.44708075   -107.77802   -3581.4859    4.3164704    4.3164704    4.3164704   -3581.4859    13029.171    -3266.119    -20507.51    6056.5493    4637.0729    17296.216    80.424114 
   91800    549.09207   -108.27414   0.49683004   -107.77731   -11599.094    4.3193459    4.3193459    4.3193459   -11599.094    3744.2292   -11861.939   -26679.571     8430.862    1269.1827   -21864.038    80.584951 
   91900    816.60973   -108.51533   0.73888565   -107.77645    -3512.432    4.3167673    4.3167673    4.3167673    -3512.432    11713.082     -4127.41   -18122.968    965.85412   -1283.6391     17053.02    80.440714 
   92000     810.2758   -108.51163   0.73315458   -107.77848   -2224.6042    4.3202051    4.3202051    4.3202051   -2224.6042    2930.2221   -10865.469    1261.4343    4345.9119    3148.4725    8286.3088    80.633054 
   92100    830.08593   -108.52841   0.75107919   -107.77733    3997.3731    4.3159235    4.3159235    4.3159235    3997.3731    13281.332   -4959.0877    3669.8748    6154.1106    54.644862   -21300.372    80.393551 
   92200    658.29522   -108.37276   0.59563935   -107.77712    4794.9563    4.3182795    4.3182795    4.3182795    4794.9563    27350.194   -5126.8237   -7838.5011   -6283.1929   -4600.9537    21774.554    80.525282 
   92300    464.37352   -108.19823   0.42017492   -107.77805   -7744.6703    4.3194178    4.3194178    4.3194178   -7744.6703    14119.712   -10201.194   -27152.529    7103.2751   -2062.3233   -6006.0316    80.588976 
   92400    551.45579   -108.27774   0.49896879   -107.77877   -4782.4036    4.3161213    4.3161213    4.3161213   -4782.4036    10551.327   -4339.3201   -20559.218    6760.2816    1399.4489   -13206.295    80.404605 
   92500    933.73747    -108.6212   0.84486528   -107.77633    2881.9074    4.3189706    4.3189706    4.3189706    2881.9074     3883.305    2576.5987    2185.8186   -1966.5933   -3758.4342    22192.597    80.563948 
   92600    874.63739   -108.57001   0.79139029   -107.77862    772.93698    4.3168132    4.3168132    4.3168132    772.93698    213.75668   -449.96164    2555.0159    3156.5513    5790.4507   -16131.678    80.443278 
   92700    677.13152    -108.3925   0.61268283   -107.77981   -174.77283    4.3194495    4.3194495    4.3194495   -174.77283    11353.998   -14679.257    2800.9403     4680.481    355.55878   -6114.9782    80.590753 
   92800    725.49557    -108.4314   0.65644363   -107.77496    3706.2115     4.317237     4.317237     4.317237    3706.2115    21224.283    8399.2545   -18504.903   -1144.1555     1437.104    13557.623    80.466975 
   92900    317.88517   -108.06809   0.28762918   -107.78046   -7523.9459    4.3182259    4.3182259    4.3182259   -7523.9459     11749.43   -3482.1711   -30839.097    8856.5762     793.4113   -20312.516     80.52228 
   93000     671.1826   -108.38761   0.60730012   -107.78031     546.0219    4.3179514    4.3179514    4.3179514     546.0219    864.44673    3545.4462   -2771.8272    10686.922    2575.5016   -1654.7717    80.506925 
   93100    1082.6604   -108.75502   0.97961386    -107.7754     10388.44    4.3162377    4.3162377    4.3162377     10388.44    5974.2875    17354.617    7836.4155   -3749.7973   -3006.7309    5519.5505    80.411111 
   93200    640.53452   -108.36129   0.57956909   -107.78172   -14159.014    4.3225125    4.3225125    4.3225125   -14159.014   -14595.505   -26212.185   -1669.3519     6011.459    542.93533   -24437.966    80.762315 
   93300    794.03825   -108.49532    0.7184625   -107.77686    5074.3423    4.3152264    4.3152264    4.3152264    5074.3423    2616.2366    7915.6201    4691.1703     3835.471   -1542.2684    6820.9842    80.354603 
   93400    619.26218   -108.33713   0.56032143   -107.77681   -1062.8184    4.3174717    4.3174717    4.3174717   -1062.8184    12513.669    12176.266    -27878.39   -582.20429   -2733.5751   -5635.0658    80.480096 
   93500    266.04547   -108.02539   0.24072353   -107.78466     -7341.36    4.3201602    4.3201602    4.3201602     -7341.36    5652.1241   -6603.2364   -21072.968    12308.554    1316.7798   -19563.868    80.630537 
   93600    1010.7268   -108.69069   0.91452684   -107.77616    10831.509    4.3176174    4.3176174    4.3176174    10831.509    6845.9022    10613.965    15034.661    5279.6433    271.94991    7426.4086    80.488248 
   93700    915.35175   -108.60768    0.8282295   -107.77946   -988.87409    4.3170103    4.3170103    4.3170103   -988.87409    4577.7691   -6140.2974    -1404.094   -2086.6439    4578.5383   -18703.427    80.454301 
   93800    527.27973   -108.26097   0.47709378   -107.78388     -1620.89    4.3174569    4.3174569    4.3174569     -1620.89   -11097.235    -8327.551    14562.115    10318.449    250.09875   -13078.563    80.479268 
   93900    835.18545   -108.53003   0.75569335   -107.77433   -1820.0512    4.3218133    4.3218133    4.3218133   -1820.0512     -6043.53    9647.7904   -9064.4141    1330.5676     1415.804     4950.111    80.723131 
   94000    425.70628   -108.16456   0.38518799   -107.77937    -3522.155     4.314222     4.314222     4.314222    -3522.155    17755.347    393.99531   -28715.807    3601.7719    5.1219493    -19294.71    80.298508 
   94100    599.95946   -108.32541   0.54285592   -107.78255   -2196.6623    4.3179258    4.3179258    4.3179258   -2196.6623    1880.7721   -10151.577     1680.818    13961.128    1668.5755    -6877.654    80.505497 
   94200    1023.0538   -108.70294   0.92568055   -107.77726    6419.9775    4.3201647    4.3201647    4.3201647    6419.9775    10002.695    158.50754    9098.7296   -3991.6098   -1619.5305    5854.7024    80.630787 
   94300    719.36669   -108.43121    0.6508981   -107.78031     5409.326    4.3147858    4.3147858    4.3147858     5409.326    5576.9135    1509.5769    9141.4875    542.55448    5171.4722   -14778.927    80.329992 
   94400    637.73813   -108.35496   0.57703886   -107.77792   -3025.4795    4.3216361    4.3216361    4.3216361   -3025.4795   -16504.554   -3247.1523    10675.268    13151.974   -1257.1827    843.23252    80.713201 
   94500    659.29965   -108.37122   0.59654818   -107.77467   -309.76453     4.316122     4.316122     4.316122   -309.76453    11608.356    132.10406   -12669.753   -1343.4446   -2613.0459    2525.7315    80.404645 
   94600     556.5877   -108.28195   0.50361225   -107.77834   -6181.0103    4.3181747    4.3181747    4.3181747   -6181.0103    10930.363   -10262.182   -19211.212    9469.8911    2676.1719   -16349.572     80.51942 
   94700    772.93862     -108.477   0.69937111   -107.77763     3772.161    4.3188996    4.3188996    4.3188996     3772.161    3963.0347   -7709.5962    15063.045    12222.441   -910.81143    2977.0612    80.559978 
   94800    907.70352   -108.59755   0.82130922   -107.77624     7930.204    4.3163538    4.3163538    4.3163538     7930.204     15209.42    3200.2782     5380.914   -7991.9146    2207.7474    312.04996    80.417599 
   94900    685.49866   -108.39836   0.62025359   -107.77811   -1137.9581    4.3201712    4.3201712    4.3201712   -1137.9581   -9203.1849   -4491.6021    10280.913    10576.701    4503.8915   -7142.8565    80.631151 
   95000    596.71421   -108.31725   0.53991956   -107.77733   -579.63601    4.3143134    4.3143134    4.3143134   -579.63601   -4245.2364   -5735.1467     8241.475    11367.687    1056.2222    7928.1473    80.303612 
   95100    606.42271   -108.32597   0.54870402   -107.77726   -11106.192    4.3214581    4.3214581    4.3214581   -11106.192    11417.699   -9444.6849   -35291.589   -5446.8027   -1940.9598    1321.3846    80.703231 
   95200    674.31678   -108.38785   0.61013599   -107.77771    959.43898    4.3165058    4.3165058    4.3165058    959.43898    995.82021    1405.1914    477.30529    13341.786     4641.986   -6517.8876    80.426097 
   95300    765.67724   -108.47174   0.69280086   -107.77894    6477.5061    4.3154973    4.3154973    4.3154973    6477.5061    8192.9793    1676.6718    9562.8671    4365.5963   -974.00354    11461.834    80.369735 
   95400    875.20631   -108.56818   0.79190506   -107.77628   -3422.2934    4.3224505    4.3224505    4.3224505   -3422.2934    3210.0678   -6844.4589    -6632.489   -4835.5594     3453.802    1620.2567     80.75884 
   95500    641.25258   -108.35771   0.58021881   -107.77749    3782.6984    4.3126454    4.3126454    4.3126454    3782.6984   -10842.213   -2240.8375    24431.146    22581.421   -108.95723   -4791.3391    80.210504 
   95600    524.09017   -108.25224    0.4742078   -107.77803   -15486.053    4.3217068    4.3217068    4.3217068   -15486.053   -1726.9769   -22242.724   -22488.458    3022.5091   -2364.0172    14063.198    80.717163 
   95700    734.23228   -108.43987    0.6643488   -107.77552   -4613.1231    4.3180506    4.3180506    4.3180506   -4613.1231    6173.8953    3250.1032   -23263.368    402.41971    1508.7933   -4455.1825    80.512476 
   95800    677.25933   -108.39084   0.61279848   -107.77804    5043.8079    4.3136968    4.3136968    4.3136968    5043.8079    1187.7934    1732.7975    12210.833     19193.29   -1374.9644    2837.1484    80.269182 
   95900    796.58074   -108.49929     0.720763   -107.77853   -8689.1086    4.3234581    4.3234581    4.3234581   -8689.1086    3490.3815   -18527.979   -11029.729     -6459.33    3192.4619      18186.4    80.815333 
   96000    812.17732   -108.51024   0.73487511   -107.77536    8586.9742    4.3138911    4.3138911    4.3138911    8586.9742   -1523.6135    5935.6721    21348.864     6834.464    7149.4848   -4420.2555     80.28003 
   96100    508.35692   -108.23888   0.45997202   -107.77891   -8660.4142    4.3181146    4.3181146    4.3181146   -8660.4142   -10466.402   -23625.246    8110.4054    20413.644   -177.23283     4668.272    80.516059 
   96200    593.50404   -108.31485   0.53701492   -107.77784   -10865.629    4.3212052    4.3212052    4.3212052   -10865.629     2856.027     -8667.18   -26785.735    -9778.486   -1947.0548    15356.734    80.689065 
   96300    816.91912   -108.51438   0.73916558   -107.77522    3420.2361    4.3147772    4.3147772    4.3147772    3420.2361   -2291.2515    8215.7918    4336.1678     12353.76    2480.2217   -5234.9791     80.32951 
   96400    690.36482   -108.40427   0.62465659   -107.77961   -5790.4098    4.3190946    4.3190946    4.3190946   -5790.4098    2102.2375   -19079.537   -393.93007    15673.118   -4238.0831    12136.705    80.570887 
   96500    807.91474   -108.50834   0.73101823   -107.77732    3142.1147    4.3179579    4.3179579    4.3179579    3142.1147    8908.5851   -3313.2302    3830.9891   -9459.4375    196.18454    17289.329    80.507293 
   96600    700.30681   -108.41081   0.63365232   -107.77716    2366.6175    4.3176709    4.3176709    4.3176709    2366.6175    -11635.66   -9125.6527    27861.165    22041.565    3180.7483    -9680.626    80.491241 
   96700    484.24324    -108.2171   0.43815346   -107.77895   -3715.9047    4.3167872    4.3167872    4.3167872   -3715.9047    5699.7817   -10761.143    -6086.353    7079.8042   -2029.2234    15073.566    80.441827 
   96800    783.19276    -108.4848   0.70864927   -107.77615   -3376.1285    4.3199967    4.3199967    4.3199967   -3376.1285    327.67997   -347.13525    -10108.93   -9090.3151    -1089.275    9813.8554    80.621386 
   96900    792.78698   -108.49371   0.71733032   -107.77638    1039.3013    4.3175684    4.3175684    4.3175684    1039.3013   -4235.6041   -774.29351    8127.8015    18605.729    2016.2236   -3359.1776    80.485509 
   97000    701.11667   -108.41284   0.63438509   -107.77846   -391.43725    4.3156179    4.3156179    4.3156179   -391.43725    13493.148   -11581.707   -3085.7525    2706.0009     1671.175    20285.155    80.376474 
   97100     717.4364   -108.42633   0.64915154   -107.77718    4706.9321    4.3202825    4.3202825    4.3202825    4706.9321   -112.98482   -4120.3328    18354.114   -2678.8782    2091.6063    1150.6154    80.637387 
   97200    625.16523   -108.34365   0.56566264   -107.77799    2102.3821    4.3163651    4.3163651    4.3163651    2102.3821    2044.3726   -14368.307    18631.081    17926.329     5042.932    29.833737    80.418234 
   97300    600.63438   -108.32249   0.54346661   -107.77903   -5040.3424    4.3181561    4.3181561    4.3181561   -5040.3424    12100.961   -16574.594   -10647.395   -2067.5484   -1427.1073    21879.282    80.518377 
   97400    867.26195   -108.55986   0.78471684   -107.77514   -408.30386    4.3187649    4.3187649    4.3187649   -408.30386   -1322.4675    4214.3475   -4116.7916   -2578.8463   -654.75657    509.03091     80.55244 
   97500    716.41204   -108.42559   0.64822467   -107.77737   -1950.8023     4.317665     4.317665     4.317665   -1950.8023   -922.05096   -5096.6471    166.29113    15029.196   -1765.0676    9578.3502    80.490907 
   97600    636.56887   -108.35407   0.57598089   -107.77809     1353.408    4.3184684    4.3184684    4.3184684     1353.408    12869.888   -4375.2743     -4434.39   -4582.1543     394.1416    20225.368    80.535846 
   97700    802.09169   -108.50103   0.72574941   -107.77528    3128.8166    4.3170655    4.3170655    4.3170655    3128.8166   -1863.4344   -15361.812    26611.696    5761.0943    1328.8078   -10244.473    80.457387 
   97800    515.00515   -108.24591   0.46598748   -107.77992   -5782.4224    4.3188487    4.3188487    4.3188487   -5782.4224        11387   -27007.061   -1727.2059    9519.7877    2135.5261    21142.496    80.557128 
   97900    753.93542   -108.46031   0.68217661   -107.77813   -666.12089    4.3170325    4.3170325    4.3170325   -666.12089    14208.453    3448.0684   -19654.884   -6677.9093    1159.7243    17239.148     80.45554 
   98000    800.74516   -108.50126   0.72453105   -107.77673    5306.5303    4.3170339    4.3170339    4.3170339    5306.5303   -4492.4014    10887.176    9524.8162    4319.3062   -713.15065   -7255.2193    80.455617 
   98100    526.04362   -108.25746   0.47597532   -107.78149   -10155.281    4.3201523    4.3201523    4.3201523   -10155.281    4641.0762   -12780.967   -22325.951    8915.4471    1597.8373    27888.115    80.630098 
   98200    864.72353   -108.55929   0.78242002   -107.77687    2836.9338     4.315287     4.315287     4.315287    2836.9338    9335.3253   -11969.721    11145.197   -4526.3523   -146.12819     5060.455    80.357987 
   98300     738.0064   -108.44608    0.6677637   -107.77832   -4278.2848     4.318835     4.318835     4.318835   -4278.2848   -5438.5412   -22038.033     14641.72     4033.093    4849.7386     3251.399    80.556361 
   98400    441.30417   -108.18287   0.39930129   -107.78357   -7309.0991    4.3199946    4.3199946    4.3199946   -7309.0991    14780.157   -10965.036   -25742.418    5236.1558   -347.55907    32777.582    80.621266 
   98500    954.48641   -108.63788   0.86363937   -107.77424    8758.6033    4.3160749    4.3160749    4.3160749    8758.6033    7466.7666     19629.42   -820.37619   -11822.716    1422.1513   -3002.1677    80.402014 
   98600    561.54835   -108.28936   0.50810074   -107.78125   -5056.1293    4.3191871    4.3191871    4.3191871   -5056.1293    2657.7827   -6352.9649   -11473.206    7372.8982   -204.85513    11047.074    80.576063 
   98700    531.66013   -108.26427   0.48105726   -107.78322   -8521.8921    4.3183468    4.3183468    4.3183468   -8521.8921     12722.65   -24725.799   -13562.527    6382.1323   -1648.0954    26629.544    80.529046 
   98800    1022.3065   -108.69901   0.92500437   -107.77401    7029.1641    4.3174073    4.3174073    4.3174073    7029.1641    5192.7493   -2440.9854    18335.729   -1916.2767   -686.75812   -7323.3085    80.476499 
   98900    509.46354     -108.245   0.46097332   -107.78403   -9506.9746    4.3189655    4.3189655    4.3189655   -9506.9746    3067.3368   -24095.898   -7492.3623    7806.0861    1445.2962    28387.217    80.563665 
   99000    700.68059   -108.41672   0.63399053   -107.78273    3804.3569    4.3159981    4.3159981    4.3159981    3804.3569    15863.409    2396.3983   -6846.7371    5607.8538    1755.7235    11117.003     80.39772 
   99100    1012.3116   -108.69172   0.91596082   -107.77576   -22.099827    4.3212709    4.3212709    4.3212709   -22.099827    229.72341    7247.3088   -7543.3317   -1170.0309   -1770.6071   -4327.1579    80.692743 
   99200    324.55201    -108.0783   0.29366148   -107.78464   -3406.1651    4.3160236    4.3160236    4.3160236   -3406.1651    10392.058   -10436.748   -10173.806    8263.5049    1605.3651    32486.521    80.399146 
   99300    659.99914   -108.37811   0.59718109   -107.78093    3323.8148    4.3184665    4.3184665    4.3184665    3323.8148    7690.1967   -90.833935    2372.0817    8849.7137   -1428.4028   -1481.0783    80.535742 
   99400    821.83971   -108.52135   0.74361784   -107.77773     1760.924    4.3193601    4.3193601    4.3193601     1760.924    9330.2328   -13012.383    8964.9221   -4297.0512   -989.14494    10650.565    80.585749 
   99500    548.69623   -108.27928   0.49647188    -107.7828   -3146.8021    4.3166795    4.3166795    4.3166795   -3146.8021    11113.094   -10295.006   -10258.494    8512.5268    1602.9557    27238.242    80.435804 
   99600    1015.6919   -108.69558   0.91901934   -107.77656   -3183.9345    4.3209159    4.3209159    4.3209159   -3183.9345   -3675.6324    4087.1447   -9963.3158    821.76991    3012.2482   -13654.784     80.67286 
   99700    739.26037   -108.44727   0.66889832   -107.77837     5928.005    4.3143306    4.3143306    4.3143306     5928.005    9934.3053    17806.162   -9956.4523     -1501.66    348.93802    20262.805     80.30457 
   99800    436.62224   -108.17663   0.39506498   -107.78157   -13201.667    4.3221267    4.3221267    4.3221267   -13201.667   -7259.7845   -18879.137    -13466.08    11287.082    1416.0909    19639.902    80.740694 
   99900    735.79424   -108.44079   0.66576209   -107.77503    2961.4817    4.3165351    4.3165351    4.3165351    2961.4817    7353.8327   -11238.024    12768.637    3664.6619    1489.8544   -10630.276    80.427732 
  100000    574.52717   -108.29907   0.51984426   -107.77923    1426.3581    4.3161243    4.3161243    4.3161243    1426.3581    16409.523   -8356.1793   -3774.2693   -1033.8817   -3404.7717    24960.696    80.404771 
Loop time of 22.2097 on 1 procs for 100000 steps with 8 atoms

Pair  time (%) = 7.05338 (31.7581)
Kspce time (%) = 5.35179 (24.0966)
Neigh time (%) = 0 (0)
Comm  time (%) = 1.09552 (4.93263)
Outpt time (%) = 0.0254517 (0.114597)
Other time (%) = 8.68358 (39.0981)

Nlocal:    8 ave 8 max 8 min
Histogram: 1 0 0 0 0 0 0 0 0 0
Nghost:    2189 ave 2189 max 2189 min
Histogram: 1 0 0 0 0 0 0 0 0 0
Neighs:    2344 ave 2344 max 2344 min
Histogram: 1 0 0 0 0 0 0 0 0 0

Total # of neighbors = 2344
Ave neighs/atom = 293
Neighbor list builds = 0
Dangerous builds = 0
unfix 20
unfix 21
print "seeds:1775569"
seeds:1775569
