LAMMPS (10 Feb 2015)
# ---- initialize simulations
clear
units metal
dimension 3
boundary p p p
atom_style charge
atom_modify map array
# ---- create atoms
read_data /Users/eugeneragasa/pyflamestk_git/pypospack/tests/tests_integration/workflow/WorkflowLammpsThermalExpansion/param_785/MgO_NaCl_unit.npt.T1500/lammps.structure
  triclinic box = (0 0 0) to (4.2565 4.2565 4.2565) with tilt (0 0 0)
  1 by 1 by 1 MPI processor grid
  reading atoms ...
  8 atoms
# ---- define interatomic potential
include potential.mod
mass 1 24.305
mass 2 15.999

group Mg type 1
4 atoms in group Mg
group O type 2
4 atoms in group O

set group Mg charge 1.62294375895
  4 settings made for charge
set group O charge -1.62294375895
  4 settings made for charge

variable R_cut equal 10.0

pair_style buck/coul/long ${R_cut}
pair_style buck/coul/long 10
pair_coeff 1 1 0.0 0.5 0.0 ${R_cut}
pair_coeff 1 1 0.0 0.5 0.0 10
pair_coeff 1 2 1315.47688947 0.28024601768 0.0 ${R_cut}
pair_coeff 1 2 1315.47688947 0.28024601768 0.0 10
pair_coeff 2 2 7992.27283476 0.124296175577 7.5002562575 ${R_cut}
pair_coeff 2 2 7992.27283476 0.124296175577 7.5002562575 10

kspace_style pppm 1.0e-5

neighbor 1.0 bin
neigh_modify every 1 delay 0 check yes
# ---- define settings
compute eng all pe/atom
compute eatoms all reduce sum c_eng
# ---- run minimization
reset_timestep 0
fix 1 all box/relax iso 0.0 vmax 0.001
thermo 10
thermo_style custom step pe lx ly lz xy xz yz press pxx pyy pzz pxy pxz pyz c_eatoms
min_style cg
minimize 1e-25 1e-25 5000 10000
PPPM initialization ...
  G vector (1/distance) = 0.352546
  grid = 8 8 8
  stencil order = 5
  estimated absolute RMS force accuracy = 3.83063e-05
  estimated relative force accuracy = 2.66022e-06
  using double precision FFTs
  3d grid and FFT values/proc = 3375 512
Neighbor list info ...
  1 neighbor list requests
  update every 1 steps, delay 0 steps, check yes
  master list distance cutoff = 11
Memory usage per processor = 4.06549 Mbytes
Step PotEng Lx Ly Lz Xy Xz Yz Press Pxx Pyy Pzz Pxy Pxz Pyz eatoms 
       0   -108.88461       4.2565       4.2565       4.2565            0            0            0   -30879.056   -30879.056   -30879.056   -30879.056 -2.5133272e-10 -7.2643252e-11 5.7873381e-11   -108.88461 
      10   -108.89911    4.2290577    4.2290577    4.2290577            0            0            0   0.26053131   0.26053131   0.26053131   0.26053131 3.8284322e-11 -1.3873734e-12 -2.9889769e-10   -108.89911 
      12   -108.89911    4.2290577    4.2290577    4.2290577            0            0            0   0.25210742   0.25210742   0.25210742   0.25210742 1.3658055e-10 -3.2077679e-12 -1.3269119e-10   -108.89911 
Loop time of 0.00864911 on 1 procs for 12 steps with 8 atoms

Minimization stats:
  Stopping criterion = linesearch alpha is zero
  Energy initial, next-to-last, final = 
        -108.884606122     -108.899110632     -108.899110632
  Force two-norm initial, final = 4.45895 5.1421e-05
  Force max component initial, final = 4.45895 3.59365e-05
  Final line search alpha, max atom move = 0.5 1.79683e-05
  Iterations, force evaluations = 12 23

Pair  time (%) = 0.00255489 (29.5394)
Kspce time (%) = 0.00144911 (16.7544)
Neigh time (%) = 0 (0)
Comm  time (%) = 0.000259399 (2.99915)
Outpt time (%) = 1.69277e-05 (0.195716)
Other time (%) = 0.00436878 (50.5113)

Nlocal:    8 ave 8 max 8 min
Histogram: 1 0 0 0 0 0 0 0 0 0
Nghost:    2189 ave 2189 max 2189 min
Histogram: 1 0 0 0 0 0 0 0 0 0
Neighs:    2344 ave 2344 max 2344 min
Histogram: 1 0 0 0 0 0 0 0 0 0

Total # of neighbors = 2344
Ave neighs/atom = 293
Neighbor list builds = 0
Dangerous builds = 0
unfix 1
# ---- define output variables ----
variable natoms equal "count(all)"
variable tot_energy equal "c_eatoms"
variable length_x equal "lx"
variable length_y equal "ly"
variable length_z equal "lz"
variable tilt_xy equal "xy"
variable tilt_xz equal "xz"
variable tilt_yz equal "yz"
variable tot_press equal "press"
variable press_xx equal "pxx"
variable press_yy equal "pyy"
variable press_zz equal "pzz"
variable press_xy equal "pxy"
variable press_xz equal "pxz"
variable press_yz equal "pyz"

# ---- output ----
print "pypospack:output_section:begin"
pypospack:output_section:begin
print "tot_energy = ${tot_energy}"
tot_energy = -108.899110631848
print "num_atoms = ${natoms}"
num_atoms = 8
print "xx = ${length_x}"
xx = 4.22905766787052
print "yy = ${length_y}"
yy = 4.22905766787052
print "zz = ${length_z}"
zz = 4.22905766787052
print "xy = ${tilt_xy}"
xy = 0
print "xz = ${tilt_xz}"
xz = 0
print "yz = ${tilt_yz}"
yz = 0
print "tot_press = ${tot_press}"
tot_press = 0.252107417895481
print "pxx = ${press_xx}"
pxx = 0.252107418292273
print "pyy = ${press_yy}"
pyy = 0.252107418323333
print "pzz = ${press_zz}"
pzz = 0.252107417070837
print "pxy = ${press_xy}"
pxy = 1.36580554666579e-10
print "pxz = ${press_xz}"
pxz = -3.20776791999541e-12
print "pyz = ${press_yz}"
pyz = -1.32691186845421e-10
print "pypospack:output_section:done"
pypospack:output_section:done
print "pypospack:lammps_sim:done"
pypospack:lammps_sim:done
#------------------------------------------------------------------------------
# RUN THERMOSTAT
# running using an NPT Nose-Hoover style thermostat
#------------------------------------------------------------------------------
variable tempdamp equal 0.1
variable pressdamp equal 1.0
# set initial velocities
velocity all create 1500 2563540 mom yes dist gaussian loop all
# fix for Nose-Hoover style thermostat
fix 20 all npt temp 1500 1500 0.1 aniso 0.0 0.0 1.0 drag 1.0 couple xyz
variable boxx equal lx
variable boxy equal ly
variable boxz equal lz
variable boxp equal press
variable boxt equal temp
# calculate averages every 10000 steps
reset_timestep 0
fix 21 all ave/time 10 10 100 v_boxx v_boxy v_boxz v_boxp v_boxt file lattice.out
thermo_style custom step temp pe ke etotal press lx ly lz press pxx pyy pzz pxy pxz pyz vol
thermo_modify flush yes
thermo 100
run 100000
PPPM initialization ...
  G vector (1/distance) = 0.352817
  grid = 8 8 8
  stencil order = 5
  estimated absolute RMS force accuracy = 3.78369e-05
  estimated relative force accuracy = 2.62763e-06
  using double precision FFTs
  3d grid and FFT values/proc = 3375 512
Memory usage per processor = 3.06549 Mbytes
Step Temp PotEng KinEng TotEng Press Lx Ly Lz Press Pxx Pyy Pzz Pxy Pxz Pyz Volume 
       0         1500   -108.89911    1.3572315   -107.54188    19167.025    4.2290577    4.2290577    4.2290577    19167.025    20489.987    9054.0984     27956.99   -6027.6783    10639.874   -2178.2952    75.636395 
     100    492.06485   -107.81869   0.44523062   -107.37346    34969.351    4.2577751    4.2577751    4.2577751    34969.351    51140.677    1561.9358     52205.44    6385.6232   -393.74317     820.4318     77.18771 
     200    1012.1339   -107.91683   0.91580001   -107.00103   -36073.664    4.3039466    4.3039466    4.3039466   -36073.664   -31337.741   -78715.464    1832.2129    2993.9927    3582.8823   -760.48954    79.726121 
     300    1150.2028    -107.7073    1.0407276   -106.66658    14796.578    4.3021922    4.3021922    4.3021922    14796.578    23369.694   -21291.685    42311.724     608.8734    4275.2866   -3854.0873    79.628664 
     400    1511.0588   -107.77758    1.3672377   -106.41034    354.20734    4.2736652    4.2736652    4.2736652    354.20734    3563.3179   -15213.865    12713.169   -983.08407   -9071.1454    251.46835    78.055138 
     500    1113.3575   -107.26648    1.0073893   -106.25909   -1000.4431    4.2814246    4.2814246    4.2814246   -1000.4431     34803.37   -50231.419     12426.72    5007.2228   -8618.3955   -5960.8061    78.481069 
     600    1801.2603   -107.81435    1.6298182   -106.18453    10809.852    4.3149262    4.3149262    4.3149262    10809.852    5696.0298   -36692.624    63426.149    5797.0285    2261.5572    8503.8505    80.337834 
     700     1122.811   -107.15296     1.015943   -106.13701   -16943.872    4.3365642    4.3365642    4.3365642   -16943.872    25068.826   -86309.879    10409.437    1756.9357    11723.357    2089.3996    81.552513 
     800    936.19377   -106.96348    0.8470878    -106.1164    13298.666    4.2989685    4.2989685    4.2989685    13298.666    59074.846   -71398.024    52219.176    5908.7122   -14487.019    1653.7613    79.449796 
     900    1860.9233   -107.79164    1.6838025   -106.10784    28062.836    4.2586296    4.2586296    4.2586296    28062.836   -10436.306   -12407.348    107032.16   -570.31363   -5102.9791   -13.945467     77.23419 
    1000    1087.8713   -107.18429    0.9843288   -106.19996    13432.831     4.285341     4.285341     4.285341    13432.831      39758.6   -28973.055    29512.949   -2644.2047    5134.0039    8956.2071    78.696635 
    1100    1325.8995   -107.37761    1.1997017    -106.1779   -61732.194    4.3301711    4.3301711    4.3301711   -61732.194   -54200.414   -101155.91   -29840.261    12351.372   -3067.2885     1204.684    81.192363 
    1200    1991.8748   -107.93976    1.8022902   -106.13747   -28015.749    4.3093059    4.3093059    4.3093059   -28015.749   -30103.689   -58544.099    4600.5392    10836.651    6850.9361    9448.9464    80.024317 
    1300    2040.2056    -107.9437    1.8460209   -106.09768    36485.213    4.2688559    4.2688559    4.2688559    36485.213    56215.031    5352.1497    47888.459     5733.885    6078.1222   -1190.9959     77.79192 
    1400    1013.3671   -107.09205   0.91691581   -106.17514    28807.012    4.2993196    4.2993196    4.2993196    28807.012    79624.711   -49978.224    56774.548    463.36708   -47786.065   -4700.0981    79.469262 
    1500    1279.1634   -107.28332    1.1574139    -106.1259     -20868.5    4.3305604    4.3305604    4.3305604     -20868.5   -61255.277   -32378.969    31028.747   -9047.1765   -36685.648   -538.74301    81.214262 
    1600    1597.5568   -107.54652     1.445503   -106.10102   -16656.993    4.2971722    4.2971722    4.2971722   -16656.993    16886.771   -14853.138   -52004.612   -2210.1578    19792.141   -10756.601    79.350245 
    1700    1356.1448   -107.33783    1.2270683   -106.11076    30000.947    4.2819472    4.2819472    4.2819472    30000.947    87704.104   -43601.918    45900.656    7119.3897   -22825.818    6004.7741    78.509811 
    1800    1685.4622   -107.68279    1.5250416   -106.15775   -10037.975    4.3106752    4.3106752    4.3106752   -10037.975   -1232.9312   -11608.557   -17272.437   -1470.1609    946.68401   -5145.7002    80.100622 
    1900    1679.8885   -107.66126    1.5199984   -106.14126   -40202.295    4.3334951    4.3334951    4.3334951   -40202.295    3902.3084   -66487.818   -58021.376   -636.64986    8758.8413   -7443.1875    81.379484 
    2000    1968.8577   -107.89125    1.7814638   -106.10979   -44405.915    4.3232849    4.3232849    4.3232849   -44405.915   -19707.792   -85232.822    -28277.13    11182.499    9684.2248    7124.9651    80.805622 
    2100    1027.1224    -107.0291   0.92936194   -106.09973    15490.047     4.305428     4.305428     4.305428    15490.047    27944.334    4176.2048    14349.601    1006.9253   -29606.822    -9863.525     79.80847 
    2200    1652.5866   -107.60082    1.4952951   -106.10553   -13077.446    4.2972593    4.2972593    4.2972593   -13077.446   -6036.0254   -43054.663    9858.3512    1665.6483   -6768.6531     2367.882    79.355072 
    2300    1443.3686   -107.43582    1.3059903   -106.12983   -2658.7979    4.3092356    4.3092356    4.3092356   -2658.7979    22936.226   -36223.689     5311.069    1616.5225    13766.464   -3270.6561    80.020401 
    2400     1758.322   -107.71137    1.5909667    -106.1204    -30352.89    4.3185638    4.3185638    4.3185638    -30352.89   -25829.265   -9058.5662   -56170.838    12608.026   -18496.178   -7094.7146    80.541184 
    2500    1258.0764   -107.24769    1.1383339   -106.10936    26617.993    4.3011399    4.3011399    4.3011399    26617.993    37199.369   -29823.991      72478.6   -1624.2836    2006.9452    11360.601    79.570246 
    2600     1644.612   -107.60403    1.4880795   -106.11595    9095.7061     4.300141     4.300141     4.300141    9095.7061   -22489.591   -28947.885    78724.595   -8744.2992    -14900.14    396.36081    79.514819 
    2700    1691.7255   -107.65984    1.5307088   -106.12913   -16802.034    4.3079846    4.3079846    4.3079846   -16802.034   -18572.464   -39675.873    7842.2359   -504.89724    7966.6943   -100.63818     79.95073 
    2800     1146.038   -107.17876    1.0369593    -106.1418    4586.9767    4.3065009    4.3065009    4.3065009    4586.9767   -7888.4742   -53122.797    74772.201    3573.1942    12095.468    11904.536    79.868153 
    2900    1398.1763   -107.42218    1.2650993   -106.15708   -17506.802    4.3100781    4.3100781    4.3100781   -17506.802   -7810.7564   -31205.354   -13504.295   -11300.315    4020.8022    2029.3796    80.067341 
    3000    1458.1311   -107.47323    1.3193477   -106.15388    6306.8962    4.3064591    4.3064591    4.3064591    6306.8962    47412.514   -21088.044   -7403.7809   -15677.915   -4805.5957    3529.2827    79.865826 
    3100    987.21961   -107.04896   0.89325705    -106.1557    2074.2603    4.3162711    4.3162711    4.3162711    2074.2603    3122.8019    -38155.37    41255.349    15582.819     21062.71    3816.7351    80.412976 
    3200    1673.1755      -107.65    1.5139244   -106.13608   -14049.758    4.3151872    4.3151872    4.3151872   -14049.758   -33628.029   -52898.539    44377.295   -1867.0935    -29376.03     14536.32    80.352413 
    3300    1901.7159   -107.84729    1.7207125   -106.12658   -8939.4599    4.2993809    4.2993809    4.2993809   -8939.4599   -25220.713   -23109.398    21511.731   -171.60831   -12500.137    -2080.878    79.472664 
    3400    1037.5783   -107.09122   0.93882266    -106.1524    6246.4153    4.3058875    4.3058875    4.3058875    6246.4153    21337.311   -43208.324    40610.259   -3336.2298   -4708.3492    388.87117    79.834027 
    3500    1665.6016   -107.64528    1.5070714   -106.13821   -24501.845     4.315392     4.315392     4.315392   -24501.845   -31901.588   -33492.515   -8111.4315   -5139.4799   -8877.0393    6455.1065    80.363854 
    3600     1438.798   -107.43464    1.3018546   -106.13279   -11192.464    4.3028324    4.3028324    4.3028324   -11192.464   -23451.333   -26532.986    16406.928     7303.576    20079.726    23274.226     79.66422 
    3700    1694.5686   -107.67577    1.5332813   -106.14249    6091.7049    4.2991797    4.2991797    4.2991797    6091.7049    6527.9974   -45030.865    56777.982   -9650.4124    10834.807    5530.2636    79.461505 
    3800    1979.0189    -107.9394    1.7906579   -106.14875   -33970.999    4.3204185    4.3204185    4.3204185   -33970.999   -46018.086   -56459.655    564.74329    -2824.865   -2959.4449    15896.362    80.644999 
    3900    1128.2726   -107.15269    1.0208847   -106.13181    8541.7516    4.3061848    4.3061848    4.3061848    8541.7516    11291.541   -16697.911    31031.625   -4190.1441   -4456.5874    8318.7056    79.850562 
    4000    1168.1731   -107.18769    1.0569875    -106.1307    38977.039    4.2910986    4.2910986    4.2910986    38977.039    85391.438   -36330.397    67870.076   -5009.7841    3228.4859    9318.6311    79.014258 
    4100    2210.7206   -108.15891    2.0003064   -106.15861   -22300.115     4.309921     4.309921     4.309921   -22300.115    5118.6005   -39309.961   -32708.984    15168.329   -15728.551    897.89868    80.058587 
    4200    1077.3404     -107.138    0.9748002    -106.1632    8940.4599    4.3119242    4.3119242    4.3119242    8940.4599    18241.045   -49117.623    57697.958    6919.6963    7932.9312    15746.547    80.170274 
    4300    2019.5147   -107.97582    1.8272993   -106.14852   -33840.288    4.3035565    4.3035565    4.3035565   -33840.288   -10367.875   -69834.206   -21318.784    1736.6699   -1499.4559    444.33112     79.70444 
    4400    1491.8528   -107.50878    1.3498598   -106.15892    11900.026    4.3065155    4.3065155    4.3065155    11900.026    8038.1104   -41620.314     69282.28    383.14275   -6673.5819   -1608.4949     79.86896 
    4500    1387.9186   -107.41751    1.2558179   -106.16169    10740.763    4.3019116    4.3019116    4.3019116    10740.763    49303.125   -43321.051    26240.215     -3396.38    13222.634    4217.9397    79.613086 
    4600    1433.9157   -107.47349     1.297437   -106.17605   -44409.601    4.3133774    4.3133774    4.3133774   -44409.601   -52460.798   -68878.585   -11889.421    3882.4743    8485.3377   -23035.404    80.251355 
    4700    1657.1831   -107.64646    1.4994541     -106.147   -4468.0542    4.3024676    4.3024676    4.3024676   -4468.0542    52464.722   -46547.484   -19321.401    1240.2286     31867.37   -7483.8014    79.643955 
    4800    1159.3078   -107.19284    1.0489661   -106.14388    40311.629    4.2871896    4.2871896    4.2871896    40311.629    45575.919   -46071.419    121430.39   -15266.889   -19730.996    24010.501    78.798521 
    4900    1480.6851   -107.52941     1.339755   -106.18966    -30280.95    4.3148115    4.3148115    4.3148115    -30280.95   -61258.548   -53417.312     23833.01    15447.924    19520.086   -15005.485    80.331425 
    5000    1457.0387   -107.46669    1.3183593   -106.14833   -43150.147    4.3384665    4.3384665    4.3384665   -43150.147    -33902.51   -88771.911   -6776.0194    1011.3439     1335.071    13641.286    81.659881 
    5100    1817.6308   -107.75177    1.6446306   -106.10714    2761.8463    4.3025733    4.3025733    4.3025733    2761.8463    22209.613    1318.6062   -15242.681    1147.5098   -3607.9195    8073.2424    79.649824 
    5200    1570.0225   -107.52987    1.4205893   -106.10928     25935.55    4.2805104    4.2805104    4.2805104     25935.55    40929.584   -12364.676    49241.742    15492.945    22110.037   -13057.521    78.430803 
    5300    1569.6001      -107.58    1.4202071   -106.15979   -19388.388    4.3090863    4.3090863    4.3090863   -19388.388   -2212.3531   -16664.552   -39288.258    -671.9201    9785.9245    20993.132    80.012083 
    5400    1599.6492   -107.58176    1.4473962   -106.13436     9115.324    4.3184414    4.3184414    4.3184414     9115.324   -23240.454   -39264.071    89850.498     17801.54    924.55125   -3473.7632    80.534339 
    5500    1297.2742   -107.30369    1.1738009   -106.12989    13993.461    4.3177391    4.3177391    4.3177391    13993.461    -12205.26    34835.603    19350.042     3557.434    27172.839   -6676.1989    80.495053 
    5600    1527.4363   -107.50439    1.3820564   -106.12234    12021.241    4.3070704    4.3070704    4.3070704    12021.241    39846.884   -55423.723    51640.563    645.10443   -2054.8841   -15774.098    79.899841 
    5700    1221.8204   -107.24155    1.1055288   -106.13602      42699.2    4.2872197    4.2872197    4.2872197      42699.2    66788.579     53319.32    7989.7015    18209.184    11581.222     8031.269    78.800183 
    5800     1211.219    -107.2676    1.0959364   -106.17166   -8024.5651    4.3072617    4.3072617    4.3072617   -8024.5651   -13194.954    46166.864   -57045.605    12171.127    17025.775     -21625.3    79.910486 
    5900    1948.5006   -107.89609    1.7630443   -106.13304   -14503.195    4.3186528    4.3186528    4.3186528   -14503.195    10491.248    -23809.99   -30190.841    7525.4147   -6938.7873    1558.2009    80.546165 
    6000    1106.1404    -107.1193    1.0008591   -106.11844    5633.2884     4.320499     4.320499     4.320499    5633.2884   -36010.107     68356.53   -15446.558    14300.821    18992.535    106.04952     80.64951 
    6100     1319.534   -107.29657    1.1939421   -106.10262   -12758.056    4.3140687    4.3140687    4.3140687   -12758.056   -5787.0454   -18684.537   -13802.587    3141.9404    2211.5977    -12240.88    80.289945 
    6200    1528.7592   -107.47921    1.3832534   -106.09595    26227.678    4.2834609    4.2834609    4.2834609    26227.678    57059.522    -12211.82    33835.333    14895.529    4948.4565    12286.457      78.5931 
    6300    1577.5639   -107.56622     1.427413    -106.1388   -1504.3349    4.2915194    4.2915194    4.2915194   -1504.3349    5605.3164    2826.9603   -12945.281    13822.746    4528.4804   -6054.9203     79.03751 
    6400    1301.9208   -107.32913    1.1780053   -106.15113   -15780.505     4.326054     4.326054     4.326054   -15780.505    29297.643   -33246.578   -43392.581    3470.0428    16422.643   -15367.806    80.960988 
    6500    1282.0644   -107.27926    1.1600388   -106.11922   -16033.312    4.3123778    4.3123778    4.3123778   -16033.312   -26876.493   -32276.791    11053.349    33351.065   -5424.7083    12595.486    80.195576 
    6600    1841.5918   -107.76069    1.6663109   -106.09438    -10018.61    4.2850158    4.2850158    4.2850158    -10018.61   -12199.064   -25586.367    7729.5999    4323.1047    9542.2888   -8173.8425    78.678719 
    6700    1430.8881   -107.43498    1.2946976   -106.14029   -5034.9164    4.3082697    4.3082697    4.3082697   -5034.9164   -16033.235   -30066.213    30994.699    8445.6103   -931.75932   -26169.784    79.966605 
    6800    1371.0713   -107.36355    1.2405742   -106.12298   -32277.929    4.3221261    4.3221261    4.3221261   -32277.929   -57147.956   -47267.187    7581.3545    51111.234    9524.5353    951.70393    80.740661 
    6900    1877.1233   -107.79547    1.6984606   -106.09701    605.89607    4.2966456    4.2966456    4.2966456    605.89607   -27595.963    30053.372   -639.72062    -2185.752    8054.7346   -1885.7285    79.321075 
    7000    1152.6512   -107.16978     1.042943   -106.12684   -2402.9135    4.2969595    4.2969595    4.2969595   -2402.9135   -50340.266     26300.34    16831.185    21603.006   -6366.8975    4039.6995    79.338464 
    7100    1373.6312   -107.38491    1.2428904   -106.14202   -25428.126    4.3104913    4.3104913    4.3104913   -25428.126   -55879.807   -46386.458    25981.886    17463.453   -1837.0426   -5555.6803    80.090373 
    7200    1469.6528   -107.46901    1.3297727   -106.13924    56.185586    4.3074152    4.3074152    4.3074152    56.185586     11745.13    17295.825   -28872.397   -1368.6237   -1630.1176    81.093826    79.919031 
    7300     1299.807   -107.31359    1.1760927    -106.1375    19260.936    4.3085175    4.3085175    4.3085175    19260.936   -39567.021    32895.579     64454.25    9663.6013     11408.63   -15695.597      79.9804 
    7400    1461.7641   -107.46254    1.3226349    -106.1399   -4551.8641    4.3199603    4.3199603    4.3199603   -4551.8641    -37757.95    29539.342   -5436.9839    1705.2369    3418.4242    16626.589    80.619346 
    7500    1391.5361   -107.37234    1.2590911   -106.11325    32451.071    4.3111255    4.3111255    4.3111255    32451.071    10917.014    21715.223    64720.976   -355.19406    6064.5607    362.70575     80.12573 
    7600    1399.0338    -107.3731    1.2658752   -106.10722    1970.3323    4.3089112    4.3089112    4.3089112    1970.3323   -43119.803   -7936.9892    56967.789    6173.3517    14272.304    1344.1829    80.002327 
    7700    1092.2298   -107.10667   0.98827246   -106.11839    -670.2268    4.3144011    4.3144011    4.3144011    -670.2268    -24569.24    38795.528   -16236.969    4020.1572    3163.0926    18540.764    80.308506 
    7800    1516.0667   -107.49137     1.371769    -106.1196    6810.3687    4.3058644    4.3058644    4.3058644    6810.3687   -17059.982    21986.196    15504.892     23154.98     5036.699   -12472.435    79.832745 
    7900    1618.1535   -107.59354    1.4641393    -106.1294   -45704.478    4.3099292    4.3099292    4.3099292   -45704.478   -84733.031   -46747.177   -5633.2244   -7351.7861   -8500.9307    14936.441    80.059045 
    8000    1288.2942   -107.29317    1.1656757   -106.12749    21941.748    4.3057716    4.3057716    4.3057716    21941.748   -13549.577    89688.213   -10313.393    8902.6536   -4618.9355    11973.312    79.827583 
    8100    1823.2087   -107.78077    1.6496776   -106.13109   -28995.617    4.3023907    4.3023907    4.3023907   -28995.617   -73023.091   -22741.492    8777.7317      10478.8   -748.31847   -14294.653    79.639687 
    8200    991.76817   -107.04015   0.89737268   -106.14278    15573.263    4.3042682    4.3042682    4.3042682    15573.263    7834.5173    15663.364    23221.908   -14755.098   -12536.699   -2690.0531    79.743995 
    8300      2280.54   -108.18986    2.0634805   -106.12638    -18723.85    4.3057281    4.3057281    4.3057281    -18723.85   -34799.102    21953.145   -43325.592   -14553.664    2456.4289   -7019.3345    79.825158 
    8400    1000.3375   -107.04664   0.90512642   -106.14151    16913.532    4.3119817    4.3119817    4.3119817    16913.532   -10489.288     51268.57    9961.3149    11911.812   -9459.1678    1061.8873    80.173476 
    8500     1681.794   -107.63763    1.5217225    -106.1159   -14358.069    4.3073735    4.3073735    4.3073735   -14358.069   -57721.884    9610.6977    5036.9803    7149.0937   -2275.1886     2735.032    79.916709 
    8600     1734.656   -107.68453    1.5695532   -106.11497   -5649.5401    4.2940807    4.2940807    4.2940807   -5649.5401   -30212.548    6761.7837    6502.1438   -11325.631    8585.1386   -9354.8279     79.17911 
    8700    1177.1025   -107.20427    1.0650671    -106.1392   -21694.118     4.299332     4.299332     4.299332   -21694.118   -45828.315   -20520.687    1266.6472    24980.391   -11030.803   -312.17458    79.469954 
    8800    1754.9423   -107.72682    1.5879087   -106.13892     14081.68    4.2923801    4.2923801    4.2923801     14081.68   -1452.6303    60282.908   -16585.236    6107.2282    3262.7392   -2762.3293    79.085075 
    8900    1629.3403   -107.62831    1.4742613   -106.15405   -1108.4321    4.3033292    4.3033292    4.3033292   -1108.4321   -54897.456    29206.368    22365.791    15205.257    6159.2269   -24103.711    79.691815 
    9000    781.24336   -106.86284   0.70688541   -106.15595    944.14628    4.3206924    4.3206924    4.3206924    944.14628   -79776.315    55035.716    27573.037    11573.489    4132.5723    -4356.574    80.660339 
    9100    2171.5001   -108.07525    1.9648189   -106.11044   -19261.665    4.3215975    4.3215975    4.3215975   -19261.665   -41930.821    3725.3217   -19579.496    8476.2743   -250.26715   -5867.9988    80.711042 
    9200    1298.4764   -107.27502    1.1748887   -106.10013     -28595.5    4.3215651    4.3215651    4.3215651     -28595.5    -57895.17    -25007.43   -2883.8985   -10225.236   -10767.628   -2593.5074    80.709227 
    9300    1412.9626   -107.36413    1.2784783   -106.08565    6267.9919    4.3057714    4.3057714    4.3057714    6267.9919   -47364.064   -19129.491    85297.531   -17805.487   -8396.4966   -11700.533    79.827569 
    9400    1880.2436   -107.81605    1.7012839   -106.11477    9677.6608    4.2994595    4.2994595    4.2994595    9677.6608   -25725.884    21000.446    33758.421    18330.674    10140.899    14067.909    79.477025 
    9500    721.27623   -106.82167   0.65262589   -106.16905   -32428.932     4.322011     4.322011     4.322011   -32428.932   -80903.177    -89622.34    73238.722    3102.0729    2690.6681   -11015.373     80.73421 
    9600    2000.4981   -107.93647    1.8100927   -106.12638    -981.5187    4.3072646    4.3072646    4.3072646    -981.5187   -52447.471    5607.3704    43895.544   -5260.4518    10374.707    22396.343    79.910651 
    9700    1275.1929   -107.28712    1.1538213    -106.1333   -3763.0838     4.302492     4.302492     4.302492   -3763.0838   -51510.021    30329.027     9891.743    6767.6851    11252.334   -17757.899    79.645311 
    9800    1533.6393   -107.52722    1.3876691   -106.13955   -8794.2819    4.3072907    4.3072907    4.3072907   -8794.2819   -24990.863   -42982.928    41590.945    792.10079    2591.7105   -9795.6804    79.912099 
    9900    1279.7239   -107.29451    1.1579211   -106.13659    37511.813    4.3085446    4.3085446    4.3085446    37511.813   -27772.445    98350.658    41957.227   -7558.4252     -8706.88    21814.621    79.981914 
   10000    1614.9923   -107.59639    1.4612789   -106.13511   -64725.109    4.3245601    4.3245601    4.3245601   -64725.109   -112391.55    -61087.88   -20695.897   -11731.898   -2736.5245   -2904.8347    80.877145 
   10100    1474.3217   -107.44483    1.3339972   -106.11083    8576.9387    4.3085689    4.3085689    4.3085689    8576.9387    -58101.65     94759.18   -10926.714    19731.781    2606.7292   -6109.7855    79.983262 
   10200    1568.3149   -107.53914    1.4190443    -106.1201    29991.594    4.2894811    4.2894811    4.2894811    29991.594   -14207.484    37720.916    66461.351   -7602.0141    2113.9501    28322.342    78.924945 
   10300    1599.9897   -107.61528    1.4477043   -106.16758    2838.8114    4.3104208    4.3104208    4.3104208    2838.8114   -34599.339    19693.567    23422.206    22663.545   -10019.547   -2327.6348    80.086444 
   10400    1289.0875   -107.30557    1.1663935   -106.13918   -5995.9701    4.3300117    4.3300117    4.3300117   -5995.9701   -31332.412    59890.223   -46545.722    8875.2971    3308.2039    16696.803    81.183393 
   10500    1726.9724   -107.68027    1.5626009   -106.11767   -30213.488    4.3071017    4.3071017    4.3071017   -30213.488   -51516.107    -27823.11   -11301.247    10320.522    510.98062    13934.905     79.90158 
   10600    988.52759   -107.02702   0.89444053   -106.13258    44441.208    4.2840408    4.2840408    4.2840408    44441.208   -36248.928    84581.778    84990.775     17640.48   -10897.261   -9833.6827    78.625023 
   10700    1969.8701   -107.94227    1.7823798   -106.15989   -2032.6449    4.3041836    4.3041836    4.3041836   -2032.6449   -29782.765    23791.523   -106.69285    850.91601    3748.2893   -21401.739    79.739291 
   10800    921.57197    -106.9888   0.83385769   -106.15495    21484.274    4.3310223    4.3310223    4.3310223    21484.274   -40655.137    46655.553    58452.408    1189.3148   -3869.9005    107.41338     81.24025 
   10900    1054.4589    -107.0637   0.95409654   -106.10961    4531.2571    4.3363474    4.3363474    4.3363474    4531.2571   -27058.094    644.09857    40007.767     16182.74   -13273.697    2776.5059    81.540281 
   11000    1645.6571   -107.55912    1.4890251   -106.07009    26288.805     4.312212     4.312212     4.312212    26288.805    8417.5302    60271.076     10177.81   -1186.5287   -7902.7521   -30240.562    80.186324 
   11100    1255.8148   -107.21135    1.1362876   -106.07506    29984.782    4.2925303    4.2925303    4.2925303    29984.782   -29255.009     60211.67    58997.686    29048.874   -4512.5176    2966.5009    79.093377 
   11200    1868.5104   -107.81654    1.6906675   -106.12587    113.67121    4.3153352    4.3153352    4.3153352    113.67121    13078.679     1921.305   -14658.971   -16010.823    22155.346   -13861.536    80.360681 
   11300    1388.1989     -107.385    1.2560715   -106.12893    -27084.47    4.3262344    4.3262344    4.3262344    -27084.47   -75441.502   -15791.262    9979.3545    4719.2765    13231.045   -17295.042    80.971119 
   11400    1499.7704   -107.45984    1.3570238   -106.10282   -13929.094    4.2954228    4.2954228    4.2954228   -13929.094   -62150.636    -14892.05    35255.404    16152.685   -9948.2509    10712.226    79.253373 
   11500     1465.856   -107.45005    1.3263373   -106.12371    41629.991    4.3013006    4.3013006    4.3013006    41629.991    605.31544    73028.457    51256.201   -16420.855    7200.4124   -22205.633    79.579165 
   11600    1404.3306   -107.41517    1.2706679    -106.1445   -51662.942    4.3209641    4.3209641    4.3209641   -51662.942   -71678.736   -74628.291   -8681.7991    16278.284     1824.647   -3460.8042     80.67556 
   11700    1464.0494   -107.45682    1.3247027   -106.13211    16968.738    4.3048058    4.3048058    4.3048058    16968.738   -12561.479    43684.474    19783.219   -12747.801   -4884.0364   -5443.5841    79.773878 
   11800    1358.2004   -107.36687    1.2289282   -106.13794    13495.537    4.3037437    4.3037437    4.3037437    13495.537   -22820.152    87422.406   -24115.643    12021.465    13591.339    15472.266    79.714843 
   11900    1209.3178   -107.23699    1.0942161   -106.14278   -5740.9875       4.3048       4.3048       4.3048   -5740.9875   -18064.879    21490.294   -20648.378    18045.558   -8190.1361   -6300.7676    79.773555 
   12000    1850.2089    -107.8197    1.6741079   -106.14559   -23170.335    4.3172353    4.3172353    4.3172353   -23170.335   -45265.363   -10713.675   -13531.966   -10602.121   -15673.413    12475.387    80.466881 
   12100    1416.4632   -107.41421    1.2816457   -106.13256   -36666.848    4.3231207    4.3231207    4.3231207   -36666.848   -33272.452   -25849.754   -50878.337    15209.365    20664.518    6322.1303    80.796412 
   12200    1513.4905   -107.47737     1.369438   -106.10793     1839.156    4.3000044    4.3000044    4.3000044     1839.156   -35151.103    51814.239   -11145.668    20168.555   -1244.0917     10071.67    79.507245 
   12300     1642.249   -107.61889    1.4859414   -106.13295    5155.3046    4.3000213    4.3000213    4.3000213    5155.3046   -1753.4038    46694.825   -29475.508   -8470.2971    12903.982   -2915.4866    79.508183 
   12400    996.36106   -107.05145   0.90152842   -106.14992    14266.171    4.3105917    4.3105917    4.3105917    14266.171    75228.938     33767.08   -66197.504   -33006.915    13594.034    6469.4669    80.095969 
   12500    1452.2351   -107.45146    1.3140128   -106.13744    24033.574    4.3085153    4.3085153    4.3085153    24033.574    27069.546      65427.7   -20396.525    5630.1655    7759.1774   -10698.823     79.98028 
   12600    1048.3725   -107.08561   0.94858944   -106.13702    8831.5337    4.3183806    4.3183806    4.3183806    8831.5337    130149.58   -36490.319   -67164.662    11.899071     12875.35    10447.041    80.530936 
   12700    1429.7869   -107.42423    1.2937012   -106.13053   -1758.8307    4.3082433    4.3082433    4.3082433   -1758.8307    -5452.499    34015.241   -33839.234   -9853.9906    20135.935    3277.5489     79.96513 
   12800    1500.4771   -107.47607    1.3576633   -106.11841     47226.15    4.2925426    4.2925426    4.2925426     47226.15    35112.352    61873.446    44692.652    4574.7353    28525.771     142.8571    79.094057 
   12900    1612.7976   -107.60988    1.4592932   -106.15059   -29142.946    4.3229366    4.3229366    4.3229366   -29142.946    -46138.14   -9780.3393   -31510.359    286.89355    7083.2485     18740.48    80.786091 
   13000    1600.5278    -107.5676    1.4481912   -106.11941   -29171.194    4.3376106    4.3376106    4.3376106   -29171.194    14086.754   -22270.398   -79329.936    4360.0335    18739.993   -8692.6313    81.611563 
   13100    1446.2794   -107.39926     1.308624   -106.09064    43549.557    4.3020938    4.3020938    4.3020938    43549.557    132802.46   -21269.615    19115.829    8246.8933    24020.053   -3911.5368    79.623199 
   13200    1214.3461   -107.21079    1.0987658   -106.11203    22851.293     4.296597     4.296597     4.296597    22851.293    132893.09   -43937.336   -20401.872   -14060.944    22013.845   -3382.3199    79.318385 
   13300    1740.0607   -107.71465    1.5744435   -106.14021   -36148.516    4.3154471    4.3154471    4.3154471   -36148.516   -19519.596   -34669.514   -54256.438    5042.3653   -21506.883    6489.1155    80.366934 
   13400    1755.0168   -107.73128    1.5879761    -106.1433   -38215.653    4.3112079    4.3112079    4.3112079   -38215.653   -22767.505   -67597.781   -24281.675    8817.1374   -15408.374    8035.3467    80.130323 
   13500    1183.0868   -107.21278    1.0704818   -106.14229    41061.051    4.2941408    4.2941408    4.2941408    41061.051    137498.26   -5171.6042   -9143.5031     5479.131    18844.234   -9917.9882    79.182435 
   13600    1738.2319    -107.7386    1.5727888   -106.16581    -11184.69    4.3061853    4.3061853    4.3061853    -11184.69    25426.261    -34097.86   -24882.471    12656.926   -19983.849    7128.2942     79.85059 
   13700    1273.3473   -107.32737    1.1521514   -106.17521    8792.7518    4.3177958    4.3177958    4.3177958    8792.7518    138145.47    -79941.05   -31826.164   -216.36909     146.1643    512.35419    80.498223 
   13800    2003.8686   -107.97453    1.8131424   -106.16139   -23481.875    4.3102232    4.3102232    4.3102232   -23481.875    34352.633     -42973.2   -61825.058   -8744.2106   -1870.4003    4957.8962     80.07543 
   13900    1259.7705   -107.28544    1.1398669   -106.14558    21891.997    4.2884583    4.2884583    4.2884583    21891.997    109234.14   -24447.488    -19110.66    17372.759    -431.8851    22757.979    78.868498 
   14000    1888.5183   -107.86587    1.7087711    -106.1571    4613.7566    4.2975512    4.2975512    4.2975512    4613.7566    48836.068   -1541.9983     -33452.8   -4490.3516    5006.3145   -12644.268    79.371241 
   14100    1025.9368   -107.08801   0.92828916   -106.15972   -15947.518    4.3196732    4.3196732    4.3196732   -15947.518    75417.493   -58526.592   -64733.456    4520.5062    8237.9164    36090.319    80.603274 
   14200    1808.9767   -107.77387    1.6368002   -106.13707   -16525.705    4.3051198    4.3051198    4.3051198   -16525.705   -4657.8334   -18599.883   -26319.398    6072.5435   -1246.3169   -16148.517    79.791335 
   14300    1382.1957    -107.3845    1.2506397   -106.13386    20579.914    4.3061061    4.3061061    4.3061061    20579.914    11997.064    57887.568   -8144.8905    24228.975   -10916.159      6380.51    79.846188 
   14400    1659.2418   -107.62739    1.5013168   -106.12607   -44701.164     4.320232     4.320232     4.320232   -44701.164   -11336.585   -67510.414   -55256.492   -3705.8339    286.79541    16691.476    80.634555 
   14500     1615.109   -107.57641    1.4613845   -106.11503   -2985.4643    4.3068109    4.3068109    4.3068109   -2985.4643     5334.677    29173.154   -43464.224    11740.043   -6772.8599   -24255.863    79.885397 
   14600    1580.3828   -107.55335    1.4299636   -106.12339    8425.6341     4.290726     4.290726     4.290726    8425.6341    61252.812      11122.9    -47098.81   -1619.6177   -1290.0158    41520.833    78.993678 
   14700    1502.3301   -107.51752    1.3593399   -106.15818   -365.63355    4.3095302    4.3095302    4.3095302   -365.63355    33672.891    2301.1714   -37070.963    11244.799     -9973.94   -11993.017    80.036813 
   14800    1718.1869   -107.68866    1.5546516     -106.134   -12234.755    4.3217913    4.3217913    4.3217913   -12234.755   -16742.076    19024.434   -38986.623    13650.803   -15429.908    8376.5864    80.721897 
   14900    1338.9683   -107.32945    1.2115266   -106.11792    1386.7228    4.3191418    4.3191418    4.3191418    1386.7228    40776.721    34343.812   -70960.365    5053.0273   -12673.188    12815.141    80.573527 
   15000     1832.892   -107.76685    1.6584392   -106.10841   -8835.0068    4.3049461    4.3049461    4.3049461   -8835.0068    783.65456   -3348.3771   -23940.298    14130.652   -27053.832    -8694.971    79.781673 
   15100     1253.805   -107.25247    1.1344692     -106.118    37652.631    4.2916633    4.2916633    4.2916633    37652.631    60093.594    79781.156   -26916.856   -16587.719    4607.8108    25014.983    79.045458 
   15200    1820.6075   -107.79497    1.6473239   -106.14765   -11530.786    4.3096774    4.3096774    4.3096774   -11530.786    1389.7902   -22526.517    -13455.63     8805.752    -7922.994     2805.766    80.045016 
   15300     1820.691   -107.77544    1.6473995   -106.12804   -25444.769    4.3246886    4.3246886    4.3246886   -25444.769    16267.211   -28524.205   -64077.311    11009.847   -12236.389    169.39763    80.884355 
   15400    1463.9563   -107.42644    1.3246184   -106.10182    23924.542    4.3168734    4.3168734    4.3168734    23924.542    48748.306    48346.679   -25321.359   -23760.613    6331.5938    20288.147    80.446646 
   15500    1536.9143   -107.49419    1.3906324   -106.10355   -7754.7029    4.3133412    4.3133412    4.3133412   -7754.7029   -21015.655    27173.804   -29422.258     17190.47   -22436.616    3861.7807    80.249334 
   15600    1998.5409   -107.90961    1.8083218   -106.10129   -25707.676     4.301739     4.301739     4.301739   -25707.676   -38399.677   -5830.4091    -32892.94    15120.011   -1538.2923    10345.523    79.603503 
   15700    1303.5263   -107.30875     1.179458    -106.1293    29374.345    4.2992329    4.2992329    4.2992329    29374.345     34616.12    70516.431   -17009.516   -7710.2755   -611.01058    3734.8985    79.464456 
   15800    1938.6593   -107.90204    1.7541397    -106.1479   -51277.194    4.3182526    4.3182526    4.3182526   -51277.194   -41644.723   -33375.027    -78811.83    6240.2905   -26233.318   -18821.175    80.523774 
   15900    1344.9544   -107.36258     1.216943   -106.14564    16287.152    4.3155698    4.3155698    4.3155698    16287.152    25180.622    57713.504   -34032.671    6279.2593    9123.5747   -7287.2739    80.373787 
   16000    1803.7093   -107.76681    1.6320341   -106.13478   -24723.555    4.3131646    4.3131646    4.3131646   -24723.555   -70984.437    17573.353    -20759.58    6084.3093   -28251.919   -614.58622    80.239477 
   16100    1313.7732   -107.31256    1.1887296   -106.12383    42744.682    4.3121642    4.3121642    4.3121642    42744.682    3245.5612    121924.73    3063.7517   -8936.8346   -4610.5317   -18263.274    80.183661 
   16200    1319.7411   -107.32003    1.1941295    -106.1259   -23015.444     4.316188     4.316188     4.316188   -23015.444   -39964.071    1020.8063   -30103.067   -5470.7243    -9035.122    13157.534    80.408333 
   16300    1167.4616   -107.18282    1.0563438   -106.12647   -25163.287    4.3054882    4.3054882    4.3054882   -25163.287   -42240.422    29092.731   -62342.169    11954.912   -35131.785    22667.044    79.811819 
   16400     2004.596   -107.93126    1.8138006   -106.11746    17764.508    4.2881727    4.2881727    4.2881727    17764.508   -10029.592     39903.95    23419.166   -12561.195    9071.3543   -15989.094    78.852741 
   16500    1321.0134   -107.35035    1.1952807   -106.15507   -51123.183    4.3163047    4.3163047    4.3163047   -51123.183   -63936.411   -1787.0913   -87646.048    14845.608   -36419.686    29191.653    80.414854 
   16600    1391.5216   -107.38749     1.259078   -106.12841   -9638.9889     4.314402     4.314402     4.314402   -9638.9889   -25592.179   -7120.9141    3796.1269   -34.508042    -9399.869    31289.284    80.308559 
   16700     1495.971   -107.46523     1.353586   -106.11165    20464.337    4.2931491    4.2931491    4.2931491    20464.337   -1779.0851    103265.54   -40093.443   -3997.8743    11606.246   -16955.178    79.127585 
   16800    795.76602   -106.86489   0.72002582   -106.14486    5278.1493    4.3125554    4.3125554    4.3125554    5278.1493   -30654.417    62049.402   -15560.537    5437.3848   -5599.9733    14080.789    80.205485 
   16900    2045.8965   -107.96763    1.8511702   -106.11646   -4513.8936    4.3149277    4.3149277    4.3149277   -4513.8936   -55208.047    22520.997    19145.369    10021.067    6065.0539    9516.3508    80.337916 
   17000    1474.1356   -107.46859    1.3338289   -106.13476    5623.5333    4.3048615    4.3048615    4.3048615    5623.5333   -40062.895    19857.606     37075.89   -2146.6846    -20000.53    30807.089    79.776975 
   17100     968.0544   -107.02008   0.87591597   -106.14417    31281.995    4.2977785    4.2977785    4.2977785    31281.995    15158.359   -35226.078     113913.7    18607.311    5224.2611    25146.445    79.383837 
   17200    1784.5641   -107.74413    1.6147111   -106.12942   -12572.596    4.3081301    4.3081301    4.3081301   -12572.596   -51924.632    33485.482   -19278.638    3225.9104    -12789.89    14391.075    79.958831 
   17300    900.13754   -106.93894   0.81446336   -106.12447   -15312.175    4.3125054    4.3125054    4.3125054   -15312.175   -67622.751    8275.4315    13410.796   -1010.5533   -31086.406   -138.30602    80.202693 
   17400    1916.0325   -107.84255    1.7336664   -106.10889   -17346.328    4.3008736    4.3008736    4.3008736   -17346.328   -7762.3525   -30047.126   -14229.505    -2569.225    4132.4708    31281.026    79.555469 
   17500    1729.3229   -107.68952    1.5647277    -106.1248    10362.629    4.2869885    4.2869885    4.2869885    10362.629   -13327.934    14825.491    29590.331    1551.9748   -3572.3472   -2061.8329    78.787435 
   17600    1122.4419   -107.16557     1.015609   -106.14996    48327.142    4.2786035    4.2786035    4.2786035    48327.142    2076.6554   -5338.5317     148243.3    20244.247   -20487.942    10635.026    78.326032 
   17700    1723.9856   -107.73292    1.5598984   -106.17302   -26471.827    4.3049732    4.3049732    4.3049732   -26471.827   -21225.916   -24597.939   -33591.626   -11575.502    13338.717    19236.941     79.78318 
   17800    1324.2543   -107.35031    1.1982131   -106.15209   -1558.5349    4.3034942    4.3034942    4.3034942   -1558.5349   -10095.183   -31163.487    36583.065     1880.778    6267.7644    3719.3444    79.700983 
   17900    1291.6643   -107.29571     1.168725   -106.12699    37723.857    4.2855896    4.2855896    4.2855896    37723.857    44821.363    23299.716    45050.493    10419.291   -8952.4251    11735.349    78.710333 
   18000    1405.9087   -107.40354    1.2720957   -106.13144   -6690.7583    4.3025786    4.3025786    4.3025786   -6690.7583   -10001.066    -30223.64     20152.43    -7985.249    8381.1973    4366.1591    79.650118 
   18100     1393.566   -107.39718    1.2609278   -106.13625   -19866.488     4.300044     4.300044     4.300044   -19866.488   -24497.828    -53918.95    18817.314    27411.914   -1784.9776    4437.9177    79.509438 
   18200    1989.3582   -107.94222    1.8000131   -106.14221    11374.474    4.2788065    4.2788065    4.2788065    11374.474    9892.6095    4900.4435     19330.37    8147.8429     7069.262    6000.3515     78.33718 
   18300    1271.1825   -107.31234    1.1501927   -106.16215    27041.463    4.2821751    4.2821751    4.2821751    27041.463    6374.6081    7776.4165    66973.364   -3912.3822   -632.78417   -4053.4389    78.522343 
   18400    1199.1878   -107.24699    1.0850503   -106.16194   -9129.1875    4.3074604    4.3074604    4.3074604   -9129.1875   -21103.625   -26349.536    20065.599    20608.325   -17816.805   -15497.504    79.921545 
   18500     1986.477    -107.9181    1.7974061    -106.1207   -24613.866    4.3136828    4.3136828    4.3136828   -24613.866    3135.6754    -17449.11   -59528.164   -11710.236    3536.2474    12180.143    80.268405 
   18600    1282.5911   -107.25991    1.1605153   -106.09939    20224.982    4.2917634    4.2917634    4.2917634    20224.982    25675.995    4903.5253    30095.426    25663.721    487.17015   -1285.5036    79.050989 
   18700    1414.5345   -107.38387    1.2799006   -106.10397    34528.242    4.2896199    4.2896199    4.2896199    34528.242    42867.589   -14589.644    75306.781    8590.6292   -9205.8105   -6312.5584    78.932604 
   18800    1768.1835   -107.71712    1.5998896   -106.11723     5779.148    4.2954796    4.2954796    4.2954796     5779.148    35845.965    2152.0104   -20660.532   -19446.143   -3236.1543    10664.543    79.256519 
   18900    1096.5897   -107.12201   0.99221744    -106.1298    25952.052    4.2923706    4.2923706    4.2923706    25952.052    23932.692    34755.053     19168.41    23060.674   -666.16902     6532.891    79.084547 
   19000    1961.4502   -107.90006    1.7747613   -106.12529   -27677.521    4.3001851    4.3001851    4.3001851   -27677.521   -29237.238    -34298.85   -19496.475   -18918.436   -4725.4955    4443.9393     79.51727 
   19100     856.7493   -106.90731   0.77520477   -106.13211    10868.618    4.2896575    4.2896575    4.2896575    10868.618    40363.339    -3982.362   -3775.1241    -20467.41    4866.2426    9056.0334    78.934682 
   19200    2147.6409   -108.07075    1.9432306   -106.12752   -13190.139    4.2733254    4.2733254    4.2733254   -13190.139   -9710.3234    2327.9596   -32188.052    13231.801    19490.745    10184.948    78.036521 
   19300     1317.213   -107.34779     1.191842   -106.15594    525.27778    4.2846971    4.2846971    4.2846971    525.27778    14161.168   -21029.801    8444.4658    -35204.11   -967.00471   -10027.685    78.661163 
   19400    1597.5958   -107.59215    1.4455383   -106.14661   -20393.186    4.2967307    4.2967307    4.2967307   -20393.186   -36797.355   -21964.933   -2417.2696     -26080.5    15183.321    10767.227    79.325788 
   19500    1472.9547   -107.46481    1.3327604   -106.13205   -23776.061    4.3103089    4.3103089    4.3103089   -23776.061   -20682.658   -43440.204   -7205.3224    8622.0479    5499.0346   -7159.2513    80.080205 
   19600    873.00592   -106.91176    0.7899141   -106.12185   -4356.1989     4.294057     4.294057     4.294057   -4356.1989     60559.23   -79202.003    5574.1761   -39757.917    6430.7978   -22517.005    79.177798 
   19700    2160.5852    -108.0571    1.9549429   -106.10216     13720.09    4.2779193    4.2779193    4.2779193     13720.09    71418.056   -34596.521    4338.7348   -418.11654    315.66562     6477.524    78.288464 
   19800    1333.2777   -107.35362    1.2063777   -106.14725   -16510.051    4.3074573    4.3074573    4.3074573   -16510.051   -11242.062   -40393.701    2105.6117   -23307.267    9456.8214   -5588.8723    79.921377 
   19900    1453.2386   -107.43482    1.3149208    -106.1199   -26838.887    4.3198789    4.3198789    4.3198789   -26838.887    -8164.218   -57646.718   -14705.723   -34551.414    -2787.991   -1486.8727    80.614791 
   20000     1988.968   -107.91234      1.79966   -106.11268    8393.7052    4.2873013    4.2873013    4.2873013    8393.7052   -9637.0589    3784.9093    31033.265     19788.51    8104.3424    -7697.452    78.804684 
   20100     1044.643   -107.06934    0.9452149   -106.12413        46822    4.2553127    4.2553127    4.2553127        46822     61370.29     42168.82    36926.888   -40712.513    8542.4041    3021.7807    77.053869 
   20200    1401.4451   -107.44966     1.268057    -106.1816   -19323.354    4.2827846    4.2827846    4.2827846   -19323.354    -30172.72   -41305.671     13508.33    -19668.81    5664.4544   -12605.604    78.555879 
   20300    1827.3595   -107.80887    1.6534333   -106.15543   -16584.313    4.3022583    4.3022583    4.3022583   -16584.313   -26614.938    5945.8156   -29083.817    24268.439   -17153.714    3553.4149    79.632334 
   20400    1519.7821   -107.52273    1.3751308    -106.1476    7573.1486    4.2869843    4.2869843    4.2869843    7573.1486    2489.5354    3885.3601     16344.55   -40943.503    16108.516   -11624.162    78.787203 
   20500    1637.9949   -107.63617    1.4820922   -106.15407    3828.9761    4.2885264    4.2885264    4.2885264    3828.9761    -30107.84    84857.499    -43262.73    -4508.189   -5662.1889   -13822.556    78.872257 
   20600    1748.2761   -107.74711    1.5818769   -106.16524   -5572.8507    4.2899389    4.2899389    4.2899389   -5572.8507   -66706.135    57603.207   -7615.6248    21917.125    -13450.93   -8724.6948    78.950214 
   20700     1092.069   -107.16786   0.98812694   -106.17973    35137.974    4.2747012    4.2747012    4.2747012    35137.974   -66997.693    63083.916     109327.7    -28208.59    19478.329   -4749.4814    78.111918 
   20800    1980.3089   -107.99253    1.7918251   -106.20071   -7532.5211    4.2971616    4.2971616    4.2971616   -7532.5211   -36931.822    21828.479   -7494.2198    1050.2213     -1053.78   -14760.421    79.349659 
   20900    1588.0612   -107.60616    1.4369112   -106.16925     12966.85     4.306765     4.306765     4.306765     12966.85   -57548.621    67508.154    28941.017    4201.2014   -2906.5752    14155.295    79.882843 
   21000    931.41245    -107.0087   0.84276156   -106.16594   -14859.755    4.2894778    4.2894778    4.2894778   -14859.755   -84322.611    3908.5396    35834.807   -38074.792    20091.378   -231.27124    78.924762 
   21100    1718.4454   -107.71396    1.5548855   -106.15907   -19536.475    4.2727639    4.2727639    4.2727639   -19536.475   -33600.222    1979.3594   -26988.562   -2621.0806    19239.034   -3079.5721     78.00576 
   21200    1201.5253   -107.26432    1.0871654   -106.17716    53339.957    4.2784809    4.2784809    4.2784809    53339.957   -30602.801    112481.61    78141.064   -3914.6066   -7976.7181   -3028.2152    78.319298 
   21300     1722.442   -107.74553    1.5585017   -106.18703   -51832.976    4.3118532    4.3118532    4.3118532   -51832.976   -103297.14    -15073.04   -37128.751   -32837.742    30760.468   -190.74473     80.16631 
   21400    1714.8506   -107.71598    1.5516329   -106.16435   -18682.331    4.3038666    4.3038666    4.3038666   -18682.331   -46383.939   -17249.721    7586.6662    10094.306   -2251.2283   -28358.889    79.721676 
   21500    1219.2516   -107.25706    1.1032045   -106.15385    38363.532    4.2712976    4.2712976    4.2712976    38363.532    1846.4451    110880.06    2364.0932    16855.054    10064.833    -7858.194     77.92548 
   21600    1312.2286   -107.37993     1.187332    -106.1926    2702.9841    4.2830123    4.2830123    4.2830123    2702.9841   -47710.126    59135.347   -3316.2688   -25273.495    13782.489    9707.9471    78.568412 
   21700    1588.5115   -107.62418    1.4373186   -106.18686   -7210.8994     4.300263     4.300263     4.300263   -7210.8994   -52152.646      29658.4    861.54787     907.2851   -7592.0137   -21697.248    79.521589 
   21800    1630.5282   -107.65592    1.4753362   -106.18058   -8844.5886    4.3011601    4.3011601    4.3011601   -8844.5886   -36932.614        34304   -23905.151    11387.034    16038.445    936.02651    79.571368 
   21900    1317.9018   -107.35471    1.1924652   -106.16224    21824.868    4.3000823    4.3000823    4.3000823    21824.868   -32425.866    83805.168      14095.3   -9715.0344    2164.6436    7208.2708    79.511566 
   22000    1975.5045   -107.93692     1.787478   -106.14944    -19266.83    4.2871025    4.2871025    4.2871025    -19266.83   -41917.481   -13618.841   -2264.1675    27386.388    -1268.189   -16986.605    78.793719 
   22100    1262.0038   -107.30352    1.1418876   -106.16163   -3000.4929    4.2742142    4.2742142    4.2742142   -3000.4929   -30414.276    32238.319   -10825.522    7130.2441    32162.351    11571.516    78.085223 
   22200    1100.6061   -107.17604    0.9958515   -106.18018    38620.086    4.2869293    4.2869293    4.2869293    38620.086   -30548.084    80528.613     65879.73   -16189.927    1365.8563    28723.784    78.784169 
   22300    1976.9439   -107.95041    1.7887804   -106.16163    -14772.11    4.3053249    4.3053249    4.3053249    -14772.11   -31308.824    18536.888   -31544.395   -3734.7995    6268.0263   -6976.5623    79.802737 
   22400    1474.3179   -107.49506    1.3339938   -106.16106   -26452.571    4.2930338    4.2930338    4.2930338   -26452.571   -41327.586    19852.866   -57882.992   -2664.1198    32058.421    31050.719    79.121211 
   22500    1299.1835   -107.32626    1.1755285   -106.15073    36199.995    4.2742682    4.2742682    4.2742682    36199.995    18075.273    46326.347    44198.364     -1234.75    -4566.442   -5424.0812    78.088179 
   22600    1715.4654   -107.71975    1.5521892   -106.16756   -2884.7045    4.2827003    4.2827003    4.2827003   -2884.7045   -31332.036    51693.889   -29015.966    1580.4315    21116.168    5195.6192    78.551242 
   22700    935.65681   -107.01513   0.84660194   -106.16853   -1322.9228    4.3018978    4.3018978    4.3018978   -1322.9228   -992.83385    20038.861   -23014.796    6802.2542    22328.793    11107.553    79.612318 
   22800    1725.2263   -107.69929     1.561021   -106.13826     6292.678    4.3015658    4.3015658    4.3015658     6292.678   -19955.955    38967.606   -133.61706   -3625.1693   -13086.989   -2195.1404    79.593886 
   22900    1963.1417   -107.90697    1.7762919   -106.13067   -18718.541    4.2835953    4.2835953    4.2835953   -18718.541   -34402.842    5999.0328   -27751.814   -14141.631    22541.976    2391.2991    78.600498 
   23000    980.20777   -107.03569   0.88691259   -106.14878    40684.808    4.2717695    4.2717695    4.2717695    40684.808    49290.928    42459.452    30304.043    7940.5882    5912.6236    33270.371    77.951315 
   23100    1546.1927   -107.56325    1.3990277   -106.16422   -429.96575    4.2867754    4.2867754    4.2867754   -429.96575   -29756.053    45325.778   -16859.622   -12561.577   -20020.145   -4433.2121    78.775687 
   23200    1586.4203   -107.58525    1.4354264   -106.14982    1065.8193    4.2914833    4.2914833    4.2914833    1065.8193    -29037.56    21445.231    10789.787    2445.3578    16003.237    20251.442    79.035513 
   23300    1073.8016   -107.11669   0.97159828   -106.14509    10065.487    4.2968851    4.2968851    4.2968851    10065.487    26827.097   -18919.836      22289.2    808.59191    -9463.916    19554.468    79.334343 
   23400    1961.0506   -107.89631    1.7743998   -106.12191   -19906.258    4.2949296    4.2949296    4.2949296   -19906.258   -44000.574    13284.531   -29002.732    813.39941   -12143.855   -15772.384    79.226078 
   23500      1866.32   -107.80667    1.6886855   -106.11798   -10224.209    4.2850847    4.2850847    4.2850847   -10224.209   -30132.361    30913.303    -31453.57   -1419.8998     29346.89    36758.397    78.682513 
   23600    1153.4323   -107.17778    1.0436498   -106.13413   -15950.195    4.2968184    4.2968184    4.2968184   -15950.195    3663.2357   -46256.473   -5257.3469    12734.727   -20825.895    5455.2882    79.330649 
   23700    1814.4764   -107.75809    1.6417764   -106.11632   -34837.116    4.3073979    4.3073979    4.3073979   -34837.116   -40521.763   -14906.801   -49082.783   -5861.2744   -4036.5854    -17262.41    79.918066 
   23800     1718.719   -107.66367    1.5551331   -106.10854    -1511.376    4.2909009    4.2909009    4.2909009    -1511.376   -2605.5396    38979.832    -40908.42   -15002.692    20730.734    27509.283    79.003339 
   23900    1542.8341   -107.52681    1.3959887   -106.13082   -24350.256     4.288357     4.288357     4.288357   -24350.256   -20732.842   -5325.2144   -46992.712    12153.006   -10817.312    24694.001    78.862912 
   24000    1729.6778   -107.70371    1.5650488   -106.13866   -14838.843    4.3013469    4.3013469    4.3013469   -14838.843     21665.55   -8036.8834   -58145.195   -12161.794   -5228.0457    -19621.59    79.581737 
   24100    1709.4525   -107.67855    1.5467486    -106.1318   -7913.9264    4.3061384    4.3061384    4.3061384   -7913.9264   -4743.4893    27836.167   -46834.457   -8448.7207    2130.9401    34334.428    79.847985 
   24200    1416.9365   -107.40485     1.282074   -106.12277   -29137.239     4.310836     4.310836     4.310836   -29137.239      31357.2   -44201.984   -74566.932   -959.60199   -14911.185    585.78331    80.109591 
   24300    1493.8064   -107.46863    1.3516274     -106.117   -6983.8521    4.2957932    4.2957932    4.2957932   -6983.8521    3532.6692    35102.511   -59586.737    8706.7267   -5993.7011    -33891.53    79.273878 
   24400    1622.4297   -107.58669    1.4680085   -106.11868    21587.584    4.2666449    4.2666449    4.2666449    21587.584    45199.757    24278.274   -4715.2794   -29513.977   -2242.3561    34705.047    77.671106 
   24500     1344.608   -107.38885    1.2166295   -106.17222   -14500.465    4.2825045    4.2825045    4.2825045   -14500.465   -13154.259    33343.178   -63690.314     13189.74   -11133.953   -19026.446    78.540467 
   24600    1266.1784   -107.30796    1.1456648   -106.16229    44.483024    4.3165731    4.3165731    4.3165731    44.483024   -17194.097    81562.166    -64234.62    3168.4518    5317.5777   -10895.285    80.429856 
   24700    1874.3654   -107.83799    1.6959652   -106.14203   -17564.858    4.3012853    4.3012853    4.3012853   -17564.858    2053.3079   -14418.829   -40329.053    11706.819   -5570.4801    25627.518    79.578318 
   24800      1291.14   -107.29858    1.1682506   -106.13033    2327.0297    4.2665605    4.2665605    4.2665605    2327.0297    11524.916    33849.379   -38393.205    3784.9348   -7862.5578   -25854.644    77.666501 
   24900    1405.1681   -107.43601    1.2714256   -106.16459    29429.472    4.2704117    4.2704117    4.2704117    29429.472     53546.24    61051.937    -26309.76    961.57155    691.44122   -14468.206    77.877006 
   25000    1990.8712   -107.97517    1.8013821   -106.17379   -19172.081    4.3018136    4.3018136    4.3018136   -19172.081   -42113.261    23634.953   -39037.937   -2912.7941   -9669.5959    1777.1449     79.60764 
   25100    538.76987   -106.65297    0.4874903   -106.16548   -30562.645    4.3109374    4.3109374    4.3109374   -30562.645   -46037.848    14026.738   -59676.826    22146.621    4009.7776   -24276.817    80.115244 
   25200    1315.3568   -107.31954    1.1901625   -106.12938     7994.953    4.2773788    4.2773788    4.2773788     7994.953    48068.169    -23826.94   -256.37043   -10649.859    9349.0857    10080.032    78.258793 
   25300    1783.9035   -107.75056    1.6141133   -106.13645    26634.433    4.2772016    4.2772016    4.2772016    26634.433    25333.539    79326.415   -24756.654    21044.643    2477.0115    10137.867    78.249064 
   25400    1827.3335   -107.81064    1.6534097   -106.15723   -18817.368    4.2893762    4.2893762    4.2893762   -18817.368   -22482.147    25365.115   -59335.072   -456.03723   -165.15243    -13841.86    78.919155 
   25500    1303.0931   -107.34941     1.179066   -106.17035   -16073.322    4.2865149    4.2865149    4.2865149   -16073.322   -709.36614    22296.252   -69806.853    281.86785    1612.5698    12888.001    78.761323 
   25600    1019.6524   -107.09408    0.9226029   -106.17148    4593.1502     4.289869     4.289869     4.289869    4593.1502   -18414.991    76805.034   -44610.592   -3436.6202    4054.2957    36820.561    78.946357 
   25700    2233.9071   -108.18054    2.0212861   -106.15926     5672.711    4.2713502    4.2713502    4.2713502     5672.711    -28550.96    49261.568   -3692.4745   -1450.6362   -124.14395   -17190.424    77.928362 
   25800    1492.3653   -107.52993    1.3503234   -106.17961    10424.296    4.2631846    4.2631846    4.2631846    10424.296     11027.86     60500.75   -40255.724   -7194.2117   -2251.3782    39474.513    77.482283 
   25900    1247.9895    -107.3226    1.1292071   -106.19339   -20254.664    4.2966005    4.2966005    4.2966005   -20254.664   -33477.756    27197.067   -54483.303   -12619.561   -5804.8703    8970.7303    79.318578 
   26000    1934.4119    -107.9026    1.7502966    -106.1523   -22762.094    4.2934698    4.2934698    4.2934698   -22762.094   -24186.271   -2448.8674   -41651.142    19637.948    -6673.627   -7396.1308    79.145322 
   26100    1554.6457   -107.53828    1.4066761   -106.13161    26892.349     4.263975     4.263975     4.263975    26892.349    32411.886     58785.61   -10520.448    2348.6966   -3562.5976      41542.2    77.525386 
   26200     1230.031   -107.28282    1.1129579   -106.16986    11849.238    4.2838161    4.2838161    4.2838161    11849.238    21627.816    46621.412   -32701.513   -8373.3152   -314.08634   -34699.061    78.612655 
   26300    1905.8196   -107.87142    1.7244256     -106.147   -57428.179    4.3106806    4.3106806    4.3106806   -57428.179   -38655.001   -65787.835   -67841.702    26007.273   -2875.2468    16976.271    80.100926 
   26400    1189.9956   -107.21633     1.076733    -106.1396   -24414.746    4.2901184    4.2901184    4.2901184   -24414.746    10151.041   -24123.642   -59271.638    11861.925   -3374.8117    33554.202    78.960124 
   26500    1565.9303   -107.53524    1.4168867   -106.11835      44543.3    4.2643557    4.2643557    4.2643557      44543.3    53572.083    82050.165    -1992.348   -8073.0215    4794.5549   -30095.333    77.546158 
   26600    1734.4721   -107.71391    1.5693868   -106.14452    -39299.16    4.2934714    4.2934714    4.2934714    -39299.16   -22288.583    -49102.63   -46506.267    33125.408   -7536.7053    32750.976    79.145408 
   26700     1153.335   -107.19393    1.0435617   -106.15037   -24601.994    4.2980702    4.2980702    4.2980702   -24601.994   -12696.929    -9123.855   -51985.197    2525.0565    4490.4542   -4588.7718    79.400002 
   26800    1770.2974   -107.74225    1.6018023   -106.14045     13903.34    4.2732261    4.2732261    4.2732261     13903.34   -4509.4997    55531.601   -9312.0807   -7284.1631   -5554.8642   -24078.746    78.031078 
   26900    1877.0941   -107.84433    1.6984342    -106.1459   -13057.139    4.2729634    4.2729634    4.2729634   -13057.139   -1050.6266   -20533.669   -17587.122    15534.938   -6295.7363     15242.01     78.01669 
   27000    1109.1517   -107.16263    1.0035838   -106.15905   -5876.4788    4.2724456    4.2724456    4.2724456   -5876.4788    13424.078    9057.1436   -40110.658     3514.786    5674.8681   -24156.582    77.988332 
   27100     1551.058   -107.56156    1.4034298   -106.15813    5126.6946    4.2705443    4.2705443    4.2705443    5126.6946    12513.126    26034.629   -23167.671   -4450.3623   -14208.533   -4485.7287    77.884262 
   27200    1554.8991   -107.57354    1.4069054   -106.16664    -40231.43    4.3001172    4.3001172    4.3001172    -40231.43   -29523.613   -41412.433   -49758.243    26901.878    2348.5299    8408.1455      79.5135 
   27300    1182.2092   -107.21738    1.0696877   -106.14769   -1314.2848    4.2942417    4.2942417    4.2942417   -1314.2848   -9596.0568    59207.626   -53554.423   -4734.5986   -1109.9324    -33960.88    79.188016 
   27400    1933.2526   -107.88277    1.7492476   -106.13352      20418.4    4.2609137    4.2609137    4.2609137      20418.4    37405.179    50501.673   -26651.651    5047.5948   -15902.856   -4862.1973    77.358533 
   27500    1379.5035   -107.41951    1.2482038    -106.1713    -12052.23    4.2706963    4.2706963    4.2706963    -12052.23   -22404.382   -27825.285    14072.976   -6510.3713    5753.7191   -7244.1761    77.892574 
   27600    1270.8652   -107.31728    1.1499055   -106.16737   -15564.298    4.2994975    4.2994975    4.2994975   -15564.298   -4648.8457    1314.9928    -43359.04    306.83034   -5535.5365   -15788.804    79.479131 
   27700    2308.6715   -108.22398    2.0889345   -106.13504   -8058.9596    4.2899648    4.2899648    4.2899648   -8058.9596    24798.788   -12851.703   -36123.964    9413.7561   -5387.8613    11693.243    78.951648 
   27800    484.61606   -106.59637   0.43849079   -106.15788   -8688.7056    4.2853692    4.2853692    4.2853692   -8688.7056    8463.7035    -2505.677   -32024.143   -13376.498    4864.1071   -26092.761     78.69819 
   27900    1569.1271   -107.57362    1.4197792   -106.15384   -243.02063    4.2754439    4.2754439    4.2754439   -243.02063    10604.296    10326.447   -21659.805    7377.0425   -3131.9196   -14406.213    78.152636 
   28000    2118.2097   -108.06417    1.9166007   -106.14757    24733.464    4.2583163    4.2583163    4.2583163    24733.464    55906.555    27271.132   -8977.2962   -11881.169   -9864.5036    9627.0293    77.217145 
   28100    1108.9261   -107.19341    1.0033797   -106.19003    10816.495    4.2786497    4.2786497    4.2786497    10816.495    27259.499    33659.579   -28469.593    2770.8584     5597.127   -11854.267    78.328572 
   28200    1684.4244   -107.68181    1.5241026   -106.15771    3286.0796    4.2975276    4.2975276    4.2975276    3286.0796   -5388.8892     86934.28   -71687.152    5081.4924    -8134.376   -442.91762    79.369936 
   28300    1314.1741   -107.33379    1.1890923    -106.1447   -1272.7339    4.2816309    4.2816309    4.2816309   -1272.7339    81583.319   -41763.171   -43638.349     12093.34   -5781.3973    13673.455    78.492415 
   28400     955.0346   -107.01065   0.86413538   -106.14652    -8060.202     4.271301     4.271301     4.271301    -8060.202    52342.404   -44966.902   -31556.108    191.17476    3417.8046   -14910.659    77.925668 
   28500    1948.0104   -107.89933    1.7626008   -106.13673    39645.944    4.2632327    4.2632327    4.2632327    39645.944    34815.522    102751.54   -18629.234   -1255.6303   -2441.5615    10292.365    77.484904 
   28600    1043.2071   -107.11465   0.94391566   -106.17073   -15269.008    4.2872263    4.2872263    4.2872263   -15269.008    79612.853   -45072.625   -80347.252   -8172.5161    399.62939    3624.2706    78.800544 
   28700    1571.7609   -107.57309    1.4221623   -106.15093   -8722.2943    4.2912718    4.2912718    4.2912718   -8722.2943     9493.355    6046.1707   -41706.409   -1359.2068    1550.8078   -22902.689    79.023829 
   28800    2035.3145   -107.96885    1.8415953   -106.12726    45595.895    4.2638401    4.2638401    4.2638401    45595.895    58182.637    78115.955    489.09323   -13846.998    8745.5678    22535.386    77.518029 
   28900    479.57641   -106.59368   0.43393081   -106.15975     9261.241    4.2673048    4.2673048    4.2673048     9261.241    80366.315   -7976.8188   -44605.773   -10123.547    1600.7384   -28433.252     77.70715 
   29000    1694.5924   -107.68313    1.5333028   -106.14983    -4752.841    4.2883891    4.2883891    4.2883891    -4752.841   -8367.7261    29272.346   -35163.143    5482.6451     9181.687    626.65717    78.864679 
   29100    1552.6515   -107.53826    1.4048717   -106.13339    -5050.344    4.2970887    4.2970887    4.2970887    -5050.344    39534.771   -4248.9675   -50436.835   -9803.0087    15924.745    4067.9589    79.345622 
   29200    1301.1032   -107.30068    1.1772655   -106.12341   -27842.318    4.2810588    4.2810588    4.2810588   -27842.318    26820.176   -37305.177   -73041.955   -6279.2063    8565.1059   -25390.277    78.460952 
   29300    1823.3444   -107.75821    1.6498003   -106.10841    33984.186    4.2583675    4.2583675    4.2583675    33984.186   -3996.5919    92175.813    13773.338    7356.9998    22757.382    17061.007    77.219933 
   29400    1486.4089    -107.4819     1.344934   -106.13697   -634.55115     4.264299     4.264299     4.264299   -634.55115    46316.363   -20670.994   -27549.023   -9901.0757    5213.1531   -18132.007     77.54306 
   29500    1079.6089   -107.14124   0.97685283   -106.16439   -22261.449    4.2842341    4.2842341    4.2842341   -22261.449    10560.629   -47438.409   -29906.567   -847.21171    4489.7663   -22318.135    78.635667 
   29600    2055.7607   -108.00056    1.8600955   -106.14047    7351.3264    4.2759138    4.2759138    4.2759138    7351.3264    1385.1044    32560.384    -11891.51    246.42093    17025.322    11903.699    78.178407 
   29700    844.28634   -106.91216   0.76392803   -106.14823    33454.994    4.2629091    4.2629091    4.2629091    33454.994    45520.278     48429.69    6415.0146    9601.5445   -12961.221   -36691.666    77.467262 
   29800    1806.6795    -107.7838    1.6347216   -106.14908    -15901.16    4.2812586    4.2812586    4.2812586    -15901.16   -3272.8958   -7414.0274   -37016.557   -6837.3755   -2444.1052   -8437.6339    78.471941 
   29900    2167.0898   -108.08893    1.9608284   -106.12811    11463.501    4.2820571    4.2820571    4.2820571    11463.501    8251.6432    18144.659    7994.2003    7466.3181    7258.8931   -517.12192    78.515852 
   30000    1148.0071   -107.18328     1.038741   -106.14454   -18884.567    4.2708294    4.2708294    4.2708294   -18884.567    25342.964   -54034.312   -27962.354      6016.24    -11873.78   -29459.878    77.899858 
   30100    1488.2844    -107.4862     1.346631   -106.13957   -4571.5034    4.2691717    4.2691717    4.2691717   -4571.5034    6216.4957   -5501.0638   -14429.942   -19686.873   -11046.501    3602.9359    77.809186 
   30200    1353.5383   -107.36171    1.2247099     -106.137    21950.377    4.2648389    4.2648389    4.2648389    21950.377    45526.949   -28955.982    49280.164    17512.517    9058.0167   -9750.8533    77.572519 
   30300     1115.903   -107.16251    1.0096925   -106.15282    4469.6821    4.2775948    4.2775948    4.2775948    4469.6821    22701.042   -240.15851   -9051.8371   -12579.416   -5544.0057   -19795.748     78.27065 
   30400    1771.4772   -107.73978    1.6028698   -106.13691    7353.7722    4.2838806    4.2838806    4.2838806    7353.7722    1969.6308    17511.329    2580.3567   -7011.7685   -1369.1048    14861.035    78.616204 
   30500    1505.4043   -107.50261    1.3621214   -106.14049    2458.7513     4.272936     4.272936     4.272936    2458.7513    47414.493   -2919.8034   -37118.436    3188.8497     10687.69   -33204.194    78.015187 
   30600    1514.3066   -107.50913    1.3701764   -106.13895    7895.5955    4.2739965    4.2739965    4.2739965    7895.5955    41678.098   -14312.854   -3678.4566   -9163.7404    1903.2009   -15650.023    78.073289 
   30700    1746.7968   -107.71117    1.5805384   -106.13063    1161.2579    4.2756421    4.2756421    4.2756421    1161.2579     49117.99   -35464.039   -10170.177   -2250.8559   -5793.3352    875.80063    78.163508 
   30800     706.8736   -106.78867   0.63959409   -106.14907   -2229.9215    4.2783019    4.2783019    4.2783019   -2229.9215    50752.658   -49062.196   -8380.2261    20615.033    4429.7755   -38682.022    78.309469 
   30900    1626.9072    -107.6154    1.4720598   -106.14335   -4511.5402    4.2831837    4.2831837    4.2831837   -4511.5402   -21746.092    36035.758   -27824.287   -5826.8215   -10047.155   -237.29837     78.57784 
   31000    1778.7815   -107.74929    1.6094789   -106.13981    57397.258    4.2614544    4.2614544    4.2614544    57397.258    41338.522    86421.352    44431.901     8273.734     1332.563   -9597.9893    77.387982 
   31100    1016.8395   -107.09243   0.92005771   -106.17237    21749.045    4.2727958    4.2727958    4.2727958    21749.045    52069.886    39140.001   -25962.753    22284.957    8868.8109   -15934.619    78.007508 
   31200    2110.5944    -108.0291    1.9097101   -106.11939   -32870.616    4.3030465    4.3030465    4.3030465   -32870.616   -50571.715   -25668.967   -22371.167   -14686.252   -11017.964    11566.305    79.676109 
   31300    1144.9968   -107.16614    1.0360172   -106.13013   -19032.603     4.278723     4.278723     4.278723   -19032.603    6549.7875    -52287.48   -11360.115    16263.302    1772.7968   -30588.973    78.332595 
   31400     1063.094   -107.09001    0.9619098    -106.1281    33016.994    4.2466862    4.2466862    4.2466862    33016.994    55946.779    20613.054    22491.148    27380.751    1147.3292   -2853.8521    76.586199 
   31500    2223.4865   -108.15775    2.0118573   -106.14589    18859.267     4.266109     4.266109     4.266109    18859.267   -21685.205    105792.68   -27529.675    -1614.072   -7385.3295    9104.6861    77.641842 
   31600     1297.139   -107.33554    1.1736786   -106.16186   -13348.937    4.2922306    4.2922306    4.2922306   -13348.937   -27654.411    8214.0996   -20606.501    14251.108   -2462.9881   -20834.073    79.076812 
   31700    1530.2351    -107.5293    1.3845889   -106.14471   -22326.892    4.2844567    4.2844567    4.2844567   -22326.892   -14621.662    -37488.44   -14870.575    13802.403   -2580.7891   -5763.7925    78.647929 
   31800    1653.2962   -107.62416    1.4959371   -106.12822    9399.4684    4.2727219    4.2727219    4.2727219    9399.4684   -5738.5931    31059.955    2877.0427   -10413.443   -12839.928   -6507.2345    78.003461 
   31900    1241.7414   -107.26174    1.1235537   -106.13819   -32166.182    4.2830329    4.2830329    4.2830329   -32166.182   -20083.444   -53211.995   -23203.108     1605.128    1965.9424   -36338.983    78.569542 
   32000     1306.137   -107.31071    1.1818202   -106.12889    13737.262    4.2861691    4.2861691    4.2861691    13737.262   -20559.628    70613.022    -8841.607    8335.5854   -2308.1433    9090.8854    78.742266 
   32100    1808.4159   -107.77232    1.6362927   -106.13602   -17398.012    4.2829961    4.2829961    4.2829961   -17398.012   -12674.676    -27263.36   -12255.999   -38482.103   -10168.839    957.78879    78.567518 
   32200    1390.5115   -107.40249    1.2581641   -106.14432   -395.03498    4.2740889    4.2740889    4.2740889   -395.03498    20129.341    2679.4009   -23993.847   -6634.0985    8360.7078   -27467.135    78.078353 
   32300     1860.486   -107.82356    1.6834068   -106.14015    8100.1855    4.2791958    4.2791958    4.2791958    8100.1855   -10407.773    25490.395    9217.9342    9218.9145    5757.4119    5270.3527    78.358567 
   32400    1560.6994    -107.5627    1.4121536   -106.15055   -27163.744    4.2936279    4.2936279    4.2936279   -27163.744   -32668.634   -39653.119   -9169.4784   -52616.442    595.89239    2830.6902    79.154062 
   32500    1201.0959   -107.22432    1.0867768   -106.13754    8012.4523    4.2915613    4.2915613    4.2915613    8012.4523    32900.148    16576.427   -25439.218    16225.497     15844.81   -10064.896    79.039822 
   32600    1617.0557   -107.58851     1.463146   -106.12536   -26377.802    4.2937264    4.2937264    4.2937264   -26377.802   -12602.852   -41908.453   -24622.101   -7650.4688    2885.5278    13521.235    79.159509 
   32700    1248.1295   -107.25008    1.1293338   -106.12075   -17680.108    4.2868755    4.2868755    4.2868755   -17680.108   -39471.747   -22608.029    9039.4538   -55785.727   -886.91202   -10114.375    78.781203 
   32800     2026.831   -107.93902    1.8339193    -106.1051   -14057.058    4.2781188    4.2781188    4.2781188   -14057.058   -8419.9756   -21847.345   -11903.852     39579.73   -1782.7916   -22817.866    78.299415 
   32900    1071.4547   -107.09819   0.96947474   -106.12872   -6020.2804    4.2802709    4.2802709    4.2802709   -6020.2804   -55975.404   -26957.609    64872.171    -51048.64     14333.98    7372.7959    78.417639 
   33000    1530.9406   -107.51453    1.3852272   -106.12931   -6707.1634    4.2871448    4.2871448    4.2871448   -6707.1634   -14936.402    -41859.39    36674.302   -26650.308    4563.1612   -19710.717     78.79605 
   33100    1495.1547   -107.47894    1.3528473    -106.1261    16882.993    4.2821363    4.2821363    4.2821363    16882.993   -3437.2842    7277.4567    46808.807    3054.4353    12580.216   -10077.155    78.520214 
   33200    1172.6414   -107.19789    1.0610306   -106.13686    -4894.235    4.2887245    4.2887245    4.2887245    -4894.235   -29792.648    -21622.96    36732.902   -45074.023    3961.8723   -16686.076    78.883186 
   33300    1911.4731    -107.8371     1.729541   -106.10756    33795.272     4.289888     4.289888     4.289888    33795.272    59126.934    14652.866    27606.015     19423.71    1704.2603   -16253.837    78.947406 
   33400    826.73915   -106.87298   0.74805096   -106.12493    2431.0009    4.2852698    4.2852698    4.2852698    2431.0009   -52910.189    9990.7581    50212.434   -57037.977    15267.365    16249.858     78.69271 
   33500     1463.054    -107.4433     1.323802    -106.1195    8995.4832    4.2851756    4.2851756    4.2851756    8995.4832    11263.734   -5263.0929    20985.808    8524.2081    1557.6232    22.509632     78.68752 
   33600    1662.1147   -107.62333    1.5039163   -106.11941    10409.452    4.2759486    4.2759486    4.2759486    10409.452   -12941.601    3002.7273    41167.229    -25391.73    8331.3006    7156.7648    78.180317 
   33700     1294.482   -107.30985    1.1712746   -106.13858   -4968.5793    4.2670002    4.2670002    4.2670002   -4968.5793   -42775.325    9726.4684    18143.119   -57037.567   -16696.409   -2214.3665    77.690513 
   33800    2256.3572   -108.17763    2.0415995   -106.13603    11438.086    4.2816776    4.2816776    4.2816776    11438.086    12300.078    4794.1048    17220.076    23195.222    2878.7957    15200.175    78.494983 
   33900    924.16855   -106.98006   0.83620713   -106.14385   -25980.403    4.2977665    4.2977665    4.2977665   -25980.403   -55885.701   -38804.473    16748.966   -65937.578     1733.624    5594.2271    79.383173 
   34000     1555.032   -107.53319    1.4070257   -106.12616   -9766.1789    4.2763851    4.2763851    4.2763851   -9766.1789   -31142.238    5933.8618   -4090.1606   -10596.836   -10271.219    -4853.629    78.204261 
   34100    1810.6284   -107.75898    1.6382947   -106.12068    20015.193    4.2650487    4.2650487    4.2650487    20015.193    52419.987   -5986.4019    13611.994   -14102.345    6823.4125    5486.1583    77.583969 
   34200     770.8146   -106.84756   0.69744925   -106.15011   -5817.7878    4.2798077    4.2798077    4.2798077   -5817.7878   -55496.898   -16225.006    54268.541   -65547.449    21122.182   -4005.6744    78.392184 
   34300    2104.1167   -108.03233     1.903849   -106.12849   -6005.1078    4.2835342    4.2835342    4.2835342   -6005.1078   -10475.379    8758.7678   -16298.712    28932.933   -16317.754    5061.2672    78.597135 
   34400    1553.9722   -107.53962    1.4060667   -106.13355   -16891.149    4.2874569    4.2874569    4.2874569   -16891.149   -11691.797   -62122.649    23140.999   -53497.482    -2291.813   -9759.7483    78.813262 
   34500    1509.5796    -107.4868    1.3658994   -106.12091    3250.7175    4.2839808    4.2839808    4.2839808    3250.7175   -29457.487   -6480.6068    45690.247   -19585.763    4519.1198   -5015.0682    78.621722 
   34600    1600.9611     -107.569    1.4485833   -106.12042   -10079.908    4.2772704    4.2772704    4.2772704   -10079.908    -18594.82   -5516.0004   -6128.9036   -22071.415   -37027.165    2145.1417    78.252844 
   34700    1150.1313   -107.18313     1.040663   -106.14247    7717.0739    4.2847103    4.2847103    4.2847103    7717.0739    15997.847   -36083.231    43236.605   -56951.808    3515.5211   -6748.3732    78.661895 
   34800    2134.3171   -108.05431     1.931175   -106.12313   -13994.585     4.303773     4.303773     4.303773   -13994.585   -10606.934    3974.9512   -35351.772    17165.724   -17932.882   -5248.0847     79.71647 
   34900      965.942   -106.99199   0.87400462   -106.11799   -18275.092    4.3036343    4.3036343    4.3036343   -18275.092   -46426.935   -28571.446    20173.105   -73518.522   -22804.105    4083.6929    79.708764 
   35000    1601.5273   -107.53936    1.4490956   -106.09026    31932.336    4.2865846    4.2865846    4.2865846    31932.336    32592.047    17412.255    45792.706   -5008.0309      13483.5    8996.3176    78.765169 
   35100    1188.2494   -107.17946     1.075153   -106.10431    14762.649      4.27021      4.27021      4.27021    14762.649   -28528.032    57294.157    15521.822   -21370.432   -10390.764   -17677.681     77.86597 
   35200    1128.4389   -107.15896    1.0210352   -106.13793   -10760.407    4.2759178    4.2759178    4.2759178   -10760.407   -32184.749   -3216.4842    3120.0127    -61005.55   -15224.785    6055.3948    78.178627 
   35300    2142.5239   -108.06734    1.9386006   -106.12873   -5846.1071    4.2979043    4.2979043    4.2979043   -5846.1071   -34544.098    26288.274   -9282.4978    18611.826     5668.838    5187.2926     79.39081 
   35400    1018.2952    -107.0567   0.92137491   -106.13532   -44395.048    4.2999317    4.2999317    4.2999317   -44395.048   -77420.768   -64499.669    8735.2918   -51917.785   -27376.132   -18169.805    79.503214 
   35500    1925.5885   -107.85536    1.7423129   -106.11305    6441.0466    4.2714186    4.2714186    4.2714186    6441.0466   -5299.9818    17970.886    6652.2352   -4306.6912    7829.3587    12511.851    77.932104 
   35600    1372.2613   -107.37564    1.2416508   -106.13399    24376.266    4.2724388    4.2724388    4.2724388    24376.266   -31279.883    95218.155    9190.5279    -2171.963    6326.2482   -4846.5618    77.987958 
   35700    1042.0767    -107.0977   0.94289286   -106.15481   -4397.7592     4.278206     4.278206     4.278206   -4397.7592   -65727.876    10841.529    41693.069   -53933.047   -15269.512    1029.6811    78.304204 
   35800     1862.235   -107.84583    1.6849894   -106.16084   -1597.4953     4.300257     4.300257     4.300257   -1597.4953   -16403.473    17395.938   -5784.9503    7614.6327    2038.0954    8675.8643    79.521255 
   35900    1553.4023   -107.55389    1.4055511   -106.14833   -30584.376    4.3066861    4.3066861    4.3066861   -30584.376   -45789.768   -39682.367    -6280.993   -21123.348    -1214.357    2101.5393    79.878453 
   36000    1571.6179   -107.54424    1.4220329    -106.1222    17141.239    4.2800035    4.2800035    4.2800035    17141.239   -28605.379   -4484.4652     84513.56   -45836.693    3469.5142   -2228.2538    78.402945 
   36100    2142.2092   -108.05851    1.9383159    -106.1202    13621.728    4.2890062    4.2890062    4.2890062    13621.728   -12513.858    39614.434    13764.608    5284.7839   -6079.1994    14287.477     78.89873 
   36200    822.10844   -106.88752     0.743861   -106.14366   -29483.898    4.3032374    4.3032374    4.3032374   -29483.898   -91316.437    36038.864   -33174.123   -65183.302    -4242.233    6215.1873    79.686712 
   36300    1379.3646   -107.38425    1.2480781   -106.13617    33495.358    4.2816957    4.2816957    4.2816957    33495.358    7040.2469    48771.745    44674.081   -9805.5726    3728.4356   -8850.0034    78.495979 
   36400    1506.9122   -107.50313    1.3634858   -106.13964    20801.274    4.2817505    4.2817505    4.2817505    20801.274    23773.356   -6158.9214    44789.387   -19619.172   -2811.0729    -11261.92    78.498988 
   36500    1127.1574   -107.16747    1.0198757    -106.1476   -38850.636    4.2939173    4.2939173    4.2939173   -38850.636   -31431.308   -62965.416   -22155.183   -61513.939   -12556.141     16701.73    79.170067 
   36600     2106.345   -108.02513    1.9058653   -106.11926   -3561.6548    4.2956907    4.2956907    4.2956907   -3561.6548    37416.005   -14713.926   -33387.044    24414.327    4324.4701    6936.6906    79.268204 
   36700    1314.9663   -107.30514    1.1898091   -106.11533   -17112.944     4.304938     4.304938     4.304938   -17112.944   -40051.005   -22333.999    11046.172    -38314.57   -58.192266    -4644.811    79.781225 
   36800    1543.2107   -107.50313    1.3963295    -106.1068   -15020.544    4.2983248    4.2983248    4.2983248   -15020.544   -23397.927    -32535.65    10871.944   -17078.987   -14062.884    4411.3199    79.414115 
   36900    1748.1531    -107.6839    1.5817656   -106.10213    33758.292    4.2786688    4.2786688    4.2786688    33758.292    36605.882    31908.337    32760.656     6932.356    1956.1565    9464.0361    78.329618 
   37000    1042.3834   -107.08041   0.94317036   -106.13724     16785.32    4.2850039    4.2850039    4.2850039     16785.32   -54180.989    3449.3525     101087.6   -44864.125    3106.4284   -14920.641    78.678063 
   37100    1753.8381    -107.7203    1.5869096   -106.13339   -8319.8594    4.3022137    4.3022137    4.3022137   -8319.8594   -34460.426   -1655.2566    11156.105    19102.676     5587.306    22007.692    79.629857 
   37200    789.63747   -106.84206   0.71448058   -106.12758    16223.885    4.2944325    4.2944325    4.2944325    16223.885    -956.3095   -47732.012    97359.975   -39156.191    23916.584   -976.47811    79.198572 
   37300    1699.0082   -107.64772    1.5372983   -106.11042    27891.853    4.2789137    4.2789137    4.2789137    27891.853   -8397.1673    20881.245    71191.482   -252.64608    26653.703   -6043.0862    78.343069 
   37400    1256.3942   -107.27376    1.1368119   -106.13695   -11316.557    4.2805706    4.2805706    4.2805706   -11316.557    10650.041    -65469.09    20869.377   -23324.216   -1834.5307    9071.7782    78.434116 
   37500    1013.0923   -107.06453   0.91666721   -106.14787      1988.84    4.2765753    4.2765753    4.2765753      1988.84    11015.356   -65778.767    60729.932   -29473.702    8531.1652    7152.2715      78.2147 
   37600     1965.897   -107.93498    1.7787849   -106.15619   -8129.4157    4.2915023    4.2915023    4.2915023   -8129.4157    3233.8592   -19502.627   -8119.4797    3961.4833   -5699.8448   -15408.965    79.036564 
   37700    1036.9351    -107.0782   0.93824065   -106.13996   -36281.426    4.3191563    4.3191563    4.3191563   -36281.426     5811.906    -114047.9   -608.28704   -34904.583     565.5672    7867.4105    80.574341 
   37800    1343.7063   -107.31317    1.2158137   -106.09735    7058.8951    4.2971802    4.2971802    4.2971802    7058.8951     27891.62   -10079.222    3364.2867    16877.133    2267.8108   -192.53141    79.350686 
   37900    1396.8581    -107.3477    1.2639066    -106.0838    31377.014    4.2733298    4.2733298    4.2733298    31377.014    26216.786    19740.388    48173.868    -2999.616   -18211.864    1327.5916    78.036762 
   38000    1477.1376   -107.47077    1.3365451   -106.13422   -11266.177    4.2960783    4.2960783    4.2960783   -11266.177   -1368.9333   -52248.159    19818.561   -21529.959   -9430.6696    12750.249    79.289659 
   38100    1698.2308   -107.64899     1.536595    -106.1124    19521.442    4.3117689    4.3117689    4.3117689    19521.442   -28977.587    3881.7429    83660.171    23249.235   -2318.8062    -10657.62     80.16161 
   38200    1069.2512   -107.07844   0.96748096   -106.11096   -18470.057    4.3079352    4.3079352    4.3079352   -18470.057   -9198.1699   -42427.022   -3784.9778   -41017.326   -1038.8114    20626.573    79.947977 
   38300    1580.6989    -107.5353    1.4302496   -106.10505   -3735.2694    4.2886277    4.2886277    4.2886277   -3735.2694    57886.258   -49064.428   -20027.638   -4910.5312   -16421.671   -3293.6041    78.877844 
   38400    2023.0118   -107.93627    1.8304636    -106.1058    34013.903    4.2652568    4.2652568    4.2652568    34013.903    47651.989     31886.21    22503.511    7937.7131    3336.3621   -4690.2986    77.595326 
   38500    1122.2405   -107.17857    1.0154267   -106.16314   -18185.382     4.282984     4.282984     4.282984   -18185.382    9172.3011   -38921.272   -24807.174   -34840.741    10004.928    7444.9638    78.566852 
   38600    1718.4927   -107.70656    1.5549283   -106.15164   -34015.316     4.304201     4.304201     4.304201   -34015.316   -29878.467   -9152.1829   -63015.299    6957.0456   -35416.062    5153.3788    79.740258 
   38700    1645.9956   -107.60983    1.4893314    -106.1205    -35094.09    4.3006733    4.3006733    4.3006733    -35094.09   -54975.547   -21425.028   -28881.695   -19693.654   -8671.0323    10810.857    79.544354 
   38800    1343.6636    -107.3259    1.2157751   -106.11012    -13112.81    4.2873906    4.2873906    4.2873906    -13112.81    6254.2593   -47092.843    1500.1524   -22805.861    10868.913   -3476.6568    78.809604 
   38900    1359.7214   -107.35042    1.2303045   -106.12011     7756.098    4.2645934    4.2645934    4.2645934     7756.098     4613.713     44096.61   -25442.029    22795.073   -50813.242   -4603.9997    77.559124 
   39000     1567.101   -107.56125    1.4179459   -106.14331   -1715.6688    4.2614905    4.2614905    4.2614905   -1715.6688    5382.2697   -18490.515    7961.2388   -27751.217    6159.0828    1793.1127     77.38995 
   39100      1227.79   -107.27291    1.1109302   -106.16198   -12229.332    4.2999178    4.2999178    4.2999178   -12229.332    18703.349   -15501.477   -39889.868   -6165.6453    1392.6559     11343.75    79.502441 
   39200    1455.1435   -107.44842    1.3166444   -106.13178   -32298.127     4.300512     4.300512     4.300512   -32298.127    -30641.27    4539.6523   -70792.762    7751.3706   -39051.005    1092.4405    79.535403 
   39300    1927.5787    -107.8545    1.7441138   -106.11038   -898.73208    4.2705397    4.2705397    4.2705397   -898.73208   -23263.937   -11694.465    32262.205    -42031.56    6640.5337   -13553.276    77.884006 
   39400    1313.1849   -107.31642    1.1881973   -106.12822    15017.832    4.2744461    4.2744461    4.2744461    15017.832    24047.991   -8997.6549    30003.158    9009.3096   -17305.373    1220.5014    78.097934 
   39500    1088.3492   -107.12488   0.98476124   -106.14012   -39844.911    4.2874315    4.2874315    4.2874315   -39844.911   -35204.802    -30513.78    -53816.15   -11660.296   -46453.205   -13934.971    78.811859 
   39600    1532.3274   -107.52538     1.386482    -106.1389    7300.1658    4.2904313    4.2904313    4.2904313    7300.1658   -9249.1708   -50020.702     81170.37   -17507.092    16493.843   -2695.6531    78.977406 
   39700    1867.1677   -107.83579    1.6894526   -106.14634     -6439.46    4.2849433    4.2849433    4.2849433     -6439.46    21072.126    -22216.74   -18173.766    26350.089   -20494.685   -3646.7361    78.674727 
   39800    1324.7866   -107.35625    1.1986947   -106.15755    14916.089    4.2707728    4.2707728    4.2707728    14916.089   -26594.385     8040.672    63301.979    -26033.09   -29663.324    -58.82036    77.896762 
   39900    1435.6036   -107.46125    1.2989643   -106.16229   -2262.5163    4.2871372    4.2871372    4.2871372   -2262.5163   -22677.725   -7190.4122    23080.588   -5341.2161    5116.9601   -4047.8595     78.79563 
   40000    1954.4368   -107.90378    1.7684155   -106.13536   -18544.332    4.2939677    4.2939677    4.2939677   -18544.332   -51720.625    -8767.631    4855.2585    20772.456    4544.2514    1666.9328    79.172858 
   40100     1454.203   -107.44939    1.3157934    -106.1336    13664.584    4.2826423    4.2826423    4.2826423    13664.584   -10741.857   -8716.7804    60452.391   -38655.682   -28588.712   -3170.3267    78.548051 
   40200     1420.715   -107.42819    1.2854928    -106.1427   -11377.511    4.2895923    4.2895923    4.2895923   -11377.511   -11282.398   -23048.978    198.84122    11383.713    11049.533    1808.4587    78.931081 
   40300     1653.481   -107.62846    1.4961044   -106.13235   -13217.955    4.2933597    4.2933597    4.2933597   -13217.955   -33894.892   -1753.8353   -4005.1376    849.72648     15821.27   -6995.8195    79.139233 
   40400    1554.3797   -107.53489    1.4064354   -106.12846   -13821.721    4.2956709    4.2956709    4.2956709   -13821.721   -33223.594   -40517.309    32275.739   -6182.9529   -11073.689   -2734.9191    79.267105 
   40500     1201.089   -107.21787    1.0867706    -106.1311    14513.096    4.2936549    4.2936549    4.2936549    14513.096   -8987.5249   -23358.398    75885.211    21961.239     16930.49   -29.479124    79.155558 
   40600     1658.496   -107.61865    1.5006421   -106.11801    13017.868    4.2835969    4.2835969    4.2835969    13017.868   -35421.987    52251.993    22223.599   -17253.352    22879.861   -3881.3495    78.600584 
   40700    1268.3125   -107.27983    1.1475958   -106.13224    9983.1091    4.2952747    4.2952747    4.2952747    9983.1091   -21657.384    905.35396    50701.358    20194.238   -12485.991    32.054958    79.245177 
   40800    1708.5017   -107.65736    1.5458882   -106.11147   -28863.673    4.3034718    4.3034718    4.3034718   -28863.673   -53046.305   -33504.936   -39.778109    15351.489    30024.151    -7855.143    79.699738 
   40900    1312.2471   -107.29473    1.1873487   -106.10739    22248.546    4.2807581    4.2807581    4.2807581    22248.546   -7995.1728    32907.327    41833.485   -13797.632    9580.6455    2622.1853    78.444421 
   41000    1444.9383   -107.43805    1.3074106   -106.13064   -130.80463    4.2835369    4.2835369    4.2835369   -130.80463   -27441.773    21254.796     5794.563    37809.709    6563.4156    135.39378    78.597282 
   41100    1799.4975   -107.75394    1.6282232   -106.12572   -8710.3478    4.3009919    4.3009919    4.3009919   -8710.3478   -5101.1465   -7415.9427   -13613.954   -8403.1216    22683.842    9607.5306    79.562034 
   41200    1048.8712   -107.07524   0.94904071    -106.1262   -9250.8963    4.2920943    4.2920943    4.2920943   -9250.8963   -42778.094   -38827.305     53852.71     23006.02   -3723.2992   -4058.7173    79.069277 
   41300    1916.5822    -107.8474    1.7341638   -106.11323    19342.159    4.2710208    4.2710208    4.2710208    19342.159    32336.059    9756.0769     15934.34    18687.886     1122.427    6603.3471    77.910331 
   41400    1514.1535   -107.50918    1.3700379   -106.13914    21926.165    4.2764286    4.2764286    4.2764286    21926.165    7487.3293   -3802.8068    62093.972    494.42766    11622.741     3478.092    78.206647 
   41500    1039.7507   -107.10815   0.94078825   -106.16736   -14815.995    4.2947595    4.2947595    4.2947595   -14815.995   -42558.628   -52928.764    51039.407    26213.985   -7989.0473   -5488.6077    79.216664 
   41600    1778.4445   -107.74335     1.609174   -106.13418    -55.70753    4.3035332    4.3035332    4.3035332    -55.70753   -1082.8622    7000.6407   -6084.9011   -7977.9823   -10733.491   -8330.6152     79.70315 
   41700    1037.7949   -107.05888    0.9390186   -106.11986     14353.54    4.2979584    4.2979584    4.2979584     14353.54     6206.302   -3574.7569    40429.074    15857.704    7605.3246   -8234.3315    79.393809 
   41800    1801.9569   -107.72658    1.6304485   -106.09613   -15975.378    4.2913701    4.2913701    4.2913701   -15975.378   -17699.038    -35950.76     5723.665    21483.778   -7865.5854    7910.9168    79.029259 
   41900    1858.8887   -107.78089    1.6819615   -106.09893    11338.593    4.2839685    4.2839685    4.2839685    11338.593    14169.383    20194.863   -348.46606    1124.6476   -26525.302    10588.349    78.621046 
   42000    1475.3825    -107.4603    1.3349571   -106.12534   -25380.261     4.297221     4.297221     4.297221   -25380.261   -81241.345   -38445.166    43545.727    38344.975    19451.717    -1529.658    79.352947 
   42100    1545.9906   -107.52068    1.3988447   -106.12184   -16607.699    4.3076141    4.3076141    4.3076141   -16607.699   -38480.667    11997.144   -23339.573   -3846.2734   -2744.6847    14064.991    79.930103 
   42200    1299.9847   -107.29725    1.1762535     -106.121   -13807.215    4.2831703    4.2831703    4.2831703   -13807.215   -53929.522    4151.7167    8356.1591    27109.674   -23709.294   -7267.1363    78.577106 
   42300    1845.6005   -107.77705    1.6699381   -106.10711    17962.462    4.2571639    4.2571639    4.2571639    17962.462    23648.624   -5094.5363    35333.297      34263.8    12605.633    879.89276    77.154473 
   42400    1382.2939   -107.40481    1.2507285   -106.15408    -3901.579     4.286715     4.286715     4.286715    -3901.579   -12768.666   -4101.8689    5165.7976   -10813.974   -35523.725    6603.6425    78.772358 
   42500    1238.7091   -107.26017      1.12081   -106.13936   -40218.338    4.3032311    4.3032311    4.3032311   -40218.338   -82579.308    1701.9226   -39777.628    32594.655   -28301.843    11887.204    79.686365 
   42600    1737.7685   -107.68254    1.5723695   -106.11017    35058.604    4.2774896    4.2774896    4.2774896    35058.604    -1648.536    19040.861    87783.488   -5575.2877    6562.8949   -13040.729    78.264875 
   42700    1127.9362   -107.15575    1.0205804   -106.13516    -7615.965    4.2826513    4.2826513    4.2826513    -7615.965   -55040.288   -9346.3374     41538.73    24562.047   -38562.258   -1090.4766    78.548546 
   42800    1272.4693   -107.28408     1.151357   -106.13273   -6592.1776    4.2884477    4.2884477    4.2884477   -6592.1776   -49818.691   -67970.386    98012.544    42779.134   -3179.9354    7643.1381    78.867917 
   42900    2276.3959   -108.18245    2.0597309   -106.12272   -7537.3948    4.2833085    4.2833085    4.2833085   -7537.3948   -14165.979    1621.1183   -10067.324   -8540.9378   -7637.2608   -3873.4463     78.58471 
   43000    1052.5198   -107.09685   0.95234201    -106.1445   -42507.035    4.2968492    4.2968492    4.2968492   -42507.035    -77300.49   -37238.212   -12982.404     44191.04   -39426.185    1750.1758    79.332354 
   43100     2202.797   -108.11257     1.993137   -106.11944    8958.8692    4.2906652    4.2906652    4.2906652    8958.8692    -15177.44    25309.352    16744.695   -7753.7357    10190.149   -1048.2575    78.990323 
   43200     1346.194   -107.35178    1.2180646   -106.13371    3581.7544    4.2816886    4.2816886    4.2816886    3581.7544   -9536.3515   -37586.847    57868.461    34000.642   -12837.698   -5845.6367    78.495583 
   43300    1014.5857   -107.06762    0.9180185    -106.1496    2369.0802    4.2890675    4.2890675    4.2890675    2369.0802   -38032.808   -22216.686    67356.735    21841.204   -22364.988    2902.5744    78.902116 
   43400    1810.2173   -107.76484    1.6379227   -106.12692    30054.774    4.2951165    4.2951165    4.2951165    30054.774   -16643.784    30511.939    76296.167   -3730.7149    12553.291   -21581.697     79.23642 
   43500    919.35012   -106.96944   0.83184731   -106.13759    2588.5843    4.3051013    4.3051013    4.3051013    2588.5843   -57353.493    56144.766    8974.4796    42191.783   -35048.467   -654.58127    79.790304 
   43600    1658.3258    -107.6078     1.500488   -106.10731    5596.2595    4.3022218    4.3022218    4.3022218    5596.2595   -50585.504    89881.759   -22507.477   -4155.4361   -12189.501   -8315.2958    79.630305 
   43700    1438.9582   -107.40683    1.3019996   -106.10484    8505.8316    4.2818815    4.2818815    4.2818815    8505.8316   -39083.989    17523.718    47077.765    34236.696    4755.3226   -6463.9901    78.506196 
   43800    1075.1691    -107.0956    0.9728356   -106.12276    11287.001    4.2772063    4.2772063    4.2772063    11287.001   -36315.189    47672.724    22503.469    38480.532   -34251.397    1359.1559    78.249325 
   43900     2263.284   -108.16626    2.0478669   -106.11839    6517.3801    4.2815247    4.2815247    4.2815247    6517.3801    9324.3737    39262.307    -29034.54   -5670.6972    10021.977   -17309.347    78.486572 
   44000    912.11743   -106.97446   0.82530302   -106.14916   -41260.968     4.290727     4.290727     4.290727   -41260.968   -33879.924   -47212.995   -42689.986    39307.181   -40012.741   -3537.8946    78.993736 
   44100    1685.3442    -107.6667    1.5249349   -106.14176   -6763.7827    4.2814937    4.2814937    4.2814937   -6763.7827   -9936.2041   -17047.174    6692.0302    15702.703   -14634.284     4783.335    78.484867 
   44200    1825.9103   -107.78817    1.6521221   -106.13605    27298.214    4.2758295    4.2758295    4.2758295    27298.214    36767.745    52978.623   -7851.7258    -12758.49    7885.3499   -19685.468    78.173783 
   44300    789.54102   -106.87146   0.71439331   -106.15707   -23775.175    4.2847769    4.2847769    4.2847769   -23775.175   -48860.934    6513.3807   -28977.971    40632.408   -36873.142   -15483.983     78.66556 
   44400    1788.5279   -107.76234    1.6182976   -106.14405    -1141.574    4.2806781    4.2806781    4.2806781    -1141.574    2560.6374    18855.103   -24840.463   -6229.4763    4195.0086   -4335.4839    78.440022 
   44500    1972.4741   -107.92708    1.7847361   -106.14234    27286.569    4.2685848    4.2685848    4.2685848    27286.569     30192.03    55667.061   -3999.3846   -3469.7106   -11960.226    6689.1261      77.7771 
   44600    1302.5995   -107.34283    1.1786194   -106.16421    12138.308    4.2762017    4.2762017    4.2762017    12138.308   -29859.979    72243.115   -5968.2118    41226.098   -27484.463   -4583.4057    78.194203 
   44700    1834.0305   -107.81545    1.6594694   -106.15598    -3184.615    4.2931081    4.2931081    4.2931081    -3184.615   -20106.589    47297.501   -36744.757    -7636.391    17098.966   -2327.7428    79.125317 
   44800    1326.9587   -107.35543    1.2006601   -106.15476   -12049.096    4.2865207    4.2865207    4.2865207   -12049.096   -40306.365    21397.906   -17238.829   -16838.446   -32997.562   -4928.0656    78.761645 
   44900    1335.7235    -107.3561    1.2085906   -106.14751    7011.6759    4.2756276    4.2756276    4.2756276    7011.6759    -13320.68    40735.416    -6379.708    28225.142   -3033.7913   -15581.296     78.16271 
   45000      1861.68   -107.83397    1.6844872   -106.14949   -15355.702    4.2789512    4.2789512    4.2789512   -15355.702   -7090.7754   -19713.743   -19262.586    6847.2856   -3807.2338    4494.6116    78.345129 
   45100    1423.6454    -107.4413    1.2881443   -106.15315    14014.746    4.2742286    4.2742286    4.2742286    14014.746    16040.531     37694.65   -11690.943   -369.59592   -38208.415    8793.2937    78.086013 
   45200    1196.6736   -107.24778    1.0827754   -106.16501    10083.931    4.2781913    4.2781913    4.2781913    10083.931   -53618.454    38067.609    45802.639    37158.863     15653.72    12095.394    78.303395 
   45300      1256.18   -107.29396    1.1366181   -106.15734    10407.629    4.2932102    4.2932102    4.2932102    10407.629     18259.92    49427.589   -36464.622   -5328.4101    3629.5028    14733.698    79.130963 
   45400    1873.7373   -107.82713    1.6953969   -106.13173   -5289.3613    4.2953545    4.2953545    4.2953545   -5289.3613    4097.5594    21149.782   -41115.425     5239.305   -11266.978    7272.7139     79.24959 
   45500    841.67675   -106.90171   0.76156681   -106.14014     -7837.84    4.2985504    4.2985504    4.2985504     -7837.84   -1926.7415    19455.531   -41042.309   -2803.2841    16311.015   -2854.0868     79.42662 
   45600    2133.4065   -108.04652    1.9303511   -106.11617   -5793.0057     4.285561     4.285561     4.285561   -5793.0057    28182.084   -24776.278   -20784.823   -17774.885   -7303.4725    7315.1886    78.708754 
   45700    1591.7213   -107.57627    1.4402229   -106.13605    11708.813    4.2647247    4.2647247    4.2647247    11708.813   -13703.734    68225.772   -19395.599    18422.295    10345.466    7880.1791    77.566285 
   45800    1013.7633   -107.08734   0.91727434   -106.17007   -9521.6722    4.2702084    4.2702084    4.2702084   -9521.6722   -34568.916   -3536.5022    9540.4019    5794.4831     22936.44    7838.5994    77.865885 
   45900    1538.6275   -107.56436    1.3921825   -106.17217   -2421.9942    4.2895996    4.2895996    4.2895996   -2421.9942    648.47511    12010.307   -19924.765    508.56593   -34609.596   -3154.5194    78.931486 
   46000    1866.1307   -107.83655    1.6885142   -106.14804    829.00822    4.3014812    4.3014812    4.3014812    829.00822    13970.417   -3572.6395    -7910.753    15675.524     5243.558    12718.331    79.589192 
   46100    1529.6625   -107.51268    1.3840708   -106.12861   -25655.097    4.2953382    4.2953382    4.2953382   -25655.097   -55028.006   -11297.394   -10639.892    4745.1769    3638.8414    7629.7213    79.248692 
   46200     1689.697   -107.63861    1.5288734   -106.10974   -1011.9686    4.2775179    4.2775179    4.2775179   -1011.9686   -3437.2473     35031.15   -34629.808    10357.769   -28342.819    9265.0831    78.266425 
   46300     2176.105   -108.08553    1.9689855   -106.11655   -8933.6541    4.2887274    4.2887274    4.2887274   -8933.6541    28531.972   -19031.765   -36301.169    9966.2719    9476.1795    19507.944    78.883346 
   46400    696.22628   -106.76513   0.62996017   -106.13517   -42643.448    4.3195862    4.3195862    4.3195862   -42643.448   -74313.139    5867.1385   -59484.344   -3381.3649   -35047.058    11678.845    80.598405 
   46500    1683.0208   -107.64968    1.5228325   -106.12685   -26449.177    4.2924917    4.2924917    4.2924917   -26449.177   -48998.915   -1078.6708   -29269.945    9671.2751    12619.221    10252.484    79.091243 
   46600    2150.6422   -108.04615    1.9459462    -106.1002    56890.943     4.234906     4.234906     4.234906    56890.943    40839.877    90594.622    39238.329   -7883.1817     4778.845    4556.5048    75.950619 
   46700    1326.0053   -107.37327    1.1997975   -106.17347    4865.1144     4.254896     4.254896     4.254896    4865.1144   -25004.806    71291.533   -31691.384   -4551.6058   -26709.972    -9316.864    77.031231 
   46800    1006.2686   -107.09193     0.910493   -106.18144   -34020.872    4.2937989    4.2937989    4.2937989   -34020.872   -48945.817   -5268.2671   -47848.532   -4146.9964    24330.046   -18969.823    79.163522 
   46900    1855.4315   -107.82295    1.6788334   -106.14411    3618.2352     4.302463     4.302463     4.302463    3618.2352    48428.666   -20841.444   -16732.516    9298.2495    3761.7406    5707.5853    79.643702 
   47000      1998.71   -107.94547    1.8084748     -106.137   -33267.053    4.2894002    4.2894002    4.2894002   -33267.053    9754.0067   -61812.684    -47742.48    1397.2914    3845.6255   -20270.714    78.920478 
   47100    926.39119   -106.97862   0.83821822    -106.1404     20756.59    4.2523568    4.2523568    4.2523568     20756.59    45048.883    9132.2238    8088.6648    3334.4145    26689.222   -18062.341    76.893407 
   47200    1853.1417    -107.8381    1.6767615   -106.16134    7507.9777    4.2596168    4.2596168    4.2596168    7507.9777    27692.648   -20664.862    15496.148   -1032.7764   -3209.5681    7289.6034    77.287914 
   47300    1661.3171   -107.66009    1.5031946    -106.1569   -28398.622    4.2930268    4.2930268    4.2930268   -28398.622    29819.424   -39813.803   -75201.488    8.3639255   -24115.458   -36904.156    79.120824 
   47400    1538.0112   -107.53946    1.3916248   -106.14784   -32594.895    4.2840004    4.2840004    4.2840004   -32594.895   -28902.758   -47665.378   -21216.549    11669.506    32318.391   -16894.222    78.622801 
   47500    1245.9707   -107.26952    1.1273805   -106.14214   -131.13033    4.2722003    4.2722003    4.2722003   -131.13033   -27904.315    12647.056    14863.868   -11542.187   -18243.174      855.368    77.974897 
   47600    1581.2674   -107.57929     1.430764   -106.14852   -25949.532     4.271711     4.271711     4.271711   -25949.532    3200.2894   -6534.9197   -74513.966    2609.1813   -44915.159   -17521.008    77.948107 
   47700    2036.4071   -107.98826    1.8425839   -106.14567   -3044.9603    4.2693962    4.2693962    4.2693962   -3044.9603    20263.477   -20782.114   -8616.2434    604.46128    19721.325    615.34271    77.821461 
   47800    1095.7517   -107.15301   0.99145916   -106.16155    -36843.86     4.284869     4.284869     4.284869    -36843.86   -70977.584    14430.013    -53984.01   -4339.4191   -34196.576    4128.9997    78.670636 
   47900     1050.793   -107.10561   0.95077955   -106.15484   -40287.256    4.2872943    4.2872943    4.2872943   -40287.256   -20950.153   -3544.8241   -96366.792   -5321.1788   -35326.214   -29515.156    78.804296 
   48000    1641.9617   -107.62269    1.4856814   -106.13701    38681.723    4.2673962    4.2673962    4.2673962    38681.723    78991.787    6925.2325     30128.15    3043.2613    21311.097    4428.1414    77.712145 
   48100    1603.8684   -107.60535    1.4512139   -106.15413    21303.595    4.2683289    4.2683289    4.2683289    21303.595    34373.515    24415.593    5121.6766    4872.0472    -28289.07   -7908.9592    77.763114 
   48200    1257.3478   -107.30923    1.1376747   -106.17156   -19082.818    4.3020228    4.3020228    4.3020228   -19082.818    59667.155   -36076.014   -80839.595   -178.80021    5434.9874    -21353.56    79.619256 
   48300    1978.8753    -107.9312    1.7905279   -106.14067    -24345.84    4.2935767    4.2935767    4.2935767    -24345.84   -35478.659   -40858.944    3300.0827    9360.0578    44384.439    9768.1317     79.15123 
   48400    1695.0667   -107.65617     1.533732   -106.12244    43674.992     4.252188     4.252188     4.252188    43674.992    100137.02   -28911.817     59799.77   -4025.4725    -10320.23   -15972.366    76.884251 
   48500    1612.0401   -107.60746    1.4586078   -106.14885    6607.0603    4.2594536    4.2594536    4.2594536    6607.0603    52322.129   -3383.3056   -29117.643   -3837.4646    14105.553   -18661.344    77.279032 
   48600    1358.4703     -107.395    1.2291725   -106.16582   -8511.2795    4.2836403    4.2836403    4.2836403   -8511.2795    17329.852    2442.3796    -45306.07    2703.6778    39087.865    4381.3441    78.602973 
   48700    1646.7414   -107.64475    1.4900063   -106.15474   -35190.431    4.2995229    4.2995229    4.2995229   -35190.431      2736.72   -75519.441   -32788.572    1986.4682   -15894.928   -21238.688    79.480538 
   48800    1315.0057   -107.33589    1.1898448   -106.14604   -27425.111    4.2885316    4.2885316    4.2885316   -27425.111    1670.7904   -29504.001   -54442.123   -20377.044    26556.033    -6514.053     78.87254 
   48900    1544.3158   -107.52695    1.3973294   -106.12962    32793.043    4.2548932    4.2548932    4.2548932    32793.043    98494.732    17594.749   -17710.352    6084.1801    24114.937   -6290.3887    77.031082 
   49000    1582.4578   -107.59795     1.431841   -106.16611   -11760.408    4.2724201    4.2724201    4.2724201   -11760.408    29347.601   -52992.267   -11636.558    -11461.97   -8261.7118   -21870.291    77.986932 
   49100    1785.7346   -107.76686    1.6157702   -106.15109   -52251.654    4.3008975    4.3008975    4.3008975   -52251.654   -40532.354    -41420.29   -74802.318   -22186.365    53783.493    1141.6078    79.556797 
   49200    1762.5503   -107.73069    1.5947926    -106.1359   -23014.998    4.3003624    4.3003624    4.3003624   -23014.998    3615.7841   -33762.058    -38898.72    5346.4955    19476.962   -5165.4264    79.527106 
   49300     1526.142   -107.51258    1.3808854   -106.13169   -9194.1226    4.2768476    4.2768476    4.2768476   -9194.1226    35248.104   -27254.405   -35576.066   -1731.8998   -13363.653   -24947.161    78.229639 
   49400     1587.119   -107.55948    1.4360587   -106.12343     29299.18     4.247252     4.247252     4.247252     29299.18    52387.518     24863.78     10646.24   -27614.595    35761.993    2181.5041    76.616812 
   49500     1513.189   -107.53464    1.3691652   -106.16548    4775.6625    4.2716657    4.2716657    4.2716657    4775.6625    12889.979    3330.5466   -1893.5382    6695.7494    4445.7206     7620.524    77.945631 
   49600    1157.5048   -107.20224    1.0473346   -106.15491   -17603.391    4.2995728    4.2995728    4.2995728   -17603.391    38492.978   -56218.765   -35084.386   -9603.3807   -22956.826   -22435.379    79.483305 
   49700    1543.4617   -107.52825    1.3965566   -106.13169    29630.338    4.2791695    4.2791695    4.2791695    29630.338    63359.737   -2284.5722    27815.851   -18957.155    4517.8849    274.20434    78.357118 
   49800    1607.5965   -107.58592    1.4545871   -106.13133    24225.732    4.2695846    4.2695846    4.2695846    24225.732    45548.108      6753.27    20375.818    5522.3013   -8180.7155    23373.887    77.831765 
   49900    1235.4186   -107.27307    1.1178327   -106.15523    3176.8855    4.2883332    4.2883332    4.2883332    3176.8855    25527.541   -54072.892    38076.008   -18181.131   -20329.483   -39603.236    78.861598 
   50000    1829.2898   -107.78991    1.6551799   -106.13473    -20304.49    4.3047405    4.3047405    4.3047405    -20304.49   -13935.709   -19581.168   -27396.593   -7680.7315    4308.3004    8809.5754    79.770247 
   50100    1558.9092   -107.52847    1.4105338   -106.11794    3601.9918    4.2940333    4.2940333    4.2940333    3601.9918   -1331.1182   -18275.779    30412.872   -499.84877     477.6207    17807.597    79.176486 
   50200    1264.0358   -107.26718    1.1437261   -106.12345   -23146.839    4.2761617    4.2761617    4.2761617   -23146.839    1917.8634   -33264.482   -38093.899   -4181.7329   -18357.812   -41482.781    78.192009 
   50300    1576.9645   -107.55888    1.4268706   -106.13201    15015.724    4.2659781    4.2659781    4.2659781    15015.724    62460.951    -17405.09     -8.68847    2006.5957    3745.3534    1686.0128    77.634697 
   50400    1480.2771   -107.49772    1.3393858   -106.15834   -16444.699    4.2900403    4.2900403    4.2900403   -16444.699   -19546.631   -26286.589   -3500.8759   -3936.1472    19710.976   -2064.8597    78.955817 
   50500    690.42465   -106.77513   0.62471073   -106.15042   -38015.583    4.3092002    4.3092002    4.3092002   -38015.583   -62547.755    -48094.72   -3404.2731     -9917.41   -3901.9319   -33074.089    80.018426 
   50600    1824.2194   -107.77639     1.650592    -106.1258    46914.874    4.2668563    4.2668563    4.2668563    46914.874    20761.128    14744.653    105238.84    8649.6488    7203.3277   -2071.0894    77.682651 
   50700    1653.6154   -107.64527     1.496226   -106.14904    24707.112    4.2615631    4.2615631    4.2615631    24707.112    21733.653    18131.745    34255.937   -3279.8165    8149.2487   -14945.212    77.393906 
   50800    1028.2516   -107.09722   0.93038369   -106.16684   -45734.251    4.3105805    4.3105805    4.3105805   -45734.251    -23399.42   -13004.183   -100799.15    3520.4145    4535.6569   -40747.579    80.095343 
   50900    2059.4302   -107.97281    1.8634157    -106.1094   -24393.628    4.3039698    4.3039698    4.3039698   -24393.628    -20665.32   -18159.232   -34356.332    5831.2186   -3757.8778    3347.3108    79.727409 
   51000    1642.4299   -107.58218    1.4861051   -106.09608   -6152.7935    4.2666422    4.2666422    4.2666422   -6152.7935   -18502.973    33080.166   -33035.573   -20234.231    14147.312   -8916.2485    77.670958 
   51100    1403.8657   -107.39654    1.2702472   -106.12629    6549.2293    4.2657888    4.2657888    4.2657888    6549.2293    2251.0131    25785.279   -8388.6038    3059.5531    -2842.681   -17780.978    77.624361 
   51200    1654.2619   -107.63538    1.4968109   -106.13857   -12106.286    4.2880329    4.2880329    4.2880329   -12106.286   -17355.435   -38464.105    19500.683    11800.622    789.22979    36163.015    78.845033 
   51300    1315.7948   -107.32651    1.1905588   -106.13595    -9630.874     4.294911     4.294911     4.294911    -9630.874   -61563.242    18381.121    14289.499   -22617.562    5141.4177    15917.628    79.225045 
   51400    1320.8319   -107.32135    1.1951165   -106.12623    7851.7068     4.286205     4.286205     4.286205    7851.7068   -48054.071   -24397.874    96007.066    28775.897    6200.0989    8300.9684    78.744242 
   51500    1339.4283   -107.34012    1.2119428   -106.12818    14892.379    4.2667074    4.2667074    4.2667074    14892.379   -1097.2717   -44493.128    90267.537    14398.905   -1875.4483     26001.45    77.674523 
   51600    1570.7864   -107.56226    1.4212806   -106.14098   -693.34692    4.2707289    4.2707289    4.2707289   -693.34692   -31976.963    188.65954    29708.263   -23821.081    -18907.02     26498.13    77.894358 
   51700    1189.1929   -107.23404    1.0760067   -106.15803   -33009.358     4.288359     4.288359     4.288359   -33009.358    -71886.51   -26499.747   -641.81627    52338.685    2775.5748    6589.6114    78.863022 
   51800    2186.7589   -108.10928    1.9786254   -106.13066   -22413.005    4.2949605    4.2949605    4.2949605   -22413.005   -10251.227   -32126.882   -24860.907   -822.58767   -2450.3585    23972.535    79.227787 
   51900    1615.9529   -107.58813    1.4621482   -106.12599   -43632.333    4.2959258    4.2959258    4.2959258   -43632.333   -18607.805   -61758.163    -50531.03    18786.906    -15803.78    16092.248     79.28122 
   52000    1267.7581   -107.27997    1.1470942   -106.13288   -28557.383    4.2795887    4.2795887    4.2795887   -28557.383   -66684.619   -16291.114    -2696.415    23339.164    764.17777    3672.2968    78.380149 
   52100    1911.2269   -107.86012    1.7293182    -106.1308    7500.8836    4.2708287    4.2708287    4.2708287    7500.8836    15468.814   -20836.072    27869.909   -15794.548    1699.5909    12525.788     77.89982 
   52200    1281.1116   -107.30985    1.1591767   -106.15068   -16555.172    4.2889462    4.2889462    4.2889462   -16555.172   -27830.189   -58358.025      36522.7    20377.683   -19333.886    11421.367     78.89542 
   52300    1060.9451   -107.10343    0.9599654   -106.14346   -27314.793    4.2888404    4.2888404    4.2888404   -27314.793   -58890.337    2373.9193   -25427.962    5498.1201   -1443.1655    5744.0523    78.889581 
   52400    1465.0688   -107.45949     1.325625   -106.13386    29651.046    4.2659334    4.2659334    4.2659334    29651.046     15717.48   -5551.1592    78786.818    -12465.66    4128.0597    4615.4342    77.632255 
   52500    1639.5681   -107.63056    1.4835157   -106.14705    7408.0607    4.2735149    4.2735149    4.2735149    7408.0607   -15614.658   -12195.561    50034.401    14885.262   -22366.748    8436.3614    78.046903 
   52600    883.33513   -106.95156   0.79926019    -106.1523    2012.1353    4.2840471    4.2840471    4.2840471    2012.1353   -10895.052    19875.489    -2944.031   -1344.7213   -21253.313   -4856.0742     78.62537 
   52700    1630.0185   -107.61575     1.474875   -106.14088   -7816.2435    4.2826657    4.2826657    4.2826657   -7816.2435    14168.161   -28288.622   -9328.2697   -5299.9987     27148.73    -4391.555    78.549338 
   52800    2060.7841   -108.00055    1.8646407   -106.13591   -11317.109    4.2798524    4.2798524    4.2798524   -11317.109   -5275.6482   -3709.1731   -24966.505    5599.3776   -26399.732    1121.7916     78.39464 
   52900    1405.6485   -107.41663    1.2718603   -106.14477   -19700.456    4.2723089    4.2723089    4.2723089   -19700.456   -25088.148    23198.982   -57212.203   -2554.3634   -27209.655   -14902.566    77.980847 
   53000    1289.2691   -107.32385    1.1665578   -106.15729   -9919.8793    4.2734872    4.2734872    4.2734872   -9919.8793    17714.471   -12437.581   -35036.528   -15930.767    55372.246     1362.864    78.045384 
   53100    1862.5694   -107.83792    1.6852919   -106.15263    -23124.84    4.2810769    4.2810769    4.2810769    -23124.84   -6177.7866   -8020.9937   -55175.739    11766.979   -16575.802    12024.767    78.461951 
   53200    1701.6254   -107.68451    1.5396664   -106.14485   -7939.7077    4.2728035    4.2728035    4.2728035   -7939.7077    20655.662    -11181.35   -33293.435   -5219.7362   -13943.878   -16139.423    78.007933 
   53300    1271.2905   -107.30307    1.1502903   -106.15278   -2760.8514    4.2776909    4.2776909    4.2776909   -2760.8514     27411.68   -3180.4005   -32513.834   -5410.0033    38138.953    11366.401    78.275922 
   53400    1751.5201   -107.71208    1.5848122   -106.12727   -14263.828    4.2935951    4.2935951    4.2935951   -14263.828    31527.261   -32169.051   -42149.694    11081.928   -17802.241    26465.839    79.152251 
   53500    1287.8296   -107.29427    1.1652553   -106.12902    3391.3577    4.2734224    4.2734224    4.2734224    3391.3577   -15765.384    21447.291    4492.1668   -15684.155    7045.3352   -23249.049    78.041836 
   53600    1246.8764    -107.2622       1.1282     -106.134    10751.536    4.2597592    4.2597592    4.2597592    10751.536    13252.532    14836.279    4165.7959   -3970.4578    28821.985    25143.423    77.295666 
   53700    1764.4175   -107.73727    1.5964821   -106.14079    14671.935    4.2775121    4.2775121    4.2775121    14671.935    40226.062    5389.9894   -1600.2461    16458.581   -6648.0918     31834.68     78.26611 
   53800    1377.9982   -107.39411    1.2468417   -106.14727    2136.9334    4.2851185    4.2851185    4.2851185    2136.9334   -7513.4345    9178.5674    4745.6673    -24248.96    12163.604   -22380.792    78.684374 
   53900      1060.06   -107.11016   0.95916456     -106.151   -16764.259    4.2784992    4.2784992    4.2784992   -16764.259    -24919.97    3971.3952   -29344.202   -1563.2703    27225.805    24332.557    78.320303 
   54000    1961.7482   -107.91125     1.775031   -106.13622    18445.238    4.2551251    4.2551251    4.2551251    18445.238    12578.151   -12110.231    54867.793    8703.7343   -13037.232    4368.6329    77.043678 
   54100    1314.4862   -107.34942    1.1893747   -106.16004    24213.629    4.2616489    4.2616489    4.2616489    24213.629    9804.2128    28254.522    34582.153   -30987.806    13097.087   -6835.2366    77.398581 
   54200    1296.2791    -107.3265    1.1729006    -106.1536   -39109.593    4.2965257    4.2965257    4.2965257   -39109.593   -49477.192   -15465.443   -52386.144    2354.5236    25436.038    12168.593    79.314435 
   54300     1914.077   -107.85673    1.7318971   -106.12484   -13335.899    4.2860067    4.2860067    4.2860067   -13335.899   -9311.4589   -5804.4788   -24891.761   -3294.7266   -30585.644    2637.1422    78.733316 
   54400    1924.2952   -107.85154    1.7411427    -106.1104     8193.429    4.2598853    4.2598853    4.2598853     8193.429    3130.5836     9125.478    12324.225   -20861.275    19386.408   -4295.6474    77.302529 
   54500    1418.1267   -107.42316    1.2831509   -106.14001   -18745.749    4.2599611    4.2599611    4.2599611   -18745.749   -32817.258    13733.507   -37153.494    5219.6979    20951.222    18167.358    77.306656 
   54600    1140.3573   -107.19939    1.0318192   -106.16758    841.37691    4.2706144    4.2706144    4.2706144    841.37691   -33289.263    45994.243   -10180.849    -12158.38   -35161.735   -9.9566858    77.888093 
   54700     2033.619   -107.99725    1.8400612   -106.15719    8969.3667    4.2884393    4.2884393    4.2884393    8969.3667   -8620.0945   -1927.7401    37455.935   -18805.221    10852.013   -24097.307    78.867452 
   54800    1377.2107   -107.39679    1.2461292   -106.15067   -11777.776    4.2918314    4.2918314    4.2918314   -11777.776   -42174.096    33196.326   -26355.559    9379.2919    3042.6254    19536.915    79.054749 
   54900    1014.8802   -107.06385   0.91828496   -106.14556    11204.662     4.261896     4.261896     4.261896    11204.662   -963.54569    29583.587    4993.9445   -13306.346   -26612.095    41.033985    77.412048 
   55000    1525.7059   -107.51999    1.3804908    -106.1395    54550.416    4.2494617    4.2494617    4.2494617    54550.416     44814.13    68070.863    50766.255    10237.115    15503.365   -41390.414    76.736459 
   55100    1798.9685   -107.78031    1.6277445   -106.15257    3473.2734    4.2743317    4.2743317    4.2743317    3473.2734    15159.923     6250.122   -10990.225    5648.8559   -14742.672    23852.129    78.091663 
   55200    815.33939   -106.89388   0.73773621   -106.15614    7239.6789    4.2850366    4.2850366    4.2850366    7239.6789    8515.5922    44459.014    -31255.57   -11925.334    -23021.35   -11166.183    78.679864 
   55300    1808.8913   -107.77252    1.6367229   -106.13579    19435.288    4.2796459    4.2796459    4.2796459    19435.288    7185.0107    52533.329   -1412.4744     1957.667    22501.628   -25121.318    78.383292 
   55400    2073.0553   -108.01569     1.875744   -106.13995    6862.0416    4.2593187    4.2593187    4.2593187    6862.0416   -3044.9505    30878.442   -7247.3664    823.71136   -4023.7962    12848.327    77.271692 
   55500    993.87211    -107.0593   0.89927638   -106.16003    23217.322    4.2401664    4.2401664    4.2401664    23217.322    39262.847    40996.351   -10607.231   -11161.706   -25025.977   -17495.208    76.233998 
   55600    1322.2346   -107.38653    1.1963857   -106.19014   -17124.965    4.2685027    4.2685027    4.2685027   -17124.965   -14999.349    2743.2348   -39118.781    109.49976    31782.377    -7935.651    77.772614 
   55700     1915.173   -107.88994    1.7328888   -106.15705   -14838.649    4.2855102    4.2855102    4.2855102   -14838.649   -15815.279   -5945.8727   -22754.795    1731.0882     39808.52    7146.9241    78.705957 
   55800    1756.0035   -107.73316    1.5888689   -106.14429    19507.061    4.2651813    4.2651813    4.2651813    19507.061     55317.12   -17218.728     20422.79   -8226.3559    -21882.67   -24965.632    77.591204 
   55900    881.32963   -106.95514   0.79744557    -106.1577   -25051.735    4.2630106    4.2630106    4.2630106   -25051.735   -24511.037    16695.625   -67339.794    5042.7378    63604.735   -8002.8064    77.472797 
   56000    1253.7299   -107.28768    1.1344011   -106.15328    13485.193    4.2611297    4.2611297    4.2611297    13485.193    26116.158    14960.117    -620.6963   -4100.5815    28067.007     13115.01    77.370295 
   56100    2028.3503   -107.99041     1.835294   -106.15511   -13037.225    4.2675152    4.2675152    4.2675152   -13037.225    2205.1439   -32035.588   -9281.2317   -10308.946   -17654.482   -19499.381    77.718647 
   56200    1229.5795   -107.27875    1.1125494    -106.1662   -32696.722    4.2784959    4.2784959    4.2784959   -32696.722   -7815.5209   -21120.047   -69154.599    678.66703    64270.341   -13214.247    78.320123 
   56300    1630.7744   -107.63042     1.475559   -106.15486   -7200.9468    4.2562068    4.2562068    4.2562068   -7200.9468   -27547.149    20298.237   -14353.928    10415.573   -22426.778    9659.8323    77.102448 
   56400    1384.1111   -107.41239    1.2523728   -106.16002    4914.3829    4.2526038    4.2526038    4.2526038    4914.3829    15457.917     1848.395   -2563.1634    384.45777   -24982.772   -4977.9348    76.906804 
   56500    1631.5582   -107.63268    1.4762681   -106.15641    -32317.63    4.2736865    4.2736865    4.2736865    -32317.63   -23471.201   -23982.031   -49499.657   -5866.2634    61834.114    -18686.32    78.056305 
   56600    1296.2311   -107.32247    1.1728571   -106.14962    -25201.69    4.2789764    4.2789764    4.2789764    -25201.69   -42119.888   -15016.556   -18468.626    3644.7884    -48063.38    2284.4132    78.346512 
   56700    1474.4447   -107.47868    1.3341086   -106.14457   -10174.757    4.2714687    4.2714687    4.2714687   -10174.757   -3934.2328   -34525.964     7935.925   -13241.673   -10711.923      6943.63    77.934848 
   56800    1611.3941    -107.5947    1.4580233   -106.13668    20192.948    4.2577777    4.2577777    4.2577777    20192.948    20534.195    9064.4664    30980.183    3133.6086    18219.701   -18470.129    77.187852 
   56900    975.59979   -107.04574   0.88274319   -106.16299    20127.497    4.2685785    4.2685785    4.2685785    20127.497    44537.468    2787.3153    13057.707   -1909.4343   -73467.514   -8229.5469    77.776755 
   57000    1723.6288    -107.7039    1.5595755   -106.14432    8403.9789    4.2815095    4.2815095    4.2815095    8403.9789     44483.02   -58686.501    39415.418   -7460.0419   -2106.1009    7595.9768    78.485736 
   57100    1055.3978   -107.09422   0.95494615   -106.13927    21247.865    4.2729844    4.2729844    4.2729844    21247.865    85037.164   -24027.251    2733.6814    1567.9597   -38076.101   -10225.939    78.017838 
   57200    1445.3251   -107.43964    1.3077605   -106.13188    19269.022    4.2706236    4.2706236    4.2706236    19269.022    8299.8177    20461.553    29045.694   -1956.9928   -53766.887     3206.356    77.888597 
   57300    2037.5398    -107.9694    1.8436088   -106.12579   -5298.9501     4.278824     4.278824     4.278824   -5298.9501    29499.513   -51196.708    5800.3448    9726.4816     17318.72    25993.444    78.338143 
   57400    744.83735   -106.81272   0.67394449   -106.13878   -36078.235    4.2804049    4.2804049    4.2804049   -36078.235   -13236.267   -40720.498   -54277.938   -3844.5088   -49336.829   -19724.333    78.425007 
   57500    1971.9264   -107.90131    1.7842404   -106.11707    15214.198    4.2608222    4.2608222    4.2608222    15214.198    29972.027     13664.57    2005.9965   -7819.2448   -7558.4061    -5190.682    77.353545 
   57600    1653.3537   -107.63386    1.4959892   -106.13787   -15945.248    4.2752644    4.2752644    4.2752644   -15945.248    15993.511   -28969.788   -34859.467    2193.1128    4663.8697    13579.532    78.142795 
   57700    1079.5165   -107.12192   0.97676923   -106.14515   -40701.931    4.2778221    4.2778221    4.2778221   -40701.931   -37290.571   -32862.266   -51952.956   -6380.7122   -50645.951   -16431.136    78.283128 
   57800    2028.2177   -107.96461     1.835174   -106.12944    7308.4749    4.2708574    4.2708574    4.2708574    7308.4749    7789.4663   -30127.907    44263.866    14568.517    18203.165    4385.9497    77.901391 
   57900    1253.4373   -107.27503    1.1341364    -106.1409   -29620.437    4.2797649    4.2797649    4.2797649   -29620.437   -18918.565   -36943.727   -32999.018   -857.97188   -19339.996   -7660.7681    78.389834 
   58000    1137.3949     -107.165    1.0291388   -106.13586   -13360.673    4.2620855    4.2620855    4.2620855   -13360.673   -33621.896    1873.2055   -8333.3294     6030.514   -59137.438    -25598.29    77.422371 
   58100    1665.4139   -107.64917    1.5069015   -106.14227    403.16214    4.2661045    4.2661045    4.2661045    403.16214    7604.4903   -23714.701    17319.697    29004.488    25101.785    7567.1043    77.641598 
   58200    1669.6909   -107.65458    1.5107714   -106.14381   -15608.492    4.2754635    4.2754635    4.2754635   -15608.492   -16657.003   -3455.3518   -26713.121   -10245.908   -9094.4234   -13784.842    78.153714 
   58300    1294.2402   -107.31387    1.1710557   -106.14281    27078.832    4.2697673    4.2697673    4.2697673    27078.832    59641.927   -9838.4024     31432.97    8393.6313   -34568.287   -9554.6126    77.841756 
   58400    1730.6437   -107.70317    1.5659227   -106.13725    -23222.89    4.2901767    4.2901767    4.2901767    -23222.89   -27972.215   -33448.839   -8247.6169    12819.258    43485.471    2703.7975    78.963348 
   58500    1069.0291   -107.10069   0.96727997   -106.13341   -14186.114    4.2748742    4.2748742    4.2748742   -14186.114   -31846.623    47353.992   -58065.711   -4513.0703   -15080.728   -17484.117    78.121399 
   58600    1676.7944   -107.62696    1.5171988   -106.10976    39377.936    4.2515892    4.2515892    4.2515892    39377.936    26565.256    42525.361    49043.191    20754.051   -34564.962    -15611.55    76.851772 
   58700    1461.7414    -107.4548    1.3226143   -106.13218   -21275.246    4.2770309    4.2770309    4.2770309   -21275.246   -40029.618   -78.618914   -23717.501    12815.192    50150.332    628.03095    78.239696 
   58800    1277.7604    -107.2985    1.1561445   -106.14236   -6586.5992     4.267083     4.267083     4.267083   -6586.5992   -18333.966    26176.657   -27602.489   -13159.914   -53708.517   -1277.1735    77.695037 
   58900    1768.3354   -107.74562     1.600027   -106.14559    23479.793    4.2684677    4.2684677    4.2684677    23479.793     86364.76   -14849.504   -1075.8776    7880.7395   -4089.1395    -2089.723    77.770697 
   59000    1442.1362   -107.45473    1.3048752   -106.14986   -22836.171      4.27486      4.27486      4.27486   -22836.171   -13918.043    1463.7855   -56054.255    4661.6018    14368.669    17903.125     78.12062 
   59100    1244.3747   -107.26197    1.1259364   -106.13603    27661.654    4.2668702    4.2668702    4.2668702    27661.654    75876.972    52211.198   -45103.207   -5379.2384   -32451.847     114.1275     77.68341 
   59200    1956.6405   -107.89176    1.7704094   -106.12135   -18196.388    4.2868153    4.2868153    4.2868153   -18196.388    15624.968   -35004.018   -35210.114    10878.285    6731.5705    7993.7647    78.777885 
   59300    1199.7673    -107.2283    1.0855746   -106.14272    -405.4946    4.2611197    4.2611197    4.2611197    -405.4946   -4575.9662     65447.84   -62088.358    2142.6418   -34895.243    8931.6606     77.36975 
   59400    1399.5985   -107.39886    1.2663861   -106.13247    24024.683    4.2394434    4.2394434    4.2394434    24024.683    45753.062    33922.243   -7601.2554    1881.8924   -8824.2968    4031.3874     76.19501 
   59500    1799.6056    -107.7663    1.6283209   -106.13798   -12997.457    4.2734739    4.2734739    4.2734739   -12997.457   -2016.8933   -13013.243   -23962.235   -12260.242    7116.7132    -21734.94    78.044656 
   59600    1508.9472   -107.50615    1.3653272   -106.14082   -39915.685    4.2725036    4.2725036    4.2725036   -39915.685   -51612.567    22651.387   -90785.875    5353.3535   -75419.879    6337.7006    77.991505 
   59700    1649.6292   -107.62054    1.4926191   -106.12792   -8091.9569     4.272609     4.272609     4.272609   -8091.9569    2329.1842   -11946.613   -14658.441   -8215.0432    31534.346    -16685.79    77.997277 
   59800    1026.3276   -107.06625   0.92864276    -106.1376    -45085.07    4.2740457    4.2740457    4.2740457    -45085.07   -59096.014   -8787.2993   -67371.897   -19549.068   -51086.619   -16459.006    78.075986 
   59900    1485.5507   -107.47422    1.3441575   -106.13006    9070.1726    4.2490344    4.2490344    4.2490344    9070.1726   -38992.594    62157.454    4045.6577    15481.673   -62935.209    8138.9892    76.713316 
   60000    2155.6718   -108.08997    1.9504972   -106.13948    9217.2233    4.2667424    4.2667424    4.2667424    9217.2233    14389.316    -8112.586     21374.94   -7665.8805     7422.415   -5904.1036     77.67643 
   60100    686.59199   -106.77793   0.62124286   -106.15669   -31459.142    4.2862294    4.2862294    4.2862294   -31459.142   -57537.372   -2605.9252   -34234.128   -8451.9348   -94384.888   -3187.2994    78.745591 
   60200    1564.4533   -107.54633    1.4155502   -106.13078    17458.474    4.2760275    4.2760275    4.2760275    17458.474    26221.749   -34685.681    60839.353    16963.719    2836.2941     5979.253    78.184643 
   60300    1781.7845   -107.73695    1.6121961   -106.12476   -14859.144    4.2717653    4.2717653    4.2717653   -14859.144   -9024.7365    5869.5404   -41422.237    6713.7276   -29186.867     11515.09    77.951084 
   60400    962.67232   -107.00948   0.87104615   -106.13844    9893.6957    4.2629129    4.2629129    4.2629129    9893.6957   -37238.369    37668.015    29251.441    2729.6984   -62054.636    -6837.537    77.467471 
   60500    1877.0575   -107.83024    1.6984011   -106.13184   -2069.5402    4.2756225    4.2756225    4.2756225   -2069.5402    10598.627   -31531.157     14723.91    20676.565    20933.648    7392.3964    78.162433 
   60600     1316.415   -107.31616    1.1911199   -106.12504   -49457.857    4.2894092    4.2894092    4.2894092   -49457.857   -90551.131    21503.072   -79325.513   -2623.7983   -75031.008   -3203.7533    78.920974 
   60700    1838.6338   -107.77105    1.6636345   -106.10742     362.0746    4.2654934    4.2654934    4.2654934     362.0746    2509.3343   -5888.2835    4465.1731    6910.2848   -6103.3829   -15830.669     77.60824 
   60800    1378.4789   -107.36138    1.2472767   -106.11411    1238.7383    4.2642945    4.2642945    4.2642945    1238.7383   -19860.725    32832.991   -9256.0513    1987.4861   -21825.049    5975.3964    77.542816 
   60900    1697.7417   -107.65581    1.5361524   -106.11966   -8668.3517    4.2703897    4.2703897    4.2703897   -8668.3517   -23663.721    49574.808   -51916.142    11497.129    -37731.66   -1505.6789    77.875802 
   61000    1560.6909   -107.53431    1.4121459   -106.12217    22032.478     4.271758     4.271758     4.271758    22032.478    21358.757     493.2174     44245.46   -6523.0778    13068.918   -4872.5507     77.95068 
   61100    1088.0913   -107.11433   0.98452791   -106.12981   -7634.2309    4.2820247    4.2820247    4.2820247   -7634.2309   -63932.366    91550.089   -50520.416   -4060.4194   -69649.454   -2267.5019    78.514075 
   61200    2250.6025   -108.14081    2.0363924   -106.10442   -6847.2797    4.2765431    4.2765431    4.2765431   -6847.2797   -10051.488    19498.528   -29988.879    13215.728    6518.5649    5858.8355    78.212932 
   61300    1040.6249   -107.05387   0.94157928   -106.11229    12373.774    4.2613662    4.2613662    4.2613662    12373.774   -35194.907    33994.794    38321.436   -6997.9077   -29805.956    8476.5277    77.383178 
   61400    1626.2522   -107.59041    1.4714671   -106.11894    17923.538    4.2796507    4.2796507    4.2796507    17923.538    -17882.54     66946.68    4706.4738    -2034.441   -20526.499   -11452.726    78.383559 
   61500    1213.8639   -107.21444    1.0983296   -106.11611    -27293.22    4.2860895    4.2860895    4.2860895    -27293.22   -18713.967   -8037.0531   -55128.639    1738.7738      11826.5   -3825.6777    78.737877 
   61600    1269.4245   -107.25809    1.1486019   -106.10948    5920.7735    4.2667159    4.2667159    4.2667159    5920.7735    -11927.24    42561.809   -12872.248   -5887.3437   -45149.317    7718.4406    77.674987 
   61700    1814.9481   -107.74774    1.6422032   -106.10553     4559.001    4.2729276    4.2729276    4.2729276     4559.001    2016.5406    18182.336   -6521.8732    11186.658    18379.194   -20902.131    78.014726 
   61800    933.03029   -106.97217   0.84422542   -106.12794   -28189.744     4.271008     4.271008     4.271008   -28189.744   -10033.434   -21817.773   -52718.024    11374.595    7952.5685   -7395.3164    77.909632 
   61900    2256.6723   -108.15222    2.0418845   -106.11034    28023.105    4.2674249    4.2674249    4.2674249    28023.105    13863.628    11142.784    59062.903    4537.4145   -13887.075    1486.1831    77.713714 
   62000    599.45205   -106.67514   0.54239681   -106.13275   -9163.0664    4.2890433    4.2890433    4.2890433   -9163.0664    31308.462    -22157.61   -36640.051    10093.585    37164.289   -36339.608    78.900782 
   62100    1749.1133   -107.67346    1.5826344   -106.09083   -12170.395     4.294066     4.294066     4.294066   -12170.395    15429.642   -42977.179   -8963.6491    2040.2536   -12155.976    9715.7788    79.178295 
   62200    1291.5859   -107.26228     1.168654   -106.09363    4364.4912    4.2733878    4.2733878    4.2733878    4364.4912    4966.6382   -14404.022    22530.858    7249.6133    32298.745   -10481.118    78.039937 
   62300    1016.2673   -107.03097   0.91953998   -106.11143   -4397.7532    4.2552919    4.2552919    4.2552919   -4397.7532    31527.492    -39287.31   -5433.4415    22360.156    23572.496    -30668.99    77.052736 
   62400    2239.1646   -108.14203    2.0260431   -106.11598    25979.765    4.2603398    4.2603398    4.2603398    25979.765    41732.304    16391.509    19815.482   -15222.522   -9749.5629    15070.735    77.327276 
   62500    749.84655   -106.82733   0.67847692   -106.14885   -51719.585    4.2880487    4.2880487    4.2880487   -51719.585   -41985.782   -52822.368   -60350.605   -17218.012     51124.55   -19597.351    78.845904 
   62600    1996.6873   -107.92584    1.8066446   -106.11919   -12281.231    4.2815464    4.2815464    4.2815464   -12281.231    24917.426   -31463.885   -30297.234   -6121.3839   -21945.553   -20757.395    78.487766 
   62700    1556.6372   -107.52337     1.408478   -106.11489    -6242.202    4.2674368    4.2674368    4.2674368    -6242.202   -20530.311    14896.065   -13092.359    6729.2654    29470.596    7143.8586    77.714363 
   62800    1237.7928   -107.25009    1.1199809   -106.13011    -33831.01    4.2670033    4.2670033    4.2670033    -33831.01   -29417.769   -12344.687   -59730.573   -649.75731    38797.078   -30136.172     77.69068 
   62900    2212.6695   -108.11826    2.0020698   -106.11619     23062.95    4.2608319    4.2608319    4.2608319     23062.95    59895.794   -2264.7851    11557.842    3192.3056    -23809.59    10776.271    77.354073 
   63000    829.85957   -106.90405   0.75087438   -106.15318   -14574.865    4.2878974    4.2878974    4.2878974   -14574.865   -32530.328    18403.943    -29598.21   -3732.3684    42272.153    7197.3962    78.837555 
   63100     2116.541   -108.01065    1.9150908   -106.09556    -36008.69    4.3000458    4.3000458    4.3000458    -36008.69   -21166.654   -25783.544    -61075.87    -206.4239    13610.996   -13341.108    79.509541 
   63200    1129.8584    -107.1165    1.0223196   -106.09418   -16399.964     4.271693     4.271693     4.271693   -16399.964    4533.5798   -44290.866   -9442.6052    13336.868   -13828.539    39763.986    77.947126 
   63300    1469.7464   -107.43662    1.3298574   -106.10676    11376.605    4.2590355    4.2590355    4.2590355    11376.605   -12314.467    28126.024    18318.259   -9561.1205    27168.762    -6988.343    77.256276 
   63400    2036.8491   -107.95535    1.8429838   -106.11237    10655.255     4.268434     4.268434     4.268434    10655.255    58955.824    673.27347   -27663.334    13940.485   -4029.7448    5497.4501    77.768854 
   63500    1072.6565   -107.11725    0.9705621   -106.14669   -34080.672    4.2783436    4.2783436    4.2783436   -34080.672    -29125.62   -59595.979   -13520.418    11714.733   -6616.5587    29400.109    78.311762 
   63600    1668.6976   -107.64007    1.5098726   -106.13019    4813.1843    4.2783287    4.2783287    4.2783287    4813.1843    5043.4761    19855.866   -10459.789   -4743.0085    18510.654   -19784.933    78.310944 
   63700    1374.3558   -107.37584     1.243546    -106.1323    10236.468    4.2631533    4.2631533    4.2631533    10236.468    78909.696   -29238.942   -18961.349    14513.089    4510.5928   -23874.873    77.480576 
   63800    1619.0719   -107.59628    1.4649703   -106.13131    15854.272    4.2534524    4.2534524    4.2534524    15854.272    36387.341    13615.648    -2440.175    13773.494   -23676.238    27899.641    76.952855 
   63900    1268.8283   -107.29682    1.1480625   -106.14876    3312.5083    4.2716556    4.2716556    4.2716556    3312.5083    67161.535   -3099.4587   -54124.551   -6956.2762    12213.456   -69850.887     77.94508 
   64000    1987.9148   -107.92779    1.7987071   -106.12908   -13632.953    4.2847472    4.2847472    4.2847472   -13632.953   -17662.141   -1886.3905   -21350.328   -5229.4575   -11504.289     3162.376    78.663925 
   64100    1209.0116   -107.23981    1.0939391   -106.14587   -20177.507    4.2667625    4.2667625    4.2667625   -20177.507    10806.688   -12042.978   -59296.231    23515.257   -12684.725   -32263.817    77.677529 
   64200    807.34694   -106.88565   0.73050448   -106.15514    583.30208    4.2446799    4.2446799    4.2446799    583.30208    60556.997   -8253.8339   -50553.256   -10310.585   -4200.8357   -73491.661    76.477702 
   64300    2315.3715   -108.23995    2.0949968   -106.14496    23826.699    4.2561554    4.2561554    4.2561554    23826.699    23749.774    31601.674    16128.649    376.24588    17332.761    32944.974    77.099655 
   64400    1136.1227   -107.19117    1.0279877   -106.16318   -16813.582    4.2820729    4.2820729    4.2820729   -16813.582    46126.386   -22027.166   -74539.966    13896.557   -11225.873   -80295.162    78.516723 
   64500    1416.6192   -107.41404    1.2817868   -106.13225    102.26179    4.2819565    4.2819565    4.2819565    102.26179    20776.544     11739.65   -32209.409    2433.9696    2610.5943    -109.4254    78.510321 
   64600    1548.7782   -107.52046     1.401367    -106.1191    7414.3627     4.258774     4.258774     4.258774    7414.3627    4192.2007   -26988.547    45039.434   -12634.784    19079.324   -420.86779    77.242049 
   64700    1201.3149   -107.22565     1.086975   -106.13868   -4848.8586    4.2498021    4.2498021    4.2498021   -4848.8586    50174.962    -48436.95   -16284.588    6790.4612   -4033.0383   -70345.018    76.754902 
   64800    1948.4754   -107.90428    1.7630215   -106.14126    22352.989    4.2669954    4.2669954    4.2669954    22352.989   -21321.475    30781.319    57599.124    14053.677    9704.0631    18921.961    77.690252 
   64900    1445.3193   -107.45307    1.3077553   -106.14532   -34011.287    4.2878501    4.2878501    4.2878501   -34011.287    6878.8823   -57016.116   -51896.628    -10100.35    8725.5792     -44557.7    78.834946 
   65000    1236.1244   -107.26398    1.1184713   -106.14551   -22640.931    4.2668497    4.2668497    4.2668497   -22640.931   -3640.3889   -59380.667   -4901.7367     32607.38   -1745.4989   -30391.595    77.682294 
   65100    1628.1265   -107.60422    1.4731631   -106.13105    42938.202    4.2404119    4.2404119    4.2404119    42938.202    35176.763    27116.653    66521.191    9552.5048   -8746.5318    17099.761    76.247242 
   65200    1360.4559   -107.39123    1.2309691   -106.16026    11727.701    4.2594103    4.2594103    4.2594103    11727.701    59096.055    1532.0284   -25444.979   -4299.1442     9762.753   -47490.351    77.276677 
   65300    1682.8992   -107.67151    1.5227225   -106.14879   -12654.942    4.2890176    4.2890176    4.2890176   -12654.942   -8656.8198   -47346.933    18038.928    33945.878   -3967.4426   -3602.4805    78.899363 
   65400    1788.2264    -107.7339    1.6180248   -106.11587   -27506.959    4.2899983    4.2899983    4.2899983   -27506.959   -6372.0924    -42665.88   -33482.904   -18033.059   -10783.259   -20258.563    78.953493 
   65500    931.62364    -106.9559   0.84295265   -106.11295    -21394.28    4.2654477    4.2654477    4.2654477    -21394.28    33234.905   -53734.854    -43682.89    3343.3392    19319.557   -64555.748    77.605744 
   65600    2094.5549   -107.99962    1.8951973   -106.10442    5070.0964    4.2573341    4.2573341    4.2573341    5070.0964   -7226.3988   -21917.603    44354.292    12925.319   -9454.9497    34292.526    77.163726 
   65700    1449.9354   -107.44092     1.311932   -106.12899   -21400.803    4.2742542    4.2742542    4.2742542   -21400.803    14580.203   -45557.545   -33225.066   -13114.349    12436.694   -41145.392    78.087416 
   65800    1400.1328    -107.4013    1.2668696   -106.13443   -15717.957    4.2774745    4.2774745    4.2774745   -15717.957   -122.66722   -43204.147    -3827.056    8421.9857    8150.0548   -20937.779    78.264043 
   65900    1604.1773   -107.59136    1.4514933   -106.13987   -4063.9879    4.2689151    4.2689151    4.2689151   -4063.9879    26045.918   -41449.504    3211.6224    19923.041   -10946.962    41828.928    77.795157 
   66000    1583.0645   -107.57123      1.43239   -106.13884    10452.211    4.2645725    4.2645725    4.2645725    10452.211    58101.082   -26939.102    194.65212   -4230.5435   -1857.8171   -7203.4585    77.557981 
   66100    1445.5711   -107.44724    1.3079831   -106.13925     13499.86    4.2700427    4.2700427    4.2700427     13499.86     25692.15   -21631.125    36438.555     6937.369   -313.58711   -10090.335    77.856821 
   66200    1047.2389   -107.09128   0.94756377   -106.14372    12624.068    4.2663395    4.2663395    4.2663395    12624.068    30704.701   -20570.851    27738.354    4510.4014   -16423.463    50598.818    77.654433 
   66300    1803.1279    -107.7604     1.631508   -106.12889     20741.86    4.2792474    4.2792474    4.2792474     20741.86    -1535.841     15455.75    48305.672   -5187.8543   -10743.313     -9686.78    78.361402 
   66400    1340.0575   -107.34377    1.2125122   -106.13125   -23621.785    4.2828213    4.2828213    4.2828213   -23621.785   -36331.036   -49944.017    15409.699    19314.796    5616.9664    16562.286    78.557897 
   66500    1137.4738   -107.16051    1.0292102    -106.1313    6789.6103    4.2549177    4.2549177    4.2549177    6789.6103    9014.5158    -7950.335     19304.65    7241.9423   -12761.497    60788.801     77.03241 
   66600    2530.4434   -108.41527    2.2895984   -106.12567    9673.1278    4.2534581    4.2534581    4.2534581    9673.1278   -6393.9896    26218.755    9194.6181    998.72535   -9543.4641   -33266.042    76.953164 
   66700    1196.3319   -107.22955    1.0824663   -106.14708   -30597.627    4.2799592    4.2799592    4.2799592   -30597.627   -4930.7595   -51083.766   -35778.356    21938.338    1266.8425    56247.662     78.40051 
   66800    1378.6886    -107.3852    1.2474664   -106.13773   -18901.573    4.2817985    4.2817985    4.2817985   -18901.573   -40210.074    -4987.946     -11506.7    9054.7742   -11022.409    11981.556    78.501633 
   66900    1572.5228    -107.5518    1.4228517   -106.12895    11005.798     4.264883     4.264883     4.264883    11005.798   -9395.4842    27482.224    14930.656   -8237.9141   -20251.336   -31877.549    77.574927 
   67000    1526.8357   -107.51756     1.381513   -106.13605     21147.86    4.2505471    4.2505471    4.2505471     21147.86    45468.392   -23768.107    41743.295    17441.632    9592.7928    40513.564    76.795275 
   67100    1447.2384   -107.46639    1.3094918   -106.15689    4181.5232    4.2662035    4.2662035    4.2662035    4181.5232   -11459.684   -11363.321    35367.575    21076.204    -33323.08    3870.8786    77.647004 
   67200    1619.8149   -107.61758    1.4656425   -106.15193   -9910.3383     4.278176     4.278176     4.278176   -9910.3383   -1067.6054    7755.9152   -36419.325   -4143.2903   -24303.347   -33891.271    78.302555 
   67300    1514.1007     -107.515    1.3699901   -106.14501    12271.549    4.2623146    4.2623146    4.2623146    12271.549    42727.926    -33639.87    27726.591    11454.045    15721.675    16164.241    77.434855 
   67400    1382.5526   -107.39429    1.2509627   -106.14333    5346.3595    4.2553428    4.2553428    4.2553428    5346.3595   -17644.812    30600.602    3083.2886    22058.498   -44505.988    16591.907    77.055503 
   67500    1711.2917    -107.6991    1.5484127   -106.15068   -5698.1353    4.2660385    4.2660385    4.2660385   -5698.1353    2273.8994    18942.828   -38311.134   -15085.771   -8997.7107   -31020.986    77.637996 
   67600    1585.4812   -107.58364    1.4345767   -106.14907   -12590.708    4.2755301    4.2755301    4.2755301   -12590.708   -12768.457   -15617.525    -9386.142    22991.721     21098.35    9511.8291    78.157364 
   67700    1690.0795   -107.67844    1.5292195   -106.14922   -12024.425    4.2660213    4.2660213    4.2660213   -12024.425   -14295.957    9725.7793   -31503.098     23304.78   -40880.698    9375.9489    77.637054 
   67800    1752.6736   -107.73237    1.5858559   -106.14651     16068.14    4.2547427    4.2547427    4.2547427     16068.14    20945.625    50998.636   -23739.841    -10461.63    3688.3761   -16004.829    77.022908 
   67900     1162.408   -107.21678    1.0517712     -106.165    3033.8771    4.2702227    4.2702227    4.2702227    3033.8771   -27057.595    15174.391    20984.835    35533.039    20210.885   -19375.883    77.866663 
   68000    1958.5137   -107.90743    1.7721044   -106.13533   -18542.132     4.291734     4.291734     4.291734   -18542.132   -10549.257   -25787.648    -19289.49   -15372.306    -29641.48    13371.183    79.049364 
   68100    1374.6104   -107.38203    1.2437764   -106.13825   -22908.683    4.2715419    4.2715419    4.2715419   -22908.683    7037.2225   -46491.511   -29271.761    25321.031    15330.941    8473.1542    77.938851 
   68200    1113.2416   -107.14175    1.0072844   -106.13447    24086.843    4.2446686    4.2446686    4.2446686    24086.843   -1766.9227    4936.9383    69090.514    29402.136    18747.831   -27418.346    76.477093 
   68300    2445.4729   -108.35258    2.2127153   -106.13987    7556.9216    4.2624717    4.2624717    4.2624717    7556.9216    25543.712   -3009.5091    136.56202   -13235.607   -18071.433    13485.142    77.443421 
   68400       1288.8   -107.32511    1.1661333   -106.15897   -9151.5749    4.2714317    4.2714317    4.2714317   -9151.5749   -24473.182   -10171.931    7190.3878    30941.313    21956.243    8993.0301    77.932823 
   68500    1157.2928   -107.20068    1.0471428   -106.15354    13771.786    4.2780248    4.2780248    4.2780248    13771.786   -29933.006    23379.378    47868.986    24940.124    13703.756   -21684.743    78.294256 
   68600    2182.6224   -108.09599    1.9748826   -106.12111   -24996.554    4.2829124    4.2829124    4.2829124   -24996.554   -6262.8632   -14868.069   -53858.728   -7076.8853   -27190.858    12364.013    78.562911 
   68700    878.08797   -106.94023   0.79451244   -106.14571    14908.547      4.24656      4.24656      4.24656    14908.547    37727.632    1317.7458    5680.2621    53535.058    23822.345    4372.5405    76.579373 
   68800    1535.0632   -107.54094    1.3889574   -106.15199    36695.868    4.2479877    4.2479877    4.2479877    36695.868    52507.917    25224.032    32355.654    21299.536    15561.327   -9881.5759    76.656633 
   68900    1980.4143   -107.93914    1.7919205   -106.14722   -7065.3359      4.27284      4.27284      4.27284   -7065.3359   -2694.5165   -3268.1177   -15233.373   -8619.2247   -27886.252    8461.0262    78.009928 
   69000    1043.9375   -107.10011   0.94457657   -106.15554    8588.1822    4.2660513    4.2660513    4.2660513    8588.1822   -30538.735    17221.807    39081.474    66881.037    23414.072   -869.87935    77.638694 
   69100    1681.7536   -107.66323     1.521686   -106.14154   -1318.3391    4.2790041    4.2790041    4.2790041   -1318.3391   -9772.5901    25947.328   -20129.755   -22887.157    11710.438   -4851.5604    78.348036 
   69200    1359.1669   -107.37417    1.2298028   -106.14436   -30595.696    4.2661165    4.2661165    4.2661165   -30595.696   -48711.624   -36831.119   -6244.3434    41125.372   -19843.813     2824.696    77.642254 
   69300    1197.0171    -107.2235    1.0830862   -106.14041    39888.873    4.2371406    4.2371406    4.2371406    39888.873    78758.258    8411.3452    32497.015    67438.822   -1028.3483    7370.5551    76.070913 
   69400    2429.6684   -108.34404     2.198415   -106.14562     23916.13    4.2554749    4.2554749    4.2554749     23916.13    63827.403    21631.154   -13710.165    -26628.41    4915.4187   -1964.2382    77.062676 
   69500    601.50439   -106.71962   0.54425382   -106.17537   -17412.328    4.2792585    4.2792585    4.2792585   -17412.328   -16.604116   -76205.735    23985.355    80901.497   -15358.236    5148.9539    78.362012 
   69600    1714.2173   -107.70033    1.5510599   -106.14927   -19416.078     4.283785     4.283785     4.283785   -19416.078   -8955.6475   -23907.927   -25384.658   -1652.1357    3504.4136    12414.358    78.610943 
   69700    1705.6271    -107.6781    1.5432872   -106.13481    14382.254    4.2557039    4.2557039    4.2557039    14382.254    43314.723   -19287.648    19119.686    34840.363    13018.829    496.42015    77.075119 
   69800    1207.6722   -107.22824    1.0927272   -106.13552    13937.691    4.2409416    4.2409416    4.2409416    13937.691    11606.187    -21435.08    51641.964    70091.781   -15915.647    -6882.266    76.275821 
   69900    1792.3016   -107.76528    1.6217122   -106.14357   -11202.014    4.2652118    4.2652118    4.2652118   -11202.014   -11643.535   -5305.5726   -16656.935   -50342.189    3419.5897    5010.2274    77.592867 
   70000    1236.4001   -107.26408    1.1187208   -106.14536    -12093.17    4.2760868    4.2760868    4.2760868    -12093.17   -201.68747   -49304.272    13226.448    49311.034    33546.664    2927.2335    78.187899 
   70100    1707.1925   -107.67248    1.5447036   -106.12778    -2430.426    4.2635542    4.2635542    4.2635542    -2430.426   -25970.078   -17839.254    36518.053     21299.13   -20731.432   -5710.0981    77.502436 
   70200    1125.6143   -107.15409    1.0184795   -106.13561   -4685.1726    4.2559734    4.2559734    4.2559734   -4685.1726   -9249.7146   -4935.5715    129.76818   -28158.769     406.1482    1390.5925    77.089763 
   70300    1720.3189   -107.69268    1.5565807    -106.1361    15323.254    4.2584934    4.2584934    4.2584934    15323.254     30893.66   -5452.8246    20528.926    26763.963    35904.502     1596.121    77.226784 
   70400    1492.3914   -107.49594    1.3503471    -106.1456    17384.468    4.2636807    4.2636807    4.2636807    17384.468   -3334.3149    32281.836    23205.882   -7900.4015   -45777.094   -5502.8088    77.509334 
   70500     959.9983   -107.02515   0.86862663   -106.15653   -19172.378    4.2723718    4.2723718    4.2723718   -19172.378   -3727.4509   -8605.8017    -45183.88   -15629.891    19539.307    5201.3363    77.984289 
   70600    2411.9559   -108.30443    2.1823883   -106.12204    9414.0605    4.2696327    4.2696327    4.2696327    9414.0605    15234.877   -7196.7017    20204.006    8699.2529    5645.5656   -8916.2368    77.834396 
   70700    1115.3573   -107.14878    1.0091988   -106.13958    9089.0575    4.2579478    4.2579478    4.2579478    9089.0575    9064.5799    27923.978   -9721.3856   -6547.5729   -36018.227    3683.9314    77.197103 
   70800    1572.0419   -107.55679    1.4224166   -106.13438    8599.8594    4.2655276    4.2655276    4.2655276    8599.8594    31086.394    12086.118   -17372.933   -21128.224    9815.9267     -9078.47    77.610104 
   70900    1666.0718   -107.63236    1.5074967   -106.12486    -16687.64    4.2746686    4.2746686    4.2746686    -16687.64   -32235.719    -47167.24    29340.039    48524.195   -8337.9834    4882.5384    78.110127 
   71000     1211.324    -107.2244    1.0960315   -106.12837    9859.7129    4.2655158    4.2655158    4.2655158    9859.7129    33808.605    13547.611   -17777.077   -9167.7975   -16177.676   -3031.8671    77.609462 
   71100    2063.4368   -107.98207     1.867041   -106.11503    10204.019    4.2611612    4.2611612    4.2611612    10204.019    14641.726   -4933.2564    20903.587    12904.793   -3157.7191   -10955.796    77.372013 
   71200    1086.4437    -107.1167   0.98303705   -106.13367   -9435.2691    4.2636667    4.2636667    4.2636667   -9435.2691   -35953.202   -26759.391    34406.786    54869.086   -13421.088    7995.0324    77.508576 
   71300    1723.6815   -107.68646    1.5596232   -106.12684    4610.4402    4.2655337    4.2655337    4.2655337    4610.4402    27948.787    11686.264    -25803.73   -13454.344   -20277.819   -6260.0217    77.610438 
   71400    1342.3107   -107.34427    1.2145509   -106.12972   -972.83985    4.2759086    4.2759086    4.2759086   -972.83985    8795.7576     -35744.5    24030.223     51955.31    8653.5319   -15381.005    78.178121 
   71500     1256.432   -107.25234     1.136846   -106.11549   -2484.3803    4.2732234    4.2732234    4.2732234   -2484.3803   -29293.696    35768.489   -13927.934    18341.557   -19831.752    11791.679    78.030934 
   71600    1591.9602   -107.54267     1.440439   -106.10223     18153.93    4.2678588    4.2678588    4.2678588     18153.93    24925.154    24865.764    4670.8736    9942.2632    -3372.345   -5988.6289    77.737422 
   71700    1401.6081    -107.3806    1.2682045   -106.11239    -14565.68    4.2691979    4.2691979    4.2691979    -14565.68   -47141.013   -814.74257    4258.7151    70424.731    624.94428    -1106.857    77.810615 
   71800    1375.4445   -107.36609    1.2445311   -106.12156    11848.477     4.253783     4.253783     4.253783    11848.477    11779.328    65183.701   -41417.598   -8436.2375   -38912.514    24160.322    76.970798 
   71900    1716.5886   -107.68425    1.5532055   -106.13104    5884.7401    4.2648474    4.2648474    4.2648474    5884.7401   -2691.1706   -16283.558    36628.949     30675.11    14567.543   -710.91052     77.57298 
   72000    1122.7223   -107.13874    1.0158627   -106.12288   -26971.059    4.2870408    4.2870408    4.2870408   -26971.059    -37229.91   -16729.708   -26953.559     35044.95   -32369.109   -3513.5854    78.790316 
   72100    1569.6397   -107.51795     1.420243    -106.0977   -632.85615    4.2727624    4.2727624    4.2727624   -632.85615    10075.643    26692.148   -38666.359   -12243.896   -31269.373     11788.73    78.005681 
   72200    1560.2044   -107.51044    1.4117057   -106.09873   -8829.0788    4.2592865    4.2592865    4.2592865   -8829.0788   -4758.0056   -48124.895    26395.665      69385.7    9039.6872    5882.5021    77.269936 
   72300    1176.8848   -107.18804    1.0648701   -106.12317   -9925.5085    4.2582446    4.2582446    4.2582446   -9925.5085   -29985.407    36341.123   -36132.242   -4766.1085   -64470.912   -1148.8127    77.213248 
   72400    1866.9112   -107.81808    1.6892204   -106.12886   -2417.3445    4.2620572    4.2620572    4.2620572   -2417.3445   -4501.2867   -275.79313   -2474.9536    25896.868   -13032.558    11583.589    77.420827 
   72500    1377.7324   -107.38797    1.2466012   -106.14137   -15964.576    4.2718377    4.2718377    4.2718377   -15964.576   -63975.992   -10717.774    26800.037    36415.937    -6168.308   -3115.4901    77.955046 
   72600    1604.7952   -107.58454    1.4520524   -106.13249   -12709.046    4.2633165    4.2633165    4.2633165   -12709.046   -29666.332    26908.078   -35368.886   -18357.356   -60948.021     7743.752    77.489475 
   72700    1425.6971   -107.42124    1.2900007   -106.13124    8760.0201    4.2553292    4.2553292    4.2553292    8760.0201   -16208.891    1364.5944    41124.357    46481.075    19936.631   -595.33453    77.054763 
   72800    1195.8685    -107.2261     1.082047   -106.14406   -22248.464    4.2662915    4.2662915    4.2662915   -22248.464   -47303.225   -12583.079   -6859.0882    15532.717    2486.9464    1090.2141    77.651809 
   72900     1882.579   -107.83118    1.7033971   -106.12779    2735.7327    4.2621311    4.2621311    4.2621311    2735.7327   -14341.443    41769.215   -19220.574   -6672.6704   -22941.776   -4240.6539    77.424855 
   73000    778.92352   -106.85361   0.70478637   -106.14882    2401.5891     4.263184     4.263184     4.263184    2401.5891   -2593.1497    -24239.34    34037.257    56136.693    24582.706   -3398.3468    77.482251 
   73100    2012.6166   -107.95099    1.8210578   -106.12993   -21654.626    4.2724589    4.2724589    4.2724589   -21654.626   -40994.879    4948.2215    -28917.22   -11766.972    28703.534    699.45141    77.989057 
   73200    1505.4986   -107.49013    1.3622068   -106.12793     6768.655    4.2670071    4.2670071    4.2670071     6768.655     19233.94   -3560.2986    4632.3235     41786.62   -15987.558    1445.2453    77.690892 
   73300    1305.1349   -107.31838    1.1809135   -106.13747   -22855.376    4.2638107    4.2638107    4.2638107   -22855.376   -39018.229   -32501.418    2953.5176    52964.586     30742.66   -2581.6441    77.516426 
   73400    2009.2817    -107.9418    1.8180403   -106.12376    22695.737    4.2554877    4.2554877    4.2554877    22695.737    39280.555    32346.611   -3539.9547   -20218.159    25002.309    5783.7565    77.063374 
   73500    1230.3687   -107.25459    1.1132635   -106.14132    -3923.717    4.2613157    4.2613157    4.2613157    -3923.717   -6792.0327   -47723.769    42744.651    86729.512   -11160.074   -1315.9458    77.380431 
   73600    1818.9549   -107.76308    1.6458286   -106.11725    12877.103    4.2769202    4.2769202    4.2769202    12877.103    29519.385    25931.697   -16819.774   -8487.4309    10553.006    5894.1109    78.233623 
   73700    906.88252   -106.92935   0.82056636   -106.10879    6543.2822    4.2830702    4.2830702    4.2830702    6543.2822   -25789.134    2399.3415    43019.639    73730.245    17740.297   -5180.1283    78.571599 
   73800    1613.1436    -107.5433    1.4596062    -106.0837     7286.431    4.2812288    4.2812288    4.2812288     7286.431   -8342.1602    2963.3119    27238.141    33434.191    1549.8177   -4830.9517      78.4703 
   73900    1251.1643   -107.22318    1.1320798    -106.0911    12549.188    4.2682035    4.2682035    4.2682035    12549.188   -23562.487    66937.771    -5727.719    15379.878    45826.347   -4186.0703     77.75626 
   74000    1238.1431   -107.22423    1.1202979   -106.10394    8167.5466    4.2675816    4.2675816    4.2675816    8167.5466   -19585.451   -10014.572    54102.663    84490.081   -9813.8509   -2594.3984    77.722276 
   74100    2150.3144   -108.03165    1.9456496     -106.086   -16671.994    4.2828031    4.2828031    4.2828031   -16671.994   -33206.852    6337.0516   -23146.182   -22606.675    20886.954   -10383.068    78.556897 
   74200    519.73972   -106.59368   0.47027142   -106.12341   -16191.834    4.2695823    4.2695823    4.2695823   -16191.834   -84718.239    15727.221    20415.517    70074.202    37707.133   -7870.0453    77.831635 
   74300    2034.1237   -107.95547    1.8405178   -106.11495    11612.119    4.2518597    4.2518597    4.2518597    11612.119    21828.597   -9960.5803     22968.34    14924.427   -7497.9933    9143.2779    76.866441 
   74400    1668.1954   -107.63904    1.5094183   -106.12962    3269.0399    4.2553683    4.2553683    4.2553683    3269.0399   -17421.854    889.90195    26339.072    7725.0454    11698.653    286.00003    77.056889 
   74500    1035.2865   -107.08755   0.93674899    -106.1508     14469.18    4.2703108    4.2703108    4.2703108     14469.18    -15339.57    1349.8437    57397.265    52235.501    29187.091   -5854.1295    77.871487 
   74600     2095.031   -108.00307    1.8956281   -106.10745   -40715.328    4.3001388    4.3001388    4.3001388   -40715.328   -11993.619   -52519.294   -57633.072   -19917.127   -573.14437    28469.247    79.514699 
   74700    1067.5291   -107.07914   0.96592275   -106.11322   -32218.331    4.2789637    4.2789637    4.2789637   -32218.331   -42549.182   -59207.127    5101.3147    58734.491    8405.8376   -11596.355    78.345818 
   74800    1921.0904    -107.8134     1.738243   -106.07516    48863.018    4.2260276    4.2260276    4.2260276    48863.018    33491.171    80370.313     32727.57    10925.756    14199.594    14960.892    75.473931 
   74900    1274.3838   -107.27731    1.1530893   -106.12422    10933.587    4.2369956    4.2369956    4.2369956    10933.587    56804.696   -23719.073   -284.86243    9092.7418   -7781.2436    39898.855    76.063105 
   75000     1540.829   -107.52789    1.3941745   -106.13371   -10118.612    4.2747999    4.2747999    4.2747999   -10118.612   -34190.671    -15498.79    19333.625    53337.953    1199.0886   -19957.954    78.117325 
   75100    1801.4384   -107.74173    1.6299793   -106.11175   -6192.4551    4.2922399    4.2922399    4.2922399   -6192.4551    2548.6548   -7436.5082   -13689.512   -23139.501    3652.2316    39513.962    79.077321 
   75200    982.04078   -107.00535   0.88857114   -106.11678   -26671.035    4.2823303    4.2823303    4.2823303   -26671.035   -34115.676   -55978.331    10080.903    44397.545   -6187.2113    16795.759    78.530886 
   75300    2208.3762   -108.09299    1.9981852    -106.0948    42976.233    4.2387113    4.2387113    4.2387113    42976.233    13274.517    64538.993    51115.189    9855.5948   -10537.972   -3541.4367    76.155541 
   75400    1228.0621   -107.23815    1.1111764   -106.12698    9392.2302    4.2357486    4.2357486    4.2357486    9392.2302    49690.353   -17581.271   -3932.3916   -12351.501   -1025.4503    61827.114    75.995966 
   75500    1529.7782   -107.52414    1.3841754   -106.13997   -17830.974    4.2730146    4.2730146    4.2730146   -17830.974   -46645.552   -18003.057    11155.687     41956.33    3467.0506   -2429.7322    78.019495 
   75600     1770.384   -107.72285    1.6018807   -106.12097    3445.1669    4.2768544    4.2768544    4.2768544    3445.1669    9597.1412    16435.772   -15697.412   -13439.683   -7197.8217    12054.957     78.23001 
   75700    955.73398    -106.9916   0.86476819   -106.12683   -15767.853    4.2630964    4.2630964    4.2630964   -15767.853     33769.47   -53973.231   -27099.797    6671.4923    -6639.728    37418.852    77.477475 
   75800    2447.7378   -108.31932    2.2147646   -106.10456    23619.951    4.2561105    4.2561105    4.2561105    23619.951     1062.129    55625.868    14171.857    9793.0233    6413.6908   -21949.543    77.097214 
   75900    917.91462   -106.96944   0.83054843   -106.13889    -7173.588    4.2658693    4.2658693    4.2658693    -7173.588     69532.14    -58388.98   -32663.925   -16147.235    1095.2931     57975.64    77.628759 
   76000     1718.832   -107.67941    1.5552353   -106.12417   -18296.003    4.2791775    4.2791775    4.2791775   -18296.003    6372.6033   -14172.683   -47087.929   -3510.8639    786.80481   -3622.0062    78.357562 
   76100    1966.1496    -107.8927    1.7790134   -106.11369   -19862.504    4.2722375    4.2722375    4.2722375   -19862.504   -19449.162   -5028.2222   -35110.127   -6281.6723    24556.821    16893.402    77.976933 
   76200    849.20181   -106.90408   0.76837564    -106.1357   -10585.016    4.2559223    4.2559223    4.2559223   -10585.016    61748.407   -68157.709   -25345.745    -13459.95   -2770.6315    71018.244    77.086986 
   76300    2541.9472   -108.41972    2.3000073   -106.11972    23200.211    4.2463053    4.2463053    4.2463053    23200.211    9812.1163    15546.831    44241.687   -12951.763    1565.0282   -24761.507    76.565594 
   76400    694.06778   -106.78804   0.62800711   -106.16003    7749.0643    4.2617815    4.2617815    4.2617815    7749.0643    40655.184   -37979.615    20571.624    10865.313    14235.371    61115.034    77.405807 
   76500    1422.8385   -107.42742    1.2874142      -106.14   -17210.639    4.2794372    4.2794372    4.2794372   -17210.639    6793.4169   -60189.103    1763.7701   -19796.783    1233.3432    27764.418    78.371827 
   76600    1794.7244   -107.73244    1.6239043   -106.10854    10382.727      4.27277      4.27277      4.27277    10382.727    19376.547   -3523.9931    15295.627    4120.3376   -5846.8188    584.96255    78.006097 
   76700    781.45196   -106.82317   0.70707416    -106.1161   -26276.611     4.266968     4.266968     4.266968   -26276.611    24483.231   -46997.611   -56315.453   -11458.804    22021.513    73959.429    77.688753 
   76800    2423.6544   -108.29294    2.1929734   -106.09997    17880.178    4.2494288    4.2494288    4.2494288    17880.178    13254.136    18534.531    21851.869   -17357.295    860.31752   -35208.803    76.734676 
   76900    815.02045   -106.87412   0.73744763   -106.13667    1893.2868    4.2475176    4.2475176    4.2475176    1893.2868    52378.902   -6895.8244   -39803.218    11253.471   -10477.388    60973.074    76.631187 
   77000    1827.8352   -107.78873    1.6538637   -106.13486   -26590.367    4.2705317    4.2705317    4.2705317   -26590.367   -18480.585   -15057.517   -46232.999   -11404.057    17701.246    21994.887    77.883571 
   77100    1563.3751   -107.54811    1.4145747   -106.13353    15150.987    4.2604263    4.2604263    4.2604263    15150.987    36272.825    26427.082   -17246.945    5287.5819   -13169.255   -4244.4711    77.331986 
   77200     772.6956   -106.84866   0.69915122   -106.14951   -6217.9272    4.2524567    4.2524567    4.2524567   -6217.9272    52831.586    6257.6331   -77743.001   -4977.8374   -12137.808    53448.721    76.898823 
   77300    2457.9265   -108.34425    2.2239836   -106.12027    9178.1807    4.2636072    4.2636072    4.2636072    9178.1807   -7210.8633    27392.688    7352.7174    8535.0424    10462.517   -15047.796    77.505328 
   77400    1040.2694   -107.08073   0.94125763   -106.13947    4405.2397     4.258476     4.258476     4.258476    4405.2397    22793.203    39037.279   -48614.764    12841.444    9411.0853    42624.422    77.225834 
   77500    1504.7987   -107.49848    1.3615735   -106.13691    14156.763    4.2567374    4.2567374    4.2567374    14156.763    55668.632    10899.036   -24097.379   -11709.628   -12006.747    18906.378    77.131289 
   77600    1919.4352   -107.86751    1.7367453   -106.13077    19445.896     4.255715     4.255715     4.255715    19445.896   -2895.3835    58951.031    2282.0412    9766.1391    21465.019   -580.24039    77.075722 
   77700    869.46317   -106.93166   0.78670855   -106.14495   -1084.1429    4.2595465    4.2595465    4.2595465   -1084.1429    28161.729     30837.92   -62252.078   -5957.1917    20921.243    67385.462    77.284089 
   77800    2316.2169   -108.21333    2.0957617   -106.11757    14213.165    4.2674287    4.2674287    4.2674287    14213.165    11013.614    19170.322     12455.56     3645.276    -9672.795   -21603.896    77.713922 
   77900    910.38492   -106.96051    0.8237354   -106.13677   -13648.827    4.2671463    4.2671463    4.2671463   -13648.827    5986.6849    -12770.52   -34162.646   -3094.4778    44668.104    62045.159    77.698495 
   78000    1516.9814   -107.50869    1.3725967   -106.13609   -6255.8745    4.2583922    4.2583922    4.2583922   -6255.8745    11237.892   -11125.139   -18880.376   -1059.4759   -5196.5508    54593.989    77.221274 
   78100    2249.1764   -108.15492    2.0351021   -106.11982    26377.486    4.2543051    4.2543051    4.2543051    26377.486    6878.5318    4893.2095    67360.716   -221.23385    10394.188   -22494.367    76.999143 
   78200    539.83232   -106.64297   0.48845163   -106.15452   -32385.108    4.2690767    4.2690767    4.2690767   -32385.108    47195.959   -46364.448   -97986.835   -6774.9284    41111.395    82886.661    77.803989 
   78300    2323.2735    -108.2211    2.1021467   -106.11895   -6124.0133    4.2725711    4.2725711    4.2725711   -6124.0133   -9405.4047      4809.82   -13776.455   -7983.2184   -5106.6518   -19546.976    77.995206 
   78400    1376.6072   -107.38332    1.2455831   -106.13774   -21339.132    4.2573187    4.2573187    4.2573187   -21339.132    11349.011   -12978.992   -62387.413   -5516.5452    10997.815    54151.697    77.162891 
   78500    920.66528    -106.9803   0.83303729   -106.14726    1827.4191    4.2434724    4.2434724    4.2434724    1827.4191    50529.562    12503.245   -57550.549   -4469.7348    41375.257    48646.499    76.412451 
   78600    2316.8104   -108.22294    2.0962987   -106.12664    26349.647    4.2587539    4.2587539    4.2587539    26349.647    33289.665    40438.557    5320.7199    3038.6113   -11867.541   -18167.907    77.240956 
   78700    905.47984    -106.9568   0.81929719    -106.1375    -34489.21    4.2789288    4.2789288    4.2789288    -34489.21    20420.455    -50164.09   -73723.996   -7835.1692    22204.036    78684.301    78.343899 
   78800    1766.9648   -107.71005    1.5987869   -106.11126    733.17377    4.2669683    4.2669683    4.2669683    733.17377   -17318.784    35941.096    -16422.79   -3656.1705    45329.166   -22776.207    77.688772 
   78900    1444.5327   -107.41437    1.3070435   -106.10733    15664.658    4.2574078    4.2574078    4.2574078    15664.658    62719.324   -651.03304   -15074.316    2070.0961   -23701.314    57780.312    77.167737 
   79000    956.21911   -106.99913   0.86520715   -106.13392   -20377.072    4.2545923    4.2545923    4.2545923   -20377.072   -26434.093     4661.854   -39358.977   -12820.689    54058.754    44797.666    77.014741 
   79100    2001.9872   -107.93574    1.8114401    -106.1243    29764.986    4.2513818    4.2513818    4.2513818    29764.986    11104.293    73589.771    4600.8945    6498.1527    23982.573   -5322.3491    76.840527 
   79200    1322.9251   -107.33837    1.1970105   -106.14136    4061.5946    4.2643399    4.2643399    4.2643399    4061.5946    42843.998    9046.4448   -39705.659    6987.3357   -12598.002    61267.751    77.545294 
   79300    1281.1871   -107.29202     1.159245   -106.13278    -19025.18    4.2702177    4.2702177    4.2702177    -19025.18   -48502.502    38102.222   -46675.259   -10481.582    71003.808    429.64943     77.86639 
   79400    1984.0814   -107.90909    1.7952385   -106.11385    22484.871    4.2498872    4.2498872    4.2498872    22484.871    23978.477    55190.763   -11714.628    3159.9689   -10336.777    10447.744    76.759511 
   79500    673.88266   -106.75272   0.60974319   -106.14297    6262.5799    4.2517109    4.2517109    4.2517109    6262.5799    44988.339    18235.581   -44436.181   -281.39591     17190.96    41759.775    76.858373 
   79600    2024.4245   -107.95778    1.8317418   -106.12604    -8108.637    4.2638285    4.2638285    4.2638285    -8108.637   -49139.846     46794.49   -21980.555    10985.604    40548.187   -11062.908    77.517397 
   79700    1369.4281   -107.37858    1.2390873   -106.13949   -8824.1279    4.2561011    4.2561011    4.2561011   -8824.1279    32934.009   -20644.229   -38762.163   -3659.4782   -22165.279    29932.739    77.096704 
   79800    1200.3861   -107.23942    1.0861345   -106.15328   -16009.108    4.2580996    4.2580996    4.2580996   -16009.108    26387.514   -7188.4744   -67226.362    6789.0069    11880.747    18068.728    77.205358 
   79900    2487.6411   -108.37934      2.25087   -106.12847    27302.429    4.2524129    4.2524129    4.2524129    27302.429    10656.137    61357.087    9894.0639    11396.644     1232.266   -9369.0597    76.896447 
   80000    452.21982   -106.57306     0.409178   -106.16388   -15244.112    4.2556987    4.2556987    4.2556987   -15244.112    51767.263   -13603.095   -83896.503   -9829.5358    -26435.66    36229.428     77.07484 
   80100    2011.9251   -107.95586    1.8204321   -106.13543   -471.21006    4.2680041    4.2680041    4.2680041   -471.21006    32450.023    6617.7732   -40481.426    9098.4939   -2961.8374   -13171.441    77.745359 
   80200    1454.7691   -107.45283    1.3163057   -106.13652    11651.358    4.2576018    4.2576018    4.2576018    11651.358    -3004.611    40521.949   -2563.2654   -5207.4081    1561.2218    22610.769    77.178286 
   80300      1087.74   -107.12567   0.98421001   -106.14146    4339.0099     4.251659     4.251659     4.251659    4339.0099    60393.043    4613.9545   -51989.968    5399.1546   -29933.326    23570.294    76.855559 
   80400    2401.5671   -108.29196    2.1729884   -106.11897    18470.375    4.2585814    4.2585814    4.2585814    18470.375    11163.435     23550.53    20697.161    -6608.495    23809.212   -20369.179    77.231568 
   80500     729.0775   -106.80995   0.65968465   -106.15027    11614.356    4.2608681    4.2608681    4.2608681    11614.356    36391.297    32619.254   -34167.482    9204.5142    16364.851    46282.293    77.356049 
   80600    2109.9399   -108.03603    1.9091179   -106.12691    9634.0629    4.2711723    4.2711723    4.2711723    9634.0629    23843.598    27463.422   -22404.831   -10386.339   -9577.0171    6085.6865    77.918622 
   80700    1306.3122   -107.31418    1.1819787    -106.1322   -4087.6575    4.2647122    4.2647122    4.2647122   -4087.6575   -4647.4719   -20351.691    12736.191    198.51007    37054.531   -201.64508    77.565604 
   80800    1291.7404   -107.29691    1.1687939   -106.12812    -4586.955    4.2523458    4.2523458    4.2523458    -4586.955    16921.239   -12564.612   -18117.492    9183.7653    16453.576    52085.946    76.892809 
   80900    2169.8689   -108.07843     1.963343   -106.11509    11218.532     4.264815     4.264815     4.264815    11218.532    17915.837   -2411.1971    18150.957   -14865.762   -672.65339   -27333.787    77.571215 
   81000    737.47454   -106.80021   0.66728246   -106.13293   -20185.905    4.2755253    4.2755253    4.2755253   -20185.905    7101.7996   -45534.553   -22124.963   -7341.2992    34846.157    17263.688    78.157102 
   81100    1949.6618     -107.874     1.764095    -106.1099    5776.0961    4.2687894    4.2687894    4.2687894    5776.0961    43064.827   -18773.389   -6963.1502   -3640.2142   -1708.5221    32688.285    77.788286 
   81200    1428.6591    -107.4136    1.2926808   -106.12092   -2305.0833     4.256451     4.256451     4.256451   -2305.0833   -11546.892   -7245.0863    11876.728   -6274.6897   -2463.9797   -33343.154     77.11572 
   81300    1204.4865   -107.22122    1.0898447   -106.13137    15627.153    4.2535897    4.2535897    4.2535897    15627.153    27874.189   -13607.846    32615.115   -6990.2253    41752.157    22416.394    76.960306 
   81400     2056.246   -107.99304    1.8605346   -106.13251    14451.785    4.2646223    4.2646223    4.2646223    14451.785    28090.322    4230.6755    11034.358    12219.506   -35439.811    3023.2222    77.560701 
   81500    1060.1821   -107.10487   0.95927508   -106.14559   -13550.541    4.2710768    4.2710768    4.2710768   -13550.541   -34408.905   -881.36734   -5361.3506   -23685.024    4297.5635   -8970.3958    77.913396 
   81600    2104.5747   -108.02743    1.9042634   -106.12316    11749.759    4.2626249    4.2626249    4.2626249    11749.759    29547.877   -3727.8508    9429.2498   -6192.8272    24327.284   -2217.3421    77.451768 
   81700    1039.2408   -107.07763   0.94032689    -106.1373    10345.773    4.2582828    4.2582828    4.2582828    10345.773    7636.5403    14452.674    8948.1033    17635.672   -36705.351    2365.8316    77.215327 
   81800    1480.7234   -107.46623    1.3397896   -106.12644   -3457.1089    4.2655741    4.2655741    4.2655741   -3457.1089      121.224   -17233.589    6741.0384   -39708.821    4441.3766   -16660.854     77.61264 
   81900    2141.6033   -108.04849    1.9377677   -106.11073   -3131.3644    4.2721536    4.2721536    4.2721536   -3131.3644    13444.588   -20659.442   -2179.2395    17560.244   -7698.4915    5344.1553     77.97234 
   82000    684.94645   -106.75916   0.61975394   -106.13941   -15096.634    4.2630878    4.2630878    4.2630878   -15096.634    -21802.17   -35483.557    11995.824    904.65152   -26360.086     5641.207    77.477009 
   82100    2118.2135   -108.04316     1.916604   -106.12656    13113.164    4.2481451    4.2481451    4.2481451    13113.164    2245.5249   -31101.451     68195.42   -34352.216   -1727.3447   -17946.966    76.665154 
   82200    1380.2464   -107.39454    1.2488759   -106.14566    1151.7746      4.25296      4.25296      4.25296    1151.7746    1789.3853    11280.315   -9614.3762    19203.525   -1438.8965    18091.714    76.926133 
   82300    1063.5657   -107.11898   0.96233664   -106.15664    -30185.73    4.2663155    4.2663155    4.2663155    -30185.73   -66590.005   -45388.671    21421.485    308.14747   -38755.771    4678.2195    77.653118 
   82400    2167.5541   -108.09116    1.9612485   -106.12992   -1449.7307     4.271221     4.271221     4.271221   -1449.7307   -9455.4923   -22195.574    27301.874   -20837.328    25431.724    -16277.34    77.921289 
   82500    763.25863   -106.83532   0.69061245    -106.1447     -20144.9    4.2640786    4.2640786    4.2640786     -20144.9   -70673.306    17525.833   -7287.2277    23471.786   -11976.771    22026.105    77.531042 
   82600    1783.2282   -107.73881    1.6135023   -106.12531    5738.4875     4.256158     4.256158     4.256158    5738.4875   -32794.686   -13979.718    63989.867    17675.519   -24569.837   -16533.496    77.099794 
   82700    1547.7827   -107.53416    1.4004663   -106.13369    4012.6114    4.2564217    4.2564217    4.2564217    4012.6114    20837.571   -14933.094    6133.3574   -3518.3492    17072.102   -41217.167    77.114127 
   82800    1387.8354   -107.39472    1.2557426   -106.13898    4725.4363    4.2603938    4.2603938    4.2603938    4725.4363   -44690.015    15160.692    43705.632    17946.877    -6115.959    13687.796    77.330217 
   82900    1836.4231   -107.79264    1.6616342   -106.13101    459.40608    4.2690696    4.2690696    4.2690696    459.40608   -4669.3047   -32394.325    38441.848   -5282.0516   -12226.736   -25698.577    77.803603 
   83000    1063.1551   -107.10655   0.96196505   -106.14458    13765.321    4.2522768    4.2522768    4.2522768    13765.321    32656.663   -9943.5559    18582.856   -2977.4054     19015.62   -21805.392    76.889065 
   83100    1861.0787   -107.81548    1.6839431   -106.13153    35292.754    4.2517345    4.2517345    4.2517345    35292.754   -2224.1846    45384.638    62717.809    269.68778    13193.933    7739.0968    76.859654 
   83200    1472.5549   -107.47294    1.3323986   -106.14054   -30663.213     4.272844     4.272844     4.272844   -30663.213    10326.898   -66890.377   -35426.159   -3862.6206   -12047.557   -20131.003    78.010152 
   83300     1378.915   -107.38854    1.2476713   -106.14087    5821.4995    4.2552585    4.2552585    4.2552585    5821.4995    7190.8028    6598.4469    3675.2488   -8027.0574    33208.161   -6862.8336    77.050922 
   83400    1833.8905   -107.79089    1.6593426   -106.13154    23855.394    4.2611442    4.2611442    4.2611442    23855.394   -8811.6872    35605.245    44772.625   -1934.9705    21552.744   -1105.7098    77.371088 
   83500    1139.3548   -107.17243    1.0309122   -106.14152   -36041.598    4.2724816    4.2724816    4.2724816   -36041.598    14885.992   -84894.028   -38116.757    10462.258   -9934.2866   -20772.916      77.9903 
   83600    1642.1399   -107.62059    1.4858427   -106.13475    16799.517    4.2445525    4.2445525    4.2445525    16799.517   -799.42555    53163.216   -1965.2378   -6092.7799    40174.198    2739.0096    76.470816 
   83700    1597.7794   -107.58696    1.4457044   -106.14126    5692.5263    4.2555193    4.2555193    4.2555193    5692.5263    1135.2475    17116.253   -1173.9213    7164.7388    7503.8588   -2387.8715    77.065089 
   83800    1050.0128   -107.09922   0.95007361   -106.14915   -47854.434    4.2728245    4.2728245    4.2728245   -47854.434    5478.3496   -76601.423   -72440.229    11542.503   -15328.192   -12372.066     78.00908 
   83900    2224.3513   -108.13908    2.0126398   -106.12644    21237.173    4.2621944    4.2621944    4.2621944    21237.173    27306.322    42007.118   -5601.9199   -3734.0776    21311.394    16748.361    77.428309 
   84000    1096.9301    -107.1383   0.99252536   -106.14578   -28726.383    4.2717162    4.2717162    4.2717162   -28726.383   -2294.3004   -40639.566   -43245.283    7666.1713   -18657.251   -26522.077    77.948396 
   84100    1283.5046   -107.30767    1.1613419   -106.14633   -19678.212    4.2620007    4.2620007    4.2620007   -19678.212    14735.767   -34807.004   -38963.399    3670.4809   -21260.616   -17216.397    77.417749 
   84200      2220.99   -108.13692    2.0095985   -106.12733    18856.729    4.2500342    4.2500342    4.2500342    18856.729    22357.157    11665.899    22547.132   -759.31031    33956.451    13257.458    76.767479 
   84300    894.47609   -106.96699   0.80934076   -106.15765   -28809.532    4.2656818    4.2656818    4.2656818   -28809.532   -12480.138   -74105.191    156.73385    9072.6912   -12124.145   -28564.256     77.61852 
   84400     2107.264    -108.0473    1.9066967   -106.14061   -19612.462    4.2637098    4.2637098    4.2637098   -19612.462     19763.04   -38504.861   -40095.565   -3403.9555    10446.231   -29117.929    77.510924 
   84500    1415.3652   -107.42269    1.2806521   -106.14204    -11614.58    4.2607562    4.2607562    4.2607562    -11614.58   -15726.735   -24333.174    5216.1677    986.32943    29241.245    21771.345    77.349952 
   84600     1271.774   -107.29581    1.1507278   -106.14508   -32519.083    4.2666506    4.2666506    4.2666506   -32519.083   -22929.223   -76968.893    2340.8672     8339.612    3671.0496   -35237.302    77.671419 
   84700     2034.208   -107.97197    1.8405942   -106.13138    12109.147    4.2555776    4.2555776    4.2555776    12109.147    23048.994    5033.7097    8244.7381   -5437.3203   -6113.7999    6196.2907    77.068256 
   84800     801.9224    -106.8799   0.72559624   -106.15431    303.34301     4.254878     4.254878     4.254878    303.34301    1575.3117   -20452.195    19786.912    19724.354     21843.83    31719.969    77.030254 
   84900     1937.713   -107.89427    1.7532835   -106.14099    3139.6252    4.2773445    4.2773445    4.2773445    3139.6252   -11697.476   -30010.308    51126.659    8922.9725    1538.9942   -13463.289    78.256911 
   85000    1587.2697   -107.58024     1.436195   -106.14404    14473.754    4.2631245    4.2631245    4.2631245    14473.754    10397.549    37877.776   -4854.0638   -2040.5679   -26976.641    13770.665    77.479008 
   85100    1139.3033   -107.16955    1.0308656   -106.13869    38848.873    4.2508092    4.2508092    4.2508092    38848.873    31496.495    20567.314    64482.809    18970.762    13873.174     21123.54     76.80948 
   85200    1966.5259   -107.89428     1.779354   -106.11493   -16953.883    4.2719988    4.2719988    4.2719988   -16953.883    13964.803   -26555.937   -38270.515    11444.422   -25014.396   -31588.409    77.963864 
   85300     1004.604   -107.03563   0.90898678   -106.12664    13455.461    4.2586688    4.2586688    4.2586688    13455.461    20930.693    20821.475   -1385.7856     1254.244   -30134.789    8024.7859    77.236327 
   85400    1855.3478   -107.79499    1.6787577   -106.11624    10152.117    4.2647752    4.2647752    4.2647752    10152.117    17168.381   -1617.0781    14905.049    30008.405    15006.671    9688.3908    77.569044 
   85500    1146.8893   -107.17125    1.0377295   -106.13352   -38566.034      4.27177      4.27177      4.27177   -38566.034    10040.408   -46114.124   -79624.387    7318.5648   -29650.892   -67563.543    77.951339 
   85600    1661.5053   -107.63018    1.5033649   -106.12681      35622.1    4.2470552    4.2470552    4.2470552      35622.1    26581.933    74893.636    5390.7309    1487.5016   -29932.614    29181.728    76.606163 
   85700    1710.4866   -107.68552    1.5476842   -106.13783   -8141.2517    4.2600367    4.2600367    4.2600367   -8141.2517    30454.417   -37031.001   -17847.171    6576.4176    8906.8026   -48110.318    77.310772 
   85800    950.08432   -107.00402   0.85965626   -106.14436   -25937.774    4.2715896    4.2715896    4.2715896   -25937.774   -19935.457    21403.051   -79280.916    5228.3317   -28597.566   -47598.352    77.941466 
   85900    2154.7736    -108.0729    1.9496845   -106.12321    25015.516    4.2601016    4.2601016    4.2601016    25015.516    2076.7202    46186.879     26782.95    7342.7168   -16486.046    21693.718    77.314308 
   86000    1496.5898   -107.49506    1.3541459   -106.14091    -6281.198    4.2590815    4.2590815    4.2590815    -6281.198    22907.458   -40614.461   -1136.5912   -14995.183    9906.0641    -69194.91    77.258784 
   86100    1036.0766   -107.08821   0.93746391   -106.15074     1422.322     4.254353     4.254353     4.254353     1422.322   -28084.085    57544.414   -25193.364    3288.6913   -50346.707   -15721.274    77.001748 
   86200    2077.2335   -108.01255    1.8795246   -106.13302    3049.4025    4.2627479    4.2627479    4.2627479    3049.4025   -15140.563    3040.2627    21248.508   -1904.6959   -5518.3555     12784.22    77.458476 
   86300    800.05003   -106.86399   0.72390208   -106.14009    -12298.36    4.2816981    4.2816981    4.2816981    -12298.36   -12958.217    7110.1201   -31046.982   -12800.217   -12948.155   -44361.599    78.496106 
   86400    1869.1151   -107.80531    1.6912146   -106.11409    -11455.84    4.2738505    4.2738505    4.2738505    -11455.84   -47437.009    28977.732   -15908.242    4208.1179   -48501.765    3771.5443    78.065291 
   86500    1485.7407   -107.46459    1.3443294   -106.12026    15368.779    4.2482139    4.2482139    4.2482139    15368.779    27987.252    -2494.769    20613.855   -7521.7817    14157.323     1271.229    76.668884 
   86600    1265.9157   -107.28516    1.1454271   -106.13974   -12151.399    4.2478339    4.2478339    4.2478339   -12151.399    7005.3846   -10185.897   -33273.685   -22203.919    -27490.14   -36667.905    76.648309 
   86700    1837.1942   -107.80658    1.6623319   -106.14425   -10048.085    4.2673076    4.2673076    4.2673076   -10048.085   -33122.919    8906.5117   -5927.8474    25345.552   -37307.966     6347.606    77.707305 
   86800    1308.1175    -107.3261    1.1836122   -106.14249    -33199.52    4.2778783    4.2778783    4.2778783    -33199.52    3593.9198    -61395.72   -41796.761    1660.3899    18929.946   -4963.7274     78.28621 
   86900    1645.5938   -107.61541    1.4889678   -106.12644    10549.278    4.2619024    4.2619024    4.2619024    10549.278    27070.559    29950.616   -25373.342    -16290.64   -5142.8165   -16126.186    77.412392 
   87000    1652.2822   -107.62248    1.4950197   -106.12746    7228.3195    4.2467453    4.2467453    4.2467453    7228.3195   -12380.334    2073.7509    31991.541    57856.879   -13004.467    14147.781    76.589394 
   87100    1330.3223   -107.34737    1.2037035   -106.14367    2851.2556    4.2559336    4.2559336    4.2559336    2851.2556    39006.622    4741.9657   -35194.821   -13163.491    22926.218   -567.36913      77.0876 
   87200    1613.2751   -107.59339    1.4597252   -106.13366   -27040.918     4.274599     4.274599     4.274599   -27040.918   -29262.813   -19167.872   -32692.068    30420.342     13998.68   -2416.1338    78.106311 
   87300    1479.7482   -107.47079    1.3389072   -106.13188   -24883.608    4.2723565    4.2723565    4.2723565   -24883.608   -32499.239   -60196.362    18044.776    62814.207   -1675.3414    3906.5036    77.983452 
   87400    1741.5889   -107.69918    1.5758263   -106.12335    4469.0708     4.253794     4.253794     4.253794    4469.0708    24794.945    13497.924   -24885.656   -22895.091    15203.926    1163.7588    76.971394 
   87500    883.83759   -106.94285   0.79971482   -106.14313   -9345.7173    4.2445781    4.2445781    4.2445781   -9345.7173   -41035.649    3180.7742    9817.7233    84160.759    27423.647   -3989.0109    76.472199 
   87600    2304.6506   -108.23244    2.0852963   -106.14715    6575.3847    4.2581167    4.2581167    4.2581167    6575.3847   -9013.0704      17531.5    11207.725    17023.082   -121.62028   -2573.2464     77.20629 
   87700    1906.8954   -107.87557    1.7253991   -106.15017   -17939.811    4.2748321    4.2748321    4.2748321   -17939.811   -24466.237    -2970.755   -26382.441    11788.699    7775.5919   -494.59772    78.119094 
   87800    365.53601   -106.49765   0.33074467   -106.16691   -13127.308    4.2612766    4.2612766    4.2612766   -13127.308   -37425.948   -5740.8637    3784.8886    77017.428    30493.811    1256.1759    77.378298 
   87900     2143.711   -108.08195    1.9396748   -106.14228    10210.416    4.2456608    4.2456608    4.2456608    10210.416    44643.299    2746.5959   -16758.646   -28384.051    1416.9534    17809.725    76.530736 
   88000     1353.837   -107.38028    1.2249801    -106.1553    760.77541    4.2514775    4.2514775    4.2514775    760.77541   -5232.2396   -14403.281    21917.847    63648.725   -2629.7061    378.54924    76.845716 
   88100    1407.9003   -107.42236    1.2738977   -106.14846   -26528.356    4.2735574    4.2735574    4.2735574   -26528.356   -25987.835   -20608.932     -32988.3    28591.465    33322.274   -1483.9516    78.049229 
   88200     1475.647   -107.46623    1.3351964   -106.13103    -30638.96    4.2760652    4.2760652    4.2760652    -30638.96   -13638.806   -46672.562   -31605.514   -11913.695    -1464.939     30071.49    78.186712 
   88300    1229.0809   -107.24366    1.1120982   -106.13156   -12543.294    4.2464402    4.2464402    4.2464402   -12543.294    -49251.22   -38674.162    50295.498    80029.765   -7364.4373    4198.4671    76.572891 
   88400    2116.2535   -108.03294    1.9148306    -106.1181    20594.697    4.2399871    4.2399871    4.2399871    20594.697    65733.559    8460.8029   -12410.271   -16545.979    14804.625    2216.2344     76.22433 
   88500    900.17616   -106.96686   0.81449831   -106.15236   -28569.714    4.2672009    4.2672009    4.2672009   -28569.714    4868.1582   -75026.746   -15550.555    27797.614    1943.2389    19561.914    77.701475 
   88600    1614.0289    -107.5955    1.4604073   -106.13509   -5230.3906    4.2731194    4.2731194    4.2731194   -5230.3906    9594.7056   -16483.628   -8802.2491    39726.205   -17630.316   -2222.0282    78.025237 
   88700    1875.9237   -107.82636    1.6973752   -106.12898    15403.612    4.2575366    4.2575366    4.2575366    15403.612    101109.26   -13624.222   -41274.202   -18040.131    2927.2776   -4289.2258    77.174737 
   88800    1066.6784   -107.11072   0.96515306   -106.14556    -8488.631    4.2436966    4.2436966    4.2436966    -8488.631    26764.612   -50173.349   -2057.1561    60840.406    840.26623    2924.0225    76.424566 
   88900    2176.6336   -108.11187    1.9694638   -106.14241    31508.972    4.2438249    4.2438249    4.2438249    31508.972     34092.19    47533.447    12901.278    3474.3737   -8740.1743   -2041.0066    76.431498 
   89000    1053.5877    -107.1203    0.9533083   -106.16699   -17361.459    4.2701834    4.2701834    4.2701834   -17361.459    10912.083   -27481.609   -35514.851   -2698.2998   -1126.0999   -17343.403    77.864517 
   89100    1004.2438   -107.06246   0.90866092    -106.1538   -20676.697    4.2753003    4.2753003    4.2753003   -20676.697   -15333.797   -15594.142   -31102.153    45521.063     7670.442     12251.87    78.144764 
   89200    2138.8591   -108.05788    1.9352847    -106.1226   -6839.2353    4.2622386    4.2622386    4.2622386   -6839.2353   -6849.8365    3255.6652   -16923.534   -39791.416   -1300.4152   -12114.383    77.430717 
   89300    1138.6321   -107.17547    1.0302582   -106.14521   -14882.519    4.2459901    4.2459901    4.2459901   -14882.519    19921.316   -42764.799   -21804.075   -10388.533   -1239.4996    -3830.649    76.548544 
   89400    1795.1821   -107.76905    1.6243185   -106.14473     21528.51    4.2380065    4.2380065    4.2380065     21528.51    34112.635    28083.521    2389.3752    45035.617    8754.2412     11822.72     76.11756 
   89500     1476.911   -107.49125    1.3363401   -106.15491    -9751.827    4.2678348    4.2678348    4.2678348    -9751.827    1833.8364   -14160.087    -16929.23   -46024.311   -11491.583   -13606.577    77.736109 
   89600    1105.9752   -107.14342    1.0007096   -106.14271   -21936.163    4.2765019    4.2765019    4.2765019   -21936.163    14973.154   -43740.676   -37040.968    12991.774    4201.3655    19963.733    78.210672 
   89700    1949.0675   -107.87844    1.7635572   -106.11488    3927.1014      4.25955      4.25955      4.25955    3927.1014    22316.136    14568.893   -25103.725    26856.608    8171.5465    5371.6961    77.284277 
   89800    1012.8699   -107.05062   0.91646597   -106.13415   -16893.811    4.2508141    4.2508141    4.2508141   -16893.811   -4023.1931   -46337.935   -320.30433   -74741.257   -10401.463   -16560.215     76.80975 
   89900    1485.7681    -107.4934    1.3443542   -106.14905   -1116.9692    4.2474698    4.2474698    4.2474698   -1116.9692    14008.538   -5942.3144   -11417.132    27156.374    3420.0224     33607.83      76.6286 
   90000    2024.8335   -107.98253    1.8321119   -106.15042   -6370.1518    4.2635817    4.2635817    4.2635817   -6370.1518    21595.359   -17926.487   -22779.327    -14305.71     16400.21   -12167.065    77.503936 
   90100     867.0774   -106.95335   0.78454985    -106.1688   -22309.708    4.2616222    4.2616222    4.2616222   -22309.708    28840.733   -68269.975   -27499.883   -50127.408   -9549.0121   -2326.0152    77.397124 
   90200    1792.8176   -107.76897    1.6221791    -106.1468    30626.321    4.2521987    4.2521987    4.2521987    30626.321    75821.937    33930.235    -17873.21    12270.837    4053.6271    30075.639    76.884827 
   90300    1701.6932   -107.68659    1.5397277   -106.14686    -2511.917    4.2609594    4.2609594    4.2609594    -2511.917    17377.713   -8086.8215   -16826.642   -14645.853    25566.382   -17007.303    77.361021 
   90400    958.02435    -107.0227   0.86684056   -106.15586   -11776.567    4.2571148    4.2571148    4.2571148   -11776.567    31926.506   -43970.531   -23285.677   -52824.775   -7298.9812     19438.71    77.151806 
   90500    1905.1575   -107.85816    1.7238265   -106.13433    7789.2242    4.2607205    4.2607205    4.2607205    7789.2242    11453.481    46281.094   -34366.903    25153.631    22027.447    4267.3086    77.348007 
   90600    1162.8119   -107.20117    1.0521367   -106.14904   -24618.293    4.2596602    4.2596602    4.2596602   -24618.293   -41670.885   -25722.759   -6461.2355    2156.3565    21956.122   -807.94504    77.290277 
   90700    1552.4648   -107.54885    1.4047028   -106.14415    22922.991    4.2454021    4.2454021    4.2454021    22922.991    41995.342     9315.204    17458.427   -44862.375   -6067.3725     8481.374    76.516747 
   90800    1667.7237   -107.65853    1.5089915   -106.14953   -7655.2365    4.2551076    4.2551076    4.2551076   -7655.2365   -11421.878    2295.6277    -13839.46    42954.273   -2881.8791    2965.4305    77.042727 
   90900    1370.0912   -107.39735    1.2396873   -106.15767   -5975.6205     4.256564     4.256564     4.256564   -5975.6205   -14830.918   -27859.994     24764.05    21671.692    16970.247   -7781.1535    77.121862 
   91000    1943.7006   -107.90478    1.7587011   -106.14608    11685.452    4.2533887    4.2533887    4.2533887    11685.452    39939.357    6764.6296   -11647.631   -23254.546   -15355.059   -2162.6906    76.949397 
   91100    935.75235   -107.00939   0.84668839    -106.1627   -28568.615    4.2576165    4.2576165    4.2576165   -28568.615   -64132.314   -3127.7433   -18445.788    47369.451    -51529.99    7323.8154    77.179082 
   91200    1628.2435   -107.62841     1.473269   -106.15514    14630.228    4.2469918    4.2469918    4.2469918    14630.228    14652.949    2194.2602    27043.474    25083.125    27808.648   -12216.636    76.602732 
   91300    1807.1453   -107.79167    1.6351431   -106.15652   -9533.1126    4.2558305    4.2558305    4.2558305   -9533.1126   -11285.503    2497.6459   -19811.481   -12610.349   -27281.286    4100.4017    77.081999 
   91400    604.40159   -106.71998   0.54687526    -106.1731   -30039.414    4.2622752    4.2622752    4.2622752   -30039.414   -58573.876   -39670.968    8126.6033    69098.582   -49891.475    7790.4751    77.432708 
   91500    2524.4567   -108.42234    2.2841814   -106.13816    15326.977    4.2535606    4.2535606    4.2535606    15326.977    38478.554    358.05057    7144.3273    8534.5411    16887.505   -7586.5035    76.958728 
   91600    1232.4017   -107.27012    1.1151029   -106.15502   -11279.504    4.2625738    4.2625738    4.2625738   -11279.504    16589.121   -22737.961   -27689.673    18158.015   -35409.807    10090.176    77.448983 
   91700    1108.7246   -107.14421    1.0031973   -106.14101   -3226.0718      4.26446      4.26446      4.26446   -3226.0718    2948.0484   -17711.652    5085.3878    61822.952   -29384.169   -7157.3941    77.551847 
   91800    2263.9647   -108.16603    2.0484829   -106.11755   -6244.3098    4.2673665    4.2673665    4.2673665   -6244.3098    4868.0161    6697.8136   -30298.759   -24111.075    26938.998    10909.067    77.710526 
   91900     845.8911   -106.91051   0.76538004   -106.14513   -4291.4839     4.250129     4.250129     4.250129   -4291.4839    11960.842   -3754.4804   -21080.814    48407.406   -38835.563    13276.934    76.772618 
   92000    1573.0925   -107.56849    1.4233672   -106.14513    18081.322       4.2424       4.2424       4.2424    18081.322   -2365.5965    27348.363    29261.199    30697.814   -15086.007   -2722.8301    76.354538 
   92100    2117.0494    -108.0587    1.9155507   -106.14315    3716.8487    4.2609761    4.2609761    4.2609761    3716.8487    8272.7242    23533.062    -20655.24   -17021.425    31270.917     9218.093    77.361928 
   92200    897.58872   -106.97499   0.81215713   -106.16284   -24141.458     4.265033     4.265033     4.265033   -24141.458   -57980.143    12510.892   -26955.121    51853.109   -44643.174    10470.792    77.583108 
   92300    1705.0128   -107.69128    1.5427314   -106.14855    3408.4745    4.2508066    4.2508066    4.2508066    3408.4745   -14899.249    14400.445    10724.228    4396.1097   -4129.5212    5833.6068    76.809342 
   92400    1859.1144   -107.82426    1.6821658   -106.14209    14830.836     4.249756     4.249756     4.249756    14830.836    3428.2765    55662.791    -14598.56   -16131.096    1733.8675    3060.0027    76.752404 
   92500    818.43919   -106.89278   0.74054098   -106.15224   -23980.478    4.2645487    4.2645487    4.2645487   -23980.478   -47302.967    3157.5963   -27796.065    55963.591    -46853.25    22675.484    77.556685 
   92600    2026.0953   -107.96628    1.8332536   -106.13303    14232.268    4.2607384    4.2607384    4.2607384    14232.268   -3950.0064    31626.548    15020.262   -14368.967    14433.751    -11840.81    77.348983 
   92700    1656.2015   -107.64322    1.4985659   -106.14465        -4624    4.2530618    4.2530618    4.2530618        -4624   -10552.653    19482.141   -22801.488   -7961.1516    -24526.05    17821.316    76.931654 
   92800    808.08499   -106.89142   0.73117228   -106.16025   -6065.9487    4.2527358    4.2527358    4.2527358   -6065.9487   -26145.718    25182.959   -17235.087     49911.07   -33588.289    9284.6771    76.913965 
   92900    2411.1221   -108.31507     2.181634   -106.13344   -3246.8019    4.2655718    4.2655718    4.2655718   -3246.8019      1510.57    3315.3263   -14566.302   -14809.507     18162.08   -15568.526    77.612516 
   93000     569.7544    -106.6588   0.51552575   -106.14327   -16898.566    4.2756593    4.2756593    4.2756593   -16898.566   -26117.793    46104.778   -70682.682    15008.502   -48415.623    54145.571    78.164451 
   93100    1751.1927   -107.69815    1.5845159   -106.11364   -2752.4506    4.2643773    4.2643773    4.2643773   -2752.4506   -20974.417    10682.837    2034.2277      22835.6     3029.616   -20226.382    77.547333 
   93200    1962.7768   -107.88314    1.7759617   -106.10718    1380.4298     4.255773     4.255773     4.255773    1380.4298    16229.413    21048.302   -33136.425   -10302.572   -13568.317    13787.296    77.078876 
   93300    762.20352   -106.83446   0.68965776    -106.1448   -10540.512    4.2482055    4.2482055    4.2482055   -10540.512   -6725.7231    29556.664   -54452.478    23094.911   -55833.802    48746.849    76.668429 
   93400    2298.7842   -108.21518    2.0799882   -106.13519    8867.9187    4.2525976    4.2525976    4.2525976    8867.9187   -4716.8993    9062.1946    22258.461    33907.042    9233.6239   -15226.167    76.906467 
   93500    1289.1865    -107.3169    1.1664831   -106.15041   -14125.411    4.2735385    4.2735385    4.2735385   -14125.411    8435.0937    20025.192    -70836.52   -12036.094   -29589.938    33498.377    78.048193 
   93600    952.74529   -106.99736   0.86206396    -106.1353   -19229.387    4.2752538    4.2752538    4.2752538   -19229.387   -16575.448    9620.3999   -50733.111    27528.917   -36369.599    28362.635     78.14221 
   93700    2346.4183   -108.22299    2.1230886   -106.09991    17371.949     4.262407     4.262407     4.262407    17371.949    47759.976    547.80078    3808.0713    3153.3996    9038.3478   -9323.6034    77.439894 
   93800    859.13846    -106.9111   0.77736654   -106.13373   -28644.778    4.2610639    4.2610639    4.2610639   -28644.778    6302.7276   -13348.291   -78888.769    2501.4878   -63395.873    52243.741    77.366714 
   93900     1443.957   -107.45055    1.3065226   -106.14403    6867.9509    4.2479424    4.2479424    4.2479424    6867.9509    27472.783   -12060.143    5191.2119    18737.684   -25224.837    162.25286    76.654181 
   94000    2032.0631   -107.98746    1.8386534   -106.14881    18033.806    4.2464981    4.2464981    4.2464981    18033.806    32553.943   -4321.5585    25869.034    2126.1485    11358.355    3329.1997     76.57602 
   94100    844.98214   -106.92652   0.76455759   -106.16196   -32678.884    4.2717039    4.2717039    4.2717039   -32678.884   -17107.971    1229.6646   -82158.345    3222.2272   -65695.909    38861.358     77.94772 
   94200    1732.9299   -107.69238    1.5679914   -106.12439     3366.736    4.2726902    4.2726902    4.2726902     3366.736    -33036.61    19433.139    23703.679   -1524.9642    6840.0336    -9837.095    78.001726 
   94300    1467.6843   -107.45448    1.3279916   -106.12649   -21344.922     4.263903     4.263903     4.263903   -21344.922   -32469.263   -102.18918   -31463.315   -506.22349   -6019.2439    19326.507    77.521463 
   94400    1663.7526   -107.63804    1.5053983   -106.13264    24849.637    4.2400015    4.2400015    4.2400015    24849.637    30.729302    59048.272    15469.908    821.88886   -34222.484    19730.407    76.225106 
   94500    1110.3076   -107.15709    1.0046297   -106.15246    23004.004    4.2386638    4.2386638    4.2386638    23004.004   -28902.641    39126.576    58788.078    12789.466    22690.181   -14397.442    76.152979 
   94600    1621.1262   -107.62576    1.4668291   -106.15893   -25388.636     4.274675     4.274675     4.274675   -25388.636    -29781.17    8863.0257   -55247.762   -11222.406    19904.116   -15856.312    78.110478 
   94700    2251.8893   -108.17322    2.0375567   -106.13566    10877.239    4.2675415    4.2675415    4.2675415    10877.239   -21408.342    29836.607    24203.451    13212.151   -7137.6723    1035.3786    77.720086 
   94800    682.17597   -106.76647   0.61724715   -106.14922   -2065.3438    4.2453941    4.2453941    4.2453941   -2065.3438   -48696.285   -588.57211    43088.826   -1052.3996    36616.412   -16138.049    76.516314 
   94900    1896.8641   -107.85364    1.7163225   -106.13732    19664.285    4.2559095    4.2559095    4.2559095    19664.285    -1047.379    70452.147   -10411.914   -13456.615    10957.877   -7447.4088    77.086292 
   95000    1467.1926   -107.45957    1.3275467   -106.13203   -8024.7941    4.2731785    4.2731785    4.2731785   -8024.7941   -31280.634    10780.333   -3574.0812     37368.85    -17291.88    5526.9603    78.028475 
   95100    1130.2247   -107.15087    1.0226511   -106.12822   -20751.612    4.2752345    4.2752345    4.2752345   -20751.612    -39492.44   -17741.578   -5020.8191    5558.6931    41198.704    -13686.64    78.141155 
   95200    1398.6307   -107.40036    1.2655104   -106.13485   -6710.0136    4.2541856    4.2541856    4.2541856   -6710.0136   -17682.438    42089.686   -44537.289   -7755.8345   -43531.763    7887.5976    76.992656 
   95300    1567.6104   -107.55241    1.4184068   -106.13401    35143.855    4.2339844    4.2339844    4.2339844    35143.855    48064.269     43323.02    14044.277    22121.212   -18387.494    9258.1499    75.901047 
   95400     1625.932   -107.62204    1.4711775   -106.15087    4139.3505     4.257594     4.257594     4.257594    4139.3505    9491.4877   -6282.2686    9208.8322    11371.693    24267.953   -20997.494    77.177859 
   95500    1104.2689   -107.15182   0.99916567   -106.15266   -30177.551    4.2762876    4.2762876    4.2762876   -30177.551   -50047.036    14672.592    -55158.21   -3336.6345   -65070.735    11557.657    78.198913 
   95600    1975.8612   -107.92477    1.7878007   -106.13697    7002.0354    4.2618935    4.2618935    4.2618935    7002.0354    6987.3195   -18786.845    32805.632   -1335.9918    1251.9463   -7593.7032    77.411911 
   95700    1396.3868   -107.40839    1.2634801   -106.14491    5327.4039    4.2452448    4.2452448    4.2452448    5327.4039    -11373.61    28158.203    -802.3805    1433.4631   -34627.463   -31531.774     76.50824 
   95800    1268.5741   -107.30142    1.1478325   -106.15359    26194.385    4.2427159    4.2427159    4.2427159    26194.385   -38671.395    74879.432    42375.118   -1431.0447   -51746.371    19513.375    76.371592 
   95900    1793.3389   -107.77166    1.6226507   -106.14901     2371.839    4.2646551    4.2646551    4.2646551     2371.839    1527.4587    -20179.92    25767.978   -12472.967    20953.654   -14702.765    77.562491 
   96000    1522.1513   -107.52335    1.3772745   -106.14607   -3722.6209    4.2661374    4.2661374    4.2661374   -3722.6209    6567.9983   -8241.5731   -9494.2879    616.10806   -46406.589   -21811.653    77.643393 
   96100    1540.0076   -107.53082    1.3934312   -106.13739    20669.443    4.2498537    4.2498537    4.2498537    20669.443   -29552.596    32359.624    59201.302   -8550.0803   -4249.0519    11426.418    76.757696 
   96200    922.03009   -106.99541    0.8342722   -106.16114    -18436.07    4.2475439    4.2475439    4.2475439    -18436.07   -40688.157   -18019.725    3399.6731   -11703.675    34823.004    -18776.91    76.632614 
   96300    2164.8347   -108.11868    1.9587879   -106.15989    15140.428    4.2500916    4.2500916    4.2500916    15140.428    16186.818    19223.545     10010.92    2184.0333   -5915.2637   -24807.745    76.770586 
   96400    1626.2175   -107.64536    1.4714358   -106.17392   -6288.5943     4.260075     4.260075     4.260075   -6288.5943   -44489.762    3103.0027    22520.976     -11390.7   -276.53152    26077.155    77.312858 
   96500    973.75052   -107.06398   0.88106994   -106.18291   -16878.022    4.2551387    4.2551387    4.2551387   -16878.022    -62756.25   -17437.327    29559.512   -7905.3799    43421.403   -12861.574    77.044413 
   96600    1795.0665    -107.7847    1.6242139   -106.16049    24357.173    4.2445072    4.2445072    4.2445072    24357.173   -21770.021    73680.551    21160.989    9253.8532    -33922.89   -20767.996    76.468371 
   96700    1470.1979   -107.48954    1.3302659   -106.15927     4264.358    4.2562746    4.2562746    4.2562746     4264.358   -44552.936    10176.559    47169.452   -8609.3776   -19195.369    9075.2411    77.106132 
   96800    1383.1125   -107.40132    1.2514692   -106.14985    1889.9569    4.2641697    4.2641697    4.2641697    1889.9569   -44002.908   -1431.1014     51103.88   -6513.7061    25821.616   -3506.3767    77.536006 
   96900    1030.5363    -107.0888    0.9324509   -106.15635    -13896.38    4.2563925    4.2563925    4.2563925    -13896.38   -81424.904    64438.826   -24703.061    5834.4877   -84642.881   -11372.767    77.112541 
   97000    2053.4628   -108.00254    1.8580163   -106.14452    19172.472    4.2465256    4.2465256    4.2465256    19172.472   -11791.074    22745.836    46562.653   -4294.1035    2914.4299   -744.86854    76.577509 
   97100    1450.5042   -107.47297    1.3124467   -106.16052   -69.153374    4.2522255    4.2522255    4.2522255   -69.153374   -40093.374    23540.878    16345.036    4426.8616    -48641.13     4168.518    76.886283 
   97200    945.39034   -107.02695   0.85540904   -106.17154   -15767.185    4.2645981    4.2645981    4.2645981   -15767.185   -74821.039    40013.367   -12493.883    3696.5884   -46299.568   -4376.4367    77.559381 
   97300    1949.7926    -107.9109    1.7642133   -106.14669    10633.185     4.261602     4.261602     4.261602    10633.185   -4022.2378   -5376.9917    41298.784   -2115.3336    68820.897   -9620.2601    77.396028 
   97400    1521.2535    -107.5178    1.3764622   -106.14134    22261.813    4.2483442    4.2483442    4.2483442    22261.813   -4405.4856    38868.562    32322.362    8287.5671   -72750.187   -3081.7844    76.675936 
   97500    1072.0656   -107.11608   0.97002751   -106.14605   -2134.2732    4.2542392    4.2542392    4.2542392   -2134.2732   -50688.306    79976.782   -35691.295    7613.9338    26198.451   -618.33718    76.995564 
   97600    1777.5503   -107.73584    1.6083648   -106.12748    1668.0379    4.2645477    4.2645477    4.2645477    1668.0379   -24273.419     42351.18   -13073.647    2628.6402    37309.542    -16881.18    77.556629 
   97700    1814.2167   -107.76387    1.6415414   -106.12233   -15022.481    4.2714178    4.2714178    4.2714178   -15022.481    -38968.64    15505.166   -21603.968    13242.506   -51586.812   -589.49194    77.932061 
   97800    846.79194   -106.90949   0.76619514   -106.14329   -30164.864    4.2612599    4.2612599    4.2612599   -30164.864   -92034.075    32499.826   -30960.343    4982.2407    81433.082   -956.25502    77.377388 
   97900    2141.6654   -108.06795    1.9378238   -106.13013    17972.417    4.2421718    4.2421718    4.2421718    17972.417   -3057.7977    1027.9664    55947.084   -5932.9555   -7155.7876   -10931.929    76.342216 
   98000    1443.2167   -107.45502    1.3058528   -106.14917   -2511.5223    4.2487804    4.2487804    4.2487804   -2511.5223     -53186.4    33111.048    12540.785   -5356.2644    43520.323   -2808.8846    76.699556 
   98100    1232.0568   -107.26908    1.1147908   -106.15429   -17010.273    4.2674063    4.2674063    4.2674063   -17010.273   -66910.173    32009.542   -16130.188    10742.655    40361.642   -4237.3443    77.712696 
   98200    1837.3552   -107.79927    1.6624776   -106.13679    9181.1817    4.2644665    4.2644665    4.2644665    9181.1817   -23192.816    9418.8873    41317.473   -11275.888   -24962.353   -3868.8599    77.552202 
   98300    1022.0152    -107.0667   0.92474083   -106.14196     22785.25    4.2563668    4.2563668    4.2563668     22785.25   -6494.5365    83310.817   -8460.5304    2300.7052    69156.924   -6173.5438    77.111145 
   98400    1637.1745   -107.60643    1.4813499   -106.12508    15357.352    4.2633044    4.2633044    4.2633044    15357.352   -1817.7895    74945.186   -27055.339    21606.116   -42459.757    1672.9057    77.488817 
   98500    1626.3007   -107.59552     1.471511   -106.12401     11600.24    4.2620377    4.2620377    4.2620377     11600.24   -2442.6248    39334.618   -2091.2737   -8113.2921    10819.363   -1988.8413    77.419767 
   98600    1078.1497   -107.11935    0.9755325   -106.14382   -1283.4763    4.2563334    4.2563334    4.2563334   -1283.4763   -35574.289    49898.226   -18174.366   -12123.928    51291.119   -3361.7976    77.109328 
   98700    1838.7828   -107.80213    1.6637694   -106.13836    1815.8528    4.2543834    4.2543834    4.2543834    1815.8528   -23431.048    48063.966   -19185.359    14223.817    -62631.83    3540.5041    77.003395 
   98800    1653.2821   -107.63547    1.4959244   -106.13954   -1601.9735    4.2566509    4.2566509    4.2566509   -1601.9735   -20375.919    4993.6794    10576.319   -1367.8049    40561.579      2999.44    77.126583 
   98900    1113.1789   -107.15729    1.0072276   -106.15006   -14271.047     4.269202     4.269202     4.269202   -14271.047   -21627.118    2187.1714   -23373.193    -17825.94    28822.195   -3112.6178    77.810841 
   99000    2340.2139   -108.24374    2.1174747   -106.12627   -16607.626      4.26972      4.26972      4.26972   -16607.626   -7926.1194    -25681.74   -16215.018    13528.058   -28959.267    7570.4153    77.839169 
   99100    791.36187    -106.8682   0.71604085   -106.15216    1075.3781    4.2443874    4.2443874    4.2443874    1075.3781    16538.492   -20700.712    7388.3553    6823.7088    46890.942    13413.475    76.461894 
   99200    1616.1965   -107.61868    1.4623685   -106.15632    9491.5111    4.2461015    4.2461015    4.2461015    9491.5111    13402.717    17971.763   -2899.9468   -30450.255     32307.23   -4845.7294    76.554569 
   99300    2149.3465   -108.08287    1.9447739   -106.13809    2139.9243    4.2673589    4.2673589    4.2673589    2139.9243     32953.56   -9392.1557   -17141.631    14631.195   -16881.841    9249.2916    77.710108 
   99400    971.17935   -107.02545   0.87874349   -106.14671   -16819.014    4.2732992    4.2732992    4.2732992   -16819.014   -25180.111   -15094.981   -10181.948    2056.5038    53908.996    13293.562    78.035087 
   99500    1903.8967    -107.8488    1.7226857   -106.12612   -13301.025    4.2642358    4.2642358    4.2642358   -13301.025   -35170.048    8954.8946    -13687.92   -1236.2618   -31535.254   -6891.4597    77.539614 
   99600    1287.5019   -107.30089    1.1649588   -106.13593    1026.2665    4.2365065    4.2365065    4.2365065    1026.2665    362.86711    32590.574   -29874.642   -4534.5609   -47014.367    3394.6843    76.036763 
   99700    1863.9755     -107.823    1.6865642   -106.13644     5715.929    4.2383614    4.2383614    4.2383614     5715.929    494.67512    10799.971    5853.1407    5946.8724    58761.403    4021.6294    76.136683 
   99800    843.26772   -106.91717   0.76300635   -106.15416   -42488.211    4.2664269    4.2664269    4.2664269   -42488.211   -77224.211     3844.816   -54085.237    4285.9705   -84953.989   -1710.8536    77.659203 
   99900    1765.9323   -107.73822    1.5978527   -106.14036   -21675.866    4.2679194    4.2679194    4.2679194   -21675.866    23221.997   -45352.114   -42897.479   -19952.432   -5625.0041   -2412.8352    77.740734 
  100000     1863.842   -107.82364    1.6864434   -106.13719   -9165.4587    4.2553971    4.2553971    4.2553971   -9165.4587    8482.7609     812.8676   -36792.005    8770.4084   -28776.131    10655.729    77.058449 
Loop time of 23.0081 on 1 procs for 100000 steps with 8 atoms

Pair  time (%) = 7.42208 (32.2586)
Kspce time (%) = 5.42454 (23.5767)
Neigh time (%) = 0.167053 (0.726065)
Comm  time (%) = 1.16997 (5.08504)
Outpt time (%) = 0.0258627 (0.112407)
Other time (%) = 8.79856 (38.2412)

Nlocal:    8 ave 8 max 8 min
Histogram: 1 0 0 0 0 0 0 0 0 0
Nghost:    2189 ave 2189 max 2189 min
Histogram: 1 0 0 0 0 0 0 0 0 0
Neighs:    2323 ave 2323 max 2323 min
Histogram: 1 0 0 0 0 0 0 0 0 0

Total # of neighbors = 2323
Ave neighs/atom = 290.375
Neighbor list builds = 1873
Dangerous builds = 0
unfix 20
unfix 21
print "seeds:2563540"
seeds:2563540
