LAMMPS (10 Feb 2015)
# ---- initialize simulations
clear
units metal
dimension 3
boundary p p p
atom_style charge
atom_modify map array
# ---- create atoms
read_data /Users/eugeneragasa/pyflamestk_git/pypospack/tests/tests_integration/workflow/WorkflowLammpsThermalExpansion/param_5091/MgO_NaCl_unit.npt.T500/lammps.structure
  triclinic box = (0 0 0) to (4.2565 4.2565 4.2565) with tilt (0 0 0)
  1 by 1 by 1 MPI processor grid
  reading atoms ...
  8 atoms
# ---- define interatomic potential
include potential.mod
mass 1 24.305
mass 2 15.999

group Mg type 1
4 atoms in group Mg
group O type 2
4 atoms in group O

set group Mg charge 1.60395442224
  4 settings made for charge
set group O charge -1.60395442224
  4 settings made for charge

variable R_cut equal 10.0

pair_style buck/coul/long ${R_cut}
pair_style buck/coul/long 10
pair_coeff 1 1 0.0 0.5 0.0 ${R_cut}
pair_coeff 1 1 0.0 0.5 0.0 10
pair_coeff 1 2 1640.33364459 0.274285748818 0.0 ${R_cut}
pair_coeff 1 2 1640.33364459 0.274285748818 0.0 10
pair_coeff 2 2 138.503876614 0.167383398543 15.9463705464 ${R_cut}
pair_coeff 2 2 138.503876614 0.167383398543 15.9463705464 10

kspace_style pppm 1.0e-5

neighbor 1.0 bin
neigh_modify every 1 delay 0 check yes
# ---- define settings
compute eng all pe/atom
compute eatoms all reduce sum c_eng
# ---- run minimization
reset_timestep 0
fix 1 all box/relax iso 0.0 vmax 0.001
thermo 10
thermo_style custom step pe lx ly lz xy xz yz press pxx pyy pzz pxy pxz pyz c_eatoms
min_style cg
minimize 1e-25 1e-25 5000 10000
PPPM initialization ...
  G vector (1/distance) = 0.352384
  grid = 8 8 8
  stencil order = 5
  estimated absolute RMS force accuracy = 3.76636e-05
  estimated relative force accuracy = 2.6156e-06
  using double precision FFTs
  3d grid and FFT values/proc = 3375 512
Neighbor list info ...
  1 neighbor list requests
  update every 1 steps, delay 0 steps, check yes
  master list distance cutoff = 11
Memory usage per processor = 4.06549 Mbytes
Step PotEng Lx Ly Lz Xy Xz Yz Press Pxx Pyy Pzz Pxy Pxz Pyz eatoms 
       0   -105.40733       4.2565       4.2565       4.2565            0            0            0    42357.047    42357.047    42357.047    42357.047 -5.4591187e-11 1.2697943e-10 -3.1158894e-11   -105.40733 
      10   -105.43209    4.2922445    4.2922445    4.2922445            0            0            0   -4.9211524   -4.9211524   -4.9211524   -4.9211524 1.7090498e-11 -3.1779622e-11 -1.1443831e-10   -105.43209 
      12   -105.43209    4.2922402    4.2922402    4.2922402            0            0            0  -0.19512063  -0.19512063  -0.19512063  -0.19512063 3.2638439e-11 -8.1058727e-11 1.6032595e-10   -105.43209 
Loop time of 0.00899005 on 1 procs for 12 steps with 8 atoms

Minimization stats:
  Stopping criterion = linesearch alpha is zero
  Energy initial, next-to-last, final = 
        -105.407331285      -105.43208818      -105.43208818
  Force two-norm initial, final = 6.11638 6.94804e-05
  Force max component initial, final = 6.11638 2.86507e-05
  Final line search alpha, max atom move = 0.5 1.43253e-05
  Iterations, force evaluations = 12 25

Pair  time (%) = 0.00257373 (28.6286)
Kspce time (%) = 0.00152349 (16.9465)
Neigh time (%) = 0 (0)
Comm  time (%) = 0.00027585 (3.0684)
Outpt time (%) = 1.21593e-05 (0.135253)
Other time (%) = 0.00460482 (51.2213)

Nlocal:    8 ave 8 max 8 min
Histogram: 1 0 0 0 0 0 0 0 0 0
Nghost:    2189 ave 2189 max 2189 min
Histogram: 1 0 0 0 0 0 0 0 0 0
Neighs:    2344 ave 2344 max 2344 min
Histogram: 1 0 0 0 0 0 0 0 0 0

Total # of neighbors = 2344
Ave neighs/atom = 293
Neighbor list builds = 0
Dangerous builds = 0
unfix 1
# ---- define output variables ----
variable natoms equal "count(all)"
variable tot_energy equal "c_eatoms"
variable length_x equal "lx"
variable length_y equal "ly"
variable length_z equal "lz"
variable tilt_xy equal "xy"
variable tilt_xz equal "xz"
variable tilt_yz equal "yz"
variable tot_press equal "press"
variable press_xx equal "pxx"
variable press_yy equal "pyy"
variable press_zz equal "pzz"
variable press_xy equal "pxy"
variable press_xz equal "pxz"
variable press_yz equal "pyz"

# ---- output ----
print "pypospack:output_section:begin"
pypospack:output_section:begin
print "tot_energy = ${tot_energy}"
tot_energy = -105.432088180201
print "num_atoms = ${natoms}"
num_atoms = 8
print "xx = ${length_x}"
xx = 4.29224022422512
print "yy = ${length_y}"
yy = 4.29224022422512
print "zz = ${length_z}"
zz = 4.29224022422512
print "xy = ${tilt_xy}"
xy = 0
print "xz = ${tilt_xz}"
xz = 0
print "yz = ${tilt_yz}"
yz = 0
print "tot_press = ${tot_press}"
tot_press = -0.195120630166908
print "pxx = ${press_xx}"
pxx = -0.195120630011552
print "pyy = ${press_yy}"
pyy = -0.195120630547228
print "pzz = ${press_zz}"
pzz = -0.195120629941943
print "pxy = ${press_xy}"
pxy = 3.26384388476247e-11
print "pxz = ${press_xz}"
pxz = -8.10587270505021e-11
print "pyz = ${press_yz}"
pyz = 1.60325951029016e-10
print "pypospack:output_section:done"
pypospack:output_section:done
print "pypospack:lammps_sim:done"
pypospack:lammps_sim:done
#------------------------------------------------------------------------------
# RUN THERMOSTAT
# running using an NPT Nose-Hoover style thermostat
#------------------------------------------------------------------------------
variable tempdamp equal 0.1
variable pressdamp equal 1.0
# set initial velocities
velocity all create 500 6122467 mom yes dist gaussian loop all
# fix for Nose-Hoover style thermostat
fix 20 all npt temp 500 500 0.1 aniso 0.0 0.0 1.0 drag 1.0 couple xyz
variable boxx equal lx
variable boxy equal ly
variable boxz equal lz
variable boxp equal press
variable boxt equal temp
# calculate averages every 10000 steps
reset_timestep 0
fix 21 all ave/time 10 10 100 v_boxx v_boxy v_boxz v_boxp v_boxt file lattice.out
thermo_style custom step temp pe ke etotal press lx ly lz press pxx pyy pzz pxy pxz pyz vol
thermo_modify flush yes
thermo 100
run 100000
PPPM initialization ...
  G vector (1/distance) = 0.352034
  grid = 8 8 8
  stencil order = 5
  estimated absolute RMS force accuracy = 3.82705e-05
  estimated relative force accuracy = 2.65774e-06
  using double precision FFTs
  3d grid and FFT values/proc = 3375 512
Memory usage per processor = 3.06549 Mbytes
Step Temp PotEng KinEng TotEng Press Lx Ly Lz Press Pxx Pyy Pzz Pxy Pxz Pyz Volume 
       0          500   -105.43209   0.45241051   -104.97968    6109.5384    4.2922402    4.2922402    4.2922402    6109.5384    7110.3059     5875.162    5343.1473    154.99179    2397.5773   -624.24157    79.077342 
     100    99.058568   -105.00614  0.089630274   -104.91651   -453.87995    4.3108482    4.3108482    4.3108482   -453.87995    12806.081   -8275.5991   -5892.1213    1548.8243   -393.16103   -3195.8942    80.110266 
     200    333.48421   -105.09493   0.30174352   -104.79318    1541.1735    4.3069366    4.3069366    4.3069366    1541.1735    25000.336   -9820.1775   -10556.638    1323.7981   -998.21793   -3766.7468    79.892395 
     300    585.17321   -105.22119   0.52947702   -104.69172    5082.7372    4.3040443    4.3040443    4.3040443    5082.7372      4058.03    7587.9436    3602.2378   -2817.9422   -364.92393    1323.0333    79.731549 
     400    280.59166   -104.86033   0.25388523   -104.60645   -8925.6219    4.3213178    4.3213178    4.3213178   -8925.6219    15029.696    -20586.31   -21220.251    12995.454    3113.0182   -6790.0737    80.695373 
     500    605.68986   -105.09785   0.54804091   -104.54981     10469.57    4.3052645    4.3052645    4.3052645     10469.57    41278.308   -6478.1514   -3391.4456   -3172.5867   -2305.7969    5546.4754     79.79938 
     600    499.89082   -104.98377   0.45231171   -104.53146   -1621.6832    4.3147866    4.3147866    4.3147866   -1621.6832     9940.324   -13144.544   -1660.8295    3634.1227   -2021.5496   -5742.3344    80.330034 
     700     458.3653   -104.93864   0.41473856    -104.5239    -14153.99    4.3225113    4.3225113    4.3225113    -14153.99    6482.6028   -27761.599   -21182.975    5487.8146    4166.8413     -1117.58     80.76225 
     800    561.53773   -105.02457   0.50809114   -104.51648    29026.306    4.2967028    4.2967028    4.2967028    29026.306    58701.624    10330.967    18046.329    3021.6736   -307.97485   -1989.8037    79.324243 
     900    461.07594   -104.94152    0.4171912   -104.52432   -29815.988    4.3300048    4.3300048    4.3300048   -29815.988   -26707.847   -31036.926   -31703.192    7629.2642    1017.8403   -8360.7677    81.183007 
    1000    494.82458   -104.97115   0.44772768   -104.52342    14080.359    4.3001629    4.3001629    4.3001629    14080.359    32743.808    2112.5504     7384.718    1804.2396   -1340.6636    1747.3224    79.516034 
    1100    549.21742   -105.02536   0.49694346   -104.52842   -2284.3293    4.3182895    4.3182895    4.3182895   -2284.3293    30065.903   -14859.337   -22059.554    -1171.148    3647.7444    -11281.41    80.525837 
    1200    475.47737    -104.9564   0.43022192   -104.52617   -13474.335    4.3180404    4.3180404    4.3180404   -13474.335   -12623.985   -16334.721   -11464.298      11889.8    1128.5738    1329.9405    80.511908 
    1300    570.75433   -105.03743   0.51643051     -104.521    8857.2423    4.3022374    4.3022374    4.3022374    8857.2423    36252.995   -4943.1263   -4738.1413   -8412.3675    1279.9279   -7973.2255    79.631173 
    1400    370.96206    -104.8589   0.33565427   -104.52325    55.661081    4.3233724    4.3233724    4.3233724    55.661081    33250.055   -20214.755   -12868.317    6919.1959   -1744.9981   -1880.5705    80.810527 
    1500    635.18975   -105.09747   0.57473303   -104.52273   -10649.203    4.3074866    4.3074866    4.3074866   -10649.203    -12433.76   -9647.0162   -9866.8316    5610.3471    6757.4082    575.91716    79.923004 
    1600    446.45152   -104.93069   0.40395871   -104.52673    8822.3224    4.3127196    4.3127196    4.3127196    8822.3224    39318.712    -11509.04   -1342.7052   -1694.0711   -2685.6692   -4434.4779    80.214643 
    1700    414.83621   -104.90067   0.37535252   -104.52531   -5467.0186    4.3198789    4.3198789    4.3198789   -5467.0186    22508.639   -19040.829   -19868.865    7991.6703    1038.6548    2253.4757    80.614788 
    1800    603.05686   -105.06822   0.54565852   -104.52256   -1990.9457    4.3027252    4.3027252    4.3027252   -1990.9457   -1338.9665   -6044.3171    1410.4465   -1656.5379    1016.2234   -2669.0846    79.658264 
    1900    498.60106   -104.97613   0.45114472   -104.52499   -4063.5304    4.3202396    4.3202396    4.3202396   -4063.5304    26139.005   -19966.012   -18363.584   -29.056186     307.5578   -1694.0249    80.634984 
    2000    357.72128   -104.84929   0.32367373   -104.52562    628.24922     4.310674     4.310674     4.310674    628.24922    36097.322   -22029.088   -12183.487    7396.3331    765.56542   -1149.3339    80.100557 
    2100    624.13647   -105.08987   0.56473179   -104.52514   -9942.4267    4.3118069    4.3118069    4.3118069   -9942.4267   -4369.0326   -17026.463   -8431.7842   -7376.9312   -3140.4568   -6596.5574     80.16373 
    2200      520.777   -104.99654   0.47120997   -104.52533    4393.1683    4.3163968    4.3163968    4.3163968    4393.1683    43434.734   -19455.795   -10799.434    8728.1703    2509.7749   -2168.7157    80.420001 
    2300    323.63591   -104.82301   0.29283257   -104.53017    -2314.031    4.3099819    4.3099819    4.3099819    -2314.031      22850.3   -21115.416   -8676.9768    4900.3849    3365.3299   -7136.8413    80.061983 
    2400    706.05213   -105.16509    0.6388508   -104.52624    473.83134    4.3107326    4.3107326    4.3107326    473.83134    11288.067   -5888.6148   -3977.9584   -2226.6574   -504.52997   -5331.5297    80.103825 
    2500    417.93267   -104.90655   0.37815427   -104.52839   -5477.2057    4.3202675    4.3202675    4.3202675   -5477.2057    28753.993   -28111.097   -17074.513    6488.9029    2289.5955   -1779.7313    80.636548 
    2600    443.87586   -104.92827    0.4016282   -104.52664     8363.879    4.3016475    4.3016475    4.3016475     8363.879    30715.857   -1845.0511   -3779.1692   -2417.3358    5232.4873    -9133.672    79.598425 
    2700    662.29439    -105.1233   0.59925788   -104.52404   -16002.185      4.32325      4.32325      4.32325   -16002.185   -8171.8372   -26924.324   -12910.395     1293.144   -2163.9111    4096.2975    80.803661 
    2800    304.99191   -104.80325   0.27596309   -104.52728    5508.6682    4.3056033    4.3056033    4.3056033    5508.6682    44059.054   -15831.567   -11701.482    3198.3575    3061.0616   -9156.9238    79.818222 
    2900    596.02008   -105.06677    0.5392915   -104.52748   -2776.5383    4.3139181    4.3139181    4.3139181   -2776.5383     11234.31   -14030.547   -5533.3782   -8789.5867    74.693754    2530.9456    80.281536 
    3000      628.799    -105.0945   0.56895055   -104.52555   -10199.426    4.3180358    4.3180358    4.3180358   -10199.426     10460.76   -21792.428    -19266.61    7415.9788     2533.082    -1148.852    80.511647 
    3100    335.35544   -104.82994   0.30343665    -104.5265    8252.0749    4.3045861    4.3045861    4.3045861    8252.0749    37252.497   -12135.932   -360.33946    405.20366    3574.0175   -5128.6067    79.761661 
    3200    607.64366   -105.07356   0.54980875   -104.52375   -1542.3615    4.3189835    4.3189835    4.3189835   -1542.3615    20768.984   -11860.845   -13535.223   -4137.8525   -4190.4326    4269.7723    80.564671 
    3300     580.2353   -105.05173   0.52500909   -104.52672   -8976.4482    4.3116195    4.3116195    4.3116195   -8976.4482   -80.892262   -19532.162   -7316.2909    7379.3038    2360.9526   -10608.877    80.153275 
    3400    360.97253   -104.85639   0.32661553   -104.52978    11598.371    4.3081071    4.3081071    4.3081071    11598.371     42297.64    1473.2734    -8975.802   -2734.4407     3232.328    2393.7578    79.957547 
    3500    573.08886   -105.04342   0.51854285   -104.52487   -16959.728    4.3225516    4.3225516    4.3225516   -16959.728    3618.3479   -33569.136   -20928.397    2123.0681   -1841.0629   -9422.7572    80.764511 
    3600    538.16652   -105.00996   0.48694437   -104.52301    8726.2669    4.2987914    4.2987914    4.2987914    8726.2669    17638.841     5641.906    2898.0539    2391.0246     2800.205   -822.83453    79.439976 
    3700    378.05072   -104.86818   0.34206823   -104.52611   -8347.7991    4.3237951    4.3237951    4.3237951   -8347.7991    28998.933   -29424.503   -24617.827   -5381.3764    3264.6435   -3666.3348    80.834234 
    3800    580.44235    -105.0472   0.52519644     -104.522    5657.4772    4.3062991    4.3062991    4.3062991    5657.4772    29490.782   -10909.068   -1609.2827    4933.0279    1897.8828    -4735.027    79.856921 
    3900    525.25621    -105.0006   0.47526285   -104.52534   -6229.7688    4.3137549    4.3137549    4.3137549   -6229.7688    1465.9228   -6673.5646   -13481.665   -2791.3198    3654.1019    1655.0717    80.272426 
    4000    366.73532    -104.8581   0.33182982   -104.52627    7798.0959    4.3159607    4.3159607    4.3159607    7798.0959     56950.51   -18584.072    -14972.15    -8539.274   -4495.8741    -4342.429    80.395632 
    4100    628.93389    -105.0941   0.56907261   -104.52502   -221.15977    4.3063291    4.3063291    4.3063291   -221.15977    1715.8679    4056.7121   -6436.0593    8865.6656    7232.6938    2483.4826     79.85859 
    4200    426.67013   -104.91528    0.3860601   -104.52922   -7423.4557    4.3161284    4.3161284    4.3161284   -7423.4557    15301.291   -16693.251   -20878.406   -6235.6027    5123.3133   -1200.8523    80.405002 
    4300    439.64806   -104.92342    0.3978028   -104.52562    6990.3941    4.3147009    4.3147009    4.3147009    6990.3941    44918.653   -9710.2141   -14237.256    1444.8636   -3570.0362   -1456.3147    80.325247 
    4400    670.92511   -105.13177   0.60706714    -104.5247   -3842.6403    4.3045569    4.3045569    4.3045569   -3842.6403   -5053.6531    227.44916   -6701.7169    549.47497    6314.9335    58.369272    79.760037 
    4500    333.96178   -104.83106   0.30217564   -104.52889    -9379.936    4.3215121    4.3215121    4.3215121    -9379.936    10120.648   -15420.561   -22839.894    -3804.896     -323.807   -5097.3463    80.706254 
    4600    548.96249   -105.01873   0.49671279   -104.52202    14575.417    4.3055473    4.3055473    4.3055473    14575.417      51722.6   -3948.3287   -4048.0212     1204.596    3553.0396   -2319.7876    79.815106 
    4700    490.65515   -104.97047   0.44395509   -104.52651   -9669.0004    4.3142669    4.3142669    4.3142669   -9669.0004   -11968.527    5190.6121   -22229.086    -606.9491    2633.0417   -2255.8366    80.301014 
    4800    573.55876   -105.04405   0.51896802   -104.52508   -45.214647     4.315314     4.315314     4.315314   -45.214647    24696.621   -12458.983   -12373.282   -5324.8943   -3928.4785   -7310.5807    80.359496 
    4900    420.68876   -104.90523   0.38064803   -104.52458    15294.682    4.3067317    4.3067317    4.3067317    15294.682    43644.528    14978.748    -12739.23    5895.1611    9312.7376    2504.5966    79.880992 
    5000    514.70518   -104.99214   0.46571607   -104.52643   -13265.004    4.3161246    4.3161246    4.3161246   -13265.004   -9209.4236   -13707.409    -16878.18   -6025.1992    1172.9022   -8111.3792    80.404791 
    5100    607.57099   -105.07426     0.549743   -104.52452    2762.5339    4.3121219    4.3121219    4.3121219    2762.5339    21858.674   -4300.6202   -9270.4519   -3231.8166   -2871.0551    4379.0401    80.181299 
    5200    351.10725   -104.84555   0.31768922   -104.52786    8064.1845    4.3080303    4.3080303    4.3080303    8064.1845    38800.278     6099.352   -20707.077    5825.1228    4990.7489   -2495.6744    79.953271 
    5300    564.35508   -105.03676   0.51064034   -104.52612   -17035.871    4.3197421    4.3197421    4.3197421   -17035.871   -10076.391   -24589.182   -16442.038   -11320.546   -1630.9859    269.07755    80.607131 
    5400    574.99426   -105.04401   0.52026689   -104.52375    10890.109    4.3033332    4.3033332    4.3033332    10890.109     25230.68    14164.482   -6724.8336   -1084.0064    6344.5435    735.79573    79.692036 
    5500     411.9662   -104.90247   0.37275568   -104.52972   -7126.1285    4.3178915    4.3178915    4.3178915   -7126.1285    29271.336   -19970.476   -30679.246   -2968.8177    1366.4637   -3207.6662    80.503578 
    5600    562.72655    -105.0345    0.5091668   -104.52533    919.21948    4.3123596    4.3123596    4.3123596    919.21948    8111.9756   -751.79149   -4602.5257   -6120.4442   -3743.0928    2926.4911    80.194559 
    5700    555.33953   -105.02754   0.50248288   -104.52506     2841.265    4.3074337    4.3074337    4.3074337     2841.265    33940.542   -7442.8966   -17973.851    635.31276    9024.7009   -5011.3183    79.920063 
    5800     313.5063   -104.81158   0.28366709   -104.52791    221.13689     4.319485     4.319485     4.319485    221.13689    33580.214   -14968.126   -17948.677   -3782.4922     2419.149    346.62794     80.59274 
    5900    710.91098   -105.16739    0.6432472   -104.52414   -4836.4168    4.3054723    4.3054723    4.3054723   -4836.4168    3590.3445   -11065.609    -7033.986   -3960.1898   -149.53123   -3410.6794    79.810937 
    6000    395.13759   -104.88548   0.35752879   -104.52795    -1087.045    4.3160784    4.3160784    4.3160784    -1087.045    32689.786   -8053.4007    -27897.52    609.17486    4508.3601   -3450.0035     80.40221 
    6100    452.94393   -104.93605   0.40983318   -104.52622   -4112.5122    4.3141465    4.3141465    4.3141465   -4112.5122    25303.174   -24424.967   -13215.743   -12577.689   -1121.2607    69.477666    80.294293 
    6200    638.83523   -105.10253   0.57803154    -104.5245    1662.9431    4.3056977    4.3056977    4.3056977    1662.9431    11892.482    7181.4372    -14085.09    3007.3039    4892.6303   -3830.5003    79.823473 
    6300    373.77275   -104.86732   0.33819744   -104.52912   -5332.1711    4.3207374    4.3207374    4.3207374   -5332.1711    33130.864   -22199.266   -26928.112   -3024.6322   -1427.4768    -184.9849    80.662861 
    6400    453.00369   -104.93669   0.40988726   -104.52681    11176.342    4.3042963    4.3042963    4.3042963    11176.342    34075.283    90.621447   -636.87742   -8348.1548   -3544.1817   -879.10912    79.745552 
    6500    704.22203   -105.16267   0.63719489   -104.52547   -14933.095    4.3187332    4.3187332    4.3187332   -14933.095   -3590.6384   -12508.402   -28700.245    5156.3875    9709.1646   -4444.5641    80.550666 
    6600    292.95926    -104.7934    0.2650757   -104.52832    13096.507     4.308538     4.308538     4.308538    13096.507    56898.098   -9230.1739   -8378.4041   -7591.6578   -18.427133     3129.294    79.981545 
    6700    539.70378   -105.01686   0.48833532   -104.52852   -7844.7555    4.3120817    4.3120817    4.3120817   -7844.7555    13591.461   -15932.915   -21192.813   -5030.2379   -453.31043   -6429.3319    80.179057 
    6800    639.49245   -105.10425    0.5786262   -104.52562   -9597.6336    4.3172427    4.3172427    4.3172427   -9597.6336    7466.1122   -12799.175   -23459.838    -1896.829    4704.3505      1713.42    80.467293 
    6900    255.72342   -104.75948   0.23138393    -104.5281    9450.0953    4.3086874    4.3086874    4.3086874    9450.0953    55670.434   -13210.015   -14110.132   -8507.8962   -968.79808   -3726.3012    79.989864 
    7000        697.8   -105.15624   0.63138411   -104.52486   -12209.124    4.3143234    4.3143234    4.3143234   -12209.124    -4953.167   -7933.4681   -23740.738    1901.5611    7756.5138   -5434.7793    80.304167 
    7100    444.96953   -104.92912   0.40261778    -104.5265   -961.95156    4.3138552    4.3138552    4.3138552   -961.95156    15756.114   -1343.6883    -17298.28   -7448.9951    2376.0417    1502.9047    80.278027 
    7200    379.49653   -104.87068   0.34337643   -104.52731    6477.4378    4.3072737    4.3072737    4.3072737    6477.4378    52186.124   -17924.796   -14829.014   -2706.4025   -1978.1435   -10610.514    79.911153 
    7300    693.43142   -105.15215   0.62743132   -104.52472   -11361.951    4.3197355    4.3197355    4.3197355   -11361.951   -10023.349    2624.0906   -26686.595    2721.1304    9381.9366    4112.5301    80.606761 
    7400    433.67142   -104.91998   0.39239502   -104.52759    3153.9593    4.3075302    4.3075302    4.3075302    3153.9593    40657.067   -17149.813   -14045.377   -6726.2157   -1171.7754   -9963.1251    79.925433 
    7500    419.67915   -104.90745   0.37973451   -104.52771     2616.541    4.3133732    4.3133732    4.3133732     2616.541    32056.144   -3376.4214     -20830.1   -4114.9377    650.00317     450.4262    80.251122 
    7600    700.59219   -105.15767   0.63391054   -104.52376   -13085.726    4.3153561    4.3153561    4.3153561   -13085.726   -7161.4911   -10649.024   -21446.664    2709.9146    5646.6599   -4784.0387    80.361849 
    7700     329.6104    -104.8257   0.29823842   -104.52747    8982.0686    4.3063914    4.3063914    4.3063914    8982.0686    43619.516   -4730.2526   -11943.057   -8314.8023    1430.3058   -4335.0615    79.862058 
    7800    534.12644   -105.00907   0.48328883   -104.52578   -9327.9654    4.3222864    4.3222864    4.3222864   -9327.9654    18030.755   -11460.033   -34554.619    4210.0549    11832.671    1466.9068    80.749642 
    7900    536.03181   -105.00995   0.48501284   -104.52493     1098.327     4.303782     4.303782     4.303782     1098.327    10853.764    1711.1672     -9269.95   -7643.9377   -1500.8788   -7905.6586     79.71697 
    8000    441.83472   -104.92743   0.39978134   -104.52765   -3748.9234    4.3166713    4.3166713    4.3166713   -3748.9234    23018.205   -13547.201   -20717.775   -4472.5069    105.21509    3271.8277     80.43535 
    8100    483.52203   -104.96262   0.43750089   -104.52512   -1508.0862    4.3144633    4.3144633    4.3144633   -1508.0862    29369.336   -4427.0264   -29466.568    1529.1376    8484.9504    -6133.669    80.311979 
    8200    555.77878   -105.02698   0.50288032    -104.5241    3918.5944    4.3032319    4.3032319    4.3032319    3918.5944    16254.259   -2904.3208   -1594.1546   -10983.937   -2654.7152   -1385.1138    79.686406 
    8300    463.10329   -104.94254   0.41902559   -104.52351    -14643.72     4.327519     4.327519     4.327519    -14643.72     15414.11   -25235.861   -34109.409    2363.8639    4878.8407   -2063.7004    81.043269 
    8400    422.84694   -104.90361    0.3826008   -104.52101    22354.532    4.2953448    4.2953448    4.2953448    22354.532    54675.459    14653.708   -2265.5715   -1035.6335   -261.49467   -5098.1618    79.249058 
    8500    668.89096    -105.1304    0.6052266   -104.52518   -25404.578    4.3237236    4.3237236    4.3237236   -25404.578   -23316.372   -29383.167   -23514.194   -7189.3821    1972.3094   -2216.3152    80.830222 
    8600    338.99308    -104.8336   0.30672806   -104.52687    8284.4243    4.3105783    4.3105783    4.3105783    8284.4243    41234.001    8060.1513    -24440.88    4654.1035    10690.852   -4544.0399    80.095222 
    8700    554.75808    -105.0261   0.50195677   -104.52414    4449.8774    4.3051649    4.3051649    4.3051649    4449.8774    33658.524    -11583.13   -8725.7619   -4830.9233   -3766.6435   -5218.6658    79.793839 
    8800    571.05119   -105.04001   0.51669912   -104.52331    -22156.33    4.3250208    4.3250208    4.3250208    -22156.33   -26132.555    -11675.36   -28661.076   -5315.9799     3929.563    412.89908    80.902997 
    8900    404.54074   -104.88989   0.36603696   -104.52385    17235.252    4.2994291    4.2994291    4.2994291    17235.252    64682.987    1163.3471    -14140.58    2386.5445    5855.2673   -6804.7891    79.475336 
    9000    532.12602   -105.00776   0.48147881   -104.52629   -7051.2646    4.3202664    4.3202664    4.3202664   -7051.2646     8572.637    -15341.83   -14384.601   -9035.3643    647.70818    3195.0014    80.636485 
    9100    582.56328   -105.05279    0.5271155   -104.52567   -10690.534    4.3125813    4.3125813    4.3125813   -10690.534   -2238.1833   -7413.1127   -22420.305    3602.9382    6706.4158   -3856.6761    80.206927 
    9200    387.51633    -104.8762   0.35063292   -104.52557    19705.702    4.3058945    4.3058945    4.3058945    19705.702    67293.105    3013.9332   -11189.931   -932.24489   -1791.2141   -827.30924    79.834418 
    9300    575.76144   -105.04784   0.52096105   -104.52687   -13104.913    4.3191708    4.3191708    4.3191708   -13104.913   -3649.3415   -15188.236   -20477.162   -7591.7405    3214.1329    1770.8699    80.575152 
    9400    471.25995    -104.9542   0.42640591    -104.5278    2490.8632    4.3075698    4.3075698    4.3075698    2490.8632    25529.858    3776.0618    -21833.33    4770.4283    10198.262   -6364.8695    79.927634 
    9500    506.40121   -104.98466   0.45820245   -104.52646    6376.2685    4.3150348    4.3150348    4.3150348    6376.2685    47062.166    -12868.13    -15065.23    -11052.96   -4596.1206    3495.1158    80.343899 
    9600    520.42362   -104.99975   0.47089023   -104.52886   -11410.698    4.3137823    4.3137823    4.3137823   -11410.698   -5884.3868   -7314.6804   -21033.028    898.27774    4065.0858   -8330.8338    80.273959 
    9700    464.20507   -104.94982    0.4200225    -104.5298    2947.4932    4.3104876    4.3104876    4.3104876    2947.4932    29677.282   -4410.5217   -16424.281    1906.1374    4434.3533    949.33997    80.090169 
    9800    505.40402   -104.98637   0.45730018   -104.52907    8394.7234    4.3108921    4.3108921    4.3108921    8394.7234    49664.025   -14180.836   -10299.019   -2904.8623    1712.6939    -6083.477    80.112718 
    9900    469.01369   -104.95329   0.42437345   -104.52892   -18535.281    4.3204825    4.3204825    4.3204825   -18535.281   -14847.299   -9556.7477   -31201.796    3602.4204    9153.2371   -4536.5437    80.648582 
   10000    570.75908   -105.04083   0.51643481    -104.5244    21737.771    4.3008538    4.3008538    4.3008538    21737.771    67214.419   -117.97752   -1883.1285   -518.31947   -3014.9401   -1309.3318    79.554369 
   10100    375.99702   -104.87172      0.34021   -104.53151   -9471.3225    4.3223872    4.3223872    4.3223872   -9471.3225    15305.863   -12198.496   -31521.334   -3136.7958    6514.8663   -6687.1393    80.755295 
   10200    638.21723   -105.10332   0.57747236   -104.52585   -6183.9866    4.3080368    4.3080368    4.3080368   -6183.9866    3396.7121   -7633.2496   -14315.422    2874.5878    7667.0141    681.82933    79.953637 
   10300    387.33841   -104.87789   0.35047193   -104.52742    16553.035    4.3097289    4.3097289    4.3097289    16553.035    65357.787   -5001.4714    -10697.21   -2385.3617   -7042.9341   -2958.5023    80.047885 
   10400    458.73226   -104.94414   0.41507059   -104.52907   -17968.356     4.321027     4.321027     4.321027   -17968.356   -748.70635   -23992.001   -29164.362   -1543.8932    6904.0546   -2177.0839    80.679079 
   10500    597.55931   -105.06514   0.54068422   -104.52445     6583.602    4.3041074    4.3041074    4.3041074     6583.602    21261.998    -28.52052   -1482.6714    8318.9597    4636.5334    2029.1108    79.735054 
   10600    386.67928   -104.87828   0.34987554   -104.52841    2299.3749    4.3167341    4.3167341    4.3167341    2299.3749     52803.43   -21842.596    -24062.71   -6304.4671    4963.6032   -4392.7356    80.438855 
   10700    507.67641   -104.98687   0.45935629   -104.52751   -7443.7003    4.3153785    4.3153785    4.3153785   -7443.7003   -2182.9415    588.34916   -20736.509    4433.5164    8064.9643    2128.0337      80.3631 
   10800    600.05919   -105.06861   0.54294617   -104.52567    9655.0696    4.3050295    4.3050295    4.3050295    9655.0696    45841.146   -8977.7702   -7898.1675   -2922.7129   -3129.7192   -4153.5842     79.78631 
   10900    361.53366   -104.85611   0.32712326   -104.52898   -2154.2201    4.3199279    4.3199279    4.3199279   -2154.2201    22998.467    -3988.593   -25472.534   -3718.0664    11320.933   -2139.8724    80.617532 
   11000    582.94468   -105.05214    0.5274606   -104.52468   -3247.7722    4.3075461    4.3075461    4.3075461   -3247.7722    7316.5362   -8400.8659   -8658.9869    1732.4665    5485.1129   -132.89148    79.926318 
   11100    496.82937   -104.97606   0.44954165   -104.52652    3468.8481    4.3132077    4.3132077    4.3132077    3468.8481    37264.413    -11914.28   -14943.588    1689.1598   -4963.5221   -8729.5283    80.241884 
   11200    441.93907   -104.92761   0.39987576   -104.52773   -7239.8204    4.3167873    4.3167873    4.3167873   -7239.8204     18772.01   -13741.899   -26749.572    703.11843    12078.387    2928.2988    80.441831 
   11300    539.41605   -105.01364   0.48807497   -104.52557   -3207.5228      4.30729      4.30729      4.30729   -3207.5228    14193.843   -15839.944   -7976.4679    7937.9359   -260.97858   -11496.097    79.912063 
   11400    529.74974   -105.00495    0.4793287   -104.52562    1112.6296    4.3165852    4.3165852    4.3165852    1112.6296    33459.905   -8210.3853   -21911.631   -1016.6685    3534.2287    2151.4561    80.430533 
   11500    404.27266    -104.8959   0.36579439    -104.5301   -4607.8478    4.3114311    4.3114311    4.3114311   -4607.8478    18645.709   -14886.482   -17582.771     3263.852    4881.1984   -5615.6619    80.142772 
   11600    620.55029   -105.09005   0.56148695   -104.52856    4891.1431     4.309098     4.309098     4.309098    4891.1431    26540.039   -3622.9489    -8243.661    1644.0885    -2687.906   -3818.0468    80.012732 
   11700    422.47314    -104.9101   0.38226257   -104.52784   -5843.4737     4.321619     4.321619     4.321619   -5843.4737     25629.13   -18057.667   -25101.884   -4434.1351    10769.197    2832.5483    80.712244 
   11800    467.10491   -104.94902   0.42264634   -104.52638    4771.4533    4.2994666    4.2994666    4.2994666    4771.4533    28945.558   -4120.3353   -10510.863     6825.338    1961.7053   -9678.2704    79.477419 
   11900    672.46601   -105.13445   0.60846138   -104.52599   -11290.219    4.3234643    4.3234643    4.3234643   -11290.219    3782.0459   -22372.683   -15280.019   -144.10577     585.7412    5224.1451    80.815679 
   12000    301.77413   -104.80271   0.27305158   -104.52966    21.182579    4.3085304    4.3085304    4.3085304    21.182579    39448.133   -13356.172   -26028.414    1387.0297    16727.885   -8957.3357     79.98112 
   12100    580.64351   -105.05352   0.52537845   -104.52814   -616.98009    4.3080011    4.3080011    4.3080011   -616.98009    15076.495   -16556.573   -370.86299    4988.5495   -1597.6881   -595.18175    79.951649 
   12200    642.55231   -105.10596   0.58139483   -104.52457   -14929.222    4.3226011    4.3226011    4.3226011   -14929.222   -618.91908   -16042.941   -28125.807   -4795.1685    5942.7211   -3381.2566    80.767286 
   12300    241.80453   -104.74649   0.21878982    -104.5277     9719.753    4.3016824    4.3016824    4.3016824     9719.753    50303.174   -11444.145   -9699.7697    1815.3144    3948.4243   -7746.4296    79.600357 
   12400    720.42372   -105.17809   0.65185452   -104.52623   -4570.5928    4.3181702    4.3181702    4.3181702   -4570.5928    10525.951   -13499.937   -10737.792   -2776.8414   -1197.3421    2501.9367    80.519163 
   12500    459.43544   -104.94593   0.41570684   -104.53023   -8846.9625    4.3134161    4.3134161    4.3134161   -8846.9625    11258.196   -12886.044    -24913.04     2502.308    9277.5288   -7472.5592    80.253516 
   12600    353.79973    -104.8505   0.32012543   -104.53037     13688.38    4.3061719    4.3061719    4.3061719     13688.38    49437.746    -9002.033    629.42595    5123.0447   -1996.7862   -562.45637    79.849845 
   12700    684.19828   -105.14466   0.61907698   -104.52558   -12181.911    4.3192352    4.3192352    4.3192352   -12181.911   -2897.0131   -16270.156   -17378.563    4757.8672    2968.7621   -1708.2374    80.578759 
   12800    365.19005   -104.85721   0.33043163   -104.52678   -1172.1898    4.3066639    4.3066639    4.3066639   -1172.1898    18082.873   -9375.2012   -12224.241   -1372.9051    12181.486   -6290.6287    79.877218 
   12900    511.96464   -104.98654   0.46323637   -104.52331     1882.055    4.3169197    4.3169197    4.3169197     1882.055    39312.988   -23720.323   -9946.5003    7842.5342   -6854.0888    1625.2182    80.449234 
   13000    512.38839    -104.9885   0.46361978   -104.52488   -5096.0813    4.3091915    4.3091915    4.3091915   -5096.0813    366.32805   -627.83475   -15026.737   -2331.7767    8788.4051   -7634.7571    80.017945 
   13100    482.88171   -104.96348   0.43692152   -104.52655    -7386.329    4.3145567    4.3145567    4.3145567    -7386.329    14077.067   -22142.993   -14093.062    8479.1101    6513.3879   -852.62605    80.317197 
   13200    433.87358   -104.91648   0.39257794    -104.5239    12989.869    4.3106297    4.3106297    4.3106297    12989.869    46476.461   -2616.7781   -4890.0749   -975.22924    -1048.916   -1905.6793     80.09809 
   13300    569.64776   -105.04117   0.51542927   -104.52574   -14750.123    4.3133215    4.3133215    4.3133215   -14750.123   -5824.0412   -13639.311   -24787.017    1458.0015    12213.382   -7821.9038    80.248234 
   13400    479.28751   -104.95846   0.43366941   -104.52479    4540.1482    4.3143609    4.3143609    4.3143609    4540.1482    25991.227   -13370.973    1000.1897    6544.4901   -1650.5447    3313.9176    80.306262 
   13500     486.8377   -104.96582   0.44050098   -104.52532    2836.2505    4.3083689    4.3083689    4.3083689    2836.2505    39839.931   -11412.394   -19918.786   -2438.3139    9781.2581   -8908.6608    79.972128 
   13600    483.19716   -104.96381   0.43720694   -104.52661   -8213.8738    4.3151066    4.3151066    4.3151066   -8213.8738   -7662.0982   -11318.765   -5660.7582   -35.889552    9058.7366    3945.4428    80.347912 
   13700    559.05087   -105.03107   0.50584097   -104.52523    1374.2354    4.3107406    4.3107406    4.3107406    1374.2354    27074.017   -12464.114   -10487.196    2642.6281   -5765.0824   -4200.8804     80.10427 
   13800     396.4051   -104.88575   0.35867567   -104.52707    322.32133    4.3128651    4.3128651    4.3128651    322.32133    28021.699   -8081.6919   -18973.043    -1465.359    11308.298    -1040.041    80.222766 
   13900    571.76561   -105.04156   0.51734554   -104.52422   -5591.2767    4.3125537    4.3125537    4.3125537   -5591.2767   -688.75178   -9156.2367   -6928.8416    4887.9693    2587.1236    2058.7909    80.205387 
   14000    527.30056   -105.00017   0.47711263   -104.52306    1530.1033    4.3108386    4.3108386    4.3108386    1530.1033    25590.967   -9319.8012   -11680.856    2798.0956   -1117.9204   -6156.6328    80.109731 
   14100    381.49603   -104.87027   0.34518563   -104.52508    2112.9841     4.314054     4.314054     4.314054    2112.9841    27262.377    -3792.184   -17131.241    5474.8616    9761.7261    5823.5234    80.289124 
   14200    624.76159   -105.08779   0.56529741    -104.5225   -2471.9738    4.3109306    4.3109306    4.3109306   -2471.9738    4671.1238   -10174.638   -1912.4069    8554.8651   -3201.9491   -6830.9235    80.114864 
   14300    448.73318   -104.92977   0.40602321   -104.52374    241.17367    4.3145169    4.3145169    4.3145169    241.17367    23490.001   -3149.5205   -19616.959   -4196.6955    11632.501    2390.8378    80.314972 
   14400    473.16467   -104.95198   0.42812934   -104.52385    5300.8788    4.3082246    4.3082246    4.3082246    5300.8788    35175.673   -10762.708   -8510.3287     5761.691    3268.6173   -3829.8785    79.964093 
   14500    538.22796   -105.01152   0.48699997   -104.52452   -10921.736    4.3169087    4.3169087    4.3169087   -10921.736   -7809.0641   -9577.0111   -15379.134    3737.1454   -1394.8319   -2032.5633     80.44862 
   14600    480.84377   -104.95985   0.43507755   -104.52478     4614.296    4.3077876    4.3077876    4.3077876     4614.296    33396.449   -1254.7749   -18298.786   -3156.5384    13940.014    635.64451    79.939758 
   14700    414.52891   -104.90109   0.37507447   -104.52601    268.39442    4.3156809    4.3156809    4.3156809    268.39442    22935.043   -10463.886   -11665.973    3658.2912   -2997.0398   -2593.4934    80.379994 
   14800    650.25591   -105.11106   0.58836522    -104.5227   -7822.7528    4.3099842    4.3099842    4.3099842   -7822.7528    646.46215   -6623.4364   -17491.284   -452.99007     8794.147   -445.93725    80.062108 
   14900    394.36413   -104.88245   0.35682895   -104.52562    4837.5336    4.3130066    4.3130066    4.3130066    4837.5336     29362.54   -3816.9107   -11033.029    4274.7276    7636.3479   -197.78072     80.23066 
   15000    502.82024   -104.97959   0.45496232   -104.52463    901.53841    4.3110935    4.3110935    4.3110935    901.53841    33285.446   -18074.992   -12505.839   -803.30068    2920.8998   -3111.8311    80.123948 
   15100    527.29463   -105.00238   0.47710726   -104.52527   -4154.6969     4.313335     4.313335     4.313335   -4154.6969   -678.14736    -1038.556   -10747.387   -2245.9906    13135.143    4481.0109     80.24899 
   15200    498.01799   -104.97549   0.45061715   -104.52488    758.46663     4.312751     4.312751     4.312751    758.46663    27987.395   -11643.898   -14068.097    5338.0306   -2428.1481    -935.4723      80.2164 
   15300    486.56119   -104.96628   0.44025079   -104.52603    2489.1291    4.3085299    4.3085299    4.3085299    2489.1291     28247.92   -10867.944   -9912.5883     4336.668    2543.6605    436.47727    79.981091 
   15400    545.64188   -105.01927   0.49370824   -104.52557    -11622.78    4.3179432    4.3179432    4.3179432    -11622.78   -3847.9276   -6292.8577   -24727.556   -3416.4052    12431.207    3874.8727    80.506467 
   15500     488.7624   -104.96653   0.44224249   -104.52429    11845.196    4.3047779    4.3047779    4.3047779    11845.196    49837.087   -12990.517   -1310.9813    10033.308   -7203.3364   -5419.7616    79.772325 
   15600    438.77037   -104.92493   0.39700865   -104.52793   -5082.0372    4.3175657    4.3175657    4.3175657   -5082.0372    15004.109   -3843.1342   -26407.086    3911.0726    10282.796    8370.6758    80.485353 
   15700    633.55276   -105.09861   0.57325185   -104.52536   -149.80602    4.3093394    4.3093394    4.3093394   -149.80602    9120.7564   -4367.0194   -5203.1551    1592.6932    5830.2222   -6248.6281    80.026184 
   15800    353.01431   -104.84651   0.31941477   -104.52709    8826.3461    4.3114248    4.3114248    4.3114248    8826.3461    44171.046   -2549.6908   -15142.317   -1005.5776    1731.0665    4493.0615    80.142419 
   15900    502.26592    -104.9796   0.45446076   -104.52514   -7457.6134    4.3174871    4.3174871    4.3174871   -7457.6134     14656.13   -14024.336   -23004.634   -3292.7847     13399.83   -2784.2113    80.480961 
   16000    629.60927   -105.09307    0.5696837   -104.52338    4800.4095    4.3028863    4.3028863    4.3028863    4800.4095    16813.436    2085.4356   -4497.6429    6727.7774   -4955.0628   -1771.3305    79.667212 
   16100    374.19451   -104.86796   0.33857905   -104.52938   -6483.6031    4.3226142    4.3226142    4.3226142   -6483.6031    32539.157   -21239.169   -30750.797   -1967.2206    13274.967    5166.6125     80.76802 
   16200    517.11903   -104.99469   0.46790016   -104.52678    9171.0449    4.3034521    4.3034521    4.3034521    9171.0449    26848.649    7663.8501   -6999.3647   -1429.2177    9424.2907   -4483.3281    79.698642 
   16300    543.23021   -105.02057   0.49152611   -104.52904    -5848.424    4.3140752    4.3140752    4.3140752    -5848.424    20016.641   -18372.144   -19189.769    5111.7405   -3718.3545    7805.2431    80.290311 
   16400     314.4479   -104.81243   0.28451907   -104.52791    4034.6637    4.3162436    4.3162436    4.3162436    4034.6637     42179.83   -9873.1826   -20202.656    2248.1075    14337.822   -1478.9959    80.411443 
   16500    664.77442   -105.12542   0.60150187   -104.52392    2331.6802    4.3011164    4.3011164    4.3011164    2331.6802    16647.241   -2516.4862   -7135.7146   -1948.6819      285.665     2949.182    79.568944 
   16600    461.00146   -104.94195   0.41712381   -104.52482   -15364.361    4.3250234    4.3250234    4.3250234   -15364.361    5610.7359   -29823.595   -21880.223    4171.7826    2882.4482    2018.6984    80.903141 
   16700    392.02195   -104.87793    0.3547097   -104.52322    13384.711    4.3016056    4.3016056    4.3016056    13384.711    48677.575    4272.9757   -12796.417   -1653.9829    6493.4242    275.49896    79.596096 
   16800    603.63715   -105.07179   0.54618358    -104.5256   -5918.0141    4.3129517    4.3129517    4.3129517   -5918.0141    8503.9451    -15004.04   -11253.947    7239.4691   -3970.5082     2262.124    80.227595 
   16900    443.45174   -104.92847   0.40124445   -104.52722   -9810.6546     4.318989     4.318989     4.318989   -9810.6546     8061.467   -7850.0124   -29643.418     1231.986     12404.68    103.72173    80.564979 
   17000    521.58366   -104.99664   0.47193986    -104.5247    13718.801    4.2967644    4.2967644    4.2967644    13718.801    48623.038   -816.78425   -6649.8516    1295.6657    3174.9681   -4834.7754    79.327657 
   17100    571.81075     -105.044   0.51738638   -104.52661   -18980.566    4.3263614    4.3263614    4.3263614   -18980.566   -16006.036   -16663.412   -24272.249    5854.8376    -1566.076     3437.766    80.978252 
   17200    427.53504   -104.91493   0.38684269   -104.52809    5349.0107    4.3014727    4.3014727    4.3014727    5349.0107    30507.353    163.82318   -14624.144   -5094.4527    16600.176   -5350.9046     79.58872 
   17300    518.36901   -104.99729   0.46903118   -104.52826    5079.6547    4.3108866    4.3108866    4.3108866    5079.6547    31614.605   -4349.5059   -12026.136    -4203.492   -1905.1459    6041.7177    80.112409 
   17400    566.13563   -105.03691   0.51225141   -104.52466   -18708.069    4.3194656    4.3194656    4.3194656   -18708.069   -13953.126   -15667.572   -26503.508    3610.3372    5922.9296   -656.25164    80.591652 
   17500    415.03861    -104.8981   0.37553566   -104.52257    15949.147    4.2958698    4.2958698    4.2958698    15949.147     45783.95    8403.7181   -6340.2273   -920.17986    5838.2673    1675.5526    79.278117 
   17600    604.26465   -105.06902   0.54675135   -104.52227   -12352.018    4.3243054    4.3243054    4.3243054   -12352.018    8011.9684   -18836.305   -26231.718    1196.1254   -2207.1307     5855.215    80.862858 
   17700    405.95664   -104.89385    0.3673181   -104.52653    4392.7202    4.3010448    4.3010448    4.3010448    4392.7202    10502.804    11909.904   -9234.5472    1796.4512    11567.823   -2336.7305    79.564971 
   17800     497.7999    -104.9777   0.45041981   -104.52728    3262.2477    4.3131585    4.3131585    4.3131585    3262.2477    34610.761   -9720.7807   -15103.237   -484.67318   -2783.4387    7784.9731    80.239136 
   17900     523.4748   -104.99868     0.473651   -104.52503   -2732.4231    4.3149573    4.3149573    4.3149573   -2732.4231    20835.367   -8238.0774   -20794.559    2969.8501    1100.5314   -5335.8833    80.339568 
   18000    444.64612     -104.928   0.40232515   -104.52568   -4725.7386    4.3044613    4.3044613    4.3044613   -4725.7386   -1088.6079      934.996   -14023.604   -3612.5609    10791.372    2107.5411    79.754727 
   18100    611.15474   -105.07717   0.55298565   -104.52419    385.85851     4.317108     4.317108     4.317108    385.85851    36346.436   -17379.163   -17809.698    838.19598   -4138.9651   -3838.2676    80.459761 
   18200    286.67947    -104.7885   0.25939361   -104.52911    7479.2574    4.3071939    4.3071939    4.3071939    7479.2574    31131.139    10954.903    -19648.27    6313.8602    4740.0511    -1976.659    79.906713 
   18300    699.57245   -105.15949   0.63298785   -104.52651   -8864.8062    4.3103468    4.3103468    4.3103468   -8864.8062   -1666.9885   -12334.739   -12592.691   -6477.1482    2518.7433   -1000.5789    80.082317 
   18400    379.18713   -104.86961   0.34309649   -104.52651    5910.2753    4.3141287    4.3141287    4.3141287    5910.2753    28682.702    4511.3089   -15463.185   -2516.8483   -641.06955   -1485.1469    80.293295 
   18500    485.83124   -104.96558   0.43959032   -104.52599   -1540.0214    4.3055327    4.3055327    4.3055327   -1540.0214    17369.042   -5023.0437   -16966.062    3771.1233    11071.076   -1348.3464    79.814292 
   18600    623.64112   -105.08646    0.5642836   -104.52218   -9823.3474    4.3180293    4.3180293    4.3180293   -9823.3474   -8016.3579   -7825.3415   -13628.343   -12190.979   -4138.0424    2375.2425    80.511285 
   18700    352.59834   -104.84375   0.31903839   -104.52472    12798.052    4.3026664    4.3026664    4.3026664    12798.052    49659.998    3630.1288   -14895.972   -2676.1445    1110.1238   -1307.9841    79.654998 
   18800    549.99014   -105.02306   0.49764264   -104.52541   -10027.968    4.3166206    4.3166206    4.3166206   -10027.968    6466.5687   -16238.708   -20311.763   -6471.5675    5538.3464    5600.6039    80.432511 
   18900    578.18043   -105.04702    0.5231498   -104.52387   -2541.7812    4.3088928    4.3088928    4.3088928   -2541.7812     2154.556   -602.03589   -9177.8636   -4973.7562   -3309.9434   -39.181894    80.001307 
   19000    416.89587   -104.90271   0.37721614   -104.52549    6225.1504    4.3075002    4.3075002    4.3075002    6225.1504    41838.115   -3881.4503   -19281.213    3950.6578    4888.2314    2581.5719    79.923764 
   19100    513.36646   -104.98954   0.46450476   -104.52504   -345.24682    4.3152999    4.3152999    4.3152999   -345.24682    10853.767    -1083.573   -10805.935   -10008.509   -3891.8642    61.201098    80.358709 
   19200    553.43774   -105.02716    0.5007621    -104.5264   -4184.0047    4.3049906    4.3049906    4.3049906   -4184.0047    4217.2046   -3665.8873   -13103.332    2015.5637    2033.9009   -2551.1531    79.784153 
   19300    429.43292   -104.91593   0.38855993   -104.52737    1320.5308    4.3155117    4.3155117    4.3155117    1320.5308    26263.685   -1953.2861   -20348.807   -1289.9765    7294.0188    2025.0384    80.370542 
   19400    503.60069   -104.98189   0.45566849   -104.52622   -1604.3153    4.3067932    4.3067932    4.3067932   -1604.3153     18352.17   -14188.789   -8976.3273   -12183.813   -4288.5459   -6737.3486    79.884412 
   19500    557.72693   -105.03059   0.50464305   -104.52595   -5009.8286    4.3108983    4.3108983    4.3108983   -5009.8286    2234.0114    4552.6187   -21816.116    1482.3269    3089.1294    2964.2413    80.113062 
   19600    458.08119   -104.94032   0.41448148   -104.52583    5451.2709    4.3117376    4.3117376    4.3117376    5451.2709    42584.782   -13492.858   -12738.111   -4248.4095    2289.3146   -6749.8357    80.159864 
   19700    413.75934   -104.90248   0.37437814    -104.5281    3250.6211    4.3044494    4.3044494    4.3044494    3250.6211    15348.056    3901.9093   -9498.1017   -8003.3558   -1030.3389    950.51772    79.754062 
   19800    724.36158   -105.17954   0.65541758   -104.52413   -14380.607    4.3193338    4.3193338    4.3193338   -14380.607   -7747.5688   -8808.9158   -26585.338    3634.0788    5305.8509   -292.76219    80.584276 
   19900    306.85616   -104.80453    0.2776499   -104.52688    22675.337    4.2974211    4.2974211    4.2974211    22675.337    64338.349    4003.2738   -315.61052   -8314.5643   -5128.7295    -415.8109    79.364033 
   20000     471.9514    -104.9563   0.42703154   -104.52927   -15482.943    4.3197927    4.3197927    4.3197927   -15482.943    -2174.458   -12915.118   -31359.255    61.320659    2533.4181    2418.3446    80.609964 
   20100    720.71934   -105.17423     0.652122   -104.52211    3647.4933    4.3049907    4.3049907    4.3049907    3647.4933    19291.234    205.32098   -8554.0748    -7051.074    4500.0658    768.47346    79.784153 
   20200    202.62992   -104.71207   0.18334381   -104.52873   -419.53193    4.3125141    4.3125141    4.3125141   -419.53193    37715.472   -16406.467   -22567.601   -9543.6512   -6402.8407    136.52686    80.203179 
   20300    739.45448   -105.19118   0.66907395    -104.5221   -9452.4456     4.311225     4.311225     4.311225   -9452.4456   -3549.8769   -5969.9964   -18837.464    3887.1746    4256.5613    3275.0831    80.131277 
   20400    408.82016   -104.89558   0.36990907   -104.52567    4316.8636    4.3061697    4.3061697    4.3061697    4316.8636    24314.477   -2051.3453   -9312.5409   -5879.5143   -19.691133   -3632.0003    79.849726 
   20500    387.35964   -104.87767   0.35049114   -104.52718    -3536.148    4.3143218    4.3143218    4.3143218    -3536.148    32549.952   -17486.207   -25672.189   -2754.4718    1603.2709    2226.6124    80.304076 
   20600    638.92976   -105.10152   0.57811707    -104.5234   -787.36446    4.3085981    4.3085981    4.3085981   -787.36446    3949.9751    5152.1505   -11464.219    5301.5214    1554.0774   -5291.5017    79.984891 
   20700    474.02649   -104.95572   0.42890913   -104.52681   -5267.7091    4.3108959    4.3108959    4.3108959   -5267.7091    26635.389   -23131.219   -19307.297   -5635.8108   -2914.6775   -3167.0118     80.11293 
   20800    437.24209   -104.92202   0.39562583   -104.52639    2807.0909    4.3112017    4.3112017    4.3112017    2807.0909     26786.12      689.114   -19053.961   -6314.6966    1044.1234   -248.17896    80.129981 
   20900    587.97281   -105.05696   0.53201016   -104.52494    1734.7516    4.3059584    4.3059584    4.3059584    1734.7516    22356.523   -9017.5323   -8134.7365     22.57369    1956.9329   -7769.4176    79.837969 
   21000    460.90993   -104.94324   0.41704099    -104.5262   -12111.107    4.3174248    4.3174248    4.3174248   -12111.107    1960.6809    -15123.13   -23170.871   -8444.7913   -8546.0831    5455.1509    80.477478 
   21100    470.28256   -104.95072   0.42552154    -104.5252    11923.206    4.3022992    4.3022992    4.3022992    11923.206    43478.041     1571.906   -9280.3282    4327.7381    439.29335    -8595.975    79.634604 
   21200    583.72326   -105.05352   0.52816508   -104.52535   -15475.758    4.3163151    4.3163151    4.3163151   -15475.758   -7753.3271   -18855.855   -19818.092   -5276.3027   -1350.7887    4806.7295    80.415439 
   21300    456.02353   -104.93704   0.41261967   -104.52442    5232.0652    4.3066112    4.3066112    4.3066112    5232.0652    20482.025    8446.9354   -13232.764    721.74004   -2067.5039   -2631.3058    79.874286 
   21400    452.17346   -104.93413   0.40913605     -104.525   -3296.4967    4.3126134    4.3126134    4.3126134   -3296.4967     35148.11   -22638.675   -22398.925    8562.2932     2762.871    -735.2135     80.20872 
   21500    580.49788   -105.04778   0.52524668   -104.52254    -1340.606      4.30889      4.30889      4.30889    -1340.606    3744.5117   -328.09655   -7438.2333   -6986.5811   -5969.6154    2294.4689    80.001149 
   21600    476.36148     -104.957   0.43102188   -104.52598    -8312.234    4.3119582    4.3119582    4.3119582    -8312.234    19373.288   -18577.842   -25732.149    1124.0183    2549.6954   -7724.0419    80.172166 
   21700     474.6425    -104.9544   0.42946651   -104.52494    13104.631    4.3059453    4.3059453    4.3059453    13104.631    48493.167   -3834.9993   -5344.2733    4166.6572   -557.46949   -490.49108    79.837241 
   21800    567.55276   -105.04033   0.51353366   -104.52679   -13524.712    4.3143755    4.3143755    4.3143755   -13524.712   -5351.6107   -11927.866   -23294.661   -3845.7683   -7785.3515   -5070.1419    80.307079 
   21900    400.56328   -104.89034   0.36243808    -104.5279    6592.2269    4.3064456    4.3064456    4.3064456    6592.2269        38568   -4704.6909   -14086.628    2761.3669   -279.73287   -7599.0922    79.865076 
   22000     563.7749   -105.03568   0.51011538   -104.52556   -440.14256    4.3123649    4.3123649    4.3123649   -440.14256     24214.05   -14293.888   -11240.589    6703.5464    988.56642    74.580671    80.194853 
   22100    477.79943   -104.95923   0.43232296   -104.52691   -9405.6594      4.30968      4.30968      4.30968   -9405.6594   -2318.3268   -2856.8395   -23041.812   -2469.8772   -5937.0179   -10800.949    80.045158 
   22200    487.84068   -104.96728    0.4414085   -104.52587    8569.9939    4.3089817    4.3089817    4.3089817    8569.9939     37794.08   -7954.9557   -4129.1429    4089.6447   -103.28614   -1346.0772    80.006259 
   22300    418.76287   -104.90609   0.37890544   -104.52718   -3049.5764    4.3137159    4.3137159    4.3137159   -3049.5764    31766.561   -13450.072   -27465.219   -5778.5669   -8384.3468    -3430.812    80.270248 
   22400    541.98113    -105.0156   0.49039592    -104.5252   -3421.7847    4.3079681    4.3079681    4.3079681   -3421.7847    7025.0253   -6017.2343   -11273.145    640.80588   -1882.5066   -7113.3969    79.949811 
   22500    577.94092   -105.04714   0.52293309   -104.52421    1199.3013     4.310958     4.310958     4.310958    1199.3013    31009.197    -16469.23   -10942.063    10671.815   -301.67766    5728.9109    80.116392 
   22600    340.08549   -104.83624    0.3077165   -104.52852   -786.86293    4.3115966    4.3115966    4.3115966   -786.86293    23245.801   -2098.0646   -23508.325   -8917.2476   -9016.9518   -11896.208    80.151998 
   22700    709.60961   -105.16677   0.64206969    -104.5247   -468.18406    4.3060084    4.3060084    4.3060084   -468.18406    8850.1572   -7992.4878   -2262.2216    10515.663    4419.4044    4634.7465    79.840753 
   22800    327.72627   -104.82415   0.29653361   -104.52762   -3459.8998    4.3179052    4.3179052    4.3179052   -3459.8998    23154.159   -10160.333   -23373.525    7601.9809   -1731.7253   -8530.6502    80.504345 
   22900    515.26323   -104.99008     0.466221   -104.52386    3734.2086    4.3043976    4.3043976    4.3043976    3734.2086    34079.529   -7767.5842    -15109.32   -1741.9906   -686.92147   -3674.3869    79.751187 
   23000    643.42439   -105.10612   0.58218391   -104.52393   -12928.721    4.3135298    4.3135298    4.3135298   -12928.721   -13893.804   -16892.519   -7999.8394    9420.8304   -2806.6348   -1809.2872    80.259863 
   23100    359.34029   -104.85201   0.32513864   -104.52687    782.69793    4.3094457    4.3094457    4.3094457    782.69793    34930.896   -8824.5961   -23758.206   -2282.8547   -5844.4069   -12502.991    80.032107 
   23200    491.09414   -104.96953    0.4443523   -104.52517    3568.3264    4.3084715    4.3084715    4.3084715    3568.3264    23397.197   -8366.3777     -4325.84    5743.4252   -2160.2993    1558.7541    79.977839 
   23300    577.90681   -105.04833   0.52290223   -104.52542    -13355.71    4.3127502    4.3127502    4.3127502    -13355.71   -8899.0937   -14094.264   -17073.772    8737.2032    897.90424   -11949.226    80.216352 
   23400    502.70046   -104.98099   0.45485394   -104.52613    2086.9182    4.3085393    4.3085393    4.3085393    2086.9182    32666.219   -6534.3622   -19871.103   -5455.9713    -10313.27   -993.12029    79.981615 
   23500    438.19736   -104.92275   0.39649018   -104.52626    4401.1829    4.3077818    4.3077818    4.3077818    4401.1829    28293.485   -7893.9443   -7195.9915    11918.323     2041.307   -2264.2947    79.939439 
   23600    561.21732   -105.03334   0.50780122   -104.52554   -15798.476     4.315135     4.315135     4.315135   -15798.476   -3298.7245    -13423.24   -30673.462    3724.9974   -5445.9191   -5847.3307    80.349496 
   23700     490.8679   -104.96763   0.44414759   -104.52349    10666.095    4.3055188    4.3055188    4.3055188    10666.095    30988.097    6890.4198   -5880.2311   -6940.9099   -6403.0086    2387.5734    79.813523 
   23800    454.47358     -104.939   0.41121724   -104.52778   -8210.0803    4.3105978    4.3105978    4.3105978   -8210.0803    18796.304   -25141.603   -18284.942    14531.958    205.97414   -6809.1136    80.096313 
   23900    602.15693   -105.06867   0.54484425   -104.52383   -8166.3707     4.313408     4.313408     4.313408   -8166.3707   -6089.5088   -2314.9205   -16094.683   -5143.1866   -9638.6241   -311.96151    80.253064 
   24000    430.78841   -104.91449   0.38978641    -104.5247    12893.476    4.3020406    4.3020406    4.3020406    12893.476    52179.061   -6850.2305   -6648.4024    4968.6613    5174.2415   -1819.1262    79.620243 
   24100     333.1297   -104.82969   0.30142275   -104.52827   -9680.7724    4.3188659    4.3188659    4.3188659   -9680.7724    14811.563   -17721.713   -26132.167    2855.1108   -3114.2311   -8030.1026     80.55809 
   24200    780.80812   -105.22916    0.7064916   -104.52267    2575.7024    4.3029593    4.3029593    4.3029593    2575.7024    7894.1098    9460.3103   -9627.3129    3189.8135   -4920.7545    1306.6258    79.671267 
   24300    359.94502   -104.85519   0.32568582    -104.5295   -5563.3592    4.3130771    4.3130771    4.3130771   -5563.3592    29790.127   -26648.695   -19831.509    8411.0871     3226.653   -11812.195    80.234592 
   24400    446.24654   -104.93011   0.40377325   -104.52634    4357.4294    4.3116842    4.3116842    4.3116842    4357.4294    32540.429    530.73986    -19998.88    169.03074   -4312.2808   -163.40806    80.156883 
   24500    694.67184   -105.15234   0.62855368   -104.52378   -5661.5429    4.3072679    4.3072679    4.3072679   -5661.5429   -691.05753   -5557.8064   -10735.765   -4472.8844   -2760.3281    -6299.005     79.91083 
   24600    269.98348   -104.77384   0.24428672   -104.52956    3476.5965    4.3127494    4.3127494    4.3127494    3476.5965    42217.327   -10061.833   -21725.705    13181.092   -3814.1871   -5841.8517    80.216309 
   24700    629.39611   -105.09448   0.56949083   -104.52499   -219.19529    4.3093422    4.3093422    4.3093422   -219.19529    16807.133   -2992.2332   -14472.485   -4299.3508    -9576.662    2701.7647     80.02634 
   24800    528.18198   -105.00496   0.47791015   -104.52705   -42.036504    4.3073937    4.3073937    4.3073937   -42.036504    20275.466   -4825.2946   -15576.281    6380.9643    1602.6392   -9062.1628    79.917835 
   24900    364.41623    -104.8578   0.32973146   -104.52807   -1863.5164    4.3160294    4.3160294    4.3160294   -1863.5164    32901.998   -17859.385   -20633.163    11883.764   -5144.9346    4638.4334    80.399469 
   25000    590.65448   -105.05828   0.53443659   -104.52385     6843.632    4.3029421    4.3029421    4.3029421     6843.632    25814.395    6915.6289   -12199.128    73.410366   -8416.3139   -2629.4679    79.670313 
   25100    476.85707   -104.95847    0.4314703     -104.527   -12271.959    4.3151446    4.3151446    4.3151446   -12271.959    654.41058   -21364.275   -16106.012    10757.404    5711.5887   -2068.7024    80.350036 
   25200    457.70148   -104.93988   0.41413792   -104.52574     6276.473    4.3083011    4.3083011    4.3083011     6276.473    39184.227   -3884.8116   -16469.996   -3848.7636   -8295.1035     5415.838    79.968352 
   25300     554.4228   -105.02706    0.5016534    -104.5254    128.74807    4.3081067    4.3081067    4.3081067    128.74807    22625.354   -6810.0638   -15429.046    3833.3613   -579.72311   -10132.989    79.957526 
   25400    451.40383   -104.93681   0.40843968   -104.52837   -7020.8362    4.3141676    4.3141676    4.3141676   -7020.8362     9569.858   -17076.767     -13555.6    8480.9694   -4115.8001     5067.364    80.295467 
   25500    512.15768   -104.98948   0.46341103   -104.52607    9051.9823       4.3054       4.3054       4.3054    9051.9823    41829.586   -369.33306   -14304.306   -2751.0929   -4780.3395   -6259.8928    79.806913 
   25600     532.7117   -105.00869   0.48200874   -104.52668   -4305.6578    4.3121359    4.3121359    4.3121359   -4305.6578    14796.118   -17810.182   -9902.9098    6927.6467    5510.3101     -3282.03    80.182082 
   25700    504.50889   -104.98264   0.45649025   -104.52614   -7612.1501    4.3118095    4.3118095    4.3118095   -7612.1501     3975.474   -12865.839   -13946.085    8414.1911   -5485.8389    1531.7577    80.163871 
   25800    466.15201   -104.94685   0.42178414   -104.52507     12532.41    4.3038243    4.3038243    4.3038243     12532.41    52822.033   -4995.0604   -10229.741   -6398.9673   -3207.7056   -10995.529    79.719321 
   25900    500.32349   -104.97742    0.4527032   -104.52472   -15627.301    4.3189976    4.3189976    4.3189976   -15627.301   -4815.3463   -24513.013   -17553.545    10817.694      4324.89    7082.4095    80.565458 
   26000    556.58894   -105.02685   0.50361337   -104.52324    5551.5219    4.3004162    4.3004162    4.3004162    5551.5219    19587.838   -1277.7217   -1655.5508    194.08059   -5632.2827   -7261.5685    79.530089 
   26100     465.9023    -104.9483   0.42155819   -104.52674   -1634.2306    4.3157634    4.3157634    4.3157634   -1634.2306     33309.11   -18521.206   -19690.596    4057.2553   -6110.5453     3660.843    80.384603 
   26200    486.05308   -104.96562   0.43979104   -104.52583   -989.29885    4.3099694    4.3099694    4.3099694   -989.29885    11915.556   -17838.864    2955.4114    10669.956   -1313.6937    2131.6335    80.061286 
   26300    549.00155   -105.02205   0.49674814    -104.5253    368.31477    4.3062262    4.3062262    4.3062262    368.31477    20022.102   -3510.7724   -15406.386   -4473.8538   -7724.6123    -3474.354    79.852868 
   26400    409.57223   -104.89691   0.37058957   -104.52632    4151.1548    4.3141997    4.3141997    4.3141997    4151.1548    39638.994   -22836.726   -4348.8031    16160.312    3123.6977    6718.1796    80.297263 
   26500    564.78204   -105.03727   0.51102666   -104.52625   -7946.8767    4.3080437    4.3080437    4.3080437   -7946.8767     -2865.71   -9691.7827   -11283.137    1301.7126   -7430.6207   -5119.4965     79.95402 
   26600    522.60073   -104.99928   0.47286013   -104.52642    3877.5328    4.3093259    4.3093259    4.3093259    3877.5328    27483.801   -9694.3677   -6156.8352   -2261.5688   -1406.1731    2862.3579    80.025429 
   26700    385.13818   -104.87458   0.34848112   -104.52609   -3330.0841    4.3155777    4.3155777    4.3155777   -3330.0841     26842.61   -28007.672   -8825.1901    9625.8204    2350.1183   -1917.7193    80.374229 
   26800    603.43427   -105.06963   0.54600001   -104.52363   -1220.6393    4.3014094    4.3014094    4.3014094   -1220.6393    2366.5376   -3303.4662   -2724.9894   -2146.8327   -5931.4713   -7872.9172    79.585203 
   26900    501.34847   -104.97794   0.45363063   -104.52431   -8500.6307    4.3193588    4.3193588    4.3193588   -8500.6307    9908.8887   -23607.598   -11803.182    5865.5096   -2113.0578     2491.184    80.585676 
   27000    415.02161    -104.8994   0.37552028   -104.52388    8922.9136    4.3014702    4.3014702    4.3014702    8922.9136    37345.893   -10226.124   -351.02742    3550.6789    3618.5924   -9904.0642     79.58858 
   27100    561.60693   -105.03153   0.50815375   -104.52337    -13611.43    4.3161934    4.3161934    4.3161934    -13611.43   -10193.823   -14477.848   -16162.619   -1748.3988   -4712.5658    2199.5998    80.408637 
   27200    548.32818   -105.01939   0.49613886   -104.52325    2916.9389    4.3075275    4.3075275    4.3075275    2916.9389    29051.314   -16815.641    -3484.856    12127.108    947.07983   -3866.1147    79.925279 
   27300    356.69035   -104.84998   0.32274092   -104.52723    2258.8495    4.3075311    4.3075311    4.3075311    2258.8495    28754.561   -13476.543   -8501.4696   -990.55985   -222.56174   -5034.0218     79.92548 
   27400    695.35385   -105.15234   0.62917077   -104.52317   -7320.3302     4.313465     4.313465     4.313465   -7320.3302    3924.3315   -15322.269   -10563.053   -2208.8013   -5304.3349    5702.7238    80.256243 
   27500    404.16703   -104.89131   0.36569882   -104.52561     1126.519    4.3090197    4.3090197    4.3090197     1126.519    22701.693   -21227.384    1905.2475    7633.7725    182.20967    -8968.637    80.008371 
   27600    457.91706    -104.9401   0.41433298   -104.52577    4543.4909    4.3078767    4.3078767    4.3078767    4543.4909    35626.628   -7831.5586   -14164.597   -677.38124   -12722.751    5986.6451    79.944721 
   27700    577.52128   -105.04684   0.52255339   -104.52428   -8942.9785    4.3140856    4.3140856    4.3140856   -8942.9785   -4802.6199   -22888.731    862.41595    6554.1339     2583.769   -6136.5722    80.290892 
   27800    459.72936   -104.94177   0.41597279    -104.5258    325.71317    4.3027674    4.3027674    4.3027674    325.71317    16021.187   -9761.8372   -5282.2104    2684.0523   -3152.7135   -3366.1401    79.660608 
   27900    443.44693   -104.92649    0.4012401   -104.52525   -455.30259    4.3164778    4.3164778    4.3164778   -455.30259    29235.717     -19725.2   -10876.425   -2573.9081   -3778.3148    538.46185    80.424529 
   28000    580.98675   -105.04984   0.52568902   -104.52415   -3883.0426    4.3058921    4.3058921    4.3058921   -3883.0426    5288.6291    -20096.94    3159.1828    9251.4474    2016.9315   -11287.463     79.83428 
   28100    514.63916   -104.99049   0.46565633   -104.52483     -952.495    4.3111062    4.3111062    4.3111062     -952.495    20847.663   -11289.414   -12415.735    -4673.553   -1242.2518    2872.5484    80.124653 
   28200    375.08859   -104.86366   0.33938804   -104.52428    9646.9001    4.3101713    4.3101713    4.3101713    9646.9001    40676.141    -17152.17    5416.7288   -3373.0075   -3366.2804   -8361.2761    80.072535 
   28300    656.80302   -105.11751   0.59428917   -104.52322   -11661.878    4.3097349    4.3097349    4.3097349   -11661.878   -7956.2215   -17483.007   -9546.4048    3369.3223    950.10232   -4389.8403    80.048217 
   28400    429.20716   -104.91329   0.38835565   -104.52493    6580.3571    4.3098972    4.3098972    4.3098972    6580.3571    22416.136   -7581.2387     4906.174    430.30295   -196.51322   -618.65124    80.057261 
   28500    435.23877   -104.92038   0.39381319   -104.52657   -2851.0121    4.3116799    4.3116799    4.3116799   -2851.0121    36645.884   -30901.931   -14296.989    4185.5271     1666.505   -11396.688    80.156643 
   28600    615.09596   -105.07982   0.55655175   -104.52327    1097.6726    4.3058714    4.3058714    4.3058714    1097.6726    2563.3801   -6337.0149    7066.6526    5614.0067    320.35117    3872.9224    79.833132 
   28700    421.61542   -104.90903   0.38148649   -104.52754   -12565.023    4.3149096    4.3149096    4.3149096   -12565.023    10625.179   -29118.146   -19202.102   -5450.5127   -6158.5691   -10977.691    80.336904 
   28800    487.19751   -104.96517   0.44082654   -104.52434    10042.975     4.304701     4.304701     4.304701    10042.975    36917.612   -15997.789    9209.1035    10874.481    4336.4587   -3590.5877    79.768048 
   28900    512.12128     -104.989    0.4633781   -104.52562   -10084.404    4.3148387    4.3148387    4.3148387   -10084.404    2665.5801   -18730.239   -14188.552   -4307.9101   -5992.9686   -2382.2324    80.332947 
   29000    539.05329   -105.01292   0.48774674   -104.52517   -3688.3791    4.3067424    4.3067424    4.3067424   -3688.3791    16928.975   -21634.872   -6359.2406    268.56376   -1917.9911   -12980.267    79.881588 
   29100    453.74705   -104.93503   0.41055987   -104.52447    7543.5693    4.3098958    4.3098958    4.3098958    7543.5693    34094.839   -14258.032    2793.9006    1899.1056    2385.6813    5484.8229    80.057187 
   29200    485.07124   -104.96489   0.43890265   -104.52599   -11258.671    4.3101241    4.3101241    4.3101241   -11258.671      6114.86   -18956.728   -20934.146   -1728.3495    5185.8383   -14709.342    80.069907 
   29300    580.31687   -105.04918    0.5250829   -104.52409    3901.1312    4.3076307    4.3076307    4.3076307    3901.1312     15006.57   -16143.018    12839.841    4109.5073   -2690.0839    2485.1144    79.931029 
   29400    405.92125   -104.89248   0.36728608   -104.52519   -3621.7025    4.3139925    4.3139925    4.3139925   -3621.7025    33576.117   -20769.423   -23671.802    3800.2945    8143.3836   -4569.0468    80.285692 
   29500    458.21471   -104.93992    0.4146023   -104.52531    2597.9326    4.3030043    4.3030043    4.3030043    2597.9326    14033.295   -12768.089    6528.5919   -2561.3653   -1541.6254   -7468.8037    79.673765 
   29600     632.1426   -105.09464   0.57197591   -104.52266   -15482.427    4.3160044    4.3160044    4.3160044   -15482.427    -15311.02   -25828.646   -5307.6159    7305.9268    2025.7705    6449.7354    80.398074 
   29700    347.68497   -104.83865   0.31459266   -104.52406    5903.3838    4.3061542    4.3061542    4.3061542    5903.3838    42751.262   -12968.284   -12072.826   -2603.7714   -6175.3211   -11847.654    79.848861 
   29800    554.72145   -105.02477   0.50192362   -104.52284   -4717.0529     4.311237     4.311237     4.311237   -4717.0529    11167.845   -21717.358   -3601.6453   -1755.8472    -725.9241    4738.4731    80.131944 
   29900    559.39799   -105.02938   0.50615505   -104.52322   -3035.3027    4.3097582    4.3097582    4.3097582   -3035.3027    17550.896   -16612.386   -10044.418    2989.3749   -1098.6869   -3618.3928    80.049516 
   30000    456.62526   -104.93785   0.41316413   -104.52469    2635.9864    4.3088753    4.3088753    4.3088753    2635.9864    24512.353   -12988.628   -3615.7653   -3400.7537    -3924.329   -4495.1908    80.000328 
   30100    501.71828   -104.98007   0.45396524    -104.5261   -989.43897    4.3100198    4.3100198    4.3100198   -989.43897    25666.515   -22407.642   -6227.1895    3339.2252    709.59264    6142.0773    80.064096 
   30200    582.71175   -105.05275   0.52724984    -104.5255    -2239.145    4.3081991    4.3081991    4.3081991    -2239.145    7824.4303   -10879.945   -3661.9205    4450.2715    3434.4423   -7900.8733     79.96267 
   30300    453.55785    -104.9366   0.41038867   -104.52621   -235.59566    4.3120019    4.3120019    4.3120019   -235.59566     30191.62   -19298.789   -11599.619   -3435.7047    1672.9151    5604.8185    80.174605 
   30400    418.91814   -104.90465   0.37904594   -104.52561    2248.5375    4.3087033    4.3087033    4.3087033    2248.5375    25972.911   -22259.782    3032.4837    8934.4727   -5446.8519    2544.6714    79.990747 
   30500    636.25135   -105.09975   0.57569359   -104.52405   -1679.7017    4.3065422    4.3065422    4.3065422   -1679.7017   -2058.7531   -3642.3219    661.96986   -3475.8101    8394.3807   -1724.4577    79.870449 
   30600    391.16492   -104.88011   0.35393424   -104.52618   -9089.2068    4.3161607    4.3161607    4.3161607   -9089.2068    11041.288   -31515.842   -6793.0659   -3853.8974   -1569.4571    12979.602     80.40681 
   30700     531.1436   -105.00144   0.48058989   -104.52085    21972.897     4.298748     4.298748     4.298748    21972.897    52040.194    3950.8254    9927.6707    2702.6304    7195.5998    -6041.006    79.437573 
   30800    504.45954    -104.9796   0.45644559   -104.52315   -17984.589    4.3214734    4.3214734    4.3214734   -17984.589   -8573.0443   -29890.437   -15490.285   -2734.2291   -3122.1449    11612.104    80.704086 
   30900     496.0116   -104.97111   0.44880172   -104.52231    13624.655    4.2984019    4.2984019    4.2984019    13624.655    29030.253   -1649.9792    13493.692    372.07167    2808.1804    2197.7956    79.418384 
   31000    540.94709   -105.01379   0.48946029   -104.52433   -796.44196    4.3142006    4.3142006    4.3142006   -796.44196    26924.281   -17054.158   -12259.449    2617.2314    519.44198    766.72602     80.29731 
   31100    390.78522   -104.87737   0.35359068   -104.52378    -499.1945    4.3102659    4.3102659    4.3102659    -499.1945    20768.776   -17048.431   -5217.9284   -3721.2973   -2172.4182     11169.95    80.077813 
   31200    698.65376   -105.15301   0.63215661   -104.52086    4579.5634    4.3031108    4.3031108    4.3031108    4579.5634    13660.619   -5912.7617    5990.8325    8045.0937   -3286.0449   -6612.0334    79.679679 
   31300     319.9612    -104.8146   0.28950762    -104.5251   -2900.4952    4.3180926    4.3180926    4.3180926   -2900.4952    31102.296    -22352.41   -17451.372   -3608.3885     6974.759    11726.396    80.514825 
   31400    539.56931   -105.00955   0.48821365   -104.52133    1179.4381    4.3056063    4.3056063    4.3056063    1179.4381    12030.141    -7588.011   -903.81575   -2470.0793    204.10273   -1821.7623    79.818389 
   31500    621.88927   -105.08474   0.56269848   -104.52204    130.23584    4.3062041    4.3062041    4.3062041    130.23584    7458.0056   -8219.6321     1152.334    2034.7837    5535.9895    7011.1893    79.851636 
   31600    312.13599   -104.81033    0.2824272    -104.5279   -6394.2132    4.3175259    4.3175259    4.3175259   -6394.2132    26980.729   -15659.667   -30503.702   -3189.6023    3760.2133    7871.0744    80.483127 
   31700      616.854   -105.07939   0.55814246   -104.52124    15178.745    4.2980304    4.2980304    4.2980304    15178.745    35690.354   -5630.4481     15476.33    1856.4474    627.60638   -97.180208    79.397794 
   31800    473.43866   -104.95456   0.42837725   -104.52618   -17922.144    4.3205508    4.3205508    4.3205508   -17922.144   -5931.9373   -16636.451   -31198.043    249.85521    11002.694    11088.502    80.652408 
   31900    488.08175   -104.96568   0.44162663   -104.52405     12193.19    4.3015967    4.3015967    4.3015967     12193.19    41676.772    -9109.507    4012.3059   -3854.4985   -5344.0057    1793.2828    79.595601 
   32000    497.36461    -104.9762   0.45002596   -104.52617   -361.19604    4.3099897    4.3099897    4.3099897   -361.19604      17842.2   -11675.577   -7250.2111    5621.7118    4376.4407    4676.9679    80.062416 
   32100    542.20221    -105.0148   0.49059595    -104.5242   -11536.581    4.3132661    4.3132661    4.3132661   -11536.581    692.48681   -11170.903   -24131.328   -3162.2987    7699.2833    7590.4044    80.245146 
   32200    470.32702   -104.94807   0.42556177   -104.52251    15001.424    4.3007303    4.3007303    4.3007303    15001.424    41101.791   -7315.3358    11217.817    -6220.164   -2532.4788   -4311.8064    79.547516 
   32300    457.90299   -104.93889   0.41432025   -104.52457   -10660.526    4.3177553    4.3177553    4.3177553   -10660.526     16347.72   -18861.718    -29467.58    2270.5869     1809.194    6870.4783    80.495958 
   32400    548.28228   -105.02004   0.49609733   -104.52394     2770.492    4.3033131    4.3033131    4.3033131     2770.492    7169.3598   -4780.6903    5922.8065   -5579.3952    4811.1531   -2011.0491    79.690918 
   32500    506.02313   -104.98328   0.45786036   -104.52542    1917.0697    4.3087377    4.3087377    4.3087377    1917.0697    30185.443   -13761.059   -10673.175    1526.1922   -3169.9962    381.97154    79.992666 
   32600    423.75207   -104.90948   0.38341978   -104.52606   -2950.1159    4.3147606    4.3147606    4.3147606   -2950.1159    21427.981   -14681.491   -15596.838    914.37163    11232.289    6298.5422    80.328586 
   32700    620.55979   -105.08479   0.56149554    -104.5233    4075.4047    4.3001776    4.3001776    4.3001776    4075.4047     5619.715    88.663098    6517.8359   -6671.2541   -119.03667   -5817.4947    79.516853 
   32800    433.73875   -104.91833   0.39245594   -104.52588   -2609.3836    4.3174576    4.3174576    4.3174576   -2609.3836    30654.681   -23944.949   -14537.882    4672.5771    8643.3806    10685.501    80.479309 
   32900    421.16513   -104.90593   0.38107906   -104.52485     7650.973    4.3043222    4.3043222    4.3043222     7650.973    26750.068    2632.7472    -6429.896   -4736.9733     16032.67   -3755.1474    79.746996 
   33000    640.47754   -105.10435   0.57951754   -104.52483   -3548.5383    4.3067756    4.3067756    4.3067756   -3548.5383    5293.5103   -15637.181   -301.94386   -7099.8721   -5099.3971    7322.7951    79.883436 
   33100     421.1193   -104.90554   0.38103759   -104.52451   -6349.2757    4.3171378    4.3171378    4.3171378   -6349.2757    9355.0386   -9571.5752   -18831.291    3547.5135     15575.82    2182.4323    80.461426 
   33200    519.48866    -104.9908   0.47004425   -104.52076     10816.61    4.2974174    4.2974174    4.2974174     10816.61    35945.982   -4575.0186    1078.8656   -8946.2901    1266.4481   -806.58246    79.363827 
   33300    508.47467   -104.98114   0.46007857   -104.52106   -13807.844    4.3196237    4.3196237    4.3196237   -13807.844   -15167.051   -21255.176   -5001.3065    1567.4158    2284.4677    4509.5087    80.600501 
   33400    510.08509   -104.98338   0.46153571   -104.52184    5324.3445     4.301401     4.301401     4.301401    5324.3445    27700.768   -419.30964   -11308.425    341.89057    9081.5862   -4057.5862     79.58474 
   33500    431.14886   -104.91476   0.39011255   -104.52465    4049.8168    4.3102645    4.3102645    4.3102645    4049.8168    27745.398   -17792.652    2196.7049   -2509.9629   -2705.7994    104.92705    80.077731 
   33600    613.33608   -105.07699   0.55495937   -104.52203    -8299.238    4.3133293    4.3133293    4.3133293    -8299.238    594.28296   -8471.7196   -17020.277    5816.3412    8966.3133   -410.03809    80.248673 
   33700    468.32095   -104.94714   0.42374664   -104.52339    2530.1844    4.3028351    4.3028351    4.3028351    2530.1844    14117.519    -3302.149   -3224.8164   -6264.7468    10188.694   -6801.0317    79.664366 
   33800    448.23034   -104.92997   0.40556823    -104.5244    6105.4289    4.3117844    4.3117844    4.3117844    6105.4289    35085.211   -13281.208   -3487.7161   -1976.6134   -7354.8517    2959.4188    80.162471 
   33900    525.89197   -105.00019   0.47583811   -104.52435   -11985.574    4.3112083    4.3112083    4.3112083   -11985.574   -6611.3891   -6268.7617   -23076.571     2064.568    19575.413   -3633.7274    80.130346 
   34000    519.99433    -104.9937    0.4705018    -104.5232    10150.241     4.298756     4.298756     4.298756    10150.241      24432.4    -301.9123    6320.2356   -5215.4784    708.59526   -919.85246    79.438013 
   34100    503.57387   -104.97735   0.45564422   -104.52171   -12208.856    4.3222889    4.3222889    4.3222889   -12208.856    16467.498   -24505.259   -28588.808   -638.95881    4377.4984    5969.8348    80.749787 
   34200    346.64174   -104.83608   0.31364873   -104.52243    13726.921    4.2943304    4.2943304    4.2943304    13726.921    20111.866    13942.359    7126.5383   -313.41683      11465.3   -8230.1987     79.19292 
   34300    727.34258   -105.18074   0.65811485   -104.52263   -17213.736    4.3172858    4.3172858    4.3172858   -17213.736   -7875.6078   -26631.968   -17133.632   -7035.7883   -2011.0607    11054.292    80.469704 
   34400    294.73414   -104.79237   0.26668164   -104.52569    9674.5925    4.3064875    4.3064875    4.3064875    9674.5925    33172.133    7376.7029   -11525.058    3999.9218    15833.659   -6598.1148    79.867404 
   34500    564.00056   -105.03388   0.51031956   -104.52356    -1494.379     4.304169     4.304169     4.304169    -1494.379    17840.913   -12407.121    -9916.929    -9340.732    1149.5191    2461.5969    79.738481 
   34600    608.62591   -105.07067   0.55069751   -104.51997   -7515.2077    4.3154786    4.3154786    4.3154786   -7515.2077   -4697.4227   -7544.1453   -10304.055   -3798.0037    860.70759     239.0189    80.368694 
   34700    354.59623    -104.8446   0.32084612   -104.52375    2542.0439    4.3036446    4.3036446    4.3036446    2542.0439    24844.881   -3418.3203   -13800.429    2915.4152    14846.751   -8511.8872    79.709337 
   34800    558.97633   -105.02768   0.50577353   -104.52191    4153.4572    4.3088819    4.3088819    4.3088819    4153.4572    27728.373   -9960.6866   -5307.3145    -6158.338   -2172.0437    3400.6744    80.000698 
   34900    523.03424   -104.99737   0.47325237   -104.52412   -9706.2292    4.3119519    4.3119519    4.3119519   -9706.2292   -13991.959   -4918.7014   -10208.028    2689.9356    8684.9079    -8330.559    80.171814 
   35000     501.2254   -104.97756   0.45351928   -104.52404   -662.45284    4.3037799    4.3037799    4.3037799   -662.45284    19674.374   -8034.9003   -13626.833    316.08169     10753.13   -1776.8356    79.716855 
   35100    415.70891   -104.90045   0.37614215    -104.5243    9552.1566    4.3108388    4.3108388    4.3108388    9552.1566    24482.819   -1339.8563     5513.507   -3791.9859   -2548.1268    882.26053    80.109744 
   35200    555.73139    -105.0268   0.50283744   -104.52396   -13153.112    4.3103324    4.3103324    4.3103324   -13153.112   -10055.665   -8431.1982   -20972.473    3248.1376    20149.152    -5924.916    80.081519 
   35300    498.21444   -104.97302   0.45079489   -104.52223    10512.871    4.3042849    4.3042849    4.3042849    10512.871    13309.001    7678.6424     10550.97    -8278.056   -5982.0014    3962.8927    79.744922 
   35400    518.13474   -104.99249    0.4688192   -104.52367   -4365.6628    4.3121278    4.3121278    4.3121278   -4365.6628    18624.432   -16127.025   -15594.395    -7719.544    7727.1964    1285.7481     80.18163 
   35500    400.92211    -104.8879   0.36276275   -104.52513    6473.3634    4.3051094    4.3051094    4.3051094    6473.3634    15650.277    10645.938   -6876.1244    2774.8714    11189.647   -3640.9289    79.790755 
   35600    664.85739     -105.124   0.60157694   -104.52243   -7823.4213    4.3110236    4.3110236    4.3110236   -7823.4213   -10100.461     -14016.6    646.79694   -13113.484   -3433.7643     7857.107    80.120048 
   35700    395.22014   -104.88224   0.35760348   -104.52464    2667.8227    4.3075596    4.3075596    4.3075596    2667.8227    22104.749    2310.3268   -16411.607    2257.2968    8334.1136   -10164.144     79.92707 
   35800    467.86598   -104.94711   0.42333497   -104.52378     2861.782    4.3076855    4.3076855    4.3076855     2861.782    18919.181   -5182.6276   -5151.2073   -4996.6576    5874.3879    6352.3838    79.934075 
   35900    615.17274   -105.07908   0.55662122   -104.52246   -7011.3775    4.3104038    4.3104038    4.3104038   -7011.3775    -8552.152   -9403.1728   -3078.8077   -4500.6487    2597.6279   -5773.7275    80.085495 
   36000    415.42484   -104.90111   0.37588513   -104.52523    75.073616    4.3070351    4.3070351    4.3070351    75.073616    6614.0258    6748.4622   -13137.267    2030.0365    15387.847   -1142.8437    79.897876 
   36100    523.64427   -104.99785   0.47380434   -104.52404    4557.4883    4.3082814    4.3082814    4.3082814    4557.4883    22942.409   -16458.379    7188.4345   -10661.194   -6809.6312    -1428.385    79.967256 
   36200    452.70789   -104.93377   0.40961961   -104.52415   -10184.589    4.3124436    4.3124436    4.3124436   -10184.589   -10972.158   -1761.3725   -17820.238   -1931.6339     16783.53   -2217.4824    80.199245 
   36300     608.6082   -105.07252   0.55068149   -104.52184    2996.1265    4.3003282    4.3003282    4.3003282    2996.1265    10168.341   -2161.7497    981.78783     872.6133    6512.8032   -1792.2683    79.525205 
   36400    399.63156   -104.88455   0.36159503   -104.52296   -4116.1874    4.3183532    4.3183532    4.3183532   -4116.1874    11922.909   -18263.209   -6008.2627   -8017.9294   -2728.9109    450.29237    80.529404 
   36500    508.84253   -104.98146   0.46041141   -104.52105    4728.0251    4.2984753    4.2984753    4.2984753    4728.0251      15810.1    7368.2352   -8994.2598    1863.4575    16003.787   -4114.2426    79.422456 
   36600    588.78408   -105.05414   0.53274421    -104.5214   -7437.9529    4.3146426    4.3146426    4.3146426   -7437.9529   -14915.087    -9823.756    2424.9842   -6835.2839   -409.50351    2274.2846    80.321992 
   36700    431.83267   -104.91372   0.39073128   -104.52299    2390.1209    4.3066959    4.3066959    4.3066959    2390.1209    24525.961   -5730.9753   -11624.623   -4371.4534    8424.8057   -1064.5416    79.879002 
   36800    470.28093   -104.94887   0.42552007   -104.52335    4813.2485    4.3047908    4.3047908    4.3047908    4813.2485    7508.0764    8733.8954   -1802.2263   -1086.6456    8651.8244   -959.20366     79.77304 
   36900    640.74522   -105.10059   0.57975974   -104.52083   -11763.233    4.3140113    4.3140113    4.3140113   -11763.233   -13838.523   -21114.456   -336.71989   -15488.539   -4605.6794    4355.3281     80.28674 
   37000    400.90787   -104.88582   0.36274986   -104.52307    5602.1234    4.3024281    4.3024281    4.3024281    5602.1234    16993.648    11581.009   -11768.286    4200.9234    17151.077   -7317.7885    79.641761 
   37100    495.74144   -104.97085   0.44855728   -104.52229    989.13786    4.3121007    4.3121007    4.3121007    989.13786    13868.091   -9745.0305   -1155.6471   -5902.1201    -225.4367    7150.5776    80.180116 
   37200    569.61712   -105.03852   0.51540154   -104.52312   -8984.9878    4.3075034    4.3075034    4.3075034   -8984.9878   -14941.644   -7218.5619   -4794.7579   -5204.0745    3607.3484   -7941.6228    79.923942 
   37300    446.78743   -104.92907   0.40426266   -104.52481    4865.9266    4.3059022    4.3059022    4.3059022    4865.9266    8104.9559    14035.969   -7543.1452    2497.6814    17986.612    4034.9681    79.834847 
   37400     507.3286   -104.98179   0.45904158   -104.52274    2140.2319     4.311744     4.311744     4.311744    2140.2319    24797.534   -17927.551   -449.28759    -4053.567   -2707.9628   -6010.6569    80.160219 
   37500    428.32583   -104.91196   0.38755821    -104.5244    1343.2226    4.3046696    4.3046696    4.3046696    1343.2226   -5624.5933    16746.151   -7091.8899   -128.48246    17897.213   -1668.1785    79.766303 
   37600    654.54618   -105.11402   0.59224714   -104.52177   -8620.1933    4.3121198    4.3121198    4.3121198   -8620.1933   -3549.0227   -9754.5115   -12557.046   -1502.4285   -599.18952   -2161.4736    80.181182 
   37700    346.23355   -104.83666   0.31327939   -104.52338    13056.714    4.3035863    4.3035863    4.3035863    13056.714    33225.693    1866.6953    4077.7529   -10078.593    4703.5704   -2614.6888    79.706101 
   37800    530.37559   -105.00465   0.47989498   -104.52476   -11797.695    4.3120982    4.3120982    4.3120982   -11797.695   -7831.7956   -3455.5491    -24105.74     4962.043    15219.266   -1277.3126     80.17998 
   37900    632.18733   -105.09323   0.57201638   -104.52122    5492.6718    4.3051028    4.3051028    4.3051028    5492.6718    6006.4221    4987.0404     5484.553   -7418.8035   -5934.5702    544.18368    79.790387 
   38000    338.05093   -104.83178   0.30587558   -104.52591   -2370.6659    4.3098203    4.3098203    4.3098203   -2370.6659    15357.163   -4936.3272   -17532.834   -4026.8961    12891.278   -2040.5318    80.052979 
   38100    516.71707   -104.99014   0.46753647    -104.5226    1055.6008    4.3083856    4.3083856    4.3083856    1055.6008    11755.606    8316.9901   -16905.794   -1063.7449    8739.3044    3645.0573    79.973055 
   38200    613.36148   -105.07725   0.55498235   -104.52226   -189.85964    4.3042132    4.3042132    4.3042132   -189.85964   -1586.0908   -2121.9587    3138.4706   -8054.6903    158.07049   -209.17107    79.740935 
   38300    330.20071   -104.82512   0.29877254   -104.52635   -10599.691    4.3144355    4.3144355    4.3144355   -10599.691    1562.8397   -2539.2181   -30822.695    978.17542    19441.472   -474.12419    80.310427 
   38400     596.0016    -105.0595   0.53927478   -104.52023     13456.24    4.3011014    4.3011014    4.3011014     13456.24    30109.571    7623.3776    2635.7699   -8343.3171   -7193.0469    3082.9752    79.568109 
   38500    483.16084   -104.96174   0.43717408   -104.52457   -21706.038    4.3153776    4.3153776    4.3153776   -21706.038   -25117.451   -13763.196   -26237.466   -3732.4163    17310.921   -8693.2042    80.363047 
   38600    447.21331   -104.92912     0.404648   -104.52447    9756.7428    4.3023888    4.3023888    4.3023888    9756.7428    17441.048    21158.605   -9329.4244    2163.7694    7284.9293     6953.928     79.63958 
   38700    628.17079   -105.09124   0.56838213   -104.52286   -270.23479    4.3095005    4.3095005    4.3095005   -270.23479    22250.591   -15954.838   -7106.4579   -1933.3164   -6954.6903   -11236.062    80.035159 
   38800     301.2918   -104.79997   0.27261515   -104.52735   -2959.9097    4.3103222    4.3103222    4.3103222   -2959.9097   -1975.0555    12446.291   -19350.964   -2638.3567     19909.96    1699.3098    80.080949 
   38900    750.60341   -105.20118   0.67916174   -104.52202   -825.99274     4.304968     4.304968     4.304968   -825.99274    6255.2914   -3322.5248   -5410.7448    6748.3439   -1223.6699   -3244.6224    79.782892 
   39000    328.52584    -104.8241   0.29725708   -104.52684    3205.9618    4.3105166    4.3105166    4.3105166    3205.9618    28704.459   -1902.6471   -17183.926   -4360.3482    8967.7318   -2758.1624    80.091785 
   39100    449.23026   -104.93329   0.40647298   -104.52681   -5772.8359    4.3078459    4.3078459    4.3078459   -5772.8359    115.73069   -2243.0958   -15191.143    2976.8992    13292.819    5776.3932    79.943007 
   39200    771.16151   -105.21942   0.69776314   -104.52165    3839.5732    4.3036636    4.3036636    4.3036636    3839.5732    9462.2753    872.74366    1183.7005   -6732.7093   -3399.6068   -1047.3064    79.710395 
   39300    225.90585   -104.73323   0.20440436   -104.52883   -6748.3872    4.3148308    4.3148308    4.3148308   -6748.3872    5715.9605   -4709.2055   -21251.917   -2206.0981    20605.891    1358.8957    80.332505 
   39400    600.33712   -105.06522   0.54319764   -104.52202    9928.5462    4.3005198    4.3005198    4.3005198    9928.5462    27645.829    5441.8503   -3302.0405   -874.80727    436.94166    7185.1276    79.535839 
   39500    560.28009   -105.03038    0.5069532   -104.52343   -8961.3959    4.3136636    4.3136636    4.3136636   -8961.3959   -12364.253   -5322.1574    -9197.777   -2955.2046    2156.6211   -4952.5666    80.267333 
   39600    408.76853   -104.89582   0.36986236   -104.52596   -536.15764    4.3042211    4.3042211    4.3042211   -536.15764    13713.462   -2658.6185   -12663.316   -4007.8884    22411.662    6901.8626    79.741372 
   39700    553.37144   -105.02277   0.50070211   -104.52207    12101.606    4.3087319    4.3087319    4.3087319    12101.606    38071.257   -837.97341   -928.46631    5067.2913   -5521.1698   -3954.3417    79.992345 
   39800    491.60931   -104.97076   0.44481843   -104.52595   -7449.1055    4.3086668    4.3086668    4.3086668   -7449.1055   -2094.9171   -5792.0325   -14460.367   -1869.3268    19080.643   -3379.1737    79.988718 
   39900    510.29431   -104.98711   0.46172502   -104.52539     4487.282    4.3074467    4.3074467    4.3074467     4487.282    14846.552    6287.8812    -7672.587    -3676.318    2896.7085    3885.2652    79.920784 
   40000    532.05508   -105.00405   0.48141462   -104.52264    10643.192     4.307438     4.307438     4.307438    10643.192    44526.285   -9714.8993   -2881.8102    3104.7579    3136.5563   -9964.2993    79.920301 
   40100    409.10795   -104.89705   0.37016947   -104.52688   -9488.8547    4.3094093    4.3094093    4.3094093   -9488.8547   -16561.922    3032.5852   -14937.227   -4037.1638    18681.405    6798.5119    80.030074 
   40200    655.73311    -105.1153    0.5933211   -104.52198    6604.8047    4.3063398    4.3063398    4.3063398    6604.8047    23911.348   -7562.6044    3465.6699    5980.6585   -6721.9069   -6872.1386     79.85919 
   40300    362.55249    -104.8534   0.32804512   -104.52535   -1254.1424     4.310535     4.310535     4.310535   -1254.1424    18827.783    -3348.213   -19241.997    -4176.652    11718.114    1307.7321    80.092809 
   40400    461.69751   -104.94337   0.41775361   -104.52562   -3070.4603    4.3062104    4.3062104    4.3062104   -3070.4603    2560.1781   -2215.9378    -9555.621   -611.26666    15714.394    3295.9705    79.851987 
   40500    732.16568   -105.18392   0.66247889   -104.52144   -1198.2523    4.3086726    4.3086726    4.3086726   -1198.2523    4873.6236   -7275.5259   -1192.8546   -1751.7863   -3356.1349   -1743.5106    79.989041 
   40600    221.45469   -104.72889   0.20037686   -104.52851     2369.397    4.3070997    4.3070997    4.3070997     2369.397    15852.089    6735.2706   -15479.169   -3907.4032    18576.237    4253.3547    79.901472 
   40700     601.3684   -105.06845   0.54413076   -104.52432    475.79036    4.3085824    4.3085824    4.3085824    475.79036     22021.51   -12543.843   -8050.2967   -10400.318    -1785.881    3184.3269    79.984019 
   40800    618.65856   -105.08306   0.55977526   -104.52329   -1756.8488     4.307947     4.307947     4.307947   -1756.8488    -2105.976    8248.1422   -11412.713     1272.593    8491.7497   -2403.2439    79.948637 
   40900    327.13319    -104.8229   0.29599699    -104.5269   -7512.3482    4.3100464    4.3100464    4.3100464   -7512.3482    8379.9783   -14155.185   -16761.838    -6415.038    11291.601    9929.5277    80.065577 
   41000    602.62215   -105.06615   0.54526518   -104.52089    12932.385    4.3048738    4.3048738    4.3048738    12932.385    36534.921     344.4642    1917.7703   -432.83256   -9826.6336   -5265.1086    79.777656 
   41100    449.07165   -104.93395   0.40632947   -104.52762   -10945.225    4.3098375    4.3098375    4.3098375   -10945.225   -3365.6326   -6816.0701   -22653.971   -1060.7795    20369.248     5723.839    80.053937 
   41200    482.40442   -104.96382   0.43648966   -104.52733   -7592.3778    4.3102176    4.3102176    4.3102176   -7592.3778    637.89037   -7664.7078   -15750.316   -6090.2483    4328.8545    1939.5195    80.075119 
   41300    636.50859   -105.09845   0.57592634   -104.52252    14529.446    4.3002969    4.3002969    4.3002969    14529.446    42283.724    3341.6653   -2037.0531    7486.3748    2603.0159   -1880.2131    79.523472 
   41400    203.39741   -104.71199   0.18403825   -104.52795   -21353.018    4.3206749    4.3206749    4.3206749   -21353.018   -14137.177   -15811.478     -34110.4    -6467.863    16244.882     8818.772    80.659357 
   41500     801.0816    -105.2439   0.72483546   -104.51906    13652.293    4.2921424    4.2921424    4.2921424    13652.293    25184.941    3871.2115    11900.726   -757.11153    -1781.818   -3409.1449    79.071937 
   41600    371.78816   -104.86285   0.33640174   -104.52645   -12020.854    4.3201424    4.3201424    4.3201424   -12020.854    10777.184   -15617.182   -31222.563    1291.5198    11686.492    4773.5113    80.629541 
   41700     415.8435   -104.90089   0.37626393   -104.52463    5212.9741    4.3005618    4.3005618    4.3005618    5212.9741    29756.527   -3613.6034   -10504.002   -2503.5849    3429.2273    4338.8574    79.538168 
   41800    753.22516   -105.20135   0.68153395   -104.51981   -1587.9405    4.3092269    4.3092269    4.3092269   -1587.9405   -793.47734    -5428.237    1457.8929   -1017.9518   -1577.2428     11.74092    80.019915 
   41900    269.84635   -104.77173   0.24416265   -104.52757   -6301.8407    4.3106657    4.3106657    4.3106657   -6301.8407    17366.111   -7059.1697   -29212.463   -1914.2979    17202.825    7412.2536    80.100093 
   42000    597.78185   -105.06261   0.54088558   -104.52172    11290.041    4.3035382    4.3035382    4.3035382    11290.041    26207.078    725.28085     6937.763   -8213.4948   -4109.0475    29.333699    79.703426 
   42100     576.6991    -105.0454   0.52180946   -104.52359   -9859.0327    4.3113918    4.3113918    4.3113918   -9859.0327   -5750.7377   -5809.9622   -18016.398    5014.6418    6474.3052    2879.8926    80.140581 
   42200    387.21448   -104.87747    0.3503598   -104.52711    1146.0457    4.3038486    4.3038486    4.3038486    1146.0457    13365.121   -3126.3705   -6800.6137   -8658.4027    12340.318    7583.0942    79.720675 
   42300    551.98444   -105.02025   0.49944713    -104.5208    5186.8948     4.314086     4.314086     4.314086    5186.8948    27116.271   -9294.6511   -2260.9359   -1828.6674   -1131.7048   -1732.3625     80.29091 
   42400    421.50522   -104.90582   0.38138678   -104.52443   -6153.8903     4.302285     4.302285     4.302285   -6153.8903    708.14713   -6530.7982    -12639.02    5076.4783    15067.191    8714.8986    79.633818 
   42500    591.67385   -105.05738   0.53535893   -104.52202   -2320.1977    4.3131317    4.3131317    4.3131317   -2320.1977    -4423.239   -1548.5602   -988.79385   -5009.0662   -2187.4219    867.23744    80.237644 
   42600    520.78688   -104.99443   0.47121892   -104.52321    6947.5841    4.3037255    4.3037255    4.3037255    6947.5841    37228.502   -11315.303   -5070.4469    10436.515    3941.7289    2375.8156    79.713833 
   42700    271.73728    -104.7752    0.2458736   -104.52933    3526.6906    4.3088631    4.3088631    4.3088631    3526.6906    10165.807    3764.9594   -3350.6949   -2988.6077    12952.163    7663.1699    79.999651 
   42800     841.4621   -105.28114   0.76137259   -104.51976   -7617.7692    4.3122541    4.3122541    4.3122541   -7617.7692   -831.40443   -15230.735   -6791.1684    3572.1896    -4903.083   -3839.0165    80.188674 
   42900    247.96856   -104.74954   0.22436717   -104.52518    11570.515    4.2991588    4.2991588    4.2991588    11570.515    30125.392    4511.9518    74.200971    5454.6097     10491.55     7403.143     79.46035 
   43000    569.63767    -105.0378   0.51542013   -104.52238   -9531.5218    4.3185374    4.3185374    4.3185374   -9531.5218    9811.4474   -20040.867   -18365.146   -2208.1227    8519.1826   -1054.8565    80.539709 
   43100    582.12918   -105.04716   0.52672271   -104.52043      11527.3    4.2984687    4.2984687    4.2984687      11527.3     18024.44    3566.1901    12991.269    1205.5228    1841.2654    921.31156    79.422088 
   43200    317.63232   -104.81487    0.2874004   -104.52747   -12314.679    4.3141672    4.3141672    4.3141672   -12314.679   -8744.2314   -11324.701   -16875.104    5319.8596    13524.557    6772.1775    80.295444 
   43300     680.4437   -105.13592   0.61567976   -104.52024    7743.2405    4.3064864    4.3064864    4.3064864    7743.2405    25787.816   -1155.0179   -1403.0762   -4058.6692   -3853.3008   -2828.6831    79.867344 
   43400    319.35281   -104.81566   0.28895713    -104.5267    -1100.887    4.3037031    4.3037031    4.3037031    -1100.887    5983.0491   -1971.0957   -7314.6144    5989.7955    12582.582    8097.2104    79.712589 
   43500    598.10083   -105.06431    0.5411742   -104.52313   -17421.206    4.3161481    4.3161481    4.3161481   -17421.206   -24186.999   -12022.787   -16053.833   -3301.7847    11468.433    2967.3662    80.406101 
   43600    535.97546   -105.00455   0.48496186   -104.51958    17234.338    4.2986949    4.2986949    4.2986949    17234.338    30480.944    7973.6483    13248.422     1303.725   -7170.7142     2333.909    79.434628 
   43700    298.82635   -104.79724   0.27038436   -104.52685   -21068.891    4.3160524    4.3160524    4.3160524   -21068.891   -6439.0955   -21632.889   -35134.689     6967.872    21109.925    6059.7116    80.400753 
   43800    680.76766   -105.13497   0.61597289   -104.51899    11145.453    4.3029613    4.3029613    4.3029613    11145.453    6045.6129    18083.337    9307.4096   -2367.1897    4104.4752   -1645.7847    79.671375 
   43900    481.53676   -104.96014   0.43570458   -104.52444   -12202.259    4.3105127    4.3105127    4.3105127   -12202.259   -10591.119   -16820.217   -9195.4399    7366.7688    6497.2605   -368.94237    80.091565 
   44000    319.98688    -104.8155   0.28953085   -104.52597    5597.1825    4.3077968    4.3077968    4.3077968    5597.1825    8023.9947    18556.364   -9788.8112    4033.4397     13028.52    6078.1214    79.940275 
   44100    727.03942   -105.17748   0.65784054   -104.51964    5320.6817    4.3068782    4.3068782    4.3068782    5320.6817    21680.362   -404.78932   -5313.5274    6232.1989   -4924.7139   -8058.9246    79.889144 
   44200    315.70494   -104.81333   0.28565646   -104.52767   -9220.1543    4.3096351    4.3096351    4.3096351   -9220.1543   -15781.779     4505.971   -16384.654    4266.5017    21732.671     7260.286    80.042655 
   44300     618.6127   -105.08297   0.55973377   -104.52324    4404.7064    4.3079973    4.3079973    4.3079973    4404.7064    520.80267     6124.847    6568.4694    974.74826   -990.31247   -3373.6833    79.951434 
   44400       528.74   -105.00225   0.47841506   -104.52383    2424.2723    4.3061748    4.3061748    4.3061748    2424.2723    14960.368    -5658.887   -2028.6636   -596.73362    734.84345    5262.4196    79.850007 
   44500    262.46157   -104.76495   0.23748075   -104.52747   -2650.2748     4.311786     4.311786     4.311786   -2650.2748   -4374.5142    14486.288   -18062.599    6524.2448    20144.063    5224.2222    80.162562 
   44600    847.76886    -105.2856   0.76707908   -104.51852    3055.0784    4.3046923    4.3046923    4.3046923    3055.0784    1106.5815    42.640235    8016.0136   -8323.6621    -2584.746   -129.99314    79.767568 
   44700    284.31087   -104.78431   0.25725045   -104.52706   -1888.5001    4.3093137    4.3093137    4.3093137   -1888.5001   -11281.863    13695.665    -8079.302    4789.9354    14153.786     3279.092    80.024749 
   44800    518.18444   -104.99293   0.46886417   -104.52407   -2015.8458    4.3112945    4.3112945    4.3112945   -2015.8458    4264.4152   -5655.3923   -4656.5604     -1443.93    2979.5186    6615.3596    80.135152 
   44900    630.16276   -105.09102   0.57018451   -104.52084    7994.6027    4.3024303    4.3024303    4.3024303    7994.6027    16171.626    10232.032   -2419.8501    5234.6294    1544.9403    -6534.664    79.641884 
   45000    248.22796   -104.75125   0.22460188   -104.52665   -13053.195    4.3156256    4.3156256    4.3156256   -13053.195   -25880.797     3313.253    -16592.04    5849.2728    22442.434    6690.1842    80.376903 
   45100    821.62631   -105.26286   0.74342475   -104.51944    8269.2548    4.3005883    4.3005883    4.3005883    8269.2548    8123.4648    312.06811    16372.231    1775.3967   -9251.8472   -7277.9463    79.539639 
   45200    304.07888   -104.80393   0.27513696   -104.52879   -153.27389    4.3109531    4.3109531    4.3109531   -153.27389   -79.901423    12334.728   -12714.648    4246.6785    11637.046    6996.3578    80.116118 
   45300    433.77944    -104.9196   0.39249276    -104.5271    2040.6534    4.3076465    4.3076465    4.3076465    2040.6534     8011.488    6706.4324   -8595.9603    8791.6273    7830.2999     2805.368    79.931904 
   45400    741.55912   -105.19129   0.67097828   -104.52032    2334.4588    4.3079045    4.3079045    4.3079045    2334.4588   -3872.0975    10072.476    802.99776   -5938.4971    2341.5538    -124.3911    79.946272 
   45500    241.96383   -104.74499   0.21893396   -104.52606   -1919.5792    4.3079408    4.3079408    4.3079408   -1919.5792   -15507.485     10939.15    -1190.403    4285.8149     17954.43    5088.4118    79.948291 
   45600    726.99865   -105.17915   0.65780365   -104.52135   -2854.1734    4.3095393    4.3095393    4.3095393   -2854.1734    3478.8179   -7129.9963   -4911.3418    -5431.719   -7993.6414    7043.3799     80.03732 
   45700     418.0539   -104.90197   0.37826396   -104.52371     11528.94    4.3048655    4.3048655    4.3048655     11528.94     8022.831    28458.463   -1894.4742    4484.1345     12987.89   -1248.5622    79.777195 
   45800    397.43149   -104.88699   0.35960437   -104.52738   -10665.962    4.3127566    4.3127566    4.3127566   -10665.962   -11397.834   -7655.8412    -12944.21    3343.6281    12279.537    9794.6122    80.216708 
   45900    697.53178    -105.1506   0.63114141   -104.51946    10807.293    4.3039493    4.3039493    4.3039493    10807.293   -2772.5959    11913.264    23281.211    1251.8896    -4990.404   -8859.7857    79.726271 
   46000    292.82815   -104.79127   0.26495706   -104.52632   -8214.1591    4.3110666    4.3110666    4.3110666   -8214.1591   -11969.579    5324.8607   -17997.759     3018.678    14517.361    7475.5302    80.122444 
   46100     613.7232   -105.07741   0.55530965    -104.5221    -7714.888    4.3095547    4.3095547    4.3095547    -7714.888    1208.2705   -13638.238   -10714.697    9631.0505   -4192.8413    1707.4855    80.038176 
   46200    495.73842   -104.96945   0.44855454    -104.5209    15641.963     4.302203     4.302203     4.302203    15641.963    5826.7663    26280.757    14818.365   -887.50522    13270.831   -5998.0513    79.629262 
   46300    326.88735   -104.82148   0.29577455   -104.52571   -18058.279    4.3165847    4.3165847    4.3165847   -18058.279   -26721.031   -25385.625   -2068.1824    8684.6099    12380.374    7685.1628    80.430505 
   46400    696.95484   -105.14882   0.63061938    -104.5182    12576.717    4.2998515    4.2998515    4.2998515    12576.717    7146.1685    18377.816    12206.165   -3975.7605    -5707.371    5043.4802    79.498763 
   46500     448.8113   -104.92973   0.40609389   -104.52364   -17033.478    4.3161293    4.3161293    4.3161293   -17033.478   -21034.805   -8653.1523   -21412.477    4226.0369    17626.365    1536.5724    80.405053 
   46600    404.43582   -104.88992   0.36594203   -104.52398     3225.613    4.3032681    4.3032681    4.3032681     3225.613    1469.2627   -8256.2963    16463.873    4134.1253    3177.2136    12547.204    79.688417 
   46700    594.88962   -105.05864   0.53826863   -104.52037    5372.0872    4.3088367    4.3088367    4.3088367    5372.0872   -8126.8967    9735.7507    14507.407   -1812.9067    7027.0468    -2762.001    79.998181 
   46800    435.62507   -104.91981   0.39416272   -104.52564   -19853.894    4.3111006    4.3111006    4.3111006   -19853.894   -24308.713   -19220.246   -16032.722    4327.6016    8728.3088    12180.107    80.124339 
   46900    574.43139    -105.0424   0.51975759   -104.52264    8431.4827    4.3033904    4.3033904    4.3033904    8431.4827    3856.2093    17100.396    4337.8427    1484.7495   -5750.3749    5605.5098    79.695214 
   47000     502.5393   -104.97759   0.45470812   -104.52288   -6222.3284    4.3142314    4.3142314    4.3142314   -6222.3284   -21232.836   -6590.6415    9156.4924    2320.1843    13993.737   -6738.9753    80.299033 
   47100    324.72029   -104.81895   0.29381374   -104.52514    4226.8814    4.3031939    4.3031939    4.3031939    4226.8814    54.257047    5317.5663    7308.8207    6375.9867    4152.4501    13265.828    79.684299 
   47200    721.69079   -105.17261     0.653001   -104.51961   -6352.1476    4.3115981    4.3115981    4.3115981   -6352.1476   -5735.5138    -3585.195   -9735.7341    196.35662    717.16902   -2784.6911    80.152081 
   47300    437.03345   -104.91974   0.39543705    -104.5243   -6540.0209    4.3063346    4.3063346    4.3063346   -6540.0209   -18702.731    943.04313    -1860.375    2872.8959    11098.287    3922.9805    79.858897 
   47400    398.33806    -104.8859   0.36042465   -104.52548    6639.9713    4.3083153    4.3083153    4.3083153    6639.9713    5840.9756    167.70756    13911.231     5854.269   -71.191943    8545.3462    79.969141 
   47500    617.16803   -105.07978    0.5584266   -104.52135   -3180.8165     4.310535     4.310535     4.310535   -3180.8165   -9282.5052   -5828.7292     5568.785   -2312.5731    15827.922   -3612.0185    80.092807 
   47600    341.91782   -104.83334   0.30937443   -104.52397    186.00172    4.3050144    4.3050144    4.3050144    186.00172    10913.089    13.422308   -10368.506    4561.9757    624.42037    16709.749    79.785476 
   47700    661.56488   -105.11793    0.5985978   -104.51933   -4158.0117    4.3131841    4.3131841    4.3131841   -4158.0117   -8384.5253   -11369.448    7279.9387   -5100.5551   -2153.3373    3430.3434    80.240566 
   47800    439.23661   -104.91975   0.39743051   -104.52232    1455.3443     4.304378     4.304378     4.304378    1455.3443   -9140.7336    3720.2638    9786.5028    5149.2667    6583.2367   -1509.2035    79.750095 
   47900    453.82156   -104.93433   0.41062729   -104.52371   -2414.5753    4.3088911    4.3088911    4.3088911   -2414.5753    5365.4171    -14141.69    1532.5469    4025.5725    1932.8024    19742.002    80.001211 
   48000    677.06875   -105.13327   0.61262603   -104.52064   -2556.5001    4.3094162    4.3094162    4.3094162   -2556.5001    4309.6649   -3685.6209   -8293.5443   -416.66816    902.09423   -10512.205    80.030461 
   48100    253.97726   -104.75546   0.22980396   -104.52566    9394.4592    4.3044174    4.3044174    4.3044174    9394.4592    7013.0459    3486.7216     17683.61    3994.3863    2248.7047    9887.6301    79.752287 
   48200    650.78078   -105.10959   0.58884013   -104.52075   -8695.6294     4.314309     4.314309     4.314309   -8695.6294   -11929.009   -14712.298    554.41876    4150.0241   -1433.0921   -208.83331    80.303363 
   48300    540.23125   -105.00984   0.48881259   -104.52103    8390.1344    4.3003711    4.3003711    4.3003711    8390.1344    5263.7955    13811.755    6094.8525   -574.14479    13147.345   -4076.4567    79.527587 
   48400    423.76772   -104.90771   0.38343393   -104.52428   -12715.856    4.3151993    4.3151993    4.3151993   -12715.856   -4047.9098   -16379.244   -17720.414     7517.136   -70.880759    13727.881    80.353091 
   48500    557.82493   -105.02368   0.50473172   -104.51895    11318.944    4.3048652    4.3048652    4.3048652    11318.944    12436.807    1938.6838     19581.34   -7676.9483   -2390.9185    -7537.202    79.777178 
   48600    333.43661   -104.82547   0.30170045   -104.52377   -63.084776    4.3075098    4.3075098    4.3075098   -63.084776   -6652.5107     5194.018    1269.2384    4317.4523    5025.2434    6589.1521    79.924299 
   48700    688.17844   -105.14499   0.62267832   -104.52231   -11010.601    4.3092578    4.3092578    4.3092578   -11010.601   -4871.1749   -16707.926   -11452.702    101.83113    1656.8071     14417.06    80.021638 
   48800    499.72557   -104.97502    0.4521622   -104.52285    6583.4284    4.3071553    4.3071553    4.3071553    6583.4284    -6528.974    13972.571    12306.688   -362.54776    1567.2763   -8341.1916    79.904565 
   48900    348.38709   -104.84133   0.31522796    -104.5261   -5925.2411    4.3092231    4.3092231    4.3092231   -5925.2411   -3136.6764   -19165.785    4526.7378    4821.0469   -124.38333    16816.505    80.019703 
   49000    574.89775   -105.04223   0.52017957   -104.52205    7191.4708    4.3063682    4.3063682    4.3063682    7191.4708    6628.3626    1320.5436    13625.506   -2392.7643   -6223.2285   -7601.6315    79.860767 
   49100      517.423   -104.99069   0.46817521   -104.52251   -11473.766    4.3117853    4.3117853    4.3117853   -11473.766   -9948.0042   -9575.4855   -14897.807    4300.0559     10547.57    3559.0692    80.162527 
   49200    487.27727   -104.96337   0.44089872   -104.52247   -3408.0599    4.3048851    4.3048851    4.3048851   -3408.0599   -5485.8173   -17452.327    12713.964    7008.3162    3190.5989    8830.5755    79.778282 
   49300    529.59715    -104.9995   0.47919063   -104.52031    5372.9684    4.3103528    4.3103528    4.3103528    5372.9684   -889.62128    4759.4395    12249.087   -5931.5675   -1085.5321   -12348.968    80.082656 
   49400    396.45652   -104.88269   0.35872219   -104.52397   -5393.9139    4.3069338    4.3069338    4.3069338   -5393.9139    1888.8568   -15704.813   -2365.7854    7555.9634    5440.8199    12051.734    79.892237 
   49500    576.82606    -105.0442   0.52192435   -104.52228   -1681.1804    4.3082993    4.3082993    4.3082993   -1681.1804    5818.1841   -5207.5436   -5654.1817   -7494.7464    2150.5191    3040.4468    79.968253 
   49600    533.07594   -105.00371   0.48233832   -104.52137    -3852.219    4.3100492    4.3100492    4.3100492    -3852.219   -10127.019   -13918.526    12488.887    4242.2936    7103.7113   -115.56725    80.065735 
   49700    367.16969   -104.85628   0.33222285   -104.52406   -10132.892    4.3084877    4.3084877    4.3084877   -10132.892   -7699.4022   -19950.146   -2749.1286    2296.9965   -255.81136    14139.936    79.978741 
   49800    604.74367   -105.06687   0.54718478   -104.51968    11052.808    4.3051904    4.3051904    4.3051904    11052.808    24532.221    5622.0353    3004.1664    -8653.024   -5773.4502   -8824.5449    79.795261 
   49900    426.60652   -104.91067   0.38600254   -104.52467   -13492.909    4.3136522    4.3136522    4.3136522   -13492.909    1459.9266   -24325.736   -17612.919    8063.8332    6591.3445    12843.614    80.266697 
   50000    470.32666   -104.94916   0.42556145    -104.5236    5283.9279    4.3027154    4.3027154    4.3027154    5283.9279    3917.5122     6890.012    5044.2596    1262.7052    2257.4603    1087.6299    79.657717 
   50100    655.29471   -105.11418   0.59292443   -104.52125   -1314.6433    4.3117003    4.3117003    4.3117003   -1314.6433   -445.30427    -10083.12    6584.4943    2696.9801   -2801.4935   -5404.5434    80.157783 
   50200    259.99427   -104.76254   0.23524828   -104.52729   -3687.1022    4.3083354    4.3083354    4.3083354   -3687.1022    5733.2199    1078.7684   -17873.295    6938.2784    5106.0291    10107.876    79.970262 
   50300    697.87644   -105.15141   0.63145327   -104.51996     8841.089    4.3051365    4.3051365    4.3051365     8841.089    19197.208    745.72085     6580.338    -4588.303    4041.2139   -3399.8901     79.79226 
   50400    470.25508    -104.9493   0.42549668    -104.5238   -9218.2407    4.3134955    4.3134955    4.3134955   -9218.2407   -9017.7169   -13109.803   -5527.2021    9574.8198    6892.8734    9704.1665    80.257945 
   50500    386.80571    -104.8748   0.34998993   -104.52481    6064.2366    4.3025412    4.3025412    4.3025412    6064.2366    6917.4399   -1670.1458    12945.416   -245.30599      472.845    5832.6825    79.648044 
   50600    663.65511   -105.12009   0.60048909    -104.5196    2156.3426    4.3138325    4.3138325    4.3138325    2156.3426    13887.369   -3559.5227   -3858.8187   -5569.2578   -4229.8035   -1692.4408    80.276758 
   50700    296.93534   -104.79612   0.26867334   -104.52745   -4868.3217    4.3040211    4.3040211    4.3040211   -4868.3217   -953.59554   -4950.1172   -8701.2522    9024.4895     7636.602    13614.984    79.730257 
   50800    672.40611   -105.13199   0.60840718   -104.52359    925.50373    4.3091914    4.3091914    4.3091914    925.50373   -4301.8915    -7680.865    14759.268   -3926.6294   -178.39709   -695.08037     80.01794 
   50900    458.05106   -104.93928   0.41445423   -104.52483    949.99385    4.3099817    4.3099817    4.3099817    949.99385    5940.7067   -6341.6559    3250.9307    7847.1002   -6994.5608     2805.358    80.061973 
   51000    333.87362   -104.82851   0.30209587   -104.52642     1149.621    4.3054883    4.3054883    4.3054883     1149.621    11371.303   -12604.232    4681.7925    1598.2466    3726.1331    5544.3492    79.811825 
   51100    754.02435    -105.1997   0.68225707   -104.51744   -1305.1651    4.3136859    4.3136859    4.3136859   -1305.1651    5620.5882   -737.98543   -8798.0982   -1894.3855    1448.9267   -3759.8465    80.268575 
   51200    345.43572   -104.83717    0.3125575   -104.52461   -6134.3122    4.3033649    4.3033649    4.3033649   -6134.3122   -8058.2519   -18310.617    7965.9322    12813.948    2772.8591    11732.882    79.693798 
   51300    564.25439   -105.03497   0.51054923   -104.52442    724.55116    4.3110949    4.3110949    4.3110949    724.55116    13034.467   -10424.783   -436.03043   -2249.6539    4035.0932     167.7467    80.124025 
   51400    496.52428   -104.97353    0.4492656   -104.52426    8942.1611    4.3059582    4.3059582    4.3059582    8942.1611    24536.667   -6547.8111    8837.6278    846.07951   -5824.3847    2533.3012    79.837958 
   51500    420.72124   -104.90755   0.38067742   -104.52687   -13940.619    4.3114895    4.3114895    4.3114895   -13940.619   -10709.943   -19788.555   -11323.358     8308.846    10448.866    11966.716    80.146028 
   51600    708.98977   -105.16038   0.64150885   -104.51887    10963.681    4.3054752    4.3054752    4.3054752    10963.681    18450.569    1696.0313    12744.443    463.67719   -5807.7801    1414.8668    79.811095 
   51700    231.61538    -104.7355   0.20957046   -104.52593   -5940.1912     4.312882     4.312882     4.312882   -5940.1912     18066.42   -31083.471   -4803.5224    10001.091   -5473.0824    12451.856    80.223706 
   51800    611.28553   -105.07288     0.553104   -104.51978    1295.7392    4.3051027    4.3051027    4.3051027    1295.7392    2662.6499   -5269.3169    6493.8847    1974.1849     1922.287    2912.8613    79.790382 
   51900    629.29766    -105.0919   0.56940175   -104.52249   -4834.6784    4.3087189    4.3087189    4.3087189   -4834.6784    10338.274     -15585.9   -9256.4089   -1093.8152    26.054541    1149.8363    79.991617 
   52000     257.2014   -104.76142   0.23272123    -104.5287   -5804.9151    4.3109865    4.3109865    4.3109865   -5804.9151    6601.4091   -22025.979   -1990.1749    12556.875   -1357.2563    12599.288    80.117979 
   52100    698.02001    -105.1534   0.63158317   -104.52182    11419.105    4.3031376    4.3031376    4.3031376    11419.105     25702.14   -1710.1136    10265.288   -5211.3417    1236.3402   -6628.3485    79.681171 
   52200    314.56947   -104.81135   0.28462906   -104.52672   -20081.915    4.3176899    4.3176899    4.3176899   -20081.915   -17811.838   -31103.488    -11330.42    6769.3072   -4628.0407    12216.279    80.492301 
   52300    675.44409   -105.13195     0.611156   -104.52079    9136.7583    4.2958776    4.2958776    4.2958776    9136.7583    9670.9468    3802.8306    13936.497    2724.0576    10593.118   -2880.9429    79.278552 
   52400    456.37894   -104.93263   0.41294126   -104.51969   -11797.037      4.32313      4.32313      4.32313   -11797.037    5553.5557    -29189.27   -11755.396   -312.55019   -8342.5099    5201.4483    80.796935 
   52500    294.51679   -104.78749   0.26648498     -104.521    16259.091    4.2943715    4.2943715    4.2943715    16259.091    30504.582   -2812.7241    21085.414    13510.159   -4612.8129    9710.4141    79.195193 
   52600    764.29831   -105.20934   0.69155317   -104.51779   -10924.205    4.3173366    4.3173366    4.3173366   -10924.205   -16912.598   -14919.922   -940.09555   -430.58174    524.36762    1656.8495    80.472541 
   52700    356.23406   -104.84751   0.32232806   -104.52518   -1270.9341    4.3051183    4.3051183    4.3051183   -1270.9341    3709.2987   -9708.8209    2186.7198    2912.6846   -1057.6816    7169.0446    79.791252 
   52800    519.68732   -104.99457   0.47022401   -104.52434     8237.305    4.3039913    4.3039913    4.3039913     8237.305    11639.489    -10231.95    23304.376     8125.673   -5637.8769    7310.1868      79.7286 
   52900    529.95046   -105.00266   0.47951031   -104.52315     -1432.41    4.3140028    4.3140028    4.3140028     -1432.41    3709.5374   -12637.087      4630.32   -6453.4018     620.5245   -3090.5819     80.28627 
   53000    345.80229   -104.83694   0.31288918   -104.52405    5235.0826    4.3011377    4.3011377    4.3011377    5235.0826     3917.636    -3727.482    15515.094    11331.562   -3120.9536    14260.936    79.570126 
   53100    786.46853   -105.22942   0.71161326    -104.5178   -12022.057    4.3165942    4.3165942    4.3165942   -12022.057   -17296.899   -11564.247   -7205.0242   -6043.5689    8806.6017   -9911.8712     80.43104 
   53200    323.09475   -104.81385   0.29234292    -104.5215    9735.2429     4.302305     4.302305     4.302305    9735.2429    20976.624   -10048.508    18277.613    -1977.996   -8782.1133    6307.7307    79.634928 
   53300    446.03298   -104.92579   0.40358001   -104.52221   -2028.9668    4.3131925    4.3131925    4.3131925   -2028.9668     1010.524   -17759.773    10662.349    9712.2769   -4552.3896    3037.0121    80.241037 
   53400    658.54155    -105.1138   0.59586224   -104.51794    1652.6447     4.305555     4.305555     4.305555    1652.6447    -797.2057   -2179.4531    7934.5928   -6240.0568   -2082.7385    1410.5793    79.815534 
   53500    328.74296   -104.82309   0.29745354   -104.52563   -3477.8357    4.3069921    4.3069921    4.3069921   -3477.8357   -21.680324   -14306.611    3894.7838    9939.3406   -2588.0405     10643.18    79.895483 
   53600     661.3662   -105.11933   0.59841804   -104.52091    2302.1156    4.3094826    4.3094826    4.3094826    2302.1156    2452.7131   -7409.7253    11863.359   -3151.6814   -7911.3725   -1151.5732    80.034163 
   53700    372.58395     -104.861   0.33712179   -104.52388   -328.80581    4.3103187    4.3103187    4.3103187   -328.80581    21448.297    -20514.53   -1920.1849   -2284.4337   -2155.2439    7689.3479    80.080752 
   53800    487.62838   -104.96312    0.4412164    -104.5219    1234.1197    4.3031785    4.3031785    4.3031785    1234.1197    1257.0591   -4336.5209    6781.8209    13091.042   -4579.6709    10921.102    79.683441 
   53900    691.60334   -105.14547   0.62577723   -104.51969   -9957.2456    4.3162006    4.3162006    4.3162006   -9957.2456   -9305.5868   -13596.028    -6970.122   -12070.526    6015.7203   -5348.7465    80.409037 
   54000    308.74612   -104.80374   0.27935998   -104.52438    4958.8861    4.3026107    4.3026107    4.3026107    4958.8861     19466.15   -11040.742    6451.2504    3997.6758   -3165.2484    11123.359    79.651901 
   54100    591.59587   -105.05972   0.53528837   -104.52443    2304.8531    4.3065276    4.3065276    4.3065276    2304.8531    10842.315    -9304.883    5377.1273   -512.34272    -3219.365   -4491.2188    79.869636 
   54200    506.33302   -104.97971   0.45814076   -104.52157   -7311.5834    4.3152461    4.3152461    4.3152461   -7311.5834   -1153.5492   -20077.081   -704.11941   -4051.1906    1147.8506    5962.5227    80.355703 
   54300    474.29437   -104.95044   0.42915151   -104.52129    7692.0681    4.2960184    4.2960184    4.2960184    7692.0681    13530.799    323.19517    9222.2104    9035.6386     -4564.49    5486.9086    79.286344 
   54400    544.15899   -105.01191   0.49236649   -104.51954   -7944.2175    4.3197455    4.3197455    4.3197455   -7944.2175     131.4017    -20700.84   -3263.2141   -9307.6572    -8088.713   -4202.3278    80.607322 
   54500    348.40515   -104.83556    0.3152443   -104.52032    12283.987     4.299857     4.299857     4.299857    12283.987    29367.131   -12805.318     20290.15    1901.8069   -8862.5512    10796.847    79.499067 
   54600    597.90312   -105.06173   0.54099531   -104.52074   -12686.087    4.3113345    4.3113345    4.3113345   -12686.087   -18491.292   -14735.872    -4831.097    7684.4754   -4824.1197    2536.4223    80.137384 
   54700    571.28853   -105.03676   0.51691386   -104.51985    468.33735    4.3083382    4.3083382    4.3083382    468.33735    4195.3655   -13295.728    10505.374   -12382.603    3309.4969    4985.4419    79.970415 
   54800    375.12873   -104.86236   0.33942436   -104.52294   -1538.3164    4.3067338    4.3067338    4.3067338   -1538.3164    17126.284   -13698.427   -8042.8064    8853.7435   -4003.5855    10526.115     79.88111 
   54900    521.56298   -104.99319   0.47192115   -104.52127    2758.9406    4.3072991    4.3072991    4.3072991    2758.9406   -503.18367   -5861.3739    14641.379   -10905.954   -4918.7973   -5638.6101    79.912566 
   55000    557.95397   -105.02636   0.50484847   -104.52151    -12481.61    4.3122152    4.3122152    4.3122152    -12481.61   -6861.5287   -25636.796   -4946.5072    5764.2039    6881.1637    15112.644    80.186505 
   55100     473.1846   -104.94961   0.42814737   -104.52147    224.92442    4.3032439    4.3032439    4.3032439    224.92442     9778.389   -4429.3589   -4674.2569    3904.3941   -5951.7096   -894.88182    79.687073 
   55200    507.79666    -104.9809   0.45946509   -104.52144    2793.9251     4.311404     4.311404     4.311404    2793.9251    12516.116   -15721.792    11587.451   -7326.1385   -5004.1126     4010.737    80.141261 
   55300    411.19019   -104.89549   0.37205353   -104.52344    -2742.421     4.307993     4.307993     4.307993    -2742.421    2626.9425   -12711.937    1857.7315     5644.989   -8542.5501    5178.8796    79.951196 
   55400    553.58021   -105.02302   0.50089101   -104.52213    2933.8435    4.3032236    4.3032236    4.3032236    2933.8435   -5908.4519    1246.2869    13463.696    1445.8038    -4576.633   -2151.0155    79.685947 
   55500    552.10269   -105.02088   0.49955412   -104.52133   -13759.561    4.3164752    4.3164752    4.3164752   -13759.561    5116.4721   -29855.836    -16539.32   -3034.0391    -1065.223    12306.925    80.424387 
   55600    391.28315   -104.87546   0.35404122   -104.52142    13104.336    4.2967145    4.2967145    4.2967145    13104.336    13050.131    7587.4213    18675.458    7699.6458   -12088.593    2330.8014    79.324895 
   55700    555.30177   -105.02226   0.50244871   -104.51981   -8680.6039    4.3179344    4.3179344    4.3179344   -8680.6039   -18671.233   -20717.939     13347.36   -12210.599    -1334.902   -962.29469    80.505975 
   55800    507.55383   -104.97933   0.45924537   -104.52008    3987.2298    4.3007485    4.3007485    4.3007485    3987.2298    11385.247   -2225.5822    2802.0242    8924.6997    5192.2162    11205.963    79.548527 
   55900    502.04842    -104.9771   0.45426396   -104.52283   -5891.4667    4.3103866    4.3103866    4.3103866   -5891.4667   -10843.945   -8670.8352    1840.3797   -786.29124   -6711.4287   -3323.5539    80.084538 
   56000    507.21989   -104.98035   0.45894321    -104.5214     5873.897    4.3085189    4.3085189    4.3085189     5873.897     10169.19   -11769.383    19221.884   -1718.3398   -1364.7727    9732.3615    79.980481 
   56100    417.77305   -104.90313   0.37800984   -104.52512     11.47991    4.3036286    4.3036286    4.3036286     11.47991   -9063.6706   -1898.4984    10996.609    7316.2638   -3738.1916    1112.7811    79.708448 
   56200    635.17067   -105.09574   0.57471577   -104.52103   -7122.0093    4.3125141    4.3125141    4.3125141   -7122.0093   -15429.217   -4918.1969   -1018.6141   -493.08769   -3820.8019    1618.0001    80.203182 
   56300    450.82816   -104.92977    0.4079188   -104.52186    8449.2512    4.3042465    4.3042465    4.3042465    8449.2512    15207.518   -3826.1027    13966.338    7322.7149   -2655.0944    16349.126    79.742787 
   56400    419.27782   -104.90131   0.37937138   -104.52193    716.83992    4.3101933    4.3101933    4.3101933    716.83992   -11489.742   -10632.658     24272.92    6680.5122   -15973.257   -1284.2648    80.073763 
   56500    555.14341   -105.02054   0.50230542   -104.51824    5916.3407    4.3085305    4.3085305    4.3085305    5916.3407    10690.454   -3269.1839    10327.752   -3708.0806    69.011929    7010.5898    79.981124 
   56600     541.6234   -105.01163   0.49007223   -104.52156       -10427    4.3053125    4.3053125    4.3053125       -10427   -12957.167   -16729.209   -1594.6247    12313.274   -2350.1252    4842.9195    79.802048 
   56700    462.25652   -104.94218   0.41825942   -104.52392     5078.495    4.3093585    4.3093585    4.3093585     5078.495   -6308.4216    2257.9112    19285.996   -3904.6787   -5600.7257   -1281.8998    80.027249 
   56800    467.12892   -104.94556   0.42266806   -104.52289    3612.7652    4.3080512    4.3080512    4.3080512    3612.7652    9814.5838   -19951.419    20975.131    6039.4464   -486.93401    8615.6669    79.954438 
   56900     518.5107   -104.99404   0.46915938   -104.52488   -7094.0406    4.3035932    4.3035932    4.3035932   -7094.0406   -11404.186   -3043.8848   -6834.0511    4331.3978   -5254.6728   -2328.6047     79.70648 
   57000    608.51171   -105.07232   0.55059419   -104.52173   -3332.7585    4.3137773    4.3137773    4.3137773   -3332.7585   -2226.4753   -11773.182    4001.3814   -4135.8451   -892.08634    1932.7539    80.273679 
   57100    409.24262   -104.89298   0.37029133   -104.52269    3486.6904    4.3048202    4.3048202    4.3048202    3486.6904   -1105.7727   -14259.027    25824.871    9588.3865   -6198.1634    8651.9342    79.774677 
   57200    497.21499   -104.97225   0.44989058   -104.52236   -1861.2457    4.3078152    4.3078152    4.3078152   -1861.2457     2887.394   -260.66465   -8210.4666    2123.3509   -18599.274    333.84659    79.941295 
   57300     532.8791   -105.00246   0.48216021    -104.5203    627.13196    4.3104846    4.3104846    4.3104846    627.13196    12488.638   -16239.443     5632.201    6250.9554     5403.081    8077.0666    80.090002 
   57400    483.34445   -104.95976   0.43734021   -104.52242   -7965.9264    4.3046079    4.3046079    4.3046079   -7965.9264   -20094.225   -6068.2651    2264.7113     10849.55   -11792.552    2450.3429    79.762877 
   57500    532.92349   -105.00588   0.48220038   -104.52368    4274.7895    4.3076099    4.3076099    4.3076099    4274.7895    12374.226   -8791.9795     9242.122   -4266.1783   -6002.0604     121.7772    79.929868 
   57600    413.67681   -104.89961   0.37430347    -104.5253   -8010.4468    4.3120037    4.3120037    4.3120037   -8010.4468     858.0236   -21930.105   -2959.2593    17404.548    -1569.174    9970.2064    80.174706 
   57700      558.202   -105.02822    0.5050729   -104.52315   -1270.6188    4.2986561    4.2986561    4.2986561   -1270.6188   -6791.3987    9907.9999   -6928.4577   -38.533855   -7657.1149   -5954.8089    79.432478 
   57800    526.16509   -104.99602   0.47608523   -104.51993    -10352.22    4.3210253    4.3210253    4.3210253    -10352.22   -8313.0403   -23960.096    1216.4769    3290.3122    1994.6758    3483.1962    80.678983 
   57900    408.56412   -104.89169    0.3696774   -104.52201     4431.275    4.2963952    4.2963952    4.2963952     4431.275    4424.3121   -4122.5662    12992.079    7627.2508   -14768.339   -2767.3139    79.307212 
   58000    507.85225   -104.98298   0.45951539   -104.52346   -2475.4212    4.3115388    4.3115388    4.3115388   -2475.4212    5888.5308   -7509.1753   -5805.6191   -1759.8047   -10022.133    1148.4513    80.148777 
   58100    624.24654   -105.08853   0.56483138    -104.5237   -13409.319    4.3111518    4.3111518    4.3111518   -13409.319   -13419.363   -24426.371   -2382.2239    11338.308    3530.0019    1145.3146    80.127197 
   58200    374.96233   -104.86361   0.33927379   -104.52433    15068.396    4.2933205    4.2933205    4.2933205    15068.396    14364.515    17344.262     13496.41    2753.4173    -20932.76   -569.48257    79.137065 
   58300    525.66339   -104.99357   0.47563128   -104.51794   -12239.245    4.3251335    4.3251335    4.3251335   -12239.245    386.93386   -29555.996   -7548.6727   -2539.8003   -3086.7559   -5923.9949    80.909319 
   58400    476.33016     -104.948   0.43099354     -104.517    14407.883    4.2894479    4.2894479    4.2894479    14407.883    9228.4649    14448.347    19546.836    16372.395   -6475.8918     5655.852    78.923112 
   58500    557.38109   -105.02471   0.50433013   -104.52038   -17333.499    4.3187633    4.3187633    4.3187633   -17333.499   -21388.145   -14268.869   -16343.483    -4737.815    -9941.934   -6382.8838    80.552346 
   58600     552.7985   -105.01964    0.5001837   -104.51945    8520.1446    4.3040453    4.3040453    4.3040453    8520.1446    16443.599   -6321.4548    15438.289    10763.338    4041.5407    1422.6925    79.731604 
   58700    350.39714    -104.8407    0.3170467   -104.52365    471.03064    4.3016438    4.3016438    4.3016438    471.03064   -5647.2064    8348.9779   -1288.6795    962.15461   -22535.468   -3555.4225    79.598217 
   58800    609.31994   -105.07046   0.55132549   -104.51914   -7916.0674    4.3146068    4.3146068    4.3146068   -7916.0674   -4464.4751   -10737.093   -8546.6339    1832.9057    930.32392   -3743.0558    80.319993 
   58900    545.95809   -105.01384   0.49399435   -104.51985    97.360876    4.3021397    4.3021397    4.3021397    97.360876    -4993.259    3705.1706     1580.171    12776.692   -5266.3667    3881.6754    79.625747 
   59000     409.2262   -104.89331   0.37027646   -104.52303   -5677.5743     4.310402     4.310402     4.310402   -5677.5743   -1514.9925   -9415.9405     -6101.79    780.94715    -21855.99   -3148.8966    80.085396 
   59100    539.93627   -105.00836   0.48854568   -104.51981     13137.56    4.3048659    4.3048659    4.3048659     13137.56    15683.239    5264.2318    18465.211    3285.0654    1487.3841   -2843.4811    79.777216 
   59200    481.30709   -104.95813   0.43549677   -104.52263   -15111.183    4.3111297    4.3111297    4.3111297   -15111.183   -27857.137   -9673.2463   -7803.1646     8432.637    -16391.59   -1451.9656    80.125964 
   59300    520.40807   -104.99291   0.47087616   -104.52204    9123.1039      4.30072      4.30072      4.30072    9123.1039    18387.589     11619.75   -2638.0274   -1680.5566   -3469.1731   -5154.9024    79.546944 
   59400    517.52708   -104.99167   0.46826938    -104.5234   -1930.9252     4.311709     4.311709     4.311709   -1930.9252     2414.345   -17275.724    9068.6031    10400.546   -4377.8928   -688.59753    80.158266 
   59500    382.92699   -104.87102   0.34648039   -104.52454   -154.62793    4.3063491    4.3063491    4.3063491   -154.62793   -2489.1211    766.69323    1258.5441   -3655.8644   -22498.252   -3745.8275    79.859702 
   59600    648.30004   -105.10608    0.5865955   -104.51949    6045.6066    4.3054152    4.3054152    4.3054152    6045.6066    6980.4784   -1771.3912    12927.733    1332.5187    11354.671   -10626.176    79.807761 
   59700    462.83036   -104.94059   0.41877864   -104.52182   -8189.6989    4.3121657    4.3121657    4.3121657   -8189.6989   -7057.2473   -6839.4901   -10672.359    8910.4448   -17388.884    4033.9111    80.183745 
   59800    404.13964    -104.8872   0.36567404   -104.52153     15862.04    4.3013573    4.3013573    4.3013573     15862.04    16345.901     5174.164    26066.055   -1395.1484   -12534.688   -4609.9044    79.582313 
   59900    576.92701   -105.04366   0.52201569   -104.52165   -2795.7249    4.3094724    4.3094724    4.3094724   -2795.7249   -2578.9402   -18937.589    13129.354    9928.6094    480.46242    872.53229    80.033595 
   60000    458.22892   -104.93868   0.41461516   -104.52407   -6104.8832    4.3067622    4.3067622    4.3067622   -6104.8832   -12952.969    1792.5967   -7154.2776    1556.4077   -17939.723   -520.14892    79.882687 
   60100    572.69052   -105.03974   0.51818242   -104.52156    1956.4071    4.3063867    4.3063867    4.3063867    1956.4071     10821.43   -15223.953    10271.744    3885.2407    2043.2588   -4546.6146    79.861797 
   60200    407.26996    -104.8924   0.36850641   -104.52389    3470.9792    4.3062212    4.3062212    4.3062212    3470.9792   -4507.4939   -891.58433    15812.016    10992.093   -13073.248    4076.3768     79.85259 
   60300    471.18188   -104.94787   0.42633527   -104.52154   -7233.9411    4.3111657    4.3111657    4.3111657   -7233.9411   -3432.6247   -6115.9732   -12153.225    900.98251   -13576.347   -2671.1646    80.127972 
   60400     615.6321   -105.07627   0.55703686   -104.51924    2133.4545    4.3007989    4.3007989    4.3007989    2133.4545    4431.4323    215.85019    1753.0811    5539.1934    9618.8794   -7852.2475    79.551324 
   60500    426.07742   -104.90836    0.3855238   -104.52284   -11212.525    4.3133852    4.3133852    4.3133852   -11212.525   -21847.428    -8507.825   -3282.3223    659.05322   -23305.795   -2540.1653    80.251793 
   60600    468.05157   -104.94446   0.42350289   -104.52095    10617.607    4.3023866    4.3023866    4.3023866    10617.607    20043.374   -8179.2037    19988.651   -3313.5792    -2485.202   -9088.5032    79.639457 
   60700    568.94953   -105.03644   0.51479749   -104.52164   -10702.594    4.3098508    4.3098508    4.3098508   -10702.594   -15349.079   -7204.2281   -9554.4742    6708.4147   -9538.4791   -895.71436    80.054677 
   60800    463.86268   -104.94242    0.4197127   -104.52271    16.421567    4.3049115    4.3049115    4.3049115    16.421567   -2522.7954    1880.8094    691.25078   -4874.1639   -11688.383   -5083.2117    79.779753 
   60900    470.27263   -104.94808   0.42551256   -104.52257    2884.3911    4.3073228    4.3073228    4.3073228    2884.3911    5092.5535   -12573.272    16133.892   -1996.6772   -850.52919   -10233.859    79.913889 
   61000    497.01128   -104.97269   0.44970625   -104.52299    -1314.074    4.3064764    4.3064764    4.3064764    -1314.074     4153.613   -2353.2982   -5742.5367    3566.1496   -15057.049    6322.3438    79.866786 
   61100    486.09516   -104.96179   0.43982912   -104.52196   -1406.0228    4.3084363    4.3084363    4.3084363   -1406.0228    10773.437   -12153.511   -2837.9951   -3333.3236    1170.8326   -9095.7522    79.975879 
   61200    620.63758   -105.08173   0.56156592   -104.52017   -6238.6046    4.3069779    4.3069779    4.3069779   -6238.6046    -9304.771   -9880.9629    469.92011    7593.0511    2678.4821    1219.8201     79.89469 
   61300    378.77294   -104.86467   0.34272171   -104.52195    6876.6154    4.3046451    4.3046451    4.3046451    6876.6154    6942.7778    3614.0178    10073.051   -4258.9734   -17082.905   -6532.5842     79.76494 
   61400    500.31771   -104.97453   0.45269798   -104.52183    -7680.873    4.3127258    4.3127258    4.3127258    -7680.873    15312.517    -28138.29   -10216.846   -1715.1124    3900.0252    -7285.587    80.214992 
   61500    651.12914   -105.10849   0.58915533   -104.51934    5822.6899    4.2961289    4.2961289    4.2961289    5822.6899    3690.8121    14047.902   -270.64419    2837.2947   -11555.273    1413.4754    79.292461 
   61600    370.86287    -104.8606   0.33556451   -104.52503   -14944.673    4.3172385    4.3172385    4.3172385   -14944.673   -3363.3831   -26913.601   -14557.033   -4962.6164    -2668.887   -9569.5282     80.46706 
   61700    579.08637   -105.04341   0.52396952   -104.51944    9106.4416    4.3004406    4.3004406    4.3004406    9106.4416    21880.446   -110.59177    5549.4703   -5512.9102   -8946.1644   -5602.8166    79.531441 
   61800    400.05445   -104.88508   0.36197767    -104.5231   -1878.3984    4.3087202    4.3087202    4.3087202   -1878.3984    11267.243   -2909.6195   -13992.818   -1073.6221   -10684.085   -714.86949    79.991691 
   61900    534.40592   -105.00437   0.48354171   -104.52083   -7605.8775    4.3079574    4.3079574    4.3079574   -7605.8775    3605.1246   -17312.229   -9110.5282   -12300.869    2680.0644   -11779.125    79.949213 
   62000    625.93436   -105.08541   0.56635856   -104.51905    1716.3276    4.3049404    4.3049404    4.3049404    1716.3276    3351.8643    6524.3169   -4727.1984    5797.8257   -2865.5758    6331.4932    79.781358 
   62100    323.10814   -104.81603   0.29235504   -104.52367   -6993.7624    4.3087409    4.3087409    4.3087409   -6993.7624     16644.88   -20755.236   -16870.931   -9334.7278   -8754.7858   -9526.8841    79.992843 
   62200    588.14888   -105.05445   0.53216947   -104.52228    9049.7535    4.3021141    4.3021141    4.3021141    9049.7535    18100.272    3093.0986    5955.8897     -8969.33    3754.8213   -3082.0941    79.624329 
   62300    526.23206     -104.999   0.47614583   -104.52285   -12596.536    4.3124732    4.3124732    4.3124732   -12596.536   -13858.755   -87.805315   -23843.049    2290.0933   -8898.8385   -1498.3436    80.200895 
   62400    420.42074    -104.9035   0.38040552    -104.5231     8377.472    4.3001803    4.3001803    4.3001803     8377.472    29514.668    -5227.538    845.28638   -6580.9954    549.40477   -8042.1068    79.517002 
   62500    587.96012   -105.05177   0.53199867   -104.51977   -5348.2591     4.313753     4.313753     4.313753   -5348.2591    4345.4049   -9888.7015   -10501.481    -354.0975   -11133.216    3473.0098     80.27232 
   62600    430.56216    -104.9123   0.38958169   -104.52272    2980.1881     4.298246     4.298246     4.298246    2980.1881    5799.7158     1498.091    1642.7575   -2906.3213   -7937.7278   -10227.736    79.409747 
   62700    540.82542   -105.01104   0.48935021   -104.52169   -4109.6158    4.3141096    4.3141096    4.3141096   -4109.6158    3516.9367   -9781.4363   -6064.3478   -5654.2748    3586.5546   -4286.2043    80.292228 
   62800    491.24882   -104.96686   0.44449226   -104.52237    4130.6822    4.3000443    4.3000443    4.3000443    4130.6822    16730.327     7259.471   -11597.752    7518.7928   -5608.1335   -49.033401    79.509457 
   62900    451.55768   -104.93382   0.40857888   -104.52524   -6974.9423    4.3093245    4.3093245    4.3093245   -6974.9423    7999.1926    -15231.55    -13692.47   -9276.9407   -1202.1655   -7161.8332    80.025352 
   63000    674.72925   -105.13078   0.61050921   -104.52027    487.52949    4.3069983    4.3069983    4.3069983    487.52949    2205.7953   -5450.0179    4706.8111   -7102.1372    1295.6443    1910.3471    79.895827 
   63100    316.49638   -104.81181   0.28637257   -104.52544   -1981.1077    4.3043992    4.3043992    4.3043992   -1981.1077    11992.262    2151.2844   -20086.869     3116.279   -2199.8273   -7859.8296    79.751273 
   63200    588.82013   -105.05337   0.53277683   -104.52059    7259.4243    4.3067592    4.3067592    4.3067592    7259.4243    27273.538   -5436.1351   -59.130323    -9962.015    320.33114   -4026.6269    79.882525 
   63300    536.79282   -105.00906   0.48570142   -104.52336   -9835.7228    4.3082208    4.3082208    4.3082208   -9835.7228   -6816.3306   -1946.5168   -20744.321    868.09848   -7972.5451    4859.4547     79.96388 
   63400    437.65938   -104.92108   0.39600341   -104.52508    846.43811    4.3037586    4.3037586    4.3037586    846.43811    17239.637   -5782.4906   -8917.8321   -5669.6751   -3754.5143   -10851.721    79.715671 
   63500    591.15975    -105.0553   0.53489376   -104.52041    2762.6476    4.3093765    4.3093765    4.3093765    2762.6476    21458.691   -6253.6339   -6917.1138    2799.7815    3027.7658    5499.7716    80.028251 
   63600    313.67952   -104.80976   0.28382382   -104.52593   -9425.7946    4.3050784    4.3050784    4.3050784   -9425.7946   -5030.6657    5614.4501   -28861.168     6587.384   -9710.6468   -8512.1367    79.789032 
   63700    710.32023   -105.16435   0.64271267   -104.52164     5369.076    4.3039898    4.3039898    4.3039898     5369.076    16306.131    -2026.396    1827.4928    -802.6655    1964.1765    858.28254    79.728522 
   63800    384.76159   -104.87367   0.34814037   -104.52553   -7151.2669    4.3126806    4.3126806    4.3126806   -7151.2669    13698.703   -8773.2569   -26379.246   -1397.0909   -101.90166    3610.0103    80.212472 
   63900    457.54059   -104.93889   0.41399234    -104.5249    6814.4015    4.2967437    4.2967437    4.2967437    6814.4015    14020.271    4241.4898    2181.4441    7964.5317   -131.71887   -10816.625    79.326512 
   64000    648.62915   -105.10695   0.58689329   -104.52006    -9433.387    4.3175321    4.3175321    4.3175321    -9433.387   -542.69488   -9407.3022   -18350.164   -5036.1657    244.01626    4998.1151    80.483476 
   64100    317.99159   -104.81173   0.28772547     -104.524    4793.0939    4.2988134    4.2988134    4.2988134    4793.0939    19837.736    11904.363   -17362.818   -3497.7812   -8640.1155   -2891.8607      79.4412 
   64200    629.93712   -105.09144   0.56998034   -104.52146   -1839.9584    4.3087176    4.3087176    4.3087176   -1839.9584    16045.492   -11772.548   -9792.8189   -388.32916   -931.08631   -1099.2595    79.991545 
   64300    472.30444    -104.9502   0.42735098   -104.52285    1107.4433    4.3071218    4.3071218    4.3071218    1107.4433    18906.935   -1506.7178   -14077.887    425.21819   -127.19951     10026.99    79.902703 
   64400    489.34484    -104.9661    0.4427695   -104.52333   -6571.1052    4.3053703    4.3053703    4.3053703   -6571.1052   -6680.8832   -3977.5274    -9054.905    3657.4698   -11455.214   -10957.196    79.805262 
   64500    520.32837   -104.99129   0.47080404   -104.52048     7128.454    4.3058766    4.3058766    4.3058766     7128.454    30241.251    996.62593   -9852.5154    -97.29923    2007.1752    12699.043     79.83342 
   64600    440.91686   -104.92173   0.39895084   -104.52277   -7422.9341    4.3093368    4.3093368    4.3093368   -7422.9341    7557.0827   -8501.1339   -21324.751    501.77602   -5345.4046     976.2975    80.026036 
   64700    593.50514   -105.05741   0.53701593    -104.5204    -3850.853    4.3029031    4.3029031    4.3029031    -3850.853   -3872.1503   -3080.3998    -4600.009     11182.26    998.08169    292.20959    79.668146 
   64800    439.99477   -104.92136   0.39811652   -104.52324    32.725587     4.308202     4.308202     4.308202    32.725587    22927.754   -6429.1409   -16400.436   -785.08908   -2576.9004    12712.949    79.962831 
   64900    464.55353   -104.94362    0.4203378   -104.52328   -1098.2675    4.3072329    4.3072329    4.3072329   -1098.2675    10872.469    3563.6395   -17730.911   -2939.5867   -4063.9792   -10170.865    79.908884 
   65000    512.98638   -104.98662   0.46416086   -104.52246    1310.4976    4.3025938    4.3025938    4.3025938    1310.4976    16824.618   -4090.8706   -8802.2542    5840.9319    1061.4277    17597.508    79.650964 
   65100    572.69504   -105.03928    0.5181865   -104.52109   -10107.532    4.3130332    4.3130332    4.3130332   -10107.532    2604.6428   -15080.356   -17846.884   -1577.4985   -1739.2953   -126.84489    80.232146 
   65200    465.11079    -104.9411   0.42084202   -104.52026    11801.103    4.2975799    4.2975799    4.2975799    11801.103    26735.043    7482.9719    1185.2939    4857.3051   -12085.797    655.04864    79.372834 
   65300     420.5309   -104.90438   0.38050519   -104.52388   -6150.4764    4.3133891    4.3133891    4.3133891   -6150.4764    21753.704   -19660.944   -20544.189    -1585.103    184.70192    16372.975    80.252009 
   65400    639.98524   -105.09851    0.5790721   -104.51944    9101.3891    4.3007502    4.3007502    4.3007502    9101.3891    16501.586    17049.642   -6247.0608    1221.7584    -8610.931   -7613.1981    79.548618 
   65500    428.87041   -104.91234   0.38805096   -104.52429   -14706.146    4.3101469    4.3101469    4.3101469   -14706.146    3397.2752   -22879.348   -24636.364    6936.2181    3668.9685    21802.912    80.071177 
   65600    556.18218   -105.02362   0.50324533   -104.52037    6798.9314     4.305053     4.305053     4.305053    6798.9314    32514.652   -644.55697   -11473.301   -2043.7826   -4767.1265    2897.2598     79.78762 
   65700    423.76358   -104.90632   0.38343019   -104.52289    2322.6775    4.3051559    4.3051559    4.3051559    2322.6775    13932.073    5989.2053   -12953.246   -4518.3938   -3075.3396    2602.0517     79.79334 
   65800     459.6719   -104.93974    0.4159208   -104.52381   -10732.654    4.3086085    4.3086085    4.3086085   -10732.654    4002.2749   -14323.455   -21876.782    7423.4406    3004.1735    22599.958     79.98547 
   65900    665.08341   -105.12162   0.60178144   -104.51984    6952.5683    4.3040996    4.3040996    4.3040996    6952.5683     18889.34    5783.9497   -3815.5852   -1585.8626   -2406.1022   -7651.9314    79.734624 
   66000    317.85221   -104.81442   0.28759936   -104.52682   -9018.9352    4.3071871    4.3071871    4.3071871   -9018.9352    15548.961   -14962.155   -27643.612    1685.1072   -5359.5051    23722.948    79.906335 
   66100     561.7376   -105.03111   0.50827198   -104.52284    6565.5554    4.3066164    4.3066164    4.3066164    6565.5554    11115.952     10294.13   -1713.4151    2501.7881   -2053.3832   -2039.6115    79.874574 
   66200     550.3717   -105.02124   0.49798788   -104.52325   -7186.5834    4.3079816    4.3079816    4.3079816   -7186.5834   -1584.9585    908.50718   -20883.299    2733.1777   -7115.5823    7241.9838     79.95056 
   66300    422.10299   -104.90786   0.38192766   -104.52593   -3710.7697    4.3023557    4.3023557    4.3023557   -3710.7697    19486.945   -13893.636   -16725.618    9208.9497    1774.7874    20336.054    79.637745 
   66400    604.46312   -105.06744   0.54693094   -104.52051    5503.6147    4.3118537    4.3118537    4.3118537    5503.6147    18361.797    5388.9673   -7239.9206   -1603.5316   -6125.8082   -6812.0694    80.166337 
   66500    399.64713   -104.88679   0.36160912   -104.52518   -921.90631    4.3000929    4.3000929    4.3000929   -921.90631    12409.963    1724.6255   -16900.307   -1831.7876   -4558.7427    22246.983    79.512156 
   66600    533.20614   -105.00586   0.48245612   -104.52341   -2855.6841    4.3116114    4.3116114    4.3116114   -2855.6841     1064.676   -8926.1918    -705.5366    10526.295    5721.5739    -653.5142    80.152826 
   66700    577.19918    -105.0441   0.52226195   -104.52184    3066.4065    4.3027489    4.3027489    4.3027489    3066.4065     25876.21   -707.39584   -15969.595   -5080.7968   -1533.5549    12074.097    79.659581 
   66800     357.8363   -104.84977    0.3237778   -104.52599   -4577.7792    4.3078752    4.3078752    4.3078752   -4577.7792     9466.884   -1944.9623   -21255.259   -171.23984    1961.3616    17831.538    79.944638 
   66900    610.15219   -105.07133   0.55207853   -104.51925    5674.8789    4.3077406    4.3077406    4.3077406    5674.8789    7479.2348    14386.817   -4841.4148    4263.8439   -670.29539   -7663.5553    79.937144 
   67000    478.99762   -104.95605   0.43340712   -104.52264   -9155.6751    4.3036181    4.3036181    4.3036181   -9155.6751    6921.8743   -12615.611   -21773.288    1527.6506   -2392.9921    23246.381    79.707867 
   67100     451.2203   -104.93108   0.40827361    -104.5228    2113.8926    4.3082545    4.3082545    4.3082545    2113.8926    15921.627   -4525.8388   -5054.1103    7090.5885    3562.8899   -788.20197    79.965754 
   67200    546.40535   -105.01612   0.49439905   -104.52172   -728.19703    4.3065006    4.3065006    4.3065006   -728.19703    4425.1418    10721.526   -17331.259   -671.63402   -3924.2444    8430.6051    79.868134 
   67300    444.90156   -104.92578   0.40255628   -104.52323   -2016.2055    4.3048358    4.3048358    4.3048358   -2016.2055    7288.4767    190.03949   -13527.133    2853.8728   -5129.4639    13305.171    79.775546 
   67400    624.38005   -105.08527   0.56495219   -104.52031   -2811.5722    4.3093265    4.3093265    4.3093265   -2811.5722    35.600281   -2638.2232   -5832.0938    12778.846     1703.572   -7479.6052    80.025462 
   67500    409.91773   -104.89404   0.37090218   -104.52313   -2516.9978    4.3058496    4.3058496    4.3058496   -2516.9978    14334.528    210.45027   -22095.971   -7432.0053   -4127.8121    23163.566    79.831916 
   67600    451.26729   -104.93001   0.40831613    -104.5217    10560.604    4.3038304    4.3038304    4.3038304    10560.604    11660.038    24034.225   -4012.4523    4728.3204    1568.6484    231.87393    79.719662 
   67700    566.75055   -105.03572   0.51280781   -104.52292   -12925.626     4.309885     4.309885     4.309885   -12925.626   -10303.616   -13144.827   -15328.436    5574.0787    254.42587    4649.5144    80.056582 
   67800    521.17574   -104.99456   0.47157076   -104.52299    3417.5055    4.3019452    4.3019452    4.3019452    3417.5055    15582.129    7280.2328   -12609.845   -1769.3473   -3186.3631    16825.177    79.614952 
   67900    431.88891   -104.91358   0.39078216    -104.5228     3584.754    4.3105706    4.3105706    4.3105706     3584.754    1616.5257    11804.024   -2666.2879    3581.7648    6963.1408   -6639.9083    80.094796 
   68000    449.48147   -104.92995   0.40670028   -104.52325    2625.4722    4.3025053    4.3025053    4.3025053    2625.4722    12304.209    4297.2637   -8725.0564   -1941.4066   -2652.9797    21615.935    79.646049 
   68100    602.05605   -105.06441   0.54475296   -104.51966   -5167.4756    4.3111834    4.3111834    4.3111834   -5167.4756     930.0216   -10793.591   -5638.8575    6322.2561   -169.83259   -3547.5534    80.128958 
   68200     501.4651   -104.97473   0.45373616   -104.52099   -1045.1309    4.3014906    4.3014906    4.3014906   -1045.1309   -1586.0708    538.39929   -2087.7211    11323.009   -2762.2981    1416.4179     79.58971 
   68300    397.07736   -104.88251   0.35928394   -104.52323    1379.7489    4.3107756    4.3107756    4.3107756    1379.7489    20187.986    4745.3896   -20794.129   -7229.3503   -5022.0282    13391.889    80.106221 
   68400     623.4706   -105.08482    0.5641293   -104.52069    2227.4702    4.3027599    4.3027599    4.3027599    2227.4702    614.70779   -1319.6162     7387.319    13084.366   -1880.7294   -5814.3451    79.660189 
   68500    443.60989   -104.92574   0.40138755   -104.52436   -7881.8611    4.3071629    4.3071629    4.3071629   -7881.8611    5925.2579   -15930.155   -13640.687    3689.7293   -1543.4311    13620.923    79.904987 
   68600    549.37623   -105.01869   0.49708716   -104.52161     5197.568    4.3081264    4.3081264    4.3081264     5197.568     8138.395    12179.921   -4725.6117   -720.91291   -10322.108   -1142.0676    79.958623 
   68700    432.23574   -104.91367   0.39109598   -104.52258    4839.6455    4.3028251    4.3028251    4.3028251    4839.6455    13001.025    4477.0835   -2959.1717    2792.2912    5145.2487    2343.9111    79.663811 
   68800    474.45861   -104.95165   0.42930012   -104.52235    -5169.012    4.3101545    4.3101545    4.3101545    -5169.012    11338.523   -10393.589    -16451.97   -1159.6381   -7613.5981    15765.799    80.071599 
   68900    686.06141   -105.14033   0.62076278   -104.51957    1028.6583     4.303095     4.303095     4.303095    1028.6583   -5545.3549    5454.4077     3176.922    4697.2977     3905.924   -6923.2482    79.678803 
   69000    296.09736   -104.79325   0.26791512   -104.52533   -830.94528    4.3075496    4.3075496    4.3075496   -830.94528    14796.698   -3768.9824   -13520.551    3490.0907   -3215.2359    9111.2725    79.926509 
   69100    528.13413   -105.00009   0.47786686   -104.52223    8547.6124    4.3051336    4.3051336    4.3051336    8547.6124    15645.149    18185.668   -8187.9803   -6964.6161   -6790.9995    2791.6631    79.792102 
   69200    632.30696   -105.09491   0.57212463   -104.52278   -12426.003    4.3080309    4.3080309    4.3080309   -12426.003     -10151.5   -21651.531    -5474.979    15741.232    752.11549   -763.45125    79.953309 
   69300    399.51696   -104.88649   0.36149134     -104.525    2046.3473    4.3040165    4.3040165    4.3040165    2046.3473    14185.168    4498.4615   -12544.588    1661.1602    -7787.226    14916.949    79.730002 
   69400    591.41835   -105.05599   0.53512775   -104.52086   -463.52927    4.3101754    4.3101754    4.3101754   -463.52927   -2483.6964     7126.226   -6033.1174    1343.4643    -9546.673   -7832.6191    80.072766 
   69500    342.37258   -104.83373   0.30978591   -104.52394    4180.9154    4.3021845    4.3021845    4.3021845    4180.9154    12646.674    1921.0282   -2024.9564    5986.2149   -1504.4915     8900.934    79.628238 
   69600    597.91133   -105.06394   0.54100273   -104.52294   -6197.8438    4.3082223    4.3082223    4.3082223   -6197.8438    -1226.014   -4568.4574    -12799.06    1541.9355   -12281.413    4172.9811    79.963961 
   69700    577.36789   -105.04425    0.5224146   -104.52184    -4519.759    4.3073939    4.3073939    4.3073939    -4519.759   -1211.4457   -5892.9854    -6454.846    4237.7947     7562.347   -1737.9554    79.917846 
   69800    287.87298   -104.78533   0.26047352   -104.52486    5161.9475    4.3035377    4.3035377    4.3035377    5161.9475    20237.824    10056.674   -14808.655   -1050.1374   -8168.6808    10746.988    79.703396 
   69900    623.19054   -105.08451    0.5638759   -104.52064   -455.93947    4.3089414    4.3089414    4.3089414   -455.93947   -6781.4155    12566.332   -7152.7347   -5590.8508   -2283.5703   -7459.8861    80.004014 
   70000    506.11328   -104.98056   0.45794193   -104.52262   -5976.6162    4.3057349    4.3057349    4.3057349   -5976.6162     1925.336   -15996.291   -3858.8937    13275.864    1449.5859    7766.0789    79.825541 
   70100    434.19327   -104.91641   0.39286719   -104.52355   -224.23288    4.3058395    4.3058395    4.3058395   -224.23288    10272.003    1787.7339   -12732.435   -2617.7551   -7435.4941    10128.921    79.831355 
   70200    613.85686   -105.07596   0.55543059   -104.52052    1264.2053    4.3072197    4.3072197    4.3072197    1264.2053   -467.80531    13645.786   -9385.3643    1394.4877   -2226.7612   -3479.7048     79.90815 
   70300    309.20661   -104.80514   0.27977664   -104.52536   -2882.8222    4.3063649    4.3063649    4.3063649   -2882.8222    4611.1279   -2865.0148    -10394.58    8098.2227   -6737.5203    13950.108    79.860586 
   70400     699.9465   -105.15482    0.6333263    -104.5215   -3443.6782    4.3046391    4.3046391    4.3046391   -3443.6782    -5482.861    3539.2447   -8387.4183    2876.0244   -10937.731   -3072.4843     79.76461 
   70500    460.46385   -104.93995   0.41663737   -104.52331    -5246.362    4.3109022    4.3109022    4.3109022    -5246.362    9532.3238   -11635.266   -13636.144    2248.0101    5409.3695     8559.097    80.113279 
   70600    325.38973   -104.81955   0.29441946   -104.52513    8359.4346     4.299449     4.299449     4.299449    8359.4346    5333.0732    26636.253   -6891.0222    1165.7506   -16192.376    9078.2548    79.476442 
   70700    731.39149    -105.1819   0.66177839   -104.52012   -8313.3209    4.3132036    4.3132036    4.3132036   -8313.3209   -12895.621    2192.9501   -14237.292   -3972.4816    5060.3615   -9802.2422    80.241653 
   70800    349.77418   -104.84103   0.31648303   -104.52454     2358.436     4.301448     4.301448     4.301448     2358.436    13911.388   -8346.3392    1510.2593    10976.734   -4655.7956    12164.904    79.587348 
   70900    541.89728   -105.01521   0.49032005   -104.52489   -5687.4462    4.3088707    4.3088707    4.3088707   -5687.4462    -10240.47    11941.372   -18763.241   -6704.3707   -2470.9198   -1398.2812    80.000076 
   71000    527.10385   -104.99877   0.47693464   -104.52184    8369.3392    4.3063544    4.3063544    4.3063544    8369.3392    7795.4835    20949.804   -3637.2695    159.62706    2447.1223    3624.1968    79.859997 
   71100      337.713   -104.83302   0.30556982   -104.52745   -6475.6731    4.3029733    4.3029733    4.3029733   -6475.6731   -10891.497    5494.5281   -14030.051    11616.631   -12208.011    9560.1288    79.672041 
   71200    744.01749   -105.19421   0.67320266   -104.52101   -8741.9655    4.3111818    4.3111818    4.3111818   -8741.9655   -4329.9101   -7857.4571   -14038.529    1538.8969   -2941.9368   -5276.4522     80.12887 
   71300    384.27699   -104.87234    0.3477019   -104.52464    6669.4927    4.3024087    4.3024087    4.3024087    6669.4927     9840.791    9347.5733    820.11391    4020.3283   -4206.1852    11982.842    79.640683 
   71400    399.79149   -104.88819   0.36173974   -104.52645   -7486.3462    4.3081526    4.3081526    4.3081526   -7486.3462   -22744.327    19942.206   -19656.918    4805.3731   -15046.159    3786.9279    79.960084 
   71500    694.93985   -105.14816   0.62879618   -104.51937    6227.0304    4.3073981    4.3073981    4.3073981    6227.0304    9603.3176    7608.2345    1469.5392   -1902.7019    4561.7087    -3865.581    79.918082 
   71600    365.54847   -104.85761   0.33075594   -104.52686   -11965.072    4.3034002    4.3034002    4.3034002   -11965.072   -9021.2705   -11040.985    -15832.96    9242.2107   -14552.384    11291.036    79.695758 
   71700    544.90288   -105.01971   0.49303958   -104.52667     2457.845    4.3088847    4.3088847    4.3088847     2457.845   -766.00227    18549.158   -10409.621   -6671.9948    3293.7484   -3297.1372    80.000853 
   71800    509.98411   -104.98622   0.46144434   -104.52478     6864.124    4.3060277    4.3060277    4.3060277     6864.124    5065.8455    23242.365   -7715.8383   -1592.2726   -1781.8038    7451.4016    79.841825 
   71900    336.21883   -104.83248   0.30421787   -104.52826   -11263.583    4.3052614    4.3052614    4.3052614   -11263.583   -16602.283    2369.5436   -19558.009    10083.147   -9015.0882    6587.5774    79.799206 
   72000    765.91464   -105.21304   0.69301566   -104.52003    4134.1791    4.3084291    4.3084291    4.3084291    4134.1791    12570.377   -1355.0263    1187.1863   -1408.1615    5779.7995   -2549.5063    79.975479 
   72100    328.14769   -104.82421   0.29691492   -104.52729   -2407.1224    4.3047058    4.3047058    4.3047058   -2407.1224   -7912.8448    18717.831   -18026.354    2047.4717   -12272.988    11649.847    79.768316 
   72200    441.37178   -104.92591   0.39936246   -104.52654    3150.7053    4.3069939    4.3069939    4.3069939    3150.7053   -7714.7722    23584.475   -6417.5867    9055.3943   -1754.8571     2070.261    79.895585 
   72300    714.94635   -105.16878   0.64689848   -104.52189    1848.0031    4.3063173    4.3063173    4.3063173    1848.0031    6279.3201     4095.788   -4831.0987    280.90535   -5107.9342    1509.7118    79.857933 
   72400    304.32792   -104.80305   0.27536229   -104.52769    -12814.58    4.3089227    4.3089227    4.3089227    -12814.58   -13126.799   -4632.7434   -20684.197    6505.3621   -12473.778    8018.9899    80.002968 
   72500    625.93028   -105.08743   0.56635487   -104.52108    15337.631    4.3031615    4.3031615    4.3031615    15337.631     10402.05    30906.396    4704.4453   -234.49593    2079.9558   -3948.3053    79.682497 
   72600    415.11503   -104.90196    0.3756048   -104.52635   -10084.068    4.3101666    4.3101666    4.3101666   -10084.068   -21880.768    12599.485   -20970.921   -3194.2428   -9502.3246    8403.3499    80.072275 
   72700    469.94604   -104.94962   0.42521705    -104.5244   -843.75976    4.3039718    4.3039718    4.3039718   -843.75976    2691.1068   -2363.0866   -2859.2995    10955.328   -3804.9851    4460.8654    79.727519 
   72800    689.65693   -105.14483   0.62401608   -104.52081   -1070.7772    4.3075077    4.3075077    4.3075077   -1070.7772   -6297.8514    8669.5306   -5584.0108   -11603.349    557.48856   -1991.0006    79.924178 
   72900     207.1301   -104.71482   0.18741567   -104.52741   -2436.6534    4.3076681    4.3076681    4.3076681   -2436.6534   -11748.066    25407.874   -20969.768    2302.4123   -11866.465    8435.4003    79.933107 
   73000    700.63855   -105.15464   0.63395248   -104.52069     3424.142    4.3048147    4.3048147    4.3048147     3424.142    2895.9854    7252.0924    124.34812    4872.0047    5981.1319    1082.4368    79.774372 
   73100    518.26469    -104.9941   0.46893678   -104.52516   -11917.635     4.307825     4.307825     4.307825   -11917.635    -10275.42   -6497.0724   -18980.412   -5788.3182   -12460.128    2010.9228    79.941843 
   73200    332.17728   -104.82816   0.30056098    -104.5276    8502.3191    4.3053395    4.3053395    4.3053395    8502.3191    8927.8437    26035.106   -9455.9922    3475.7102   -1767.4215    8023.1789    79.803549 
   73300    632.71731   -105.09402   0.57249592   -104.52152    2135.7585     4.307924     4.307924     4.307924    2135.7585   -12219.798    26822.535   -8195.4617     1275.876   -4311.4469   -8248.2133    79.947354 
   73400    372.69867   -104.86214   0.33722559   -104.52491   -5257.1383    4.3053962    4.3053962    4.3053962   -5257.1383    2801.4562   -2733.7431   -15839.128   -2092.0638   -8838.0486     11381.74    79.806703 
   73500    691.95765   -105.14574   0.62609783   -104.51964   -2335.9954    4.3101601    4.3101601    4.3101601   -2335.9954   -4852.5559    7682.4561   -9837.8862    10313.776    2167.4626    3011.5436    80.071911 
   73600    309.67979   -104.80363   0.28020479   -104.52342     10915.95    4.3020082    4.3020082    4.3020082     10915.95    5451.7744     38735.03   -11438.954   -11194.579    -8518.371   -1906.8598    79.618449 
   73700    523.15304   -104.99779   0.47335987   -104.52443   -7115.0978    4.3099171    4.3099171    4.3099171   -7115.0978    -4390.166   -1582.1799   -15372.948    6337.7018   -332.27414    12741.319    80.058372 
   73800    692.84027   -105.14831   0.62689644   -104.52141    -608.4549    4.3053218    4.3053218    4.3053218    -608.4549    1172.1813     4385.815   -7383.3609   -1926.5658   -711.94782    -5901.179    79.802565 
   73900    220.75281   -104.72794   0.19974178    -104.5282    3230.6812    4.3055357    4.3055357    4.3055357    3230.6812   -2479.6939    29935.393   -17763.656   -8247.0234   -5684.3007    9282.1502    79.814462 
   74000    650.35052   -105.10921   0.58845081   -104.52076   -2653.9791    4.3112157    4.3112157    4.3112157   -2653.9791   -6005.5148    13884.311   -15840.733   -3354.5296    1886.6276    3498.1872    80.130757 
   74100    471.11918   -104.94934   0.42627853   -104.52306    880.72106    4.3009544    4.3009544    4.3009544    880.72106    6405.6971     4695.648    -8459.182   -3123.5021   -7610.7407   -7247.1421    79.559951 
   74200    477.24511   -104.95742    0.4318214    -104.5256   -9031.9568    4.3123185    4.3123185    4.3123185   -9031.9568   -17863.636    11723.603   -20955.837   -5887.9865   -4038.9364    13283.039    80.192269 
   74300    516.96322   -104.99047   0.46775919   -104.52271    18700.713    4.3008713    4.3008713    4.3008713    18700.713    15063.789    41476.815   -438.46573   -265.31659   -256.52917   -778.15774     79.55534 
   74400    417.93624   -104.90472   0.37815749   -104.52657   -14850.684    4.3110332    4.3110332    4.3110332   -14850.684   -20054.784   -3741.6431   -20755.626   -5877.1323   -10321.248    3257.4046    80.120584 
   74500      634.804   -105.09613     0.574384   -104.52174     3040.409    4.3054573    4.3054573    4.3054573     3040.409    5621.5104    7911.3715   -4411.6549    505.05393     2964.965    9327.1338    79.810102 
   74600    432.01364   -104.91511   0.39089502   -104.52421     4745.379    4.3039583    4.3039583    4.3039583     4745.379   -14337.411    42161.999   -13588.451    2254.7292   -10187.968   -7043.5461    79.726771 
   74700    435.92196   -104.91814   0.39443135   -104.52371   -11204.955     4.312797     4.312797     4.312797   -11204.955   -13371.646    -2057.216   -18186.004   -10615.576    973.66566     10907.97    80.218967 
   74800    662.28652   -105.11889   0.59925076   -104.51964    9441.1796     4.296251     4.296251     4.296251    9441.1796    11064.178    11954.062    5305.2994    4885.5605   -2347.9252   -1124.2944    79.299224 
   74900      342.247   -104.83511   0.30967228   -104.52543   -12297.907    4.3169559    4.3169559    4.3169559   -12297.907   -29400.147    23259.619   -30753.193    -3211.245   -4838.2503   -5254.9172    80.451258 
   75000    535.33095    -105.0055    0.4843787   -104.52112    15211.607    4.2978825    4.2978825    4.2978825    15211.607    10452.065    29756.843    5425.9122   -5953.4799    2079.9607    9431.5043    79.389601 
   75100    567.45114   -105.03632   0.51344172   -104.52288   -14337.036    4.3116989    4.3116989    4.3116989   -14337.036   -25264.583    7557.6335   -25304.157   -2168.0989   -8297.6353   -4968.4786    80.157705 
   75200    471.29219   -104.94941   0.42643508   -104.52297    3046.7303    4.3049626    4.3049626    4.3049626    3046.7303    3604.4864    12735.605      -7199.9   -4124.4875    1486.6885    3692.5294    79.782592 
   75300    486.63633   -104.96303   0.44031878   -104.52271    5887.6945    4.3032345    4.3032345    4.3032345    5887.6945   -13012.628    38428.639   -7752.9275   -2170.0372   -6329.5412    1283.9173    79.686554 
   75400    440.62948   -104.92248   0.39869081   -104.52379   -11790.293    4.3115518    4.3115518    4.3115518   -11790.293   -18664.912    7577.9878   -24283.954    1788.3603   -5311.9212    -3694.893    80.149501 
   75500    725.44429   -105.17594   0.65639724   -104.51954    4853.6025    4.3000186    4.3000186    4.3000186    4853.6025    4433.0493    6765.1676    3362.5904   -7861.5812   -1507.2552    3518.2094    79.508031 
   75600    261.04431   -104.76249   0.23619838    -104.5263   -4853.3797    4.3115689    4.3115689    4.3115689   -4853.3797   -27024.763     38487.75   -26023.126    9644.2464   -8001.7865   -2323.6512    80.150454 
   75700    534.59927   -105.00723   0.48371665   -104.52351    5808.3644    4.3033698    4.3033698    4.3033698    5808.3644   -1174.1712    22126.238   -3526.9741   -607.14865    2277.1978   -7503.1069    79.694071 
   75800    657.02175   -105.11735   0.59448709   -104.52287   -10632.307    4.3093917    4.3093917    4.3093917   -10632.307   -21099.471   -1356.8659   -9440.5829   -650.03541   -4398.4607    4502.2291    80.029094 
   75900    269.93223   -104.77348   0.24424035   -104.52924    6126.5294    4.3007698    4.3007698    4.3007698    6126.5294   -8517.3688    35113.822   -8216.8653    7229.8748   -2081.6555   -2533.2154    79.549707 
   76000    685.45237   -105.14321   0.62021171     -104.523   -1500.0471    4.3137499    4.3137499    4.3137499   -1500.0471   -15265.925    22781.731   -12015.948    2281.3942    2841.6597   -1132.4278    80.272149 
   76100      374.434   -104.86601   0.33879575   -104.52722    8964.6278    4.2984713    4.2984713    4.2984713    8964.6278   -2780.0553    35454.714   -5780.7751    2573.1226   -6210.8481   -130.06168    79.422231 
   76200    529.81155   -105.00747   0.47938463   -104.52808   -14399.018     4.312144     4.312144     4.312144   -14399.018   -21059.164   -5380.8197    -16757.07    2941.5324    6144.3742   -6516.3124    80.182531 
   76300    562.24576   -105.03167   0.50873178   -104.52293    14243.836    4.3038402    4.3038402    4.3038402    14243.836    1998.6143     44083.01   -3350.1164   -3684.0492   -6352.6632   -832.86145    79.720208 
   76400    359.65475   -104.85304   0.32542318   -104.52762   -7456.9208    4.3050694    4.3050694    4.3050694   -7456.9208    -20611.06    16128.872   -17888.574    8356.2514   -826.43625   -1348.8969    79.788529 
   76500    614.51566   -105.07944   0.55602668   -104.52341    -6653.627    4.3088165    4.3088165    4.3088165    -6653.627   -3293.1985   -7942.5321   -8725.1502    1046.1539    2465.0282   -12403.434    79.997056 
   76600    524.00169   -104.99695   0.47412775   -104.52283    3315.0718    4.3030389    4.3030389    4.3030389    3315.0718   -10163.433    31058.701   -10950.054    -5076.064    -6450.176    4928.1083     79.67569 
   76700    347.51572   -104.84041   0.31443952   -104.52597   -7661.8914    4.3103342    4.3103342    4.3103342   -7661.8914   -24663.828    20583.142   -18904.989    10261.334    7532.9849   -7845.0452    80.081616 
   76800    621.94705   -105.08458   0.56275076   -104.52183     7684.347    4.3023417    4.3023417    4.3023417     7684.347    9466.6032    15897.732   -2311.2942   -296.25794   -5920.4918    -3344.059    79.636963 
   76900     542.2381   -105.01509   0.49062843   -104.52446    -13398.12    4.3104807    4.3104807    4.3104807    -13398.12   -27121.961    7628.9094    -20701.31    3491.6626     4066.916    569.64068    80.089782 
   77000    321.72042   -104.81656    0.2910994   -104.52546    16738.979     4.301061     4.301061     4.301061    16738.979    7518.1185    44339.471   -1640.6531    2355.5486    3217.1338   -11776.778     79.56587 
   77100    647.55788   -105.11011   0.58592398   -104.52418    -10682.16    4.3107141    4.3107141    4.3107141    -10682.16   -24547.432    7251.0634   -14750.111    1163.2755   -2238.9711    1501.9913    80.102794 
   77200     469.2029   -104.94967   0.42454465   -104.52512    3542.2776    4.3026371    4.3026371    4.3026371    3542.2776   -2800.7855     17868.12    -4440.502    2430.0371    4858.9908   -7144.7153    79.653367 
   77300     476.3512   -104.95529   0.43101258   -104.52427   -2864.0118    4.3100885    4.3100885    4.3100885   -2864.0118   -9154.1714     13808.09   -13245.954   -1632.9346   -2661.5362   -11163.309    80.067924 
   77400    466.74074   -104.94502   0.42231683    -104.5227    7136.8773    4.3030057    4.3030057    4.3030057    7136.8773    -10876.54    37019.239   -4732.0675    -6538.892    491.35201     4223.517    79.673844 
   77500    551.92673   -105.02244   0.49939491   -104.52304   -9418.3024    4.3097188    4.3097188    4.3097188   -9418.3024    -6222.921   -11367.361   -10664.625    6985.7213    3137.1566   -9348.6486    80.047321 
   77600    526.07603   -104.99923   0.47600465   -104.52322     4076.548    4.3012279    4.3012279    4.3012279     4076.548   -8845.9853    17613.551    3462.0779    -5997.931   -6201.2343    -2608.117    79.575131 
   77700    364.07719   -104.85427   0.32942469   -104.52485    2583.6298    4.3124673    4.3124673    4.3124673    2583.6298    -12692.89    34000.418   -13556.639   -2646.7371    6664.5618   -39.125849    80.200565 
   77800    628.17804   -105.09086   0.56838869   -104.52247    109.66737    4.3007513    4.3007513    4.3007513    109.66737    861.30015   -1649.8788    1117.5808    492.95568   -4252.7799   -12615.297    79.548679 
   77900    432.29577   -104.91723   0.39115029   -104.52608    1447.9496    4.3079998    4.3079998    4.3079998    1447.9496   -16966.903    24593.874   -3283.1226   -1429.3693    5090.5125    3659.4192    79.951573 
   78000     562.8663    -105.0334   0.50929326    -104.5241   -3828.0969    4.3090743    4.3090743    4.3090743   -3828.0969   -16047.063    20504.181   -15941.409    2792.9999    4798.5794   -10956.704    80.011417 
   78100    440.43211   -104.92304   0.39851223   -104.52453    16380.537    4.2954485    4.2954485    4.2954485    16380.537    9816.2695    29288.594    10036.749   -4590.8814    616.24161   -6504.1935    79.254793 
   78200    514.98873   -104.99022   0.46597262   -104.52425   -22422.989     4.318937     4.318937     4.318937   -22422.989    -32423.39   -9635.9105   -25209.666    200.23663    10901.737    804.51176    80.562066 
   78300    583.85345   -105.04774   0.52828287   -104.51946    20585.295    4.2920079    4.2920079    4.2920079    20585.295    17667.478    29625.709    14462.699    3824.0975   -2533.1439   -7557.6673    79.064501 
   78400    324.89503   -104.81835   0.29397185   -104.52438   -13234.149    4.3178928    4.3178928    4.3178928   -13234.149   -35825.256    22485.539   -26362.729   -3888.8999    10063.021     444.8811    80.503648 
   78500     604.1901   -105.06783    0.5466839   -104.52115    4999.0592    4.2968989    4.2968989    4.2968989    4999.0592  -0.60337368    9975.1365    5022.6445   -4880.2355     100.3234   -3930.3515    79.335104 
   78600    553.49007   -105.02338   0.50080945   -104.52257   -5803.8407    4.3101818    4.3101818    4.3101818   -5803.8407   -1814.5206   -3626.3443   -11970.657    2671.5807     1870.388   -10050.205    80.073123 
   78700    373.07771   -104.86387   0.33756855    -104.5263   -224.11341    4.3040124    4.3040124    4.3040124   -224.11341   -25173.308    30809.317   -6308.3484   -3414.3872    4785.8037    4485.5395    79.729775 
   78800    569.64224   -105.03883   0.51542427   -104.52341    9736.9317    4.3035585    4.3035585    4.3035585    9736.9317    7438.3558    21006.288    766.15108   -776.37935   -2277.6943   -12554.757    79.704552 
   78900    551.27187    -105.0228   0.49880237     -104.524   -13137.278    4.3111686    4.3111686    4.3111686   -13137.278   -21495.729   -2016.0788   -15900.027   -5523.8675    6320.6118   -424.33468    80.128134 
   79000    425.94311   -104.90996   0.38540228   -104.52456    10430.828    4.2990634    4.2990634    4.2990634    10430.828    1127.4603    28123.077    2041.9474    408.44891    183.38119    1106.9868     79.45506 
   79100    561.83824    -105.0295   0.50836305   -104.52114   -2442.3794    4.3128872    4.3128872    4.3128872   -2442.3794   -14743.198    19247.559   -11831.499    3760.1296    1416.4678   -4919.9633       80.224 
   79200    425.52185   -104.90967   0.38502111   -104.52464    2066.2247    4.2981966    4.2981966    4.2981966    2066.2247   -13854.696    25817.197   -5763.8274   -3004.3611    8116.3833    3232.6372    79.407006 
   79300    580.37632   -105.04937   0.52513669   -104.52423   -10798.704    4.3113574    4.3113574    4.3113574   -10798.704   -13096.218   -8763.8608   -10536.034   -2597.7868   -4695.9619   -4735.0761    80.138663 
   79400    520.64777   -104.99488   0.47109305   -104.52379    4020.9362    4.3010579    4.3010579    4.3010579    4020.9362   -9354.4195    26732.051   -5314.8223    8391.7008    7754.0928   -4791.6559    79.565696 
   79500    319.59056   -104.81618   0.28917225   -104.52701   -1206.8944    4.3088634    4.3088634    4.3088634   -1206.8944    -17564.97    34179.882   -20235.595   -2438.1527    -4945.359    3399.4663    79.999665 
   79600    694.89455   -105.15024   0.62875519   -104.52149   -1729.0198    4.3031059    4.3031059    4.3031059   -1729.0198   -10346.183    3123.9934    2035.1307    2774.1139   -1077.9253   -7979.2593    79.679407 
   79700    420.11411   -104.90547   0.38012807   -104.52534   -7803.6795    4.3080555    4.3080555    4.3080555   -7803.6795   -17089.452    15049.005   -21370.591    479.37911    2914.1698    732.03106    79.954677 
   79800     513.4246   -104.98844   0.46455737   -104.52388    5293.7796    4.3037459    4.3037459    4.3037459    5293.7796   -15810.583    38062.765    -6370.843   -201.92915   -10680.678    2318.5448    79.714968 
   79900    487.56594   -104.96628   0.44115991   -104.52512    725.27102      4.30536      4.30536      4.30536    725.27102    -11668.81    17397.134   -3552.5109    7784.5245    6437.0232   -2222.5806    79.804692 
   80000    448.75687   -104.93192   0.40604465   -104.52587   -12165.916    4.3080276    4.3080276    4.3080276   -12165.916   -25643.505    12416.077   -23270.319   -4211.1327   -9329.0566     1880.589    79.953121 
   80100    706.67465   -105.16017   0.63941407   -104.52076    6257.9042    4.3016944    4.3016944    4.3016944    6257.9042   -4848.0117    15911.284    7710.4403    2318.4505    1822.7163   -2257.4343    79.601024 
   80200    247.68323   -104.75136   0.22410899   -104.52725   -4790.2495    4.3113431    4.3113431    4.3113431   -4790.2495   -25563.819    34187.192   -22994.121    7281.8843   -1041.7017   -3293.2131    80.137864 
   80300    589.92547   -105.05699   0.53377696   -104.52321    3024.8451    4.2996813    4.2996813    4.2996813    3024.8451   -9933.7724    21539.058   -2530.7506    971.54664   -7845.2815    3285.7324    79.489324 
   80400    616.22382    -105.0805   0.55757226   -104.52293   -5821.3392    4.3101294    4.3101294    4.3101294   -5821.3392    -9152.811   -8100.1676   -211.03885    4636.2995    2847.1874   -452.58304    80.070201 
   80500    345.49888   -104.84102   0.31261465   -104.52841   -2995.0623    4.3021649    4.3021649    4.3021649   -2995.0623   -28559.515    29839.529   -10265.201    3229.0369   -9792.6582   -1797.4568    79.627149 
   80600    590.98809   -105.05777   0.53473844   -104.52303    8946.8392    4.3075256    4.3075256    4.3075256    8946.8392    321.60302    25409.666     1109.249    3921.4879     355.0753    6263.8245    79.925179 
   80700    437.00809   -104.92118   0.39541411   -104.52577   -43.164189    4.3048758    4.3048758    4.3048758   -43.164189   -16590.674    20216.057   -3754.8749    9401.0471   -6819.8188    659.38813     79.77777 
   80800    484.58075   -104.96459   0.43845885   -104.52613   -8336.8599    4.3061552    4.3061552    4.3061552   -8336.8599   -14122.919    2740.2494    -13627.91   -4834.9183   -4939.2749    2722.8594    79.848918 
   80900    670.53116   -105.12798   0.60671069   -104.52127    4312.2744    4.3064149    4.3064149    4.3064149    4312.2744   -1926.6572    12343.283     2520.197    762.56413    1039.9508    2530.4877    79.863363 
   81000    315.01623   -104.81241   0.28503331   -104.52737   -2780.0665    4.3043682    4.3043682    4.3043682   -2780.0665   -24285.647    34651.189   -18705.741     6103.011   -5174.1222   -2297.9358    79.749553 
   81100    482.38791   -104.96149   0.43647472   -104.52502   -1360.6568    4.3058954    4.3058954    4.3058954   -1360.6568    3016.1631    2643.8612   -9741.9948   -3209.7702    1738.8151    6997.7003    79.834467 
   81200    697.67286   -105.15517   0.63126906    -104.5239   -6935.5692     4.304936     4.304936     4.304936   -6935.5692   -10782.928   -5056.4014   -4967.3787   -1387.1226   -1855.2065     3329.805    79.781112 
   81300    343.68441   -104.83891   0.31097287   -104.52794   -8364.0251    4.3083022    4.3083022    4.3083022   -8364.0251   -18274.797    14245.592    -21062.87    1645.1141   -4559.2924   -1990.0085     79.96841 
   81400    527.94292   -105.00097   0.47769385   -104.52328    11128.063    4.3008777    4.3008777    4.3008777    11128.063    13491.954     20419.03    -526.7953   -1648.4011    2977.1411    10924.264    79.555694 
   81500    467.97229   -104.94722   0.42343116   -104.52379   -9100.9782    4.3127548    4.3127548    4.3127548   -9100.9782   -13480.405    9124.1702   -22946.699    7698.7775   -10254.369   -301.65735    80.216612 
   81600    515.92094   -104.98882   0.46681611   -104.52201    2058.8967    4.2987947    4.2987947    4.2987947    2058.8967    3339.5255    738.68468      2098.48   -5034.0982   -332.73181    7586.5852     79.44016 
   81700     606.0704    -105.0696   0.54838524   -104.52122   -8834.1937    4.3115208    4.3115208    4.3115208   -8834.1937   -12322.518     -2106.29   -12073.773   -3541.8553    -3473.067      3078.88    80.147774 
   81800    336.12565   -104.82884   0.30413355    -104.5247    12115.291     4.300458     4.300458     4.300458    12115.291    1070.4616    41457.297   -6181.8851    9396.3481   -4214.8339    -2634.397     79.53241 
   81900    542.96396   -105.01674    0.4912852   -104.52546   -7844.7861    4.3079459    4.3079459    4.3079459   -7844.7861   -4651.8086   -10767.924   -8114.6255   -7522.1539    4141.8699    9685.2821    79.948576 
   82000    601.60799   -105.06769   0.54434756   -104.52335   -3431.9034    4.3046559    4.3046559    4.3046559   -3431.9034   -7989.5438    1490.9508   -3797.1172   -6392.3749   -6954.0355    130.52207    79.765542 
   82100    444.92357   -104.92715    0.4025762   -104.52457    1958.1617    4.3045822    4.3045822    4.3045822    1958.1617   -4266.8563    14700.352   -4559.0102    2085.8104    5549.8654    372.48444    79.761447 
   82200    418.70964   -104.90285   0.37885728   -104.52399   -2935.9362     4.308626     4.308626     4.308626   -2935.9362   -6736.9127    7805.2004   -9876.0962   -8947.9878    172.19121    7332.8384    79.986444 
   82300    533.50462   -105.00442    0.4827262    -104.5217    8036.7679    4.3002258    4.3002258    4.3002258    8036.7679    5377.0131    17437.665    1295.6255    5009.1029   -4641.2357   -2118.3973    79.519525 
   82400    579.94031    -105.0478   0.52474218   -104.52306   -18998.795    4.3115583    4.3115583    4.3115583   -18998.795   -22171.994   -22024.276   -12800.117   -9955.4377    2767.7702    9294.0489    80.149863 
   82500    419.00227   -104.90234   0.37912206   -104.52322    13812.606    4.2973041    4.2973041    4.2973041    13812.606    7981.1322    25448.165    8008.5201   -5486.6695   -6500.9728     669.9518    79.357553 
   82600     485.2369   -104.96164   0.43905254   -104.52259    -4150.379    4.3135811    4.3135811    4.3135811    -4150.379   -10231.898    15964.006   -18183.245    11320.534    428.85475    -1383.636    80.262728 
   82700    512.08113   -104.98606   0.46334177   -104.52271    5110.5478    4.2971247    4.2971247    4.2971247    5110.5478    5331.3132    1806.4101    8193.9201   -15075.216    845.69749    7759.8537    79.347614 
   82800    554.46431   -105.02464   0.50169096   -104.52295   -5915.9191    4.3116039    4.3116039    4.3116039   -5915.9191   -9697.3868     1911.903   -9962.2734   -1413.3793   -5655.8294   -215.51925    80.152408 
   82900    515.14607   -104.98877   0.46611499   -104.52265    5467.0798    4.3022766    4.3022766    4.3022766    5467.0798   -3375.4684    24574.621   -4797.9134    267.63212    8968.2702    2686.1147    79.633348 
   83000     345.2309   -104.83866   0.31237218   -104.52629    3299.8801    4.3031452    4.3031452    4.3031452    3299.8801    2511.6883     2431.867    4956.0852   -13329.212   -2962.9362    5478.0805    79.681591 
   83100    690.32565   -105.14596   0.62462116   -104.52134   -7144.1146    4.3091648    4.3091648    4.3091648   -7144.1146   -14696.639     4784.386    -11520.09    930.92997    4987.8478    -2072.443    80.016457 
   83200    485.54837   -104.96292   0.43933437   -104.52359    2339.0839    4.2997211    4.2997211    4.2997211    2339.0839     202.7224   -272.51483    7087.0442   -12367.255   -229.20132    9719.6554    79.491532 
   83300    340.56097   -104.83348   0.30814672   -104.52534    849.29752    4.3105477    4.3105477    4.3105477    849.29752   -3252.3793     17727.77   -11927.498   -4276.9144   -2876.0507    777.95941    80.093516 
   83400    646.64268   -105.10583   0.58509589   -104.52073    1986.0549    4.3025917    4.3025917    4.3025917    1986.0549    -2706.394    13696.525   -5031.9666    5758.1438    3095.2251   -1308.4802     79.65085 
   83500    412.55744   -104.89842   0.37329064   -104.52513   -5746.3524     4.304203     4.304203     4.304203   -5746.3524   -5241.2256   -18928.779    6930.9472   -23034.676   -3157.9955    5639.4741     79.74037 
   83600    582.19005   -105.05027    0.5267778   -104.52349    85.452819    4.3079848    4.3079848    4.3079848    85.452819   -9165.3898    20250.119   -10828.371    6697.7746   -3420.5498    -1848.073    79.950739 
   83700    426.26895   -104.90974   0.38569711   -104.52404    9360.3874    4.3021533    4.3021533    4.3021533    9360.3874    6518.5473    18231.568    3331.0471   -5050.9688    3978.1813    5703.0365    79.626505 
   83800    423.78015   -104.90938   0.38344519   -104.52594   -5273.7802    4.3060675    4.3060675    4.3060675   -5273.7802   -9920.3185   -1110.9533   -4790.0687   -14710.457   -5530.2712    3919.1298    79.844037 
   83900     738.4465   -105.18876   0.66816192    -104.5206   -4973.5615    4.3080871    4.3080871    4.3080871   -4973.5615   -9237.4225    4944.3266   -10627.588    516.92749    8407.4771   -798.98718    79.956434 
   84000    336.06302   -104.82814   0.30407688   -104.52406    12707.339    4.2990557    4.2990557    4.2990557    12707.339    12656.217    16015.174     9450.625   -12743.838   -2105.6322    9482.1914     79.45463 
   84100    455.19655   -104.93716    0.4118714   -104.52528   -8102.4486    4.3118078    4.3118078    4.3118078   -8102.4486   -19893.737    13503.399   -17917.008    -2882.011    3197.4874    2635.7731    80.163777 
   84200    664.08951   -105.12182   0.60088214   -104.52094    10338.643    4.2980146    4.2980146    4.2980146    10338.643    6805.1796    11715.406    12495.345    -2263.023    2682.5501    1743.3073    79.396923 
   84300    399.69315   -104.88767   0.36165076   -104.52602   -12901.322    4.3102052    4.3102052    4.3102052   -12901.322   -12839.961   -17126.153   -8737.8529   -17884.984   -977.83243    3935.4067    80.074425 
   84400    512.14024    -104.9866   0.46339525    -104.5232    6699.6681    4.3036214    4.3036214    4.3036214    6699.6681   -3448.1212    31481.183   -7934.0573     11257.16    1239.0981   -4134.1665    79.708047 
   84500    477.95416   -104.95521   0.43246297   -104.52275    5640.8131    4.3031326    4.3031326    4.3031326    5640.8131    5227.8926    8159.0262    3535.5204   -9899.1121   -1709.4686    4942.5028    79.680891 
   84600    464.52785   -104.94488   0.42031456   -104.52456   -18414.697    4.3094414    4.3094414    4.3094414   -18414.697   -28775.742   -10899.364   -15568.984   -11964.072   -1950.1183    4342.7708    80.031868 
   84700    625.09906   -105.08644   0.56560277   -104.52084    11257.006    4.2999867    4.2999867    4.2999867    11257.006    13230.065    14575.048    5965.9039    4587.9538    6343.0236   -2285.7875    79.506262 
   84800    386.98521   -104.87576   0.35015235   -104.52561   -6578.4722    4.3091185    4.3091185    4.3091185   -6578.4722   -16392.417    5310.4803   -8653.4794   -11684.137   -1882.0713    6049.5836    80.013876 
   84900    436.89455   -104.92139   0.39531137   -104.52608    3511.1046    4.3011731    4.3011731    4.3011731    3511.1046   -10681.722    28332.468   -7117.4329   -1836.7503    4682.1086    826.83624    79.572088 
   85000    717.83316    -105.1711   0.64951052   -104.52159   -7008.0105    4.3099927    4.3099927    4.3099927   -7008.0105   -4832.8112   -12999.077   -3192.1433   -4054.9515    1290.1886    2256.5697    80.062587 
   85100    404.53521   -104.89171   0.36603196   -104.52568     93.04024    4.3004984    4.3004984    4.3004984     93.04024   -8462.9491    11669.728   -2927.6587   -11316.407    415.88352    1896.0964    79.534651 
   85200    435.19273   -104.91875   0.39377152   -104.52498    5768.7333    4.3083607    4.3083607    4.3083607    5768.7333    882.70359    28418.759   -11995.262    10462.673    4613.3619   -4830.1465    79.971671 
   85300    584.11006   -105.05137   0.52851506   -104.52285    2915.1159     4.302895     4.302895     4.302895    2915.1159   -6690.9004    10359.281    5076.9667   -6327.4325   -4053.1954   -1014.9289    79.667692 
   85400    462.41533    -104.9441   0.41840311    -104.5257   -9149.3265    4.3056765    4.3056765    4.3056765   -9149.3265   -9891.2606   -3234.8038   -14321.915   -5892.2276    3819.8044    3769.6519    79.822294 
   85500    551.53046   -105.02215   0.49903635   -104.52311    3980.1044     4.305877     4.305877     4.305877    3980.1044    4655.8013    9197.7423   -1913.2303    13631.354    -925.9131   -2870.2961    79.833441 
   85600    424.15777   -104.90741   0.38378686   -104.52362    198.29775    4.3057166    4.3057166    4.3057166    198.29775   -17641.497    23045.455   -4809.0652   -5891.6844    2688.7942    3120.7027     79.82452 
   85700    475.39965   -104.95347   0.43015159   -104.52332   -534.54584    4.3032976    4.3032976    4.3032976   -534.54584    234.21353     7747.332    -9585.183    535.78732    873.35698    -2821.795     79.69006 
   85800    644.64588   -105.10559   0.58328914    -104.5223    -7054.563     4.307514     4.307514     4.307514    -7054.563   -10853.984   -12698.949    2389.2442    6867.1708    798.90591   -2258.3742    79.924531 
   85900    385.48044   -104.87353   0.34879081   -104.52473    3472.7496    4.3036586    4.3036586    4.3036586    3472.7496   -2555.6906      24074.6   -11100.661   -7332.1722   -897.63659    4776.2199    79.710116 
   86000    471.43588   -104.95089   0.42656509   -104.52433    1647.1762     4.303976     4.303976     4.303976    1647.1762    -10397.45    19093.484    -3754.506    12065.749    2402.7424   -8651.1486     79.72775 
   86100    596.69924   -105.06268   0.53990601   -104.52278   -9907.7955    4.3090289    4.3090289    4.3090289   -9907.7955   -14989.233   -10713.967   -4020.1861   -3180.3467   -2468.3603   -359.60903    80.008888 
   86200    486.92833   -104.96333   0.44058298   -104.52275    7889.0307    4.2998753    4.2998753    4.2998753    7889.0307   -159.65219    26796.824   -2970.0797   -1690.3116    1697.8404     201.8305    79.500081 
   86300    395.36835   -104.88228   0.35773759   -104.52454   -4165.6137    4.3098726    4.3098726    4.3098726   -4165.6137   -18860.767    8863.7725   -2499.8464    21070.234   -1182.4704   -2747.2381    80.055892 
   86400    562.22122   -105.03043   0.50870957   -104.52172    7862.5199    4.3005913    4.3005913    4.3005913    7862.5199    2438.7624    20176.242    972.55544   -9556.6655    1930.9207    961.84307    79.539803 
   86500    579.66811   -105.04776   0.52449588   -104.52327   -12519.372    4.3085859    4.3085859    4.3085859   -12519.372   -19566.924   -10152.715   -7838.4776    13248.895    2839.1878   -4498.8807    79.984211 
   86600    370.15353   -104.86027    0.3349227   -104.52535    8152.9946    4.3025514    4.3025514    4.3025514    8152.9946   -3569.0164    26222.297    1805.7036    14230.132    789.18395   -5782.4321    79.648611 
   86700    590.22381   -105.05591    0.5340469   -104.52186    308.04016    4.3067144    4.3067144    4.3067144    308.04016   -10253.298    21523.011   -10345.593   -1806.4514    2767.7037    3168.3858    79.880032 
   86800    457.26239   -104.93897   0.41374062   -104.52523   -9114.5152    4.3042852    4.3042852    4.3042852   -9114.5152   -11340.082   -17633.946    1630.4823    21181.118   -1389.9599   -8999.1742    79.744936 
   86900    505.92727   -104.98307   0.45777362   -104.52529    6400.1275     4.304477     4.304477     4.304477    6400.1275   -5470.0343    32725.682   -8055.2649   -2156.1921    3097.4509   -1900.6465    79.755598 
   87000    552.91948   -105.02507   0.50029317   -104.52478    1088.7639    4.3050259    4.3050259    4.3050259    1088.7639   -10061.533     17553.57   -4225.7459    9100.8108   -2286.0585   -645.11236    79.786112 
   87100    374.87929   -104.86589   0.33919866   -104.52669   -6295.7068    4.3065009    4.3065009    4.3065009   -6295.7068    300.41065   -14726.649   -4460.8824    17708.336    570.17871   -5078.3158    79.868152 
   87200    692.80296   -105.14852   0.62686268   -104.52166    5108.2365    4.3030302    4.3030302    4.3030302    5108.2365   -5546.8419    31197.642   -10326.091   -14049.402   -2831.8844    4327.9059    79.675203 
   87300    323.47279   -104.81912   0.29268498   -104.52643   -3216.3699    4.3077144    4.3077144    4.3077144   -3216.3699   -16291.968      5039.87    1602.9883    26311.183    467.16191   -5826.0218    79.935683 
   87400    558.50273   -105.02997   0.50534501   -104.52462   -2446.2891    4.3025224    4.3025224    4.3025224   -2446.2891   -852.37744    4692.4967   -11178.986    4484.4632   -676.36921   -2953.4163       79.647 
   87500    630.63241   -105.09292   0.57060946   -104.52231    621.97201    4.3062268    4.3062268    4.3062268    621.97201   -4184.0086    10433.829   -4383.9047    2858.2042    2906.3316    1455.0479      79.8529 
   87600    213.76546   -104.72189   0.19341948   -104.52847    2860.5026     4.304185     4.304185     4.304185    2860.5026    -6788.092    18931.563   -3561.9636    19875.609   -354.73183   -8143.6653    79.739367 
   87700    730.80858   -105.18391   0.66125097   -104.52265   -5086.9676    4.3063487    4.3063487    4.3063487   -5086.9676   -6952.7113     8734.384   -17042.575   -909.58895    4781.0702   -3154.6447    79.859685 
   87800    492.00214   -104.97049   0.44517388   -104.52531    2653.9312     4.302138     4.302138     4.302138    2653.9312    1500.4219   -1686.9788    8148.3505    16651.933    138.04221   -1105.0134    79.625653 
   87900    325.60484   -104.82245    0.2946141   -104.52784   -5721.0933    4.3094337    4.3094337    4.3094337   -5721.0933    -8410.499    13708.099    -22460.88     5045.834    5060.7737   -7052.5314    80.031435 
   88000    668.98484   -105.12621   0.60531154    -104.5209    9692.8814    4.2997049    4.2997049    4.2997049    9692.8814    3355.0918    22397.365    3326.1876   -3126.7724    583.70252    2585.8375    79.490632 
   88100    408.94815    -104.8977   0.37002488   -104.52768   -11341.036    4.3077825    4.3077825    4.3077825   -11341.036    -8745.831   -15620.041   -9657.2352    21393.028   -318.83322   -7869.1417    79.939479 
   88200    504.47706   -104.98279   0.45646145   -104.52633   -1548.8855     4.306788     4.306788     4.306788   -1548.8855    43.052433    15149.394   -19839.103   -7935.0726    1468.8167   -7081.2605    79.884125 
   88300    519.65437   -104.99336    0.4701942   -104.52316    15629.233    4.2975219    4.2975219    4.2975219    15629.233     10226.58    28565.417    8095.7025    6495.2627   -1126.5787    3830.9158    79.369619 
   88400    379.09996   -104.86876   0.34301761   -104.52574   -28844.928    4.3164258    4.3164258    4.3164258   -28844.928   -27192.991   -30316.157   -29025.637     16242.85    2196.8998   -10778.645    80.421624 
   88500    680.56459   -105.13509   0.61578914    -104.5193    19540.436    4.2912338    4.2912338    4.2912338    19540.436    17310.055    35173.228    6138.0254   -5006.8285    333.80477   -56.920518    79.021732 
   88600    381.85515   -104.87103   0.34551057   -104.52552   -13127.797    4.3153947    4.3153947    4.3153947   -13127.797   -21816.676    627.81841   -18194.534    14046.564    387.95541   -3538.2417    80.364002 
   88700    449.10759   -104.93138   0.40636199   -104.52502    3706.8908    4.2977201    4.2977201    4.2977201    3706.8908    8523.0705    15815.318   -13217.716    2034.9007    3373.6327   -7153.6734    79.380602 
   88800    722.03312   -105.17513   0.65331074   -104.52182   -3020.5324    4.3068919    4.3068919    4.3068919   -3020.5324   -3422.6956   -3249.2543   -2389.6473    2785.6126    1669.8314    2997.5748    79.889906 
   88900    274.87787   -104.77666   0.24871527   -104.52794   -4863.2991    4.3069422    4.3069422    4.3069422   -4863.2991   -13996.187    16085.819    -16679.53     11669.06    397.82856   -10678.902    79.892707 
   89000    569.84854   -105.03871   0.51561094    -104.5231    11452.039    4.3002045    4.3002045    4.3002045    11452.039    20455.352    17890.053   -3989.2877   -10834.951    2309.1807   -5597.6265    79.518343 
   89100    597.73491   -105.06486   0.54084311   -104.52402    -9669.522    4.3083109    4.3083109    4.3083109    -9669.522   -9967.2568   -13434.985   -5606.3239    2188.3203    -3639.702    1036.4931    79.968898 
   89200    368.47396   -104.86048   0.33340298   -104.52708   -1446.6076    4.3028975    4.3028975    4.3028975   -1446.6076     1491.764    9547.6038   -15379.191    11735.465    6013.9886   -10414.061    79.667835 
   89300    594.44337   -105.06024   0.53786486   -104.52237    7881.9053    4.3050775    4.3050775    4.3050775    7881.9053    7959.7355    17391.323   -1705.3426   -18410.993    -1293.529    1245.2781    79.788981 
   89400     414.3093   -104.90212   0.37487576   -104.52725   -10211.779    4.3063549    4.3063549    4.3063549   -10211.779    1716.4163   -17115.013    -15236.74    10409.556    2702.0498   -6817.5232    79.860025 
   89500    573.37665   -105.04269   0.51880324   -104.52389    5924.0926    4.3003662    4.3003662    4.3003662    5924.0926    16841.193    2294.7471   -1363.6624    2996.6129    621.68641   -5430.3946    79.527313 
   89600      507.429   -104.98305   0.45913242   -104.52392   -4728.0693    4.3101805    4.3101805    4.3101805   -4728.0693   -13500.947    7797.8357   -8481.0965   -8278.7417    1662.9438    6433.6054    80.073051 
   89700    366.94712   -104.85796   0.33202147   -104.52593    2541.6112    4.3007872    4.3007872    4.3007872    2541.6112    11579.464    2192.3216   -6146.9522    10908.314    3231.8185   -10129.383    79.550673 
   89800    651.64564   -105.11167   0.58962267   -104.52205    1225.0395     4.306137     4.306137     4.306137    1225.0395    12638.461   -4859.0275    -4104.315   -9084.4381   -1545.3031    563.78686    79.847906 
   89900    454.72625   -104.93663   0.41144587   -104.52519   -9194.5123    4.3066939    4.3066939    4.3066939   -9194.5123   -16746.425   -2054.4875   -8782.6249    4724.8059   -2202.2488   -4663.5794    79.878891 
   90000    453.94231   -104.93479   0.41073654   -104.52405    13535.826    4.2983962    4.2983962    4.2983962    13535.826    24365.429    18657.667   -2415.6187     1606.743    43.972723   -6228.5627     79.41807 
   90100    555.03972    -105.0246    0.5022116   -104.52238   -9717.0918    4.3130147    4.3130147    4.3130147   -9717.0918   -3664.3697   -15436.451   -10050.455   -19868.962   -1375.3256    3734.6128    80.231111 
   90200    465.07348    -104.9439   0.42080826   -104.52309    3058.9398    4.2969615    4.2969615    4.2969615    3058.9398    5964.2773    2519.3047     693.2372    18531.961    2047.6568   -11869.359    79.338574 
   90300    536.14689   -105.00805   0.48511698   -104.52293    1682.9941    4.3081405    4.3081405    4.3081405    1682.9941    3805.7585     9191.501   -7948.2773   -13563.995   -146.28004   -5.0475694    79.959409 
   90400    462.12675   -104.94291     0.418142   -104.52476   -2630.8708    4.3051292    4.3051292    4.3051292   -2630.8708     3508.532    -7315.858   -4085.2862    -8905.847    2277.4748   -2063.3909    79.791858 
   90500    497.36971   -104.97419   0.45003057   -104.52416    2304.0853    4.3005694    4.3005694    4.3005694    2304.0853    19259.054   -8763.1429   -3583.6555    17991.436    4846.2812    -6337.401    79.538588 
   90600    612.39023   -105.07591   0.55410355   -104.52181   -9622.9652    4.3116696    4.3116696    4.3116696   -9622.9652   -12835.421   -6972.5521   -9060.9227   -15713.783    2981.6269    4438.3657    80.156071 
   90700    399.12956   -104.88463   0.36114081   -104.52349    5270.7143    4.2987227    4.2987227    4.2987227    5270.7143     13645.35    3046.8184   -880.02574    6706.4216   -553.27411   -10020.649    79.436171 
   90800    469.21424   -104.94783   0.42455491   -104.52327    51.347846    4.3069564    4.3069564    4.3069564    51.347846    20819.353   -14184.386   -6480.9233   -876.41654   -414.72269    183.17413    79.893498 
   90900    621.76015   -105.08512   0.56258165   -104.52254   -7250.9069    4.3052941    4.3052941    4.3052941   -7250.9069   -4476.4213   -13860.296   -3416.0031   -8139.8328    -4963.387    2255.6519    79.801026 
   91000    400.32801    -104.8871    0.3622252   -104.52487    2199.1957    4.3009976    4.3009976    4.3009976    2199.1957    12298.084   -2696.5812   -3003.9153     12710.25    4618.1046    -9669.155    79.562352 
   91100    489.10754   -104.96529   0.44255479   -104.52273    2318.4102    4.3090687    4.3090687    4.3090687    2318.4102    24222.811   -6569.1048   -10698.475   -17482.326   -4190.6632    9229.6425    80.011103 
   91200    524.73674   -104.99742   0.47479283   -104.52262   -838.57608    4.3010708    4.3010708    4.3010708   -838.57608    8506.6138    -12999.38    1977.0379     4513.422    3378.2243   -13603.438    79.566411 
   91300    488.18398   -104.96556   0.44171912   -104.52384   -10202.193    4.3068673    4.3068673    4.3068673   -10202.193   -558.39412   -16370.019   -13678.166     12179.07   -707.33988    4244.4907    79.888539 
   91400    550.14524    -105.0194   0.49778297   -104.52161    8293.9002    4.3023393    4.3023393    4.3023393    8293.9002    25083.161   -47.884758   -153.57568   -14372.984    5297.6201    718.58653    79.636834 
   91500    374.68391   -104.86506   0.33902187   -104.52604   -5453.0336    4.3067967    4.3067967    4.3067967   -5453.0336    13000.541   -14057.432   -15302.209    13790.572    312.60627    -11078.43    79.884608 
   91600    599.21955     -105.064   0.54218644   -104.52181   -374.66006    4.3029152    4.3029152    4.3029152   -374.66006    11596.014   -8414.1253   -4305.8693   -938.50982    1216.8826    11610.624    79.668814 
   91700    589.02187   -105.05509   0.53295937   -104.52213   -4699.7794    4.3061198    4.3061198    4.3061198   -4699.7794    4992.9901    -10308.25   -8784.0784    1187.8749   -3862.7898    -15522.85    79.846948 
   91800    324.48037   -104.81926   0.29359666   -104.52566   -793.40792    4.3052421    4.3052421    4.3052421   -793.40792    22695.492   -10056.161   -15019.555    5773.8684    2350.8196    6087.1711    79.798134 
   91900    584.88483   -105.05065   0.52921608   -104.52143    12357.234    4.3007846    4.3007846    4.3007846    12357.234    30722.957    7265.7046   -916.95936   -9037.5547   -324.44085    1854.5682     79.55053 
   92000    530.79115   -105.00429   0.48027099   -104.52402   -15958.745    4.3098853    4.3098853    4.3098853   -15958.745   -5958.3342   -21812.561   -20105.339    6937.5931    2286.3019   -13054.709    80.056597 
   92100    461.34436    -104.9424   0.41743408   -104.52497    7635.6841    4.2976609    4.2976609    4.2976609    7635.6841    28913.075    -4677.811   -1328.2118    9301.7246     4228.784    14735.564     79.37732 
   92200    525.95717   -104.99913    0.4758971   -104.52324    645.82028    4.3095281    4.3095281    4.3095281    645.82028    25618.219   -5788.8524   -17891.906   -10551.783    1773.6537   -13311.091    80.036697 
   92300     392.7095   -104.88142   0.35533181   -104.52609   -2873.7492    4.3015673    4.3015673    4.3015673   -2873.7492    3724.7993   -6981.6916   -5364.3553     13663.78    3303.4749    4203.0465    79.593971 
   92400    634.05371    -105.0966   0.57370512   -104.52289   -3831.2942     4.304887     4.304887     4.304887   -3831.2942    7859.9302   -13731.734   -5622.0792    5481.0485   -1863.8029    7400.7108    79.778387 
   92500    524.38073   -104.99696   0.47447071   -104.52249   -3817.6284    4.3080481    4.3080481    4.3080481   -3817.6284    19159.634   -17765.903   -12846.616     1651.165   -3731.7295   -18516.898    79.954264 
   92600     331.9478   -104.82415   0.30035335    -104.5238    5604.7767    4.2993004    4.2993004    4.2993004    5604.7767    22048.255   -2850.2385   -2383.6867    5295.1356    -294.3243    17855.407    79.468199 
   92700     585.7206   -105.05062   0.52997231   -104.52065   -4958.3024    4.3103088    4.3103088    4.3103088   -4958.3024    6972.7837   -8136.8459   -13710.845   -1639.2539   -396.39049   -13420.019      80.0802 
   92800    560.38591    -105.0294   0.50704895   -104.52235   -4237.5329    4.2993283    4.2993283    4.2993283   -4237.5329    2733.2436   -13677.678   -1768.1642    4936.3376    2407.7388    1149.9098    79.469749 
   92900    393.71172   -104.88259   0.35623864   -104.52635   -4974.5097    4.3073295    4.3073295    4.3073295   -4974.5097    14927.424   -20040.766   -9810.1863     7778.487    4235.2309    10247.295    79.914263 
   93000    567.33906   -105.03582    0.5133403   -104.52248     12627.49    4.3025501    4.3025501    4.3025501     12627.49    31122.384    9106.8179   -2346.7326   -11678.548    2696.4516   -15800.611    79.648539 
   93100     391.9087   -104.88174   0.35460723   -104.52714    -6103.823    4.3048875    4.3048875    4.3048875    -6103.823   -2121.8859   -9146.7378   -7042.8453    10159.304    3198.6899     18830.35    79.778415 
   93200    593.98275   -105.06063   0.53744807   -104.52318   -4741.1271    4.3071588    4.3071588    4.3071588   -4741.1271    805.61125   -13214.607   -1814.3851    7046.4149    2185.7668   -3644.4975     79.90476 
   93300    647.22823   -105.10694    0.5856257   -104.52131    6581.5763    4.3000233    4.3000233    4.3000233    6581.5763    22505.977   -1137.5687   -1623.6794    308.86358   -6118.2057    892.27825    79.508294 
   93400    185.87223   -104.69683    0.1681811   -104.52865   -3672.1301    4.3089826    4.3089826    4.3089826   -3672.1301    8347.0043   -10056.892   -9306.5027    5739.0232    774.55784    13860.981    80.006308 
   93500     727.2703   -105.17897   0.65804945   -104.52092    10643.394    4.3006934    4.3006934    4.3006934    10643.394    18154.938    9851.4227    3923.8206    1463.3764   -4788.7086   -8288.3384    79.545471 
   93600    506.95069    -104.9855   0.45869964    -104.5268   -9492.8368    4.3054869    4.3054869    4.3054869   -9492.8368   -1424.7958    -19512.86   -7540.8546    3751.3954    2335.1298    14065.249    79.811746 
   93700    359.06081   -104.85422   0.32488577   -104.52934    74.907652    4.3065522    4.3065522    4.3065522    74.907652    10054.897   -8009.9616   -1820.2126    7889.1624    1374.5767    1504.0599    79.871004 
   93800     663.7073   -105.12213   0.60053632    -104.5216    14496.743     4.300763     4.300763     4.300763    14496.743    24381.208    21477.613   -2368.5909   -13000.783     2455.978   -1325.7129     79.54933 
   93900    271.73395   -104.77502   0.24587059   -104.52915   -16467.385     4.309491     4.309491     4.309491   -16467.385   -12648.063   -21615.708   -15138.382    11988.906    2849.1552    15967.079    80.034629 
   94000    706.08755   -105.16187   0.63888285   -104.52299    4540.9902    4.3006543    4.3006543    4.3006543    4540.9902    14909.473    -4860.695    3574.1924    7145.9671    5036.0231   -4292.9312    79.543299 
   94100    501.22407   -104.97868   0.45351807   -104.52517   -673.82981    4.3063574    4.3063574    4.3063574   -673.82981    13513.212    717.76622   -16252.467   -3409.9133     -3645.31    11161.195    79.860168 
   94200    241.14875   -104.74788   0.21819646   -104.52969    79.533975    4.3045685    4.3045685    4.3045685    79.533975    11659.095   -4011.8623   -7408.6313    11155.326    2022.7496    6133.3637    79.760686 
   94300    794.87109   -105.24022   0.71921607   -104.52101    2789.9142    4.3034245    4.3034245    4.3034245    2789.9142    6705.7739    4298.0048   -2634.0362     3312.459   -3861.2105    -899.2473     79.69711 
   94400    393.42193    -104.8832   0.35597643   -104.52723   -12850.967    4.3069598    4.3069598    4.3069598   -12850.967    4638.2189   -23974.705   -19216.416    7727.7275   -1365.0212    16718.474    79.893685 
   94500    432.27127   -104.91668   0.39112813   -104.52556    11382.939    4.3020486    4.3020486    4.3020486    11382.939    19986.271    11304.311    2858.2366    6772.6896    1798.6719   -3475.8789    79.620692 
   94600    618.43413   -105.08228    0.5595722   -104.52271   -431.95248    4.3068813    4.3068813    4.3068813   -431.95248    11926.889    7608.0526   -20830.799   -7230.4485   -6018.3848     8362.392    79.889315 
   94700    372.24756   -104.86341   0.33681741   -104.52659   -3929.3251    4.3026506    4.3026506    4.3026506   -3929.3251    6457.9168   -17563.327    -682.5655    17009.201    3847.7443    7380.5409     79.65412 
   94800    642.36329   -105.10405    0.5812238   -104.52282    483.77723    4.3063636    4.3063636    4.3063636    483.77723    10199.667    158.35456   -8906.6896   -1097.3701   -1892.7459   -910.27657    79.860513 
   94900    376.39506   -104.86639   0.34057016   -104.52582    5986.1558    4.3026299    4.3026299    4.3026299    5986.1558    15794.609    15906.827   -13742.968   -3574.4727   -2557.3584    13015.544    79.652969 
   95000    470.55599   -104.95028   0.42576895   -104.52451    -8233.242    4.3080798    4.3080798    4.3080798    -8233.242    -14213.37    -7117.088   -3369.2683     17520.14     1673.035   -651.38231    79.956029 
   95100    705.86889   -105.15866     0.638685   -104.51997    -304.2635     4.300298     4.300298     4.300298    -304.2635    9830.3198   -1364.8212   -9378.2891    98.794666   -6970.1331    3191.3986    79.523534 
   95200    316.89126   -104.81151   0.28672987   -104.52478   -5895.5455    4.3100063    4.3100063    4.3100063   -5895.5455    6923.6733   -11053.002   -13557.308    10135.532    1891.1925     9632.685     80.06334 
   95300    516.59026   -104.98951   0.46742173   -104.52209    9178.1459    4.2995432    4.2995432    4.2995432    9178.1459    3637.8132    22940.505    956.11947    7487.3387   -2419.3259   -4199.7651    79.481661 
   95400    580.46042   -105.04849   0.52521279   -104.52327   -8613.0396    4.3069295    4.3069295    4.3069295   -8613.0396   -353.03888   -6040.4224   -19445.658    1444.9844   -2908.0259    9469.3922    79.892001 
   95500    474.27646   -104.95382   0.42913531   -104.52468   -6940.4157    4.3046888    4.3046888    4.3046888   -6940.4157   -5377.3983   -14864.237   -579.61197    19612.214     650.9357    231.98082    79.767371 
   95600    475.88482   -104.95373   0.43059059   -104.52314    8811.7989    4.3034817    4.3034817    4.3034817    8811.7989    11867.591    25044.525   -10476.719   -9554.4414   -3329.3813   -771.53947    79.700285 
   95700    436.17932   -104.91848   0.39466421   -104.52382   -2725.0821    4.3069061    4.3069061    4.3069061   -2725.0821    2242.4509    4954.2087   -15371.906    6591.6846   -3339.8162     12039.94    79.890698 
   95800    565.33777   -105.03421   0.51152949   -104.52268    772.66413    4.3015071    4.3015071    4.3015071    772.66413    1764.7678   -7897.1225     8450.347    15194.585    446.98595   -3143.4124    79.590626 
   95900      568.285   -105.03656   0.51419621   -104.52236   -2491.2705     4.307468     4.307468     4.307468   -2491.2705    6986.4337    8046.2431   -22506.488   -6443.3026   -12077.178    5338.8156    79.921969 
   96000    299.65168   -104.79604   0.27113113    -104.5249    10757.272    4.3007576    4.3007576    4.3007576    10757.272    11305.898    14692.812    6273.1051    14724.263    2716.3109    4902.1571    79.549032 
   96100    637.84057   -105.09853   0.57713155   -104.52139   -9335.7182    4.3090596    4.3090596    4.3090596   -9335.7182   -8727.9474   -3789.3885   -15489.819    5027.2592   -9412.4149    -930.2504    80.010593 
   96200    545.22635   -105.01506   0.49333226   -104.52173    3795.1718    4.2998847    4.2998847    4.2998847    3795.1718    12047.677    967.70976   -1629.8714    5780.1889   -811.63244    5238.1867    79.500606 
   96300    400.53677   -104.88682   0.36241409   -104.52441   -1796.1596    4.3081714    4.3081714    4.3081714   -1796.1596   -10631.451    8008.1777    -2765.206    17981.151     -1397.21   -863.61058    79.961128 
   96400    523.35183   -104.99507   0.47353974   -104.52153    10482.487    4.3025795    4.3025795    4.3025795    10482.487    19734.042    21590.865    -9877.445   -11176.014   -4425.2439    -4799.577    79.650171 
   96500    497.13889   -104.97407   0.44982172   -104.52425   -6802.7146    4.3038945    4.3038945    4.3038945   -6802.7146   -2716.4058   -17016.182    -675.5557    21187.047    3240.3387    5235.4821    79.723223 
   96600    554.40823   -105.02558   0.50164021   -104.52394   -4478.9377    4.3055395    4.3055395    4.3055395   -4478.9377   -14949.391    8625.6082   -7113.0306    7655.9724   -1022.7591   -4016.6061    79.814671 
   96700    456.26457   -104.93574   0.41283777   -104.52291     6900.661    4.3040925    4.3040925    4.3040925     6900.661    11522.373    18968.737   -9789.1279    -6062.036   -1732.0549   -774.76311     79.73423 
   96800    419.93855   -104.90455   0.37996922   -104.52458   -5778.2482    4.3046073    4.3046073    4.3046073   -5778.2482   -7811.1509    -9216.285   -307.30881     18396.54    729.24151    2228.9585    79.762841 
   96900    648.59266   -105.10755   0.58686027   -104.52068   -1644.2332    4.3052401    4.3052401    4.3052401   -1644.2332    2018.6546   -139.17704   -6812.1772    729.51064   -6490.2216   -5258.3054    79.798024 
   97000    432.98445   -104.91545   0.39177343   -104.52367    436.29777    4.3034392    4.3034392    4.3034392    436.29777     -843.897    7494.2618   -5341.4715    9792.9878   -276.81909    5367.7103    79.697924 
   97100    397.29288   -104.88517   0.35947894   -104.52569    872.86596    4.3044151    4.3044151    4.3044151    872.86596   -4706.9109    7141.9091    183.59967     13237.21    -155.6829   -895.16764    79.752159 
   97200    662.39296   -105.12027   0.59934707   -104.52092   -4389.8998    4.3066206    4.3066206    4.3066206   -4389.8998    11704.083   -6442.9615   -18430.821   -4487.8132   -7282.3117   -3834.1009     79.87481 
   97300    407.98522   -104.89414    0.3691536   -104.52499   -2498.7548    4.3005994    4.3005994    4.3005994   -2498.7548    -13085.14   -42.651991    5631.5281    28013.677    4361.4831    3414.0825    79.540253 
   97400    537.25007   -105.00889   0.48611515   -104.52277   -1346.2225    4.3095863    4.3095863    4.3095863   -1346.2225    418.29309    14548.832   -19005.792   -5181.6636   -6678.9241   -2961.4061    80.039937 
   97500    456.06758   -104.93545   0.41265953   -104.52279    8235.7736    4.2999063    4.2999063    4.2999063    8235.7736    20052.933    4621.1606    33.226928    5074.4347    3592.1207    -1007.553    79.501803 
   97600    495.46543   -104.97386   0.44830753   -104.52555   -11685.161    4.3057762    4.3057762    4.3057762   -11685.161   -14423.542   -16874.851   -3757.0908    21275.556   -483.91661    1908.4999    79.827836 
   97700    620.32316   -105.08299   0.56128143    -104.5217    5190.3447    4.3062675    4.3062675    4.3062675    5190.3447    14311.179    14226.319   -12966.464   -6810.2245   -2162.6411   -8328.7606    79.855164 
   97800    333.25612   -104.82715   0.30153714   -104.52562    2589.8338    4.3005585    4.3005585    4.3005585    2589.8338    4226.2384    2944.3598    598.90327    13573.004    2186.2359    4064.2363    79.537983 
   97900    558.26325   -105.02889   0.50512832   -104.52376    -6574.885    4.3084209    4.3084209    4.3084209    -6574.885    1755.1115   -7997.9802   -13481.786    7590.9398    3014.4298   -3651.1975    79.975021 
   98000    618.61501    -105.0816   0.55973586   -104.52187    506.27113    4.3024084    4.3024084    4.3024084    506.27113    11535.346   -3630.4469   -6386.0854    3459.9765   -54.539261    -6455.146    79.640669 
   98100     369.0732   -104.85958   0.33394518   -104.52563   -4932.4788    4.3045066    4.3045066    4.3045066   -4932.4788   -10133.102    1154.3981    -5818.732     21842.32    5935.0159     1979.666    79.757246 
   98200    542.22625   -105.01246   0.49061771   -104.52184    7404.1079    4.3057647    4.3057647    4.3057647    7404.1079    29922.642    5482.9831   -13193.301   -10511.621   -32.496551   -11406.795    79.827194 
   98300    524.18442     -104.999   0.47429308    -104.5247   -5701.6452    4.3007591    4.3007591    4.3007591   -5701.6452   -4978.5068   -13193.869    1067.4404    19369.565    2313.0045    3147.9895    79.549116 
   98400    477.52727   -104.95802   0.43207671   -104.52594   -9712.4069    4.3085613    4.3085613    4.3085613   -9712.4069   -11629.609   -8599.7154   -8907.8958    10452.885    4375.9422   -4171.4919    79.982841 
   98500      537.512   -105.00854   0.48635215   -104.52219     10333.24    4.3019579    4.3019579    4.3019579     10333.24    31212.972    10555.511   -10768.762   -9397.1765   -6571.2292   -6358.1094    79.615657 
   98600    331.83431   -104.82581   0.30025065   -104.52556   -4533.0528    4.3054173    4.3054173    4.3054173   -4533.0528   -10080.518   -4303.1772    784.53687    17492.772    2741.1115    2716.1159    79.807874 
   98700    650.72833   -105.11012   0.58879267   -104.52133   -7271.9186    4.3052614    4.3052614    4.3052614   -7271.9186     6259.631   -11286.981   -16788.406    2203.0984   -2133.0349   -9023.6507    79.799208 
   98800    511.06803   -104.98447   0.46242509   -104.52205    1816.6301    4.3029184    4.3029184    4.3029184    1816.6301    8108.0793   -5024.1393    2365.9503    5752.3736    117.18651    216.89898    79.668994 
   98900    359.29197   -104.85158   0.32509493   -104.52649   -3271.6069    4.3046916    4.3046916    4.3046916   -3271.6069   -2249.6676    2676.8424   -10241.996    13926.811     4726.735   -2247.8264    79.767529 
   99000    587.92472   -105.05397   0.53196665   -104.52201    4525.2974    4.3042871    4.3042871    4.3042871    4525.2974    14288.289    4186.1904   -4898.5868   -6026.2874    356.53187   -14512.146    79.745045 
   99100    568.35494   -105.03756    0.5142595    -104.5233   -8185.2374    4.3056506    4.3056506    4.3056506   -8185.2374   -12459.953   -16394.117    4298.3577    23244.232    4468.9476    2692.2375    79.820853 
   99200    409.50185   -104.89521   0.37052588   -104.52469    1952.8321    4.3031601    4.3031601    4.3031601    1952.8321    20487.346   -5283.1758   -9345.6734    243.44304    8138.6587   -12708.009    79.682422 
   99300    536.55015   -105.00685   0.48548185   -104.52137     8039.355    4.3054683    4.3054683    4.3054683     8039.355    17506.518    11394.608   -4783.0603   -3429.1859     604.8351   -3548.7959    79.810711 
   99400    450.48667    -104.9324    0.4076098   -104.52479   -8104.5545    4.3041689    4.3041689    4.3041689   -8104.5545   -12547.879   -6570.5024   -5195.2823    16008.524    3320.8771   -1933.7961    79.738476 
   99500    556.82023   -105.02794   0.50382264   -104.52412   -1549.5053    4.3033683    4.3033683    4.3033683   -1549.5053    13577.271    -9557.736   -8668.0505   -1978.7078     3633.245   -17155.959    79.693984 
   99600    542.69561   -105.01401   0.49104239   -104.52297     4106.513    4.3059827    4.3059827    4.3059827     4106.513    12877.342   -534.23276   -23.570616    4893.0099   -2541.3998      7010.75     79.83932 
   99700    277.05986   -104.77797   0.25068958   -104.52728    1527.7669    4.3031028    4.3031028    4.3031028    1527.7669    3074.9095    6151.4514   -4643.0603    6413.3473    8530.3698   -12978.274    79.679236 
   99800    699.89042   -105.15451   0.63327556   -104.52124   -612.95928     4.305554     4.305554     4.305554   -612.95928    12488.081    -4890.678   -9436.2811   -130.76631   -5697.2107   -6072.3059    79.815476 
   99900    542.07925   -105.01386    0.4904847   -104.52338   -7774.9201    4.3051152    4.3051152    4.3051152   -7774.9201   -12360.728   -14681.207    3717.1751    20510.942    6362.6717   -1313.7157    79.791078 
  100000    331.95721   -104.82709   0.30036186   -104.52673    2305.1244    4.3028113    4.3028113    4.3028113    2305.1244    21394.839    3620.2773   -18099.743   -4923.6693    2161.3186   -17602.633    79.663046 
Loop time of 22.4386 on 1 procs for 100000 steps with 8 atoms

Pair  time (%) = 7.30098 (32.5376)
Kspce time (%) = 5.35416 (23.8614)
Neigh time (%) = 0 (0)
Comm  time (%) = 1.06224 (4.73397)
Outpt time (%) = 0.0253708 (0.113068)
Other time (%) = 8.69585 (38.754)

Nlocal:    8 ave 8 max 8 min
Histogram: 1 0 0 0 0 0 0 0 0 0
Nghost:    2189 ave 2189 max 2189 min
Histogram: 1 0 0 0 0 0 0 0 0 0
Neighs:    2344 ave 2344 max 2344 min
Histogram: 1 0 0 0 0 0 0 0 0 0

Total # of neighbors = 2344
Ave neighs/atom = 293
Neighbor list builds = 0
Dangerous builds = 0
unfix 20
unfix 21
print "seeds:6122467"
seeds:6122467
