LAMMPS (10 Feb 2015)
# ---- initialize simulations
clear
units metal
dimension 3
boundary p p p
atom_style charge
atom_modify map array
# ---- create atoms
read_data /Users/eugeneragasa/pyflamestk_git/pypospack/tests/tests_integration/workflow/WorkflowLammpsThermalExpansion/param_5861/MgO_NaCl_unit.npt.T100/lammps.structure
  triclinic box = (0 0 0) to (4.2565 4.2565 4.2565) with tilt (0 0 0)
  1 by 1 by 1 MPI processor grid
  reading atoms ...
  8 atoms
# ---- define interatomic potential
include potential.mod
mass 1 24.305
mass 2 15.999

group Mg type 1
4 atoms in group Mg
group O type 2
4 atoms in group O

set group Mg charge 1.63577302612
  4 settings made for charge
set group O charge -1.63577302612
  4 settings made for charge

variable R_cut equal 10.0

pair_style buck/coul/long ${R_cut}
pair_style buck/coul/long 10
pair_coeff 1 1 0.0 0.5 0.0 ${R_cut}
pair_coeff 1 1 0.0 0.5 0.0 10
pair_coeff 1 2 1558.72850733 0.278190610155 0.0 ${R_cut}
pair_coeff 1 2 1558.72850733 0.278190610155 0.0 10
pair_coeff 2 2 26609.5495557 0.148782776904 9.00084075824 ${R_cut}
pair_coeff 2 2 26609.5495557 0.148782776904 9.00084075824 10

kspace_style pppm 1.0e-5

neighbor 1.0 bin
neigh_modify every 1 delay 0 check yes
# ---- define settings
compute eng all pe/atom
compute eatoms all reduce sum c_eng
# ---- run minimization
reset_timestep 0
fix 1 all box/relax iso 0.0 vmax 0.001
thermo 10
thermo_style custom step pe lx ly lz xy xz yz press pxx pyy pzz pxy pxz pyz c_eatoms
min_style cg
minimize 1e-25 1e-25 5000 10000
PPPM initialization ...
  G vector (1/distance) = 0.352653
  grid = 8 8 8
  stencil order = 5
  estimated absolute RMS force accuracy = 3.87471e-05
  estimated relative force accuracy = 2.69083e-06
  using double precision FFTs
  3d grid and FFT values/proc = 3375 512
Neighbor list info ...
  1 neighbor list requests
  update every 1 steps, delay 0 steps, check yes
  master list distance cutoff = 11
Memory usage per processor = 4.06549 Mbytes
Step PotEng Lx Ly Lz Xy Xz Yz Press Pxx Pyy Pzz Pxy Pxz Pyz eatoms 
       0   -109.00108       4.2565       4.2565       4.2565            0            0            0    61252.417    61252.417    61252.417    61252.417 -3.6848803e-11 -3.3369169e-11 3.6549969e-10   -109.00108 
      10    -109.0509     4.299065     4.299065     4.299065            0            0            0    8703.9294    8703.9294    8703.9294    8703.9294 1.5032756e-10 -1.0327816e-11 -1.1009458e-10    -109.0509 
      15   -109.05203    4.3066964    4.3066964    4.3066964            0            0            0 0.0034250328 0.0034250327  0.003425033 0.0034250328 -1.8553982e-10 4.3823803e-11 -1.4551403e-10   -109.05203 
Loop time of 0.00799894 on 1 procs for 15 steps with 8 atoms

Minimization stats:
  Stopping criterion = linesearch alpha is zero
  Energy initial, next-to-last, final = 
        -109.001077098     -109.052033723     -109.052033723
  Force two-norm initial, final = 8.84488 3.43431e-05
  Force max component initial, final = 8.84488 7.26821e-06
  Final line search alpha, max atom move = 0.5 3.63411e-06
  Iterations, force evaluations = 15 22

Pair  time (%) = 0.00223684 (27.9642)
Kspce time (%) = 0.0012939 (16.1759)
Neigh time (%) = 0 (0)
Comm  time (%) = 0.000250816 (3.13562)
Outpt time (%) = 1.21593e-05 (0.152012)
Other time (%) = 0.00420523 (52.5723)

Nlocal:    8 ave 8 max 8 min
Histogram: 1 0 0 0 0 0 0 0 0 0
Nghost:    2189 ave 2189 max 2189 min
Histogram: 1 0 0 0 0 0 0 0 0 0
Neighs:    2344 ave 2344 max 2344 min
Histogram: 1 0 0 0 0 0 0 0 0 0

Total # of neighbors = 2344
Ave neighs/atom = 293
Neighbor list builds = 0
Dangerous builds = 0
unfix 1
# ---- define output variables ----
variable natoms equal "count(all)"
variable tot_energy equal "c_eatoms"
variable length_x equal "lx"
variable length_y equal "ly"
variable length_z equal "lz"
variable tilt_xy equal "xy"
variable tilt_xz equal "xz"
variable tilt_yz equal "yz"
variable tot_press equal "press"
variable press_xx equal "pxx"
variable press_yy equal "pyy"
variable press_zz equal "pzz"
variable press_xy equal "pxy"
variable press_xz equal "pxz"
variable press_yz equal "pyz"

# ---- output ----
print "pypospack:output_section:begin"
pypospack:output_section:begin
print "tot_energy = ${tot_energy}"
tot_energy = -109.052033723467
print "num_atoms = ${natoms}"
num_atoms = 8
print "xx = ${length_x}"
xx = 4.30669636930156
print "yy = ${length_y}"
yy = 4.30669636930156
print "zz = ${length_z}"
zz = 4.30669636930156
print "xy = ${tilt_xy}"
xy = 0
print "xz = ${tilt_xz}"
xz = 0
print "yz = ${tilt_yz}"
yz = 0
print "tot_press = ${tot_press}"
tot_press = 0.00342503281246904
print "pxx = ${press_xx}"
pxx = 0.00342503266517326
print "pyy = ${press_yy}"
pyy = 0.00342503296687446
print "pzz = ${press_zz}"
pzz = 0.00342503280535941
print "pxy = ${press_xy}"
pxy = -1.85539817051957e-10
print "pxz = ${press_xz}"
pxz = 4.38238030577261e-11
print "pyz = ${press_yz}"
pyz = -1.45514027090344e-10
print "pypospack:output_section:done"
pypospack:output_section:done
print "pypospack:lammps_sim:done"
pypospack:lammps_sim:done
#------------------------------------------------------------------------------
# RUN THERMOSTAT
# running using an NPT Nose-Hoover style thermostat
#------------------------------------------------------------------------------
variable tempdamp equal 0.1
variable pressdamp equal 1.0
# set initial velocities
velocity all create 100 4019872 mom yes dist gaussian loop all
# fix for Nose-Hoover style thermostat
fix 20 all npt temp 100 100 0.1 aniso 0.0 0.0 1.0 drag 1.0 couple xyz
variable boxx equal lx
variable boxy equal ly
variable boxz equal lz
variable boxp equal press
variable boxt equal temp
# calculate averages every 10000 steps
reset_timestep 0
fix 21 all ave/time 10 10 100 v_boxx v_boxy v_boxz v_boxp v_boxt file lattice.out
thermo_style custom step temp pe ke etotal press lx ly lz press pxx pyy pzz pxy pxz pyz vol
thermo_modify flush yes
thermo 100
run 100000
PPPM initialization ...
  G vector (1/distance) = 0.352152
  grid = 8 8 8
  stencil order = 5
  estimated absolute RMS force accuracy = 3.96483e-05
  estimated relative force accuracy = 2.75342e-06
  using double precision FFTs
  3d grid and FFT values/proc = 3375 512
Memory usage per processor = 3.06549 Mbytes
Step Temp PotEng KinEng TotEng Press Lx Ly Lz Press Pxx Pyy Pzz Pxy Pxz Pyz Volume 
       0          100   -109.05204  0.090482102   -108.96156    1208.4441    4.3066964    4.3066964    4.3066964    1208.4441    1374.8319    1062.0652    1188.4351    546.92754   -138.45237   -81.212388    79.879026 
     100    28.076234   -108.97386  0.025403967   -108.94845    4096.7133    4.3061735    4.3061735    4.3061735    4096.7133    4405.1795    3606.3657    4278.5947   -379.02196    468.79429    671.66222    79.849934 
     200    71.146468   -108.98857  0.064374819    -108.9242    750.24333    4.3089747    4.3089747    4.3089747    750.24333    2078.2641    969.61442   -797.14857    -1588.037    862.94412    728.57999    80.005868 
     300    70.773373   -108.96751  0.064037235   -108.90347    2987.1538    4.3098774    4.3098774    4.3098774    2987.1538    4801.0898    2234.4336     1925.938    123.62927  -0.37754406    120.23209     80.05616 
     400    104.66221   -108.98141  0.094700563   -108.88671   -2739.9375    4.3112009    4.3112009    4.3112009   -2739.9375   -3098.5217   -4225.9902   -895.30071   -133.38295    75.309934    76.829352    80.129934 
     500    93.245211   -108.96028  0.084370227   -108.87591    -768.1344    4.3138132    4.3138132    4.3138132    -768.1344      1955.67   -2333.1906   -1926.8826   -79.188507    228.97174     210.4854    80.275681 
     600    115.06765   -108.97478   0.10411563   -108.87067      1919.82    4.3115396    4.3115396    4.3115396      1919.82    2717.2484    1258.7849    1783.4268   -428.60691    474.68992    363.17962    80.148824 
     700    74.807858   -108.93766  0.067687722   -108.86997   -397.78911    4.3144254    4.3144254    4.3144254   -397.78911    2119.2976   -636.52424   -2676.1407   -931.15855    1231.9069    1328.6685    80.309867 
     800    122.47647    -108.9806   0.11081929   -108.86978    -2746.144    4.3137565    4.3137565    4.3137565    -2746.144   -3238.6106   -2886.8862   -2112.9351   -188.30878    -117.9655    23.240182    80.272519 
     900    112.79559   -108.97252   0.10205982   -108.87046   -24.969241     4.312709     4.312709     4.312709   -24.969241    2186.1122   -3252.7899    991.77004    380.81681   -36.213427     122.4677    80.214054 
    1000    73.705649   -108.93805   0.06669042   -108.87136   -1873.4423    4.3142477    4.3142477    4.3142477   -1873.4423    436.07851   -3286.8539   -2769.5515   -1458.1162    1051.4346      844.531    80.299944 
    1100     68.89855   -108.93372  0.062340856   -108.87138    1800.2844    4.3111666    4.3111666    4.3111666    1800.2844    2277.9064    2329.4798    793.46717   -1518.5742    785.52889    1048.9487    80.128021 
    1200    155.10865   -109.01104   0.14034557    -108.8707   -2316.0191     4.313394     4.313394     4.313394   -2316.0191   -2379.8394   -2291.0143   -2277.2035     1242.189   -611.98516   -421.21886    80.252283 
    1300    92.560721   -108.95492  0.083750886   -108.87116   -2105.0857    4.3117012    4.3117012    4.3117012   -2105.0857    -1648.287   -2487.9535   -2179.0166     207.0189    694.58251    723.83269    80.157835 
    1400    92.632739   -108.95483  0.083816049   -108.87101    537.07951    4.3114307    4.3114307    4.3114307    537.07951    2323.7221   -944.69262    232.20902   -1157.2586    648.58343    266.27984    80.142746 
    1500    107.13691   -108.96742  0.096939726   -108.87048    152.89143    4.3117694    4.3117694    4.3117694    152.89143    1957.8636   -857.12122   -642.06807   -1367.3121    693.64088    918.62331    80.161639 
    1600    48.548317   -108.91511  0.043927537   -108.87119    361.72014    4.3104388    4.3104388    4.3104388    361.72014   -1009.9385      1847.96    247.13887   -699.15443    886.32845    1273.2137    80.087444 
    1700    160.13517   -109.01547   0.14489366   -108.87057   -3608.9847    4.3128256    4.3128256    4.3128256   -3608.9847   -1658.2795   -4832.9355    -4335.739    56.703836   -250.41759   -160.84742     80.22056 
    1800     76.61214   -108.94055  0.069320274   -108.87123    3860.2069    4.3100148    4.3100148    4.3100148    3860.2069    5225.5335    1578.5856    4776.5017   -137.48862    574.40353     543.7507    80.063813 
    1900    100.76438   -108.96257  0.091173729   -108.87139   -1229.6134    4.3123588    4.3123588    4.3123588   -1229.6134    518.95417   -766.54756   -3441.2468   -1215.9872    1175.7148    1222.9866    80.194514 
    2000    90.240516   -108.95254  0.081651515   -108.87089    2945.1749    4.3117306    4.3117306    4.3117306    2945.1749    2743.3154    2334.7422    3757.4671   -116.96511    103.91525    360.97787    80.159471 
    2100     141.5375   -108.99857    0.1280661    -108.8705   -1340.8574    4.3114053    4.3114053    4.3114053   -1340.8574   -715.93383   -1818.3602   -1488.2783    621.18157   -749.18192   -652.40467     80.14133 
    2200    58.411235   -108.92412  0.052851713   -108.87127    405.38628    4.3135285    4.3135285    4.3135285    405.38628    4138.1377   -2210.3725   -711.60639   -483.25271    1285.8263    775.31825    80.259787 
    2300    105.11838   -108.96573  0.095113322   -108.87061    1959.7601    4.3108833    4.3108833    4.3108833    1959.7601    2527.3783    113.76323    3238.1387   -1374.6804    272.19108     102.9993    80.112226 
    2400    96.335761   -108.95784  0.087166621   -108.87068    1445.9367    4.3128811    4.3128811    4.3128811    1445.9367    2002.6923    1970.8672    364.25067   -642.18039    774.15503     1266.153    80.223658 
    2500    115.58256   -108.97548   0.10458153    -108.8709   -2749.8828    4.3128793    4.3128793    4.3128793   -2749.8828   -4287.0665   -2233.0957   -1729.4861    695.93198    62.168001    170.59133    80.223559 
    2600    107.04308    -108.9678  0.096854829   -108.87094    1393.9431    4.3114569    4.3114569    4.3114569    1393.9431     3698.088   -502.06666    985.80791    24.667114    694.14947    408.50202    80.144212 
    2700    114.12488   -108.97415   0.10326259   -108.87089   -2137.8169    4.3135847    4.3135847    4.3135847   -2137.8169   -913.95212   -2432.6477   -3066.8509   -1279.9527    275.70776    148.26982    80.262929 
    2800    30.086611   -108.89875  0.027222998   -108.87153    1120.6089    4.3108826    4.3108826    4.3108826    1120.6089    13.277894    1278.2944    2070.2544   -1237.5382    1381.4814     1925.452    80.112189 
    2900    158.63791   -109.01405   0.14353892   -108.87051   -4158.2945    4.3134732    4.3134732    4.3134732   -4158.2945    -4863.769   -3728.6085    -3882.506    741.52594    -883.1829    -917.9103    80.256702 
    3000    82.274453   -108.94558  0.074443654   -108.87113   -38.177004    4.3115987    4.3115987    4.3115987   -38.177004    1789.2359   -1604.4226   -299.34438    108.40537    641.09311    464.67525    80.152117 
    3100    99.528542   -108.96123  0.090055517   -108.87118   -1909.4245    4.3120303    4.3120303    4.3120303   -1909.4245   -1123.9421   -2203.7506   -2400.5808    -1056.961    1292.5856    699.63569    80.176191 
    3200    109.10662   -108.96927  0.098721966   -108.87055    1212.5375    4.3123848    4.3123848    4.3123848    1212.5375    1811.8231     2028.468   -202.67864   -527.13702    558.45586    1046.3913    80.195964 
    3300    92.109245   -108.95416  0.083342381   -108.87082    -147.0982    4.3108274    4.3108274    4.3108274    -147.0982   -2160.4573    343.73724    1375.4255   -608.44091    287.87202    628.97624     80.10911 
    3400    106.87519   -108.96759  0.096702922   -108.87089    -2405.819    4.3132878    4.3132878    4.3132878    -2405.819    700.65658   -4657.9751   -3260.1385     270.2702     397.9652    333.58011    80.246353 
    3500     89.61382   -108.95182  0.081084468   -108.87074     3410.055    4.3105652    4.3105652    4.3105652     3410.055    4586.4905     1347.355    4296.3196   -510.27299    396.88793    51.063035    80.094493 
    3600    99.269161   -108.96088  0.089820823   -108.87106    532.94292       4.3119       4.3119       4.3119    532.94292    1903.6433    661.78769    -966.6022   -1224.9407    324.12701    797.78791    80.168923 
    3700    83.199763   -108.94648  0.075280894    -108.8712    1601.8963    4.3123772    4.3123772    4.3123772    1601.8963   -297.99757     2437.978    2665.7085    31.025922    381.89718    552.93444    80.195542 
    3800    149.41358   -109.00569   0.13519255    -108.8705    517.43946    4.3109549    4.3109549    4.3109549    517.43946    1493.7962    -757.4172    815.93933    1863.3383   -503.97024   -986.99974    80.116216 
    3900    86.868775    -108.9497  0.078600693    -108.8711    402.84273    4.3131839    4.3131839    4.3131839    402.84273    2822.5881   -2570.1041    956.04412   -1179.3356     1372.657    816.10353    80.240555 
    4000    75.815529   -108.93969  0.068599484   -108.87109     806.5627    4.3112378    4.3112378    4.3112378     806.5627    189.46471    2291.4871   -61.263677   -1445.7206    969.42224    774.41454    80.131989 
    4100    104.55686   -108.96516  0.094605243   -108.87055    700.53941     4.312363     4.312363     4.312363    700.53941   -464.79665    1531.2681    1035.1468   -305.92254    338.01424    1071.4602    80.194747 
    4200    104.53562    -108.9654  0.094586027   -108.87082   -2921.0506    4.3128092    4.3128092    4.3128092   -2921.0506   -3205.5001   -3687.1756   -1870.4762    382.50922   -2.9803161   -84.230154    80.219646 
    4300    85.787807   -108.94874   0.07762261   -108.87112   -213.64773    4.3117006    4.3117006    4.3117006   -213.64773    812.83206   -1559.8247    106.04946   -594.90795    1172.4984    889.49439      80.1578 
    4400    148.09366   -109.00441   0.13399826   -108.87041   -2245.2034    4.3132784    4.3132784    4.3132784   -2245.2034   -2023.4616   -2069.0874   -2643.0612    248.01747    13.276776   -270.91594     80.24583 
    4500    41.152046   -108.90863  0.037235236    -108.8714    1422.2616    4.3110624    4.3110624    4.3110624    1422.2616   -1083.4161    4722.0188    628.18222   -1082.6234    1124.5461    1921.2122    80.122213 
    4600     142.2029   -108.99949   0.12866817   -108.87082   -5064.7964    4.3135175    4.3135175    4.3135175   -5064.7964   -5406.1008   -4156.3707   -5631.9178    474.76239   -160.53996    -731.5695    80.259174 
    4700    78.040305   -108.94157  0.070612508   -108.87096    1642.3684    4.3114378    4.3114378    4.3114378    1642.3684    3952.4506   -3108.2803     4082.935    582.65613    677.40493    157.78739    80.143145 
    4800    102.62491    -108.9639  0.092857174   -108.87105   -2223.1289    4.3121488    4.3121488    4.3121488   -2223.1289   -1695.6768   -1771.6501     -3202.06   -1892.6104    1171.1132    799.63069      80.1828 
    4900     77.84116   -108.94144  0.070432317   -108.87101    2402.9363    4.3124241    4.3124241    4.3124241    2402.9363     1729.057      3758.94    1720.8118   -926.01052     466.5314    1125.8696    80.198156 
    5000    135.35168   -108.99285   0.12246904   -108.87038    596.08395    4.3107724    4.3107724    4.3107724    596.08395   -899.85817    2130.8933    557.21669    1261.2123   -372.22716   -366.78726    80.106045 
    5100    97.628477   -108.95921  0.088336297   -108.87087    -478.7081    4.3130986    4.3130986    4.3130986    -478.7081    2241.7316   -2605.0031   -1072.8529    463.24659    828.71024    584.32871    80.235796 
    5200    97.704146   -108.95908  0.088404765   -108.87067    1763.3487    4.3110937    4.3110937    4.3110937    1763.3487    2445.8174   -1212.8936    4057.1222   -1218.5735      405.192    141.76785    80.123958 
    5300    95.076102    -108.9567  0.086026855   -108.87068    2270.6764    4.3116222    4.3116222    4.3116222    2270.6764    1998.3052    3854.4125    959.31157   -57.617529    135.41978    400.92186    80.153427 
    5400    80.025067   -108.94358  0.072408362   -108.87117   -167.02427    4.3128234    4.3128234    4.3128234   -167.02427   -1283.7326    1325.7028   -543.04304   -449.63553    445.55711    640.74564    80.220436 
    5500    112.93773   -108.97307   0.10218843   -108.87089    389.06409    4.3109908    4.3109908    4.3109908    389.06409    1137.8672   -1274.4312    1303.7563    749.54274     358.8082   -602.59712    80.118221 
    5600    130.46814    -108.9887   0.11805032   -108.87065   -1122.1323    4.3133069    4.3133069    4.3133069   -1122.1323    836.61108   -3445.9072   -757.10086   -390.02474    669.33379    231.42083    80.247421 
    5700     65.35019   -108.93049  0.059130225   -108.87136    656.34331    4.3114058    4.3114058    4.3114058    656.34331   -1871.5813    2937.0195     903.5918   -842.70706    1813.9563    1536.0248    80.141358 
    5800    113.61718    -108.9736   0.10280321    -108.8708   -1203.7761    4.3125712    4.3125712    4.3125712   -1203.7761   -3269.2331    1869.9464   -2212.0417    -598.4731   -184.38508    974.44148    80.206363 
    5900    105.96669   -108.96658  0.095880888    -108.8707   -2088.1222    4.3127702    4.3127702    4.3127702   -2088.1222    -1819.942   -2136.2373   -2308.1872    1469.0841    243.38408   -595.08526     80.21747 
    6000    71.794664   -108.93608  0.064961321   -108.87112    -1741.305    4.3116921    4.3116921    4.3116921    -1741.305   -93.885758   -4255.3483   -874.68088     -1259.11    1126.6763    1142.0009    80.157324 
    6100    125.66338    -108.9843   0.11370287    -108.8706   -2141.7448    4.3133841    4.3133841    4.3133841   -2141.7448      -2998.5   -1540.1325   -1886.6021   -579.32581    162.31144   -153.23084    80.251728 
    6200    70.157308   -108.93444  0.063479807   -108.87096    2514.6384    4.3108353    4.3108353    4.3108353    2514.6384    559.61284    5490.8473    1493.4551    1.5502499   -80.460173    727.34426     80.10955 
    6300    135.31741   -108.99336   0.12243804   -108.87092    -3673.033    4.3131786    4.3131786    4.3131786    -3673.033   -4420.4636   -1932.5882   -4666.0474    1192.9795    1038.3091   -228.93607    80.240261 
    6400    87.100151    -108.9497  0.078810047   -108.87089    2234.5035    4.3117211    4.3117211    4.3117211    2234.5035     5146.232   -1238.1911    2795.4696   -97.778893    347.27963    128.43484    80.158941 
    6500    116.70898   -108.97632   0.10560074   -108.87071    -716.8503    4.3114985    4.3114985    4.3114985    -716.8503   -910.16236   -456.07619   -784.31233   -1196.1816    861.43317    642.92936    80.146529 
    6600    50.353325   -108.91676  0.045560747    -108.8712    2551.5609    4.3126222    4.3126222    4.3126222    2551.5609    2407.5812    2929.1857    2317.9158   -758.66667    670.92392    1269.9441     80.20921 
    6700     129.5559   -108.98762    0.1172249    -108.8704    665.72882     4.310907     4.310907     4.310907    665.72882   -476.48081    2283.7998    189.86751    874.22133    -587.8901   -591.90039    80.113547 
    6800    105.47967   -108.96609  0.095440225   -108.87065    809.30637    4.3125983    4.3125983    4.3125983    809.30637    4287.3695   -2450.5915    591.14114    259.39113    306.59579   -85.951486    80.207876 
    6900     101.3912   -108.96259  0.091740889   -108.87085     9.975855    4.3118249    4.3118249    4.3118249     9.975855   -289.30126    147.02428    172.20454   -682.78011    895.68417    527.94736    80.164731 
    7000    98.906523    -108.9602    0.0894927   -108.87071    2126.9208    4.3113572    4.3113572    4.3113572    2126.9208    893.23619    4541.2403    946.28595    324.72493     264.2993    348.02127     80.13865 
    7100    103.71029   -108.96467  0.093839253   -108.87083   -1173.3529    4.3128688    4.3128688    4.3128688   -1173.3529   -1893.6403   -1168.2871   -458.13124    24.678965    19.624744    331.44676    80.222971 
    7200    77.287363   -108.94095   0.06993123   -108.87101   -392.17695    4.3113954    4.3113954    4.3113954   -392.17695    678.24648    -587.8033    -1266.974    153.68977    1901.2501    102.87744    80.140781 
    7300    131.23149   -108.98921   0.11874101   -108.87047   -2435.3847    4.3130738    4.3130738    4.3130738   -2435.3847   -1036.6455   -4325.1299   -1944.3788   -915.80799   -103.48661    252.07235     80.23441 
    7400    63.333937   -108.92858  0.057305877   -108.87127    824.82787    4.3115348    4.3115348    4.3115348    824.82787   -1548.0008    3717.0961    305.38836   -940.20042    1503.9068     1367.719    80.148554 
    7500     117.6405   -108.97747    0.1064436   -108.87103   -2558.5531    4.3126214    4.3126214    4.3126214   -2558.5531   -4609.8289    1365.0106   -4430.8411    406.44816   -378.31294    555.27414    80.209168 
    7600    115.10874   -108.97485   0.10415281    -108.8707   -348.60172    4.3123275    4.3123275    4.3123275   -348.60172    118.73834   -2505.5574    1341.0139    2201.3551    592.54206   -776.00656     80.19277 
    7700    95.383978    -108.9572  0.086305428   -108.87089   -1134.8256    4.3116785    4.3116785    4.3116785   -1134.8256    361.37282   -678.61418   -3087.2355   -1446.0698    155.70676    877.63892    80.156565 
    7800    89.472744   -108.95186  0.080956819   -108.87091   -855.55198    4.3129745    4.3129745    4.3129745   -855.55198   -2197.6057    1188.0763   -1557.1265    -663.4972    1234.6692    492.51228     80.22887 
    7900     81.07555   -108.94407  0.073358861   -108.87071     2316.169    4.3108243    4.3108243    4.3108243     2316.169    2747.2486    2317.7088    1883.5494    775.46674   -1090.1412   -379.74971    80.108936 
    8000    124.95208   -108.98378   0.11305927   -108.87072   -1694.2351    4.3127617    4.3127617    4.3127617   -1694.2351   -1442.2849   -1004.2627   -2636.1577    28.796877    1400.6978    76.490537    80.216997 
    8100    88.173228   -108.95065  0.079780989   -108.87087    2440.1378    4.3116805    4.3116805    4.3116805    2440.1378    5889.4534   -1656.5852    3087.5453   -734.00905     260.1184   -109.15918    80.156681 
    8200     130.9925   -108.98907   0.11852476   -108.87055    666.74581    4.3112837    4.3112837    4.3112837    666.74581   -1522.8374     4371.054   -847.97909    359.67768    648.67496    537.00005    80.134548 
    8300    64.594983   -108.92955  0.058446898   -108.87111    2124.9931    4.3126504    4.3126504    4.3126504    2124.9931    3494.6939    2791.9551    88.330166   -245.04227    184.73258    997.26548    80.210785 
    8400    114.66467    -108.9743     0.103751   -108.87055   -721.57238    4.3110628    4.3110628    4.3110628   -721.57238   -1187.1387   -990.45432    12.875859    474.35237     278.2501   -68.098368    80.122234 
    8500    99.610663    -108.9607  0.090129821   -108.87057    642.26247    4.3126621    4.3126621    4.3126621    642.26247    4795.9231   -3667.2858    798.15016     556.2832    44.439611   -674.03458    80.211438 
    8600    95.149296   -108.95697  0.086093082   -108.87087   -544.23253    4.3119176    4.3119176    4.3119176   -544.23253   -2647.5702    1859.1246   -844.25199   -1734.1616    788.04125    1226.9326    80.169902 
    8700    88.055354   -108.95065  0.079674335   -108.87098    775.46381    4.3115297    4.3115297    4.3115297    775.46381   -188.13392    3894.6736   -1380.1483    4.5760525    669.99546    38.586122    80.148271 
    8800    128.42534   -108.98679   0.11620194   -108.87059   -2355.7373    4.3133025    4.3133025    4.3133025   -2355.7373   -3028.2657   -1939.8862   -2099.0599    1851.2483   -430.39272   -322.32975    80.247177 
    8900    87.061983   -108.94968  0.078775512    -108.8709    -904.3493    4.3112966    4.3112966    4.3112966    -904.3493    1870.0146   -2462.5494   -2120.5132   -363.02897    2466.5486    540.76208    80.135272 
    9000    115.37181   -108.97503   0.10439084   -108.87064   -2252.4828    4.3133308    4.3133308    4.3133308   -2252.4828   -4252.7337   -1176.6697   -1328.0451   -1427.2305   -204.73771    717.67051    80.248754 
    9100    65.094449   -108.92997  0.058898826   -108.87107    1579.1774    4.3114939    4.3114939    4.3114939    1579.1774    1121.3434    4673.3285   -1057.1398    893.63992    931.28063    439.91624    80.146275 
    9200    109.65257    -108.9702  0.099215953   -108.87098   -2684.3902    4.3122921    4.3122921    4.3122921   -2684.3902   -3258.4254   -332.40509     -4462.34      111.132   -566.28018    500.24866    80.190795 
    9300    102.45595   -108.96351  0.092704296   -108.87081   -340.31115    4.3128962    4.3128962    4.3128962   -340.31115    2768.0885   -4514.1789    725.15694    235.32865    916.47959    -799.6487    80.224497 
    9400    122.33028   -108.98132   0.11068701   -108.87063   -9.3362382    4.3111636    4.3111636    4.3111636   -9.3362382   -33.804287    1807.7909   -1801.9954    8.1348272   -669.36081   -52.102286    80.127853 
    9500    83.803579    -108.9468   0.07582724   -108.87097    1380.7125    4.3127801    4.3127801    4.3127801    1380.7125    44.616904    3673.9418     423.5787   -115.14753    1594.9624    1175.5546    80.218021 
    9600     93.48955    -108.9553   0.08459131   -108.87071    1408.6579    4.3113588    4.3113588    4.3113588    1408.6579    2414.9817    2776.4985   -965.50632    487.21099   -1068.1071   -719.09337    80.138741 
    9700    115.59755   -108.97517   0.10459509   -108.87058   -948.17432    4.3120376    4.3120376    4.3120376   -948.17432    2146.7779   -3665.7151   -1325.5857    409.08219    1506.2276   -39.957629    80.176594 
    9800    80.444602   -108.94363  0.072787966   -108.87084     702.6479    4.3125012    4.3125012    4.3125012     702.6479    3410.5815   -2967.4691    1664.8313   -1394.7526    428.43744    401.67957    80.202457 
    9900    115.18081   -108.97487   0.10421802   -108.87065    690.21734    4.3112491    4.3112491    4.3112491    690.21734   -2374.4913    5498.7228   -1053.5795   -591.14619    274.31812    661.50362    80.132623 
   10000    81.351641   -108.94451  0.073608674    -108.8709    2233.2098    4.3124991    4.3124991    4.3124991    2233.2098    3407.8343    1483.7933    1808.0016    1683.1773   -322.90099   -202.12608    80.202344 
   10100    128.26255   -108.98665   0.11605465    -108.8706   -2576.3961    4.3120051    4.3120051    4.3120051   -2576.3961   -2082.0082   -1450.0553   -4197.1248    457.13047      929.584    410.95557    80.174786 
   10200    92.911129    -108.9548  0.084067942   -108.87074    -64.26413    4.3122983    4.3122983    4.3122983    -64.26413    2810.2219   -3175.8324    172.81807   -223.95778     105.9391   -588.55794    80.191137 
   10300      101.655   -108.96281  0.091979576   -108.87083   -1468.6546    4.3123425    4.3123425    4.3123425   -1468.6546     -4095.03    846.44483   -1157.3787   -669.26113    488.43987    1147.1719    80.193604 
   10400     67.43792   -108.93215  0.061019247   -108.87113    823.00791    4.3118034    4.3118034    4.3118034    823.00791    459.34302    4596.1444   -2586.4637    631.34565    1193.6396    274.53573    80.163534 
   10500    124.27712   -108.98307   0.11244855   -108.87062   -2091.5829    4.3128708    4.3128708    4.3128708   -2091.5829   -1913.5356   -3877.7405    -483.4726    241.08792   -604.99185   -480.52607    80.223084 
   10600    101.19723   -108.96234  0.091565377   -108.87077   -1093.1877    4.3117215    4.3117215    4.3117215   -1093.1877    2404.2879   -2005.1783   -3678.6728   -368.95029    2093.2056    71.136143    80.158967 
   10700    111.68956   -108.97178   0.10105906   -108.87072   -1577.8725    4.3129008    4.3129008    4.3129008   -1577.8725   -4896.1479    2158.6452   -1996.1147   -397.24793    68.558131    1139.5226    80.224754 
   10800    76.957784   -108.94061   0.06963302   -108.87097    2355.6778    4.3112489    4.3112489    4.3112489    2355.6778    4101.9516    3057.0095   -91.927562    1746.1975   -16.173348   -244.06782    80.132613 
   10900    115.62227   -108.97546   0.10461746   -108.87084   -1457.7695    4.3123572    4.3123572    4.3123572   -1457.7695   -1799.1366    521.39908    -3095.571    139.51938   -101.80474     89.02064    80.194425 
   11000    84.276956   -108.94717   0.07625556   -108.87091    588.54125    4.3123679    4.3123679    4.3123679    588.54125    5524.4383   -4275.8209     517.0063   -507.57163    1189.4537   -270.88769    80.195023 
   11100    118.57671   -108.97789    0.1072907    -108.8706     -645.931    4.3111079    4.3111079    4.3111079     -645.931   -2048.9741    1245.4725   -1134.2914   -598.90064   -1099.2646   -100.12405    80.124748 
   11200    72.476735   -108.93656  0.065578473   -108.87098     2303.709    4.3127255    4.3127255    4.3127255     2303.709    3308.2162    3249.1131    353.79778      290.975    1054.0174     917.5708    80.214973 
   11300    119.74062   -108.97899   0.10834383   -108.87064    356.02886    4.3111607    4.3111607    4.3111607    356.02886    942.49512    812.81429   -687.22282    733.40308    53.870147   -769.90694    80.127693 
   11400    109.34691   -108.96959  0.098939384   -108.87065    342.08421    4.3121728    4.3121728    4.3121728    342.08421    2505.9825   -2233.3533    753.62343    580.07854     777.1822   -215.35712    80.184141 
   11500    97.049377   -108.95852  0.087812316   -108.87071   -549.30527    4.3126314    4.3126314    4.3126314   -549.30527   -324.92153    -454.8031   -868.19119   -1144.0902    727.37794    869.36081    80.209723 
   11600     87.70532   -108.95012  0.079357617   -108.87076    379.89382    4.3108458    4.3108458    4.3108458    379.89382   -523.10651    3342.3539    -1679.566    389.10333    475.63981    699.41025    80.110133 
   11700    81.068395   -108.94413  0.073352388   -108.87078    525.99324    4.3132252    4.3132252    4.3132252    525.99324    1429.1806   -1403.9135    1552.7126     1798.567   -691.26891   -581.95229    80.242858 
   11800    132.19824   -108.99017   0.11961574   -108.87055   -2195.9937    4.3115447    4.3115447    4.3115447   -2195.9937   -420.09597   -1908.8466   -4259.0385   -1095.4329    1101.7774     514.1925    80.149105 
   11900    89.741301   -108.95206  0.081199815   -108.87086    791.35632    4.3120805    4.3120805    4.3120805    791.35632   -521.10102    571.33688    2323.8331   -250.51677     558.6499    -192.3308    80.178988 
   12000     112.8407   -108.97297   0.10210064   -108.87087   -1660.1722    4.3127606    4.3127606    4.3127606   -1660.1722   -2392.4775    1567.9164   -4155.9556    1375.2131   -322.26633    472.43666    80.216932 
   12100    71.772938   -108.93607  0.064941662   -108.87113    1038.4572     4.310847     4.310847     4.310847    1038.4572    2472.4857    3098.6695   -2455.7836    583.35911    1292.9657    576.92988    80.110201 
   12200    121.59116   -108.98076   0.11001824   -108.87074   -2384.4108    4.3134246    4.3134246    4.3134246   -2384.4108   -1103.8329   -5411.7351   -637.66438   -653.55388    413.18033   -626.08699    80.253991 
   12300    94.330997   -108.95616  0.085352668   -108.87081    243.12215    4.3113414    4.3113414    4.3113414    243.12215    1915.4894    682.48897   -1868.6119    132.16615    777.56874   -75.852165     80.13777 
   12400    95.406018   -108.95716   0.08632537   -108.87083    181.64056    4.3121186    4.3121186    4.3121186    181.64056   -2056.0382    2517.6052    83.354661   -632.45599     265.2117    1634.4748    80.181114 
   12500    88.467791   -108.95091  0.080047516   -108.87086    1016.7886    4.3122527    4.3122527    4.3122527    1016.7886    4469.3309    897.30911   -2316.2741    1450.7063   -385.78395   -724.33443    80.188596 
   12600    127.00899   -108.98563   0.11492041   -108.87071   -1391.4547    4.3115153    4.3115153    4.3115153   -1391.4547   -779.90522    -1503.833   -1890.6257    1153.0536    232.16276   -540.75322    80.147463 
   12700    92.039227   -108.95419  0.083279026   -108.87091     903.9272    4.3126863    4.3126863    4.3126863     903.9272    3972.1616   -2293.4356    1033.0555   -1028.1796    694.51358    706.77426     80.21279 
   12800    112.58704   -108.97248   0.10187112   -108.87061   -233.69897    4.3115794    4.3115794    4.3115794   -233.69897    -3322.815    3576.7281   -955.00997   -397.32126   -209.38044    25.748606     80.15104 
   12900    51.527473   -108.91767   0.04662314   -108.87105    2925.7473    4.3118696    4.3118696    4.3118696    2925.7473    5879.4883    1208.1524    1689.6012    1814.1978    200.44271    161.27587    80.167228 
   13000    136.11599   -108.99372   0.12316061   -108.87055   -2907.9369    4.3124861    4.3124861    4.3124861   -2907.9369   -1724.2952   -4040.3404   -2959.1753   -826.08534    1032.5275    230.12464    80.201618 
   13100    94.053668   -108.95592  0.085101736   -108.87082    1036.6703    4.3117066    4.3117066    4.3117066    1036.6703    1970.3381   -151.58582    1291.2586   -462.72678    444.17534   -515.71854    80.158137 
   13200    116.06474   -108.97572   0.10501782    -108.8707   -676.51991    4.3124524    4.3124524    4.3124524   -676.51991   -2559.3624     686.2258   -156.42309     1264.924    432.47587     506.4656    80.199735 
   13300    76.821867   -108.94041   0.06951004    -108.8709    1648.2489    4.3115669    4.3115669    4.3115669    1648.2489    1496.9349    5569.4819     -2121.67    1082.9457    529.84231    1021.2945    80.150341 
   13400    102.97574   -108.96387  0.093174612    -108.8707   -1206.8388    4.3125802    4.3125802    4.3125802   -1206.8388   -96.047561   -3599.9906     75.52185    545.86928   -361.84347   -601.77134     80.20687 
   13500    115.18524   -108.97487   0.10422203   -108.87065   -2935.6149    4.3120809    4.3120809    4.3120809   -2935.6149   -127.96115   -4049.7712   -4629.1125   -360.79117    1303.8486   -241.03672    80.179014 
   13600      83.0948   -108.94601  0.075185921   -108.87082    477.48216    4.3123944    4.3123944    4.3123944    477.48216   -2475.6293    2459.9903    1448.0855   -686.33478    324.95789    1386.5488      80.1965 
   13700    103.03982    -108.9641  0.093232595   -108.87087    144.81329    4.3119796    4.3119796    4.3119796    144.81329    1530.4401    1815.5343   -2911.5345    813.56518   -403.21694   -126.35149    80.173364 
   13800     87.25858   -108.95006  0.078953397   -108.87111    220.87461    4.3117537    4.3117537    4.3117537    220.87461    948.83902    740.00561   -1026.2208    1461.1249     907.7081   -33.220473     80.16076 
   13900    131.00784   -108.98936   0.11853864   -108.87082    -2579.968    4.3131928    4.3131928    4.3131928    -2579.968    13.756731   -4411.4406     -3342.22   -715.31145    1219.9476   -39.746518    80.241052 
   14000    98.441608   -108.95995  0.089072035   -108.87088     70.55494    4.3111009    4.3111009    4.3111009     70.55494    637.26203    224.30255   -649.89976   -59.709054   -581.06959    118.69413    80.124355 
   14100    71.746081   -108.93597  0.064917362   -108.87105    1298.2072    4.3126794    4.3126794    4.3126794    1298.2072     347.7853    3633.2802   -86.443877    1211.8497    808.23954    870.98605    80.212404 
   14200    99.032341   -108.96036  0.089606543   -108.87076    1037.6777    4.3117327    4.3117327    4.3117327    1037.6777    4449.8958   -256.34271   -1080.5198    364.80353   -533.65561     36.08133     80.15959 
   14300    119.47905   -108.97877   0.10810715   -108.87066   -1188.3557    4.3115676    4.3115676    4.3115676   -1188.3557   -893.08613   -3521.8502    849.86931   -408.37853    513.88337   -674.99429    80.150382 
   14400    96.781542   -108.95847  0.087569973    -108.8709   -280.64737    4.3132963    4.3132963    4.3132963   -280.64737    1666.3142   -1405.2429   -1103.0134    4.8290664    27.975467    558.43212    80.246826 
   14500    112.50808   -108.97239   0.10179968   -108.87059    1011.0779    4.3105709    4.3105709    4.3105709    1011.0779   -1136.7332    5112.4427   -942.47579    1089.9519    659.74473    538.76458    80.094809 
   14600    63.194051    -108.9281  0.057179305   -108.87092    2660.8545    4.3124014    4.3124014    4.3124014    2660.8545    4288.6915    1723.2082    1970.6638    1368.4398    -525.6686   -203.20813    80.196891 
   14700    139.08485   -108.99642    0.1258469   -108.87057   -3523.7928    4.3126543    4.3126543    4.3126543   -3523.7928   -3194.0369   -4060.2661   -3317.0754   -470.81685    1997.1848    76.576812    80.211001 
   14800    79.784373   -108.94303  0.072190577   -108.87084    1417.4985    4.3109259    4.3109259    4.3109259    1417.4985    2108.8993    41.639328    2101.9568   -581.72023    500.37847    83.937019      80.1146 
   14900    111.15867    -108.9713    0.1005787   -108.87072   -2194.8325     4.313562     4.313562     4.313562   -2194.8325   -3530.9001   -601.30386   -2452.2936    1146.0142   -350.85677    716.79272    80.261662 
   15000    65.170646   -108.92999   0.05896777   -108.87102    2315.9256    4.3107966    4.3107966    4.3107966    2315.9256    3767.9063    5586.6365   -2406.7662    963.93683    932.93443    494.06045    80.107391 
   15100    138.36319   -108.99567   0.12519392   -108.87048   -2148.8705    4.3127379    4.3127379    4.3127379   -2148.8705   -2805.7278   -3356.4065   -284.47715     468.8253   -69.613204   -318.99397    80.215669 
   15200    105.71701   -108.96645  0.095654968   -108.87079   -1865.2977    4.3127036    4.3127036    4.3127036   -1865.2977   -54.360381   -1992.7164   -3548.8162    -293.5004      770.077   -379.24451    80.213752 
   15300    80.428992   -108.94367  0.072773843    -108.8709    399.35132    4.3111958    4.3111958    4.3111958    399.35132   -1314.2484    2107.9259    404.37641    248.93132    152.07886    1913.6166    80.129647 
   15400    93.770037   -108.95559    0.0848451   -108.87074    54.957027    4.3128128    4.3128128    4.3128128    54.957027    3659.3335    568.34299   -4062.8054    668.21711    374.65165   -421.46526    80.219847 
   15500    96.193652     -108.958  0.087038038   -108.87096   -516.39528    4.3116289    4.3116289    4.3116289   -516.39528   -605.24878   -1104.1349    160.19784    565.09505     56.15471   -45.219967      80.1538 
   15600    118.12695   -108.97788   0.10688374   -108.87099   -830.99653    4.3123025    4.3123025    4.3123025   -830.99653    2020.3172   -2565.9629   -1947.3439   -1193.1148    1685.9815    265.05909    80.191371 
   15700    110.76233   -108.97105   0.10022009   -108.87083    389.97252    4.3120683    4.3120683    4.3120683    389.97252   -514.68509    1031.5503     653.0523    1227.8208   -1249.3072    136.58546    80.178308 
   15800    65.486029   -108.93037  0.059253136   -108.87111    2372.8566    4.3113199    4.3113199    4.3113199    2372.8566    4173.3705    4146.2321   -1201.0329    2214.1939    657.34546    243.32384    80.136568 
   15900    118.20658   -108.97768   0.10695579   -108.87072   -771.21872     4.312342     4.312342     4.312342   -771.21872    1153.7872   -1868.5962   -1598.8472   -323.52161   -160.49826    632.10169    80.193579 
   16000    110.91681   -108.97103   0.10035986   -108.87067    92.384034    4.3117937    4.3117937    4.3117937    92.384034   -386.58223   -281.27713    945.01146   -715.31263    1088.2712   -746.16121    80.162991 
   16100    89.413934   -108.95182  0.080903607   -108.87092    136.45213    4.3121611    4.3121611    4.3121611    136.45213    1080.7108   -1252.5551     581.2007    651.43183   -659.21009    920.14004    80.183488 
   16200    86.497508     -108.949  0.078264763   -108.87074    1161.9026    4.3116363    4.3116363    4.3116363    1161.9026    241.24878    4224.0871   -979.62822    571.98104    1454.7657    1016.6521    80.154215 
   16300    102.06509   -108.96299  0.092350638   -108.87064    288.18612    4.3122449    4.3122449    4.3122449    288.18612    1510.4672    7.2933243   -653.20218    934.55255   -582.20471   -772.67573     80.18816 
   16400    129.51513   -108.98782   0.11718801   -108.87064   -3146.2372    4.3123379    4.3123379    4.3123379   -3146.2372   -3523.1232   -2666.4872   -3249.1012    541.25059    1703.7796   -295.50669    80.193352 
   16500    85.199743   -108.94802  0.077090518   -108.87093    743.51679     4.311984     4.311984     4.311984    743.51679   -67.400896    2300.7674   -2.8160943   -452.32039    592.09786     1112.478    80.173608 
   16600    103.05739   -108.96394  0.093248492   -108.87069   -536.55738     4.312423     4.312423     4.312423   -536.55738   -566.19515     691.1414   -1734.6184    1297.2907   -462.85022    166.98105    80.198098 
   16700    63.085026   -108.92815  0.057080657   -108.87107    440.51375    4.3113867    4.3113867    4.3113867    440.51375    3160.1753   -168.27993   -1670.3541     832.6775     960.7568    354.40366    80.140294 
   16800    138.62171   -108.99592   0.12542783    -108.8705   -3245.8613    4.3132851    4.3132851    4.3132851   -3245.8613   -3381.8461   -2958.7131   -3397.0247   -1183.3169    316.71272    808.31068    80.246205 
   16900    105.91632   -108.96657  0.095835308   -108.87074    220.67025    4.3114315    4.3114315    4.3114315    220.67025    2466.0462   -53.225095   -1750.8104   -204.89227    121.07357   -730.53591    80.142794 
   17000    74.032044   -108.93813  0.066985749   -108.87114    1091.5147    4.3118446    4.3118446    4.3118446    1091.5147   -671.28389    3938.8579    6.9700372    2346.8338   -92.997564    1474.5805    80.165829 
   17100    104.85704   -108.96565  0.094876856   -108.87077    558.51391    4.3126091    4.3126091    4.3126091    558.51391    5075.5696    331.31196   -3731.3398    284.71085    712.46447    278.31195    80.208482 
   17200    114.75363   -108.97454   0.10383149    -108.8707   -615.13731     4.310855     4.310855     4.310855   -615.13731   -746.51227   -2807.4526     1708.553   -146.37134   -211.70071   -710.65817     80.11065 
   17300    96.454514   -108.95832  0.087274071   -108.87105   -1134.6123    4.3133263    4.3133263    4.3133263   -1134.6123    2234.1422   -1379.4522   -4258.5269     54.07729    1544.5304    292.14627    80.248504 
   17400    95.217865   -108.95696  0.086155126   -108.87081    2154.1355    4.3111276    4.3111276    4.3111276    2154.1355    620.61108    3705.9307    2135.8646    676.72262   -704.33281    1197.4717    80.125849 
   17500    81.181698   -108.94434  0.073454907   -108.87089    2056.2483    4.3112932    4.3112932    4.3112932    2056.2483     4915.736    2166.9402    -913.9314    1248.7862    159.36429   -654.77414     80.13508 
   17600    119.91425    -108.9793   0.10850093    -108.8708   -2466.5966    4.3135375    4.3135375    4.3135375   -2466.5966   -3287.1036   -3249.1599   -863.52648    390.40219    425.89017    456.49237    80.260292 
   17700     116.9044   -108.97643   0.10577756   -108.87065    478.87122    4.3106159    4.3106159    4.3106159    478.87122    1647.9564    1041.3648   -1252.7075   -482.43286    1049.0917    44.426162    80.097321 
   17800    92.870635   -108.95485  0.084031302   -108.87082   -272.33973    4.3130433    4.3130433    4.3130433   -272.33973   -1661.8344    1377.9776   -533.16234    734.90553   -935.87674     492.5449    80.232709 
   17900     62.05523   -108.92716  0.056148877   -108.87101    1126.7505    4.3119067    4.3119067    4.3119067    1126.7505    1721.7097    3041.7853   -1383.2435    1321.6822    1868.1762    701.55809    80.169293 
   18000    127.22009   -108.98544   0.11511141   -108.87033   -1288.3268    4.3114974    4.3114974    4.3114974   -1288.3268   -870.95279   -2663.9958   -330.03179   -690.29546    42.201767    458.18113    80.146466 
   18100    111.30789    -108.9714   0.10071371   -108.87069   -2590.2938    4.3135051    4.3135051    4.3135051   -2590.2938   -1775.5941   -3927.6927   -2067.5946   -160.50076    822.54861   -1024.2913    80.258483 
   18200    83.578894   -108.94669  0.075623939   -108.87106    343.29527    4.3111317    4.3111317    4.3111317    343.29527    111.20518    3241.1543   -2322.4736     1124.636    783.18611     1308.635    80.126076 
   18300    101.46986   -108.96256  0.091812063   -108.87074    1121.8084    4.3122397    4.3122397    4.3122397    1121.8084    2584.0527    3258.5821   -2477.2097    1726.5722   -452.43631    564.75437    80.187871 
   18400    94.675534   -108.95662  0.085664412   -108.87096   -985.47083    4.3124772    4.3124772    4.3124772   -985.47083    96.926896   -2045.3172   -1008.0222   -208.49952    12.639163     15.50123    80.201119 
   18500    118.66855   -108.97812    0.1073738   -108.87075   -2064.3387    4.3118615    4.3118615    4.3118615   -2064.3387     410.6998    -3627.746     -2975.97   -593.99494     1174.485    646.01469    80.166774 
   18600    101.86031   -108.96285  0.092165353   -108.87069    838.14974    4.3122991    4.3122991    4.3122991    838.14974    3005.9035   -203.55802   -287.89625   -44.115608   -208.86908     387.9904    80.191182 
   18700    68.284943   -108.93283  0.061785651   -108.87104     1600.936    4.3115501    4.3115501    4.3115501     1600.936     2098.947    4131.0935   -1427.2326    1725.3403   -233.79796    500.48908    80.149408 
   18800    104.32861   -108.96528  0.094398714   -108.87088    42.593969    4.3120761    4.3120761    4.3120761    42.593969    3057.3985    176.30044   -3105.9171    371.25121    851.15627    325.17563    80.178743 
   18900     132.7924   -108.99071   0.12015336   -108.87055   -829.22211    4.3121618    4.3121618    4.3121618   -829.22211   -1913.7058    -2153.907    1579.9465    216.38545    384.98409   -684.31945    80.183523 
   19000    97.827036    -108.9595  0.088515958   -108.87098   -547.92959    4.3122574    4.3122574    4.3122574   -547.92959     2813.614   -1018.4656   -3438.9372    567.58139   0.62324253   -81.396122    80.188856 
   19100    70.074418   -108.93445  0.063404806   -108.87105    2183.4188    4.3115749    4.3115749    4.3115749    2183.4188    248.11498      3712.22    2589.9214    881.07312    910.45414    1264.4221    80.150789 
   19200    110.35251   -108.97041  0.099849266   -108.87057   -94.907451      4.31217      4.31217      4.31217   -94.907451    2091.3444    1119.4885   -3495.5552    377.13093   -188.98948   -81.080251    80.183984 
   19300    102.58228   -108.96363  0.092818607   -108.87081   -1998.4509    4.3124651    4.3124651    4.3124651   -1998.4509   -3791.2158   -4034.9445    1830.8076   -768.15627    779.88591    246.16373    80.200443 
   19400    106.46294   -108.96725  0.096329907   -108.87092   -738.77928     4.311785     4.311785     4.311785   -738.77928    1437.6677   -664.27366   -2989.7318    137.42018     946.7072    147.43342    80.162508 
   19500    99.142959   -108.96051  0.089706633    -108.8708    941.02878    4.3125907    4.3125907    4.3125907    941.02878   -915.66804    2609.8342    1128.9202    1667.1238   -551.14537    685.70768    80.207452 
   19600    72.018316   -108.93623  0.065163685   -108.87106    757.99604    4.3113086    4.3113086    4.3113086    757.99604    2609.5186    1466.2985    -1801.829     1417.455    595.60959    177.24586    80.135939 
   19700    132.54056   -108.99035   0.11992548   -108.87043   -2729.8589    4.3128143    4.3128143    4.3128143   -2729.8589   -3963.7523   -1858.4394    -2367.385   -1286.7806    1066.4076    867.17496    80.219932 
   19800    106.62586   -108.96705  0.096477322   -108.87057   -192.70462    4.3123111    4.3123111    4.3123111   -192.70462    3723.0368   -3569.8636   -731.28701    386.41699    296.27191   -1159.0257    80.191854 
   19900    75.387185    -108.9393  0.068211909   -108.87109    166.11442    4.3111629    4.3111629    4.3111629    166.11442    459.84013    763.87177   -725.36863    909.80658    383.85247    1501.4614    80.127815 
   20000    85.096216   -108.94795  0.076996844   -108.87095    1279.6279    4.3129917    4.3129917    4.3129917    1279.6279    4248.8678    2301.6515   -2711.6356    847.74448    91.535825    598.86477    80.229829 
   20100    127.93202   -108.98639   0.11575558   -108.87064   -636.06567    4.3111631    4.3111631    4.3111631   -636.06567   -1239.7602   -1083.9774    415.54063   -153.66278   -329.38876   -66.979252    80.127825 
   20200    104.80216   -108.96578  0.094827201   -108.87095   -1839.8965    4.3126252    4.3126252    4.3126252   -1839.8965    2029.4524   -2484.2888   -5064.8531    572.69519    875.25468    145.53039    80.209376 
   20300    97.018833   -108.95865  0.087784679   -108.87086    1114.3042    4.3123855    4.3123855    4.3123855    1114.3042    1207.1544    999.70322    1136.0551     37.48747   -222.67923    960.01613    80.196005 
   20400    86.565755   -108.94909  0.078326514   -108.87077    2117.5145    4.3104598    4.3104598    4.3104598    2117.5145    4465.1788    2120.2671   -232.90247    1584.1426    93.551943    -374.7879     80.08862 
   20500    92.390926   -108.95455  0.083597251   -108.87095   -1698.6717    4.3135664    4.3135664    4.3135664   -1698.6717   -2353.2236   -1696.5616   -1046.2299   -227.05343    703.31244    672.89838    80.261907 
   20600    120.74596   -108.97988   0.10925349   -108.87063   -466.33729    4.3113262    4.3113262    4.3113262   -466.33729    289.19159   -1602.4839   -85.719555   -689.61318    1511.9774   -673.16238     80.13692 
   20700    108.23136   -108.96869  0.097930009   -108.87076   -173.92469    4.3119125    4.3119125    4.3119125   -173.92469    1052.5195     480.5695   -2054.8631    1376.9013   -1024.0669    -503.5523    80.169617 
   20800    57.717939   -108.92341  0.052224404   -108.87118    1316.2303    4.3127545    4.3127545    4.3127545    1316.2303   -449.60884    2134.3486    2263.9512    1706.7358    1617.4474    1294.3871    80.216591 
   20900    132.85726   -108.99062   0.12021204   -108.87041   -465.98772    4.3109286    4.3109286    4.3109286   -465.98772   -397.67001    945.97428   -1946.2674   -692.34256   -648.60139    722.03361    80.114753 
   21000    104.39784   -108.96512   0.09446136   -108.87066   -885.54713    4.3129876    4.3129876    4.3129876   -885.54713   -1309.2798   -4161.3614    2813.9998   -702.73937     973.5102   -448.32499      80.2296 
   21100    93.016759   -108.95521  0.084163519   -108.87105   -1543.5685    4.3120414    4.3120414    4.3120414   -1543.5685    424.26056   -1086.0342    -3968.932    844.40222     472.7267    570.15873    80.176807 
   21200    86.686919   -108.94935  0.078436146   -108.87091    2093.8048    4.3113645    4.3113645    4.3113645    2093.8048    1896.8628    2505.2178    1879.3336    549.58701    228.43867    1116.3059    80.139055 
   21300    94.041291   -108.95602  0.085090537   -108.87093   -253.88604    4.3126651    4.3126651    4.3126651   -253.88604    478.03383   -469.02946    -770.6625    1100.6456    -625.4807   -703.37594    80.211603 
   21400     117.0621   -108.97676   0.10592025   -108.87084   -2081.8384    4.3119414    4.3119414    4.3119414   -2081.8384   -2122.2817   -2515.7889   -1607.4447     18.90964    1930.5822    980.18325    80.171233 
   21500    114.69899   -108.97436   0.10378206   -108.87058    843.19626    4.3119667    4.3119667    4.3119667    843.19626    4948.2384   -1017.5546   -1401.0951    228.32387    -778.7411   -575.22767    80.172645 
   21600     89.57396   -108.95189  0.081048401   -108.87084    84.520736    4.3120597    4.3120597    4.3120597    84.520736   -629.63345    1294.4282   -411.23255    856.00813    22.269335    729.74683    80.177829 
   21700    70.633401   -108.93501  0.063910586   -108.87109    775.32855     4.311804     4.311804     4.311804    775.32855    3797.7628    1137.5335   -2609.3106     675.1311    512.66136    977.96815    80.163564 
   21800    128.26863   -108.98656   0.11606016    -108.8705   -817.95822    4.3120097    4.3120097    4.3120097   -817.95822   -2295.5896    -2949.705    2791.4199   -1346.7694    341.94125    235.93466     80.17504 
   21900    105.55628   -108.96633  0.095509541   -108.87082   -1282.4647    4.3125344    4.3125344    4.3125344   -1282.4647    2937.9369   -2461.5039   -4323.8272    569.84421   -201.27357    -1165.112    80.204313 
   22000    77.675271   -108.94143  0.070282218   -108.87115    1166.2672    4.3116045    4.3116045    4.3116045    1166.2672   -1090.4789    2360.6688    2228.6116    1626.2799    1056.3242     1272.403    80.152443 
   22100    112.57916   -108.97244   0.10186399   -108.87058    808.33426     4.311838     4.311838     4.311838    808.33426    1314.2951    3729.5817    -2618.874    890.79255   -400.41928    70.815907    80.165464 
   22200    97.630105   -108.95923  0.088337771    -108.8709   -969.84581    4.3126143    4.3126143    4.3126143   -969.84581    -3384.137   -2680.0358    3154.6355   -527.63935    470.97194    44.691295     80.20877 
   22300    106.18323   -108.96699   0.09607682   -108.87092   -1252.1558    4.3115952    4.3115952    4.3115952   -1252.1558    1210.2107   -3765.4027   -1201.2754   -286.15174    1848.3134   -173.21917     80.15192 
   22400    108.87861    -108.9692  0.098515654   -108.87069    241.04503    4.3127391    4.3127391    4.3127391    241.04503   -1492.8176    734.09196    1481.8608    692.30546   -1106.0225    269.21473    80.215731 
   22500    59.726469   -108.92516  0.054041764   -108.87112    1480.8426    4.3115739    4.3115739    4.3115739    1480.8426    968.39735    2788.0604    686.07004    608.65396    547.92616    507.60431    80.150733 
   22600    115.21296   -108.97497   0.10424711   -108.87073   -1814.6464    4.3120303    4.3120303    4.3120303   -1814.6464   -4161.1814    328.63176   -1611.3896    220.96914    382.11278     1234.267    80.176192 
   22700    123.76871   -108.98243   0.11198853   -108.87044     -370.521     4.313036     4.313036     4.313036     -370.521    1734.6718   -4134.2567    1288.0219   -355.75544    189.88755   -280.92765    80.232303 
   22800    98.875292   -108.96038  0.089464442   -108.87091   -578.93895    4.3110856    4.3110856    4.3110856   -578.93895   -311.15741   -1660.2483    234.58885    998.12796   -527.29764    16.357709    80.123502 
   22900    79.519612   -108.94305  0.071951016    -108.8711    691.79064    4.3127669    4.3127669    4.3127669    691.79064     699.0949    2968.1858   -1591.9088    689.54143    1212.9709    1517.4276    80.217282 
   23000    100.14396   -108.96133  0.090612359   -108.87072    766.36861    4.3117069    4.3117069    4.3117069    766.36861   -174.07562    839.36758    1633.8139    327.96635   -1082.1569   -588.14315    80.158151 
   23100    111.78701   -108.97202   0.10114723   -108.87087    -2917.578    4.3118592    4.3118592    4.3118592    -2917.578   -985.58238   -4526.6038   -3240.5479   -710.40234    1479.1386   -189.45695    80.166646 
   23200     90.59353   -108.95291   0.08197093   -108.87094    205.17632    4.3132031    4.3132031    4.3132031    205.17632    1810.1668   -2005.4619    810.82408    678.59186   -443.84727   -28.673384    80.241629 
   23300    118.97848   -108.97818   0.10765423   -108.87052    1144.0508    4.3107472    4.3107472    4.3107472    1144.0508   -176.66827    3333.3363    275.48446    1334.3333   -82.413326    956.05604    80.104639 
   23400     66.58479   -108.93139  0.060247317   -108.87114     842.2943    4.3125339    4.3125339    4.3125339     842.2943    179.57317    3159.9383   -812.62854    275.36588   -491.51487    739.36623    80.204283 
   23500    125.30827   -108.98398   0.11338156    -108.8706   -1946.6071    4.3126238    4.3126238    4.3126238   -1946.6071   -3292.4157   -2948.3664    400.96082   -1143.0695    1778.4723    401.69537    80.209299 
   23600    117.07515   -108.97644   0.10593205   -108.87051    -123.7459    4.3112095    4.3112095    4.3112095    -123.7459    2514.5558   -2927.2449    41.451386    376.50663   -1405.4493   -1013.5499    80.130411 
   23700    63.935918   -108.92893  0.057850563   -108.87108    219.40341    4.3131587    4.3131587    4.3131587    219.40341    -2634.816    135.04732     3157.979    1057.7953    1404.4768    774.00189    80.239147 
   23800    97.278243   -108.95878  0.088019399   -108.87076    1088.3454    4.3112931    4.3112931    4.3112931    1088.3454   -1128.4001    5204.6901   -811.25382    251.61631   -315.25481     444.3934    80.135075 
   23900    120.21301   -108.97941   0.10877125   -108.87064    -457.2812    4.3122025    4.3122025    4.3122025    -457.2812   -2980.5337   -685.26323    2293.9534    415.19027    411.37877   -66.494578    80.185795 
   24000    102.69479   -108.96406  0.092920405   -108.87114   -2496.0685    4.3130285    4.3130285    4.3130285   -2496.0685   -1802.5358   -4432.8617    -1252.808   -122.56417    156.01036   -50.345138    80.231885 
   24100    111.68468   -108.97202   0.10105465   -108.87096    270.89166    4.3113637    4.3113637    4.3113637    270.89166   -1798.8465    385.11342    2226.4081    441.39083    139.65898    1038.7866    80.139011 
   24200     73.75684   -108.93779  0.066736739   -108.87105    2124.1633    4.3122432    4.3122432    4.3122432    2124.1633    769.60528    2735.0833    2867.8014    346.69302   -1089.4501    406.77811    80.188064 
   24300    94.102201   -108.95629  0.085145649   -108.87114   -2342.0538    4.3123392    4.3123392    4.3123392   -2342.0538   -5146.2245   -16.080224   -1863.8566    113.52503    1048.3797    717.92362     80.19342 
   24400    116.96428   -108.97649   0.10583173   -108.87066   -969.61875    4.3119468    4.3119468    4.3119468   -969.61875    1057.8783   -3068.5122   -898.22237   -1055.6486    67.203534   -591.25684    80.171531 
   24500    107.86107   -108.96824  0.097594961   -108.87064   -574.93077    4.3123777    4.3123777    4.3123777   -574.93077   -1881.4082   -1909.8123    2066.4282    1638.0152   -894.48485    9.3234899    80.195567 
   24600    79.867423    -108.9434  0.072265723   -108.87113     350.0585      4.31193      4.31193      4.31193     350.0585    -687.3373    3653.5632   -1916.0504    1267.1212    872.25933    1672.8218    80.170597 
   24700    95.485565   -108.95711  0.086397346   -108.87072    2183.1916    4.3116037    4.3116037    4.3116037    2183.1916    174.18829    2499.4145     3875.972   -10.904364   -383.42268   -431.70062    80.152396 
   24800    143.54542   -109.00039   0.12988291   -108.87051   -3339.9029    4.3127335    4.3127335    4.3127335   -3339.9029   -3180.6814   -3404.9897   -3434.0377   -617.82245    500.06835   -757.68131     80.21542 
   24900    55.477574   -108.92137  0.050197275   -108.87117    944.79713    4.3118977    4.3118977    4.3118977    944.79713    1520.0787   -1947.1142    3261.4269    324.98227   -154.93996    621.75442    80.168794 
   25000    122.81336   -108.98178   0.11112411   -108.87065   -156.36783    4.3117819    4.3117819    4.3117819   -156.36783   -2572.0919    2618.6513   -515.66288    164.52061    195.79373     662.0076    80.162336 
   25100    65.290617   -108.93027  0.059076322   -108.87119    2892.8287    4.3120754    4.3120754    4.3120754    2892.8287    781.84619    4230.1955    3666.4443    538.68412   -1319.4515    277.39339    80.178707 
   25200    126.87932    -108.9858   0.11480308     -108.871   -2417.2833    4.3120927    4.3120927    4.3120927   -2417.2833   -3634.9108   -2039.1692     -1577.77    202.80135    1947.1511    728.73899    80.179669 
   25300    120.66626   -108.97988   0.10918137    -108.8707    29.612491    4.3122542    4.3122542    4.3122542    29.612491   -1047.3322   -1179.2249    2315.3946   -49.259112   -1453.3448   -486.04476     80.18868 
   25400    90.982935   -108.95318  0.082323272   -108.87086    33.795391    4.3122666    4.3122666    4.3122666    33.795391   -1526.4562    696.97107     930.8713    1103.4566    720.73689    95.811689    80.189372 
   25500    59.610037   -108.92503  0.053936414    -108.8711    1292.9019    4.3112785    4.3112785    4.3112785    1292.9019   -1797.0396    3303.7683     2371.977    407.58642   -305.10007    1197.1654    80.134258 
   25600    134.82126   -108.99234   0.12198911   -108.87035    -1699.778     4.312956     4.312956     4.312956    -1699.778   -2964.8609   -919.62345   -1214.8495   -321.13168    593.06563   -862.02045    80.227835 
   25700    90.650685   -108.95297  0.082022645   -108.87095   -396.77026    4.3117347    4.3117347    4.3117347   -396.77026   -1340.0272   -3117.0411    3266.7576    -729.4984   -1163.7701   -386.88351    80.159702 
   25800    109.49229   -108.97013  0.099070926   -108.87106   -2154.0714    4.3121138    4.3121138    4.3121138   -2154.0714   -4046.4948    1587.9761   -4003.6953    1179.1603    1322.8467    2249.3277    80.180845 
   25900    78.176459   -108.94175  0.070735703   -108.87101    3048.7989    4.3121918    4.3121918    4.3121918    3048.7989    332.11493    4120.5551    4693.7268    648.74109   -1345.1729    185.66377    80.185196 
   26000    124.16874   -108.98335   0.11235048     -108.871   -2062.0457    4.3113584    4.3113584    4.3113584   -2062.0457   -2465.9299   -539.94109    -3180.266    440.02859    1382.6335   -796.34989    80.138718 
   26100    85.759321   -108.94864  0.077596836   -108.87104   -677.22481    4.3129531    4.3129531    4.3129531   -677.22481   -1823.5261   -2860.7719    2652.6236   -734.13599    655.86873    393.14585    80.227674 
   26200    121.02372   -108.97994    0.1095048   -108.87044   -296.30539     4.311827     4.311827     4.311827   -296.30539    460.57525    232.59043   -1582.0818    758.23359   -569.83721   -333.07839    80.164848 
   26300    63.789902   -108.92878  0.057718443   -108.87106    1362.9339     4.311184     4.311184     4.311184    1362.9339   -1598.6158    4467.8936    1219.5239    612.09673    183.15935    281.96689     80.12899 
   26400    90.476064   -108.95281  0.081864644   -108.87094    203.23473    4.3131605    4.3131605    4.3131605    203.23473    611.39295    1279.3158   -1281.0045    404.00922    507.54284    805.95125    80.239252 
   26500     155.8771   -109.01135   0.14104088   -108.87031   -584.47515    4.3110936    4.3110936    4.3110936   -584.47515    -2102.422   -2170.5635    2519.5601   -177.26658   -474.43624   -354.18087    80.123951 
   26600    80.162082   -108.94355  0.072532336   -108.87102    750.21446    4.3124424    4.3124424    4.3124424    750.21446    2083.8448   -105.59131    272.38984    102.49842     99.41194    18.806125    80.199177 
   26700    92.194372   -108.95441  0.083419406   -108.87099    -65.97155    4.3124115    4.3124115    4.3124115    -65.97155   -3323.2658    2803.6765    321.67465    437.77329    783.26014     1559.118    80.197456 
   26800    90.492853   -108.95264  0.081879835   -108.87076    1946.3111    4.3107414    4.3107414    4.3107414    1946.3111    2819.6506    3354.1183   -334.83557    678.60379   -1212.9129   -633.20864    80.104314 
   26900    101.03902   -108.96246  0.091422226   -108.87104    -2391.392    4.3135155    4.3135155    4.3135155    -2391.392   -4023.5886   -4710.0099    1559.4225   -244.44203    1495.6472   -793.38457    80.259064 
   27000    114.88297   -108.97491   0.10394853   -108.87097   -610.91251    4.3114815    4.3114815    4.3114815   -610.91251   -463.86445   -199.76314     -1169.11   -445.34039   -424.38654    1224.9261     80.14558 
   27100    99.256223   -108.96066  0.089809116   -108.87085    1730.8423    4.3116878    4.3116878    4.3116878    1730.8423    -731.8239    4015.7853    1908.5657     1769.387    9.2060241    33.040749    80.157087 
   27200    80.828903   -108.94426   0.07313569   -108.87113   -987.57917     4.312883     4.312883     4.312883   -987.57917   -2407.4682     2188.472   -2743.7413    723.95335    53.834821    23.074872    80.223764 
   27300    118.48785   -108.97777    0.1072103   -108.87056   -1472.0995    4.3114496    4.3114496    4.3114496   -1472.0995   -2321.8693   -1732.2721   -362.15707   -647.85385     1949.131   -88.785235    80.143804 
   27400    111.29614   -108.97122   0.10070309   -108.87052   -565.69197    4.3127731    4.3127731    4.3127731   -565.69197   -600.00354   -3284.4731    2187.4007   -619.70642   -1859.6609   -5.3096135    80.217629 
   27500    82.766354   -108.94585  0.074888737   -108.87096    -1118.726    4.3121528    4.3121528    4.3121528    -1118.726   -2988.3113    2611.5866   -2979.4532    846.94523    2233.2939    505.34263    80.183026 
   27600       66.916   -108.93155  0.060547003     -108.871    2641.2582    4.3114491    4.3114491    4.3114491    2641.2582    1133.9561    5786.5119    1003.3066    103.78212   -704.97304    833.01968    80.143772 
   27700    144.85226   -109.00157   0.13106536    -108.8705   -2418.8318    4.3127656    4.3127656    4.3127656   -2418.8318   -2207.4733   -2002.0733   -3046.9487     947.5099    906.37261   -798.97351    80.217211 
   27800     92.24568    -108.9545   0.08346583   -108.87104   -513.55341    4.3119984    4.3119984    4.3119984   -513.55341   -1200.6115   -2236.5679    1896.5191    64.851866    372.42565    296.01946     80.17441 
   27900    115.08325   -108.97498   0.10412974   -108.87085    654.60353    4.3120465    4.3120465    4.3120465    654.60353    1661.5715    1390.1437   -1087.9046     202.1628    1016.0585    181.34889    80.177091 
   28000     82.29424   -108.94538  0.074461557   -108.87092    1806.3392    4.3118765    4.3118765    4.3118765    1806.3392   -657.10979    4926.2671    1149.8602    812.99792   -1261.3463    4.0239951    80.167608 
   28100    71.726866   -108.93607  0.064899975   -108.87117   -451.49163    4.3120956    4.3120956    4.3120956   -451.49163      2129.22   -472.77289    -3010.922    211.18651    1631.8355   -341.76146    80.179832 
   28200    138.83339   -108.99616   0.12561936   -108.87054   -2343.8429    4.3122912    4.3122912    4.3122912   -2343.8429   -3636.1835    -4180.613    785.26775   -1262.3241   -619.88504     806.2538    80.190742 
   28300    96.018075   -108.95769  0.086879172   -108.87081    1198.6787    4.3122429    4.3122429    4.3122429    1198.6787    2636.6945    1099.5209   -140.17935    445.74507   -128.57959    14.734435    80.188048 
   28400    83.374816   -108.94654  0.075439285    -108.8711    941.88244    4.3117418    4.3117418    4.3117418    941.88244   -2349.2512    4363.0423    811.85621    1751.1131    737.22105    1310.7811    80.160098 
   28500    110.36179   -108.97051  0.099857669   -108.87065     439.8236    4.3120291    4.3120291    4.3120291     439.8236    1103.7519    2366.8974   -2151.1785     290.9527    645.75735   -1052.7677    80.176123 
   28600    109.65178   -108.96989  0.099215236   -108.87068   -1716.7359    4.3126655    4.3126655    4.3126655   -1716.7359   -3064.2171   -4542.2687     2456.278   -248.91636    155.47859   -580.01393    80.211628 
   28700    98.781709   -108.96041  0.089379766   -108.87103   -2363.5162      4.31185      4.31185      4.31185   -2363.5162    -1615.986   -1549.9989   -3924.5636     36.24929    828.37008    810.49543     80.16613 
   28800    72.321802   -108.93646  0.065438286   -108.87102    2654.6512    4.3123553    4.3123553    4.3123553    2654.6512   -1589.6403    5798.5016    3755.0924    567.70575    419.90595     81.60463    80.194318 
   28900    107.19554   -108.96788  0.096992777   -108.87089   -214.54354    4.3117921    4.3117921    4.3117921   -214.54354   -40.533907     2438.763   -3041.8598    193.07744   -322.91017     -481.672    80.162904 
   29000    102.90907   -108.96407  0.093114286   -108.87095   -1764.1468    4.3122156    4.3122156    4.3122156   -1764.1468   -4428.7569   -1672.5932    808.90975    142.35273    2285.1593    973.50201    80.186526 
   29100    133.79692   -108.99163   0.12106227   -108.87057   -1349.4042    4.3130266    4.3130266    4.3130266   -1349.4042   -207.32646   -2079.2709   -1761.6153   -357.27766   -928.51654   -97.539439    80.231775 
   29200    87.013973   -108.94958  0.078732071   -108.87085    891.07728    4.3109501    4.3109501    4.3109501    891.07728   -1597.0646    3836.8148    433.48164    833.79376    1832.3384   -218.71796    80.115952 
   29300    58.503475     -108.924  0.052935174   -108.87106    1183.5557    4.3127325    4.3127325    4.3127325    1183.5557    95.641483    4288.6998   -833.67415     880.2644    66.453037    423.66045    80.215365 
   29400     130.1267   -108.98811   0.11774137   -108.87037   -1090.0987    4.3121017    4.3121017    4.3121017   -1090.0987   -268.31412   -2927.7928   -74.188991   -92.007292    1227.9511   -623.86119    80.180171 
   29500    103.96061   -108.96478  0.094065746   -108.87071   -1396.5102    4.3116526    4.3116526    4.3116526   -1396.5102    -1274.749   -2016.9646   -897.81686   -477.22458     -711.623   -50.809699    80.155125 
   29600    86.488974   -108.94939  0.078257041   -108.87113   -57.426217    4.3132104    4.3132104    4.3132104   -57.426217    -371.4863    1561.0705   -1361.8629    810.27657    1552.6755     1711.533    80.242033 
   29700    117.55507   -108.97704   0.10636629   -108.87067    1946.0203    4.3106712    4.3106712    4.3106712    1946.0203    516.10705    4938.1212    383.83254    1013.8183   -1288.7877   -706.48703    80.100401 
   29800    82.349728    -108.9456  0.074511765   -108.87108     655.2194    4.3125333    4.3125333    4.3125333     655.2194    814.14396   -782.39222    1933.9065   -245.93464    1970.7412   -842.64249    80.204252 
   29900    127.72081   -108.98637   0.11556448    -108.8708   -3471.0499    4.3128884    4.3128884    4.3128884   -3471.0499   -3360.6307   -4710.0505   -2342.4685   -643.94388   -415.08198    1586.2476    80.224064 
   30000    81.812043   -108.94494  0.074025256   -108.87091    2094.9943    4.3108032    4.3108032    4.3108032    2094.9943    1876.1986    3051.5253     1357.259    476.75608    717.59194    -411.4648    80.107762 
   30100    81.278525    -108.9446  0.073542517   -108.87106   -352.40527    4.3132186    4.3132186    4.3132186   -352.40527   -3679.7215     3579.341    -956.8353    1066.5461    368.94548   -410.02788     80.24249 
   30200    99.970797   -108.96132  0.090455678   -108.87086    744.34798    4.3113458    4.3113458    4.3113458    744.34798    124.31766     1252.529    856.19729    311.20805    1814.7674    592.59764    80.138015 
   30300    137.13589   -108.99448   0.12408344    -108.8704   -281.66938     4.312165     4.312165     4.312165   -281.66938   -2514.4449   -1412.8886    3082.3254    120.68825   -488.57413   -439.87328    80.183705 
   30400    104.32721   -108.96528  0.094397449   -108.87088   -2097.5967    4.3129048    4.3129048    4.3129048   -2097.5967   -2852.6235   -611.76592   -2828.4006    13.234137    1647.7478   -99.304908    80.224979 
   30500    63.429479   -108.92854  0.057392326   -108.87115     1846.918    4.3109851    4.3109851    4.3109851     1846.918   -1978.3943    6182.6248    1336.5234    471.00331    818.27837    587.38815    80.117904 
   30600    110.45654   -108.97058  0.099943402   -108.87063   -482.04257    4.3126797    4.3126797    4.3126797   -482.04257   -719.49983    -100.2226   -626.40528    320.04964   -130.92502   -611.28485    80.212421 
   30700    95.452439   -108.95734  0.086367372   -108.87097   -1838.0552    4.3122098    4.3122098    4.3122098   -1838.0552   -4143.1144   -2366.2213    995.17004   -482.74993    2207.9825    145.89495    80.186205 
   30800     109.6683   -108.97024  0.099230186   -108.87101   -604.90604    4.3120403    4.3120403    4.3120403   -604.90604    -257.4267   -340.22436   -1217.0671   -315.34502   -381.58738    1709.9392    80.176747 
   30900    107.50037   -108.96799  0.097268595   -108.87072    328.34165     4.312319     4.312319     4.312319    328.34165   -2394.8455    4013.8968   -634.02636    1304.6836    1148.4235   -689.10135    80.192294 
   31000    77.478378   -108.94117  0.070104065   -108.87107      18.6332    4.3117903    4.3117903    4.3117903      18.6332   -513.80027    1437.9951   -868.29523    1293.9652    941.43516    -724.6126    80.162802 
   31100     119.3478   -108.97855    0.1079884   -108.87056   -1022.5675    4.3123822    4.3123822    4.3123822   -1022.5675   -347.24918   -3242.1833    521.72987   -431.31237    1299.3281    855.05231    80.195818 
   31200    117.85827   -108.97713   0.10664064   -108.87049   -887.51567    4.3122482    4.3122482    4.3122482   -887.51567   -1883.7826   -1557.8232     779.0588   -194.29351   -1235.9635     -294.392    80.188345 
   31300     50.70458   -108.91706   0.04587857   -108.87118    1564.8616    4.3117844    4.3117844    4.3117844    1564.8616    760.38722     3775.763    158.43455    385.31093    2031.3125    494.10681    80.162474 
   31400    116.98341   -108.97657   0.10584905   -108.87072   -324.64698    4.3119199    4.3119199    4.3119199   -324.64698   -1460.5134    1522.9014    -1036.329    298.15552   -889.05048    267.37557    80.170029 
   31500    102.05991   -108.96316  0.092345949   -108.87081    1581.6732    4.3119732    4.3119732    4.3119732    1581.6732    425.35328   -375.85804    4695.5245    53.144368      1366.75    -311.7472    80.173002 
   31600     131.1298   -108.98966   0.11864899   -108.87101   -2140.2117    4.3123082    4.3123082    4.3123082   -2140.2117   -2484.7131   -2633.6842   -1302.2377   -58.314144    489.89603    542.86965    80.191691 
   31700    82.580459   -108.94587  0.074720535   -108.87115    2671.7911    4.3116179    4.3116179    4.3116179    2671.7911   -944.67911    5380.5952    3579.4571    300.69517    1406.7031    70.940225    80.153189 
   31800    90.801176   -108.95314  0.082158812   -108.87098    562.98026    4.3121081    4.3121081    4.3121081    562.98026   -594.62764    2356.6329   -73.064521    1210.9421   -80.239591   -1411.0177    80.180531 
   31900    80.342217   -108.94374  0.072695326   -108.87105   -1168.7122    4.3117894    4.3117894    4.3117894   -1168.7122   -1954.5164   -1426.5329   -125.08742    494.18796    2731.2977    575.40439    80.162751 
   32000    126.69685   -108.98515   0.11463798   -108.87051   -1469.9992    4.3127795    4.3127795    4.3127795   -1469.9992   -2993.5428   -2478.3591    1061.9043   -859.50503    -670.2637    771.73836    80.217986 
   32100     105.0684    -108.9658  0.095068099   -108.87073     329.1198    4.3118574    4.3118574    4.3118574     329.1198   -1805.6931    2407.5601     385.4924   -294.32561    936.38155     116.1219    80.166546 
   32200    81.602642   -108.94492  0.073835785   -108.87108   -434.68462    4.3119244    4.3119244    4.3119244   -434.68462    -3676.671    3959.0524   -1586.4352    928.22757    1656.3751   -144.09648    80.170284 
   32300    108.24297   -108.96854  0.097940513    -108.8706   -697.49289    4.3128722    4.3128722    4.3128722   -697.49289    198.40972   -2341.6751    50.786737    584.64044   -27.142044    847.18853    80.223162 
   32400    123.86183   -108.98261   0.11207279   -108.87054   -3080.0885    4.3116954    4.3116954    4.3116954   -3080.0885   -2642.4859   -3762.3682   -2835.4114   -398.95832    1572.3482   -794.35785     80.15751 
   32500    63.328867   -108.92845  0.057301289   -108.87115   -261.44208    4.3128177    4.3128177    4.3128177   -261.44208   -2712.7051    774.80206    1153.5768    114.76248    587.21135     1711.644    80.220118 
   32600    109.52887   -108.96964  0.099104026   -108.87054    598.41508      4.31196      4.31196      4.31196    598.41508     322.8448    2994.4356   -1522.0352    702.94586    819.81334   -877.85691    80.172265 
   32700    85.290782   -108.94803  0.077172892   -108.87086     1013.254     4.311303     4.311303     4.311303     1013.254   -177.95889    756.37476    2461.3461    916.61319    356.53828   -136.42933     80.13563 
   32800    118.70379   -108.97824   0.10740568   -108.87083    -2201.746    4.3135087    4.3135087    4.3135087    -2201.746    506.26593   -4665.0357   -2446.4682   -216.04322    1655.2056    725.85238    80.258685 
   32900    129.81752     -108.988   0.11746162   -108.87054    924.57893      4.31093      4.31093      4.31093    924.57893   -821.61274    625.10546    2970.2441   -387.10837   -1466.9046    402.85334    80.114828 
   33000    67.498573   -108.93211  0.061074127   -108.87104    2536.4059    4.3121787    4.3121787    4.3121787    2536.4059    269.16305    5488.8127     1851.242    303.95949    1565.6411   -1191.1852    80.184465 
   33100    87.516522   -108.95021  0.079186789   -108.87102    70.372004    4.3123686    4.3123686    4.3123686    70.372004   -416.77057   -194.79324    822.67983     732.2061    282.24321    1009.3513    80.195062 
   33200    112.64715   -108.97244   0.10192551   -108.87051    765.12508    4.3109621    4.3109621    4.3109621    765.12508    2467.4378   -1873.1939    1701.1314    48.395499    982.46036    -108.0448    80.116621 
   33300    108.99753   -108.96956  0.098623259   -108.87094   -1625.6908    4.3134362    4.3134362    4.3134362   -1625.6908   -2805.0967    -2290.119    218.14321   -702.89614    383.59052    310.96925    80.254635 
   33400    95.884613   -108.95795  0.086758413   -108.87119     603.8877    4.3112331    4.3112331    4.3112331     603.8877   -2205.0527    4444.5389   -427.82308    183.71174    2131.1103    91.260735    80.131729 
   33500    98.102691   -108.95965  0.088765376   -108.87088    1856.2319    4.3121115    4.3121115    4.3121115    1856.2319    272.25176    2540.0222    2756.4218    1579.6954   -460.12432   -185.96957    80.180717 
   33600    109.73319   -108.97016  0.099288893   -108.87088   -3236.1674    4.3130892    4.3130892    4.3130892   -3236.1674   -2064.0913    -3776.273    -3868.138     561.1392    1990.4566   -215.00819    80.235268 
   33700    88.194916   -108.95068  0.079800614   -108.87088   -1856.8393    4.3116426    4.3116426    4.3116426   -1856.8393   -1100.3445   -3855.6158   -614.55772    -913.2391   -148.58984    1788.2551    80.154565 
   33800    108.81741   -108.96903  0.098460278   -108.87056   -1386.8148    4.3131259    4.3131259    4.3131259   -1386.8148   -2997.9571    1181.4077   -2343.8949   -231.82329    286.42484   -369.48514    80.237318 
   33900    74.007198   -108.93797  0.066963268   -108.87101   0.54056393     4.311645     4.311645     4.311645   0.54056393   -2092.4392    2918.5662   -824.50528    877.87781    1604.3878    78.014926    80.154699 
   34000     103.0702   -108.96407  0.093260083   -108.87081   -455.14205    4.3123927    4.3123927    4.3123927   -455.14205    1629.2538   -2271.1866   -723.49328    113.64801    455.62077    1747.8422    80.196405 
   34100    144.50986   -109.00108   0.13075555   -108.87033   -1953.1887    4.3126142    4.3126142    4.3126142   -1953.1887   -588.50727   -3980.3698    -1290.689    -173.6198    711.05282   -879.04534    80.208765 
   34200    78.440881   -108.94191  0.070974958   -108.87093    251.78075    4.3116911    4.3116911    4.3116911    251.78075   -891.56486    1542.4053    104.50184    342.93222     904.2998    173.94849    80.157273 
   34300    86.505214   -108.94911  0.078271736   -108.87084    1114.6506    4.3123394    4.3123394    4.3123394    1114.6506    1510.1631    2628.9496   -795.16079    844.70063    713.83913    251.12432    80.193432 
   34400    99.564818   -108.96062   0.09008834   -108.87054    1801.9203      4.31144      4.31144      4.31144    1801.9203    917.28007    785.94678    3702.5342    943.30421   -343.94107    -210.2813    80.143265 
   34500    92.861245   -108.95492  0.084022806    -108.8709   -35.872761    4.3123596    4.3123596    4.3123596   -35.872761    4287.6796   -4040.3349   -354.96293   -306.39909    1190.2119    176.10754     80.19456 
   34600    126.13504    -108.9849   0.11412964   -108.87077    -586.1493    4.3120454    4.3120454    4.3120454    -586.1493   -2868.5293   -658.92535    1769.0068   -1477.0832   -610.37474    1346.4727    80.177031 
   34700    92.208912   -108.95429  0.083432561   -108.87086    2852.9328    4.3117222    4.3117222    4.3117222    2852.9328    2774.5556    4682.6245    1101.6182    595.67563    1135.8061   -1104.0192    80.159007 
   34800    93.872824   -108.95601  0.084938104   -108.87107   -92.950341    4.3121457    4.3121457    4.3121457   -92.950341   -941.89236    446.35513     216.6862    1435.1352    1142.1798    550.03712    80.182628 
   34900    103.16783   -108.96407  0.093348419   -108.87072   -358.97649    4.3119755    4.3119755    4.3119755   -358.97649    1350.4809   -2819.2337    391.82336   -86.449077    725.96851    923.83433    80.173134 
   35000    109.55277   -108.96973  0.099125649    -108.8706    -1385.475    4.3126969    4.3126969    4.3126969    -1385.475   -1477.4835   -2989.9624     311.0211   -608.98225    223.68247   -329.24309    80.213381 
   35100    81.222645   -108.94464  0.073491956   -108.87115   -1757.8974    4.3117921    4.3117921    4.3117921   -1757.8974   -2251.5793     1583.302   -4605.4149     927.8048    2262.4739   -104.64127    80.162904 
   35200    84.465099   -108.94746  0.076425797   -108.87104    511.09528    4.3126621    4.3126621    4.3126621    511.09528   -113.05396    700.77309    945.56671    797.80899   -780.62118    1924.6852    80.211439 
   35300    134.99917   -108.99272   0.12215009   -108.87057   -1768.7826    4.3120969    4.3120969    4.3120969   -1768.7826    1193.4534   -2678.9197   -3820.8815   -165.44324    1024.1099   -538.34233    80.179904 
   35400    93.822875   -108.95581  0.084892909   -108.87092   -1618.1257    4.3121363    4.3121363    4.3121363   -1618.1257   -3019.9659   -2735.4357    901.02459   -218.51882     712.8668    1063.4424    80.182103 
   35500    108.24941   -108.96868  0.097946342   -108.87074   -1079.3577    4.3129855    4.3129855    4.3129855   -1079.3577    1179.0054   -470.22781   -3946.8506    -153.8736    170.95496    459.38089    80.229481 
   35600    81.236837   -108.94432  0.073504797   -108.87082    1201.0119    4.3107701    4.3107701    4.3107701    1201.0119    882.76164    2417.6271    302.64706    1142.7444    798.97364   -53.325479    80.105917 
   35700    74.766812   -108.93864  0.067650583   -108.87099   -48.912022    4.3130444    4.3130444    4.3130444   -48.912022    3209.7663   -1864.7111   -1491.7913    677.56963    1155.2335     787.6593    80.232768 
   35800    136.77508   -108.99422   0.12375696   -108.87046    -259.0351    4.3117466    4.3117466    4.3117466    -259.0351    444.33788   -3486.9441     2265.501   -781.24226   -246.37537    342.38046    80.160367 
   35900    107.35767   -108.96788  0.097139473   -108.87074    1599.8444     4.311374     4.311374     4.311374    1599.8444    1551.3672    2069.9571    1178.2089   -394.59625    1117.9968   -507.34323    80.139584 
   36000    80.371663   -108.94374   0.07272197   -108.87102    1182.6511     4.312911     4.312911     4.312911    1182.6511    2173.8639    1239.9689    134.12035    1786.3404    696.29868    539.13906    80.225327 
   36100    108.35026   -108.96857  0.098037592   -108.87053    1723.5333    4.3105706    4.3105706    4.3105706    1723.5333    3487.6705    401.66223    1281.2671    687.66302    -583.9303    345.23622    80.094796 
   36200    99.487495   -108.96064  0.090018376   -108.87063   -47.368603    4.3128648    4.3128648    4.3128648   -47.368603    1010.6047   -2697.5307    1544.8201   -723.10932    475.12334     -67.4918    80.222748 
   36300    103.37489   -108.96444  0.093535772   -108.87091   -1717.6411    4.3122619    4.3122619    4.3122619   -1717.6411   -2929.3328    -2112.916   -110.67453   -623.22846     1240.043    747.08176    80.189109 
   36400    84.180511   -108.94711  0.076168295   -108.87094    2178.1172    4.3112222    4.3112222    4.3112222    2178.1172    3678.8735    1937.4344    918.04371    868.39791   -91.093198    482.67309    80.131121 
   36500    101.59126    -108.9628  0.091921909   -108.87088   -951.83086     4.313104     4.313104     4.313104   -951.83086   -615.88921   -494.95611   -1744.6473    474.75835    1536.4472    305.99189    80.236096 
   36600     104.9717   -108.96587  0.094980602   -108.87089   -1741.8505    4.3115586    4.3115586    4.3115586   -1741.8505   -369.97952   -2990.4231   -1865.1489    312.16561    1376.9099    1163.1667     80.14988 
   36700    126.92031   -108.98538   0.11484016   -108.87054    -1581.693      4.31281      4.31281      4.31281    -1581.693   -1890.6938   -2652.7375   -201.64774   -199.23984     44.31849   -183.99213    80.219692 
   36800    86.793956   -108.94944  0.078532995   -108.87091   -915.74109    4.3122016    4.3122016    4.3122016   -915.74109   -178.52457    805.92978   -3374.6285    948.55945    1420.8509   -50.861626    80.185745 
   36900    54.345453   -108.92034  0.049172908   -108.87117    773.49016    4.3116811    4.3116811    4.3116811    773.49016    3421.8862   -494.36437   -607.05129    1149.3686   -215.16922    2068.1096    80.156714 
   37000    128.33671   -108.98658   0.11612175   -108.87045   -1890.3305    4.3127596    4.3127596    4.3127596   -1890.3305    1270.3356   -3507.7927   -3433.5345   -252.24959   -288.05643    -183.2528     80.21688 
   37100    112.35114   -108.97237   0.10165768   -108.87071   -1053.1946    4.3119649    4.3119649    4.3119649   -1053.1946   -2199.1293   -2201.9889    1241.5345   -1265.8102    1067.9265    476.26582     80.17254 
   37200    99.756677   -108.96128  0.090261937   -108.87102    651.94005    4.3122955    4.3122955    4.3122955    651.94005    4627.9273   -511.83359   -2160.2736    300.14118    933.12634     1149.129    80.190982 
   37300    101.21581    -108.9623  0.091582195   -108.87072    2308.0501    4.3115165    4.3115165    4.3115165    2308.0501     1481.385    2556.7112    2886.0543    1685.9475   -207.06732   -176.87084     80.14753 
   37400    80.714835   -108.94402  0.073032479   -108.87099    831.07928    4.3120566    4.3120566    4.3120566    831.07928     5471.419   -1053.9752    -1924.206    481.07576    1438.3024   -17.759211    80.177658 
   37500    115.78048   -108.97555   0.10476061   -108.87079   -1817.6616    4.3121606    4.3121606    4.3121606   -1817.6616   -2815.8892   -4535.2605    1898.1649   -695.36187    87.728511    818.41628    80.183456 
   37600    103.96366    -108.9648  0.094068501   -108.87074    1339.1408    4.3120394    4.3120394    4.3120394    1339.1408    2606.8748    486.74806     923.7995    262.06378    167.94733   -632.38378    80.176696 
   37700    78.265275   -108.94183  0.070816065   -108.87102    1929.2293    4.3119328    4.3119328    4.3119328    1929.2293    2098.7829    1485.1464    2203.7586    981.94042    74.962813    843.76853    80.170751 
   37800    101.10685   -108.96232  0.091483604   -108.87084    276.39107    4.3117055    4.3117055    4.3117055    276.39107     1189.532    77.188994   -437.54782    62.110757     989.2449    1201.6802    80.158072 
   37900    132.18029      -108.99    0.1195995    -108.8704   -1554.7752    4.3129298    4.3129298    4.3129298   -1554.7752   -1664.7358   -3633.8894     634.2996   -468.03876   -217.28129   -155.64085    80.226377 
   38000    100.96316   -108.96215  0.091353591    -108.8708   -1822.0618    4.3118098    4.3118098    4.3118098   -1822.0618   -334.33558   -2367.9377   -2763.9121   -114.19836     2419.341    26.496323     80.16389 
   38100    69.185668   -108.93365  0.062600646   -108.87104    637.09814    4.3124042    4.3124042    4.3124042    637.09814    953.32169    699.15564    258.81711    991.58474   -281.69695     1807.906    80.197047 
   38200    93.945597   -108.95569   0.08500395   -108.87069    399.56718    4.3122098    4.3122098    4.3122098    399.56718    2964.8158   -18.362701   -1747.7516    924.64703    1208.1172   -495.55773    80.186203 
   38300    109.41015   -108.96975  0.098996605   -108.87075   -2746.6045    4.3118434    4.3118434    4.3118434   -2746.6045   -3098.2013   -3140.7859   -2000.8264    -305.4406    788.75802    914.40863    80.165763 
   38400    111.72542    -108.9719   0.10109151   -108.87081    -1682.531    4.3133371    4.3133371    4.3133371    -1682.531    2021.2282   -4724.5614   -2344.2597   -662.10024    544.60898    1133.3109    80.249105 
   38500    118.89017   -108.97819   0.10757433   -108.87062    333.44295    4.3111837    4.3111837    4.3111837    333.44295    1264.1556    1070.8401   -1334.6668    1296.0831    13.740938   -295.50506    80.128973 
   38600    55.081956   -108.92102  0.049839311   -108.87118    1985.8425     4.312188     4.312188     4.312188    1985.8425    3770.2481    2284.2682    -96.98884    1226.3928    586.78874    1210.9314    80.184989 
   38700    122.45327   -108.98142   0.11079829   -108.87063   -2017.5463    4.3128229    4.3128229    4.3128229   -2017.5463   -968.28827    -3286.852   -1797.4987   -899.23735   -278.12674    759.55918    80.220411 
   38800    104.12307   -108.96481  0.094212745    -108.8706    222.39006     4.311202     4.311202     4.311202    222.39006    2048.9149   -3112.9357     1731.191   -990.76528    867.95542   -447.94834    80.129996 
   38900     90.35557   -108.95276  0.081755618     -108.871    -520.5675    4.3130645    4.3130645    4.3130645    -520.5675    2342.8697   -1931.8572    -1972.715    745.66901    613.36797    896.58896     80.23389 
   39000    90.931575   -108.95323    0.0822768   -108.87095    2840.8087    4.3111255    4.3111255    4.3111255    2840.8087    2086.4562     3119.626    3316.3441    731.92996     99.00139    963.86459    80.125729 
   39100    119.68586   -108.97899   0.10829428   -108.87069    885.31727    4.3119727    4.3119727    4.3119727    885.31727     618.5961    1728.5954    308.76029    352.78328    1281.6146   -813.35413    80.172978 
   39200    104.54547   -108.96552  0.094594935   -108.87092   -1550.7502     4.312851     4.312851     4.312851   -1550.7502   -1627.7197   -4157.3447    1132.8139   -260.98992    440.61457    516.45403    80.221975 
   39300     102.8158   -108.96382  0.093029893   -108.87079   -30.900045    4.3114193    4.3114193    4.3114193   -30.900045    2868.7744    -2003.896   -957.57847    241.74285   -168.42718    353.19096    80.142111 
   39400    76.103325    -108.9397  0.068859887   -108.87084    1270.5822    4.3123874    4.3123874    4.3123874    1270.5822    653.91699    1704.9187     1452.911     908.6672    95.796972    322.89934    80.196113 
   39500    91.532049   -108.95376  0.082820122   -108.87094   -1028.2618    4.3121449    4.3121449    4.3121449   -1028.2618   -2138.7026    1120.8864   -2066.9693      56.8635    1619.1795    663.60147     80.18258 
   39600    116.87657   -108.97634   0.10575237   -108.87059   -431.08042    4.3120529    4.3120529    4.3120529   -431.08042    793.89666   -3596.0579      1508.92   -1549.2726   -771.80332    1462.6898    80.177447 
   39700    125.06547   -108.98368   0.11316187   -108.87052   -2013.0905    4.3126549    4.3126549    4.3126549   -2013.0905    562.57735    -3242.995    -3358.854    260.06877    2875.8971    -441.7965    80.211037 
   39800    70.472762   -108.93482  0.063765236   -108.87105    206.63814    4.3119376    4.3119376    4.3119376    206.63814    2139.5496    244.30602   -1763.9412    1694.3833    102.66417    1670.2173    80.171017 
   39900    103.25804   -108.96405  0.093430041   -108.87062   -207.41276     4.312177     4.312177     4.312177   -207.41276    681.93245    1053.8947   -2358.0654    437.42393     810.6715   -278.14782    80.184374 
   40000    105.38698   -108.96595  0.095356357   -108.87059   -1409.1065    4.3123948    4.3123948    4.3123948   -1409.1065   -2597.4127   -1273.4714   -356.43532   -828.31606     187.7271    350.76962    80.196521 
   40100    85.148868   -108.94799  0.077044485   -108.87095   -647.53777    4.3122462    4.3122462    4.3122462   -647.53777    5670.1892   -5466.9618   -2145.8407    150.91364    678.99384    850.58481    80.188234 
   40200      116.122   -108.97579   0.10506963   -108.87072   -140.84796    4.3119701    4.3119701    4.3119701   -140.84796   -28.088968    -713.3986    318.94369    304.73143   -1483.1227    609.67847     80.17283 
   40300    84.456527   -108.94737   0.07641804   -108.87095    1570.3062    4.3121638    4.3121638    4.3121638    1570.3062    1984.3958    3444.8803   -718.35752     402.1435    1643.5684    584.28505    80.183638 
   40400    117.60161    -108.9773    0.1064084    -108.8709   -978.40607    4.3120075    4.3120075    4.3120075   -978.40607   -2014.1983   -923.81526    2.7953163    -703.6822    179.23889    841.21281    80.174915 
   40500    107.09784   -108.96758  0.096904376   -108.87068     991.1647    4.3121084    4.3121084    4.3121084     991.1647    2341.7773   -2262.1037    2893.8205   -619.81448    419.04784   -498.01177    80.180545 
   40600     94.04676   -108.95596  0.085095485   -108.87087   -19.790681    4.3122607    4.3122607    4.3122607   -19.790681    2360.6558   -1559.3543   -860.67347    919.47907    798.68477    356.43434    80.189044 
   40700    70.595219   -108.93499  0.063876037   -108.87112    986.96127    4.3115517    4.3115517    4.3115517    986.96127    -141.1443    1472.0051     1630.023    1182.8059    845.79031    613.42242    80.149497 
   40800    118.84735    -108.9781   0.10753558   -108.87056   -148.50446    4.3125654    4.3125654    4.3125654   -148.50446   -2152.8355    1492.9876    214.33448   -870.04756   -384.20197   -584.42043     80.20604 
   40900    107.38134   -108.96793  0.097160896   -108.87076    153.17085    4.3117103    4.3117103    4.3117103    153.17085    1810.8886   -2775.9026    1424.5266   -538.32309    999.47297    1002.5662    80.158344 
   41000    107.04588   -108.96774   0.09685736   -108.87088   -757.48032    4.3122172    4.3122172    4.3122172   -757.48032    442.62517   -1660.9477   -1054.1185    986.66454    583.68781    906.53453    80.186614 
   41100    91.673831   -108.95371  0.082948409   -108.87076    907.47218    4.3123735    4.3123735    4.3123735    907.47218    1582.0016    1052.9006    87.514331    750.18998    -174.1548   -100.19111    80.195337 
   41200    100.45876   -108.96165  0.090897196   -108.87076   -1822.3538    4.3116363    4.3116363    4.3116363   -1822.3538    -3029.475     1084.576   -3522.1625   -904.54076    1897.5813    203.38428    80.154213 
   41300     79.59929   -108.94288  0.072023111   -108.87086   -676.40467    4.3128746    4.3128746    4.3128746   -676.40467    2263.7832   -4186.3861   -106.61119   -697.79221   -264.30501    2060.6108    80.223296 
   41400    128.68399   -108.98682   0.11643597   -108.87039   -1353.8181    4.3121545    4.3121545    4.3121545   -1353.8181    1011.4262   -3066.3435   -2006.5369    123.15866    1368.7118   -1087.6123     80.18312 
   41500     76.29813   -108.93996  0.069036151   -108.87092    885.95846    4.3117038    4.3117038    4.3117038    885.95846    2032.0487    887.08564   -261.25893     1010.313    430.46538    1740.6924    80.157978 
   41600    109.47149   -108.96981  0.099052103   -108.87076   -1419.0441    4.3130113    4.3130113    4.3130113   -1419.0441   -1517.5089    259.93134   -2999.5547    79.633386    916.81304    356.68779    80.230923 
   41700    117.15268   -108.97652    0.1060022   -108.87052   -26.928661    4.3113961    4.3113961    4.3113961   -26.928661    374.59432   -1186.1156    730.73525   -664.28671   -847.62578   -254.11481     80.14082 
   41800    87.602262   -108.95019  0.079264368   -108.87092   -207.22101    4.3125199    4.3125199    4.3125199   -207.22101    3377.5067   -2801.5384   -1197.6313    141.31441    1189.4645    477.08678    80.203502 
   41900    94.292068   -108.95622  0.085317444    -108.8709     248.9789    4.3122173    4.3122173    4.3122173     248.9789   -586.14738   -648.05803    1981.1421    722.38658   -1031.3747    1107.2965    80.186624 
   42000    92.361479   -108.95426  0.083570607   -108.87069    1975.7202     4.311157     4.311157     4.311157    1975.7202    1306.4305    3104.8847    1515.8453   -339.76846    1008.9572   -963.85342    80.127487 
   42100    104.12817   -108.96512  0.094217355   -108.87091   -936.86944    4.3127655    4.3127655    4.3127655   -936.86944   -1352.8945   -1810.0073    352.29348   -1316.8538     300.0455    1498.4883    80.217204 
   42200    110.72338   -108.97103   0.10018484   -108.87085    501.31173    4.3117358    4.3117358    4.3117358    501.31173    2319.0303    -2696.306    1881.2108    128.57645    1177.4639    574.17241    80.159764 
   42300    113.28017    -108.9732   0.10249828    -108.8707    1168.7663    4.3117596    4.3117596    4.3117596    1168.7663    992.77846    893.56609    1619.9542    1439.4376    369.52754   -636.83156    80.161092 
   42400     80.60154   -108.94394  0.072929967   -108.87101     161.0755    4.3124485    4.3124485    4.3124485     161.0755   -2136.8289    2007.4557    612.59967    527.72864    1259.4756     164.9319    80.199519 
   42500    95.542179   -108.95716  0.086448572   -108.87071   -367.13852     4.311714     4.311714     4.311714   -367.13852    679.24237   -1216.6815   -563.97643   -986.66363   -895.77921    724.66318     80.15855 
   42600    105.15106   -108.96568   0.09514289   -108.87054   -835.68842    4.3123309    4.3123309    4.3123309   -835.68842    1703.4262   -4370.5339    160.04244   -230.47245     690.9162   -82.556966    80.192956 
   42700    99.619609   -108.96099  0.090137915   -108.87085   -1521.7757    4.3124955    4.3124955    4.3124955   -1521.7757   -969.63959   -1554.2765   -2041.4111    396.66821    711.54715    1250.7543    80.202144 
   42800    93.315708   -108.95528  0.084434014   -108.87085    1188.6496     4.311732     4.311732     4.311732    1188.6496     1635.773    1167.6295     762.5463    106.40817    162.01064    1146.5591     80.15955 
   42900    126.69652   -108.98519   0.11463767   -108.87056   -1658.5394    4.3125352    4.3125352    4.3125352   -1658.5394   -3649.1319    1128.3013   -2454.7875    -914.4197     1387.477   -546.63399    80.204358 
   43000     72.47142   -108.93663  0.065573664   -108.87105   -270.49415    4.3122717    4.3122717    4.3122717   -270.49415    5273.2836   -4634.7363   -1450.0297   -202.16226    691.72383    1829.7835    80.189658 
   43100     122.0694   -108.98102   0.11045095   -108.87057   -2033.8411     4.312212     4.312212     4.312212   -2033.8411   -859.14367   -3803.1021   -1439.2775    299.62048    684.41004   -489.03904    80.186325 
   43200    78.590054   -108.94189  0.071109932   -108.87078    1314.4038    4.3121855    4.3121855    4.3121855    1314.4038    270.94306    2191.3114     1480.957    1088.1998    64.497769   -57.142476    80.184846 
   43300    94.898038   -108.95677  0.085865739   -108.87091    -279.7236    4.3120783    4.3120783    4.3120783    -279.7236   -315.64919    502.72462   -1026.2462   -743.42036    89.831541    708.81887    80.178869 
   43400    113.34093   -108.97326   0.10255326   -108.87071    333.43105    4.3119106    4.3119106    4.3119106    333.43105    998.04241    -2963.802    2966.0527   -921.49146    -748.7115    1205.5119    80.169515 
   43500    111.78013   -108.97185   0.10114101   -108.87071    92.623051    4.3123786    4.3123786    4.3123786    92.623051    2241.8477   -1979.8795    15.900947    537.99031    1492.7341    -412.0315    80.195617 
   43600     95.53919   -108.95743  0.086445867   -108.87098     232.7949    4.3117364    4.3117364    4.3117364     232.7949   -1372.7752   -305.38366    2376.5436    1044.8024   -74.230365    797.56028    80.159795 
   43700    95.304512   -108.95694  0.086233525    -108.8707    1317.5993    4.3120927    4.3120927    4.3120927    1317.5993   -1548.5212     3379.857     2121.462   -1001.4735    534.25105   -485.51967    80.179673 
   43800    90.768193   -108.95288  0.082128969   -108.87075    681.07089    4.3120699    4.3120699    4.3120699    681.07089    2377.1394    -2382.415    2048.4883   -901.30207    801.96465    707.93218    80.178399 
   43900    98.723064   -108.96021  0.089326703   -108.87088   -1161.6448    4.3119823    4.3119823    4.3119823   -1161.6448     871.5345   -5023.6273    667.15844    426.54567    1182.8188    479.20263    80.173515 
   44000    107.39125   -108.96791  0.097169856   -108.87074    84.130944    4.3125506    4.3125506    4.3125506    84.130944    71.641489   -1346.7741    1527.5254    740.10693   -481.70077    437.58132    80.205214 
   44100    113.09702   -108.97303   0.10233256    -108.8707   -346.82944     4.311892     4.311892     4.311892   -346.82944   -2805.0622    2470.4613   -705.88739     51.18623    1307.3467    71.864373    80.168476 
   44200    84.183336   -108.94705  0.076170851   -108.87088   -39.723139    4.3122843    4.3122843    4.3122843   -39.723139    1382.0635   -1010.6108   -490.62219   -467.72147   -478.92176    1515.5073    80.190356 
   44300    110.51209   -108.97048  0.099993665   -108.87048   -1211.1041     4.312625     4.312625     4.312625   -1211.1041    1723.1467   -4926.7858   -429.67312   -506.46096    620.58676   -64.228474    80.209368 
   44400    99.504939   -108.96069   0.09003416   -108.87066   -1738.8726    4.3118565    4.3118565    4.3118565   -1738.8726   -369.63657   -3221.1506   -1625.8308    474.57573    910.19593     490.3494    80.166497 
   44500    75.762662   -108.93951  0.068551649   -108.87095   -598.26519    4.3127951    4.3127951    4.3127951   -598.26519   -482.23041   -665.88611   -646.67905    36.503971    103.05696    942.44063    80.218858 
   44600    123.06275   -108.98194   0.11134976   -108.87059   -456.89668    4.3119519    4.3119519    4.3119519   -456.89668   -2059.3193    701.62967   -13.000382   -1636.3956    293.42623    297.47568    80.171815 
   44700    82.954978    -108.9461  0.075059407   -108.87104    1505.0854    4.3118168    4.3118168    4.3118168    1505.0854    5179.1557   -2661.8625    1997.9631   -178.98819    1816.9236    1530.7319    80.164282 
   44800    124.02698   -108.98301   0.11222222   -108.87079   -2395.3335    4.3130295    4.3130295    4.3130295   -2395.3335    -2131.727    -4603.059   -451.21441     1250.583    114.68936   -193.61145    80.231937 
   44900    99.190343   -108.96042  0.089749507   -108.87067    1093.8656    4.3114422    4.3114422    4.3114422    1093.8656    242.45842    780.95733    2258.1812    644.65928    -510.9363   -738.98316     80.14339 
   45000    85.322578   -108.94811  0.077201661   -108.87091    553.46551    4.3123092    4.3123092    4.3123092    553.46551   -455.62295     686.2454    1429.7741    -1020.204    255.76165    1043.6692    80.191747 
   45100     87.60342   -108.95025  0.079265416   -108.87099    713.84171    4.3120898    4.3120898    4.3120898    713.84171    1218.4899   -2797.6364    3720.6716   -389.79275    332.15571    1034.3756     80.17951 
   45200      111.993   -108.97194   0.10133362   -108.87061    922.13131    4.3116214    4.3116214    4.3116214    922.13131    2420.7827   -3154.1268     3499.738   -37.569189     214.9888   -573.62441    80.153384 
   45300    111.38592   -108.97161   0.10078432   -108.87082   -974.29016    4.3126291    4.3126291    4.3126291   -974.29016   -2693.0151   -1998.1707    1768.3153    440.52223    1189.4701    1387.3324    80.209594 
   45400    100.28757   -108.96163  0.090742303   -108.87089    108.70752    4.3118988    4.3118988    4.3118988    108.70752   -1115.8958    1043.8437    398.17464   -405.78367    420.36231    698.76883    80.168852 
   45500    90.537953   -108.95265  0.081920643   -108.87073    1853.0395    4.3117214    4.3117214    4.3117214    1853.0395    3026.8299    -1605.887    4138.1756   -913.93227    1120.9331   -83.336274    80.158963 
   45600    105.09091   -108.96587  0.095088462   -108.87078   -1997.2766    4.3126414    4.3126414    4.3126414   -1997.2766   -1021.0318   -3631.3592   -1339.4389     240.7939    1001.6596    610.60735     80.21028 
   45700     85.55043   -108.94822  0.077407827   -108.87081    -721.8825    4.3120916    4.3120916    4.3120916    -721.8825    1640.6125   -5250.7578    1444.4978    1108.5492   -635.33165    739.94364    80.179606 
   45800    122.01968   -108.98086   0.11040597   -108.87045   -1775.1716     4.312315     4.312315     4.312315   -1775.1716   -3879.9299    -551.1847   -894.40005   -619.25395    57.585274   -322.53652    80.192072 
   45900    73.441413    -108.9374  0.066451334   -108.87095    587.57837      4.31223      4.31223      4.31223    587.57837    3195.2265    -1354.329   -78.162447   -1150.0305    767.05269    2696.4821    80.187327 
   46000     111.9033   -108.97193   0.10125246   -108.87067   -676.23888    4.3120661    4.3120661    4.3120661   -676.23888    913.01537   -4051.1121    1109.3801   -162.82002    713.28661    818.94351    80.178186 
   46100    125.89545   -108.98434   0.11391285   -108.87042    -1189.117    4.3123405    4.3123405    4.3123405    -1189.117   -1588.3575   -2750.0277    771.03418    522.55189    467.30583   -802.24248    80.193495 
   46200     81.61539   -108.94474   0.07384732    -108.8709   -561.85085    4.3123339    4.3123339    4.3123339   -561.85085    465.43657   -2074.9905   -75.998587   -140.22525    587.88414     1288.606    80.193128 
   46300      91.5037   -108.95368   0.08279447   -108.87088    20.974622     4.311784     4.311784     4.311784    20.974622   -679.64271   -2427.4707    3170.0373   -1053.0231    327.71147    782.68728    80.162454 
   46400    86.033132   -108.94872  0.077844586   -108.87087     1908.601    4.3120415    4.3120415    4.3120415     1908.601    3431.2411   -1371.7207    3666.2824   -459.96414    1054.5361   -54.046884    80.176815 
   46500    115.67673   -108.97556   0.10466674   -108.87089   -916.91288    4.3122952    4.3122952    4.3122952   -916.91288   -893.08726    -4725.001    2867.3497     633.6348   -544.64544    853.30287    80.190969 
   46600    122.75018   -108.98179   0.11106694   -108.87072   -179.48219     4.311995     4.311995     4.311995   -179.48219    -2230.351   -1202.2677    2894.1722    869.47876   -154.18999    582.55635    80.174219 
   46700    89.838268    -108.9522  0.081287553   -108.87091    2078.0263    4.3119394    4.3119394    4.3119394    2078.0263    2246.2145   -10.716204    3998.5805   -859.18499     583.9107     149.6967     80.17112 
   46800    83.472869   -108.94668  0.075528006   -108.87115    396.39275    4.3117214    4.3117214    4.3117214    396.39275    1404.7985   -1771.8405    1556.2203    -821.3283    1660.3946    1202.2853    80.158963 
   46900    97.395787    -108.9589  0.088125755   -108.87077   -10.134786    4.3122177    4.3122177    4.3122177   -10.134786    1221.4875     -4466.34    3214.4481   -10.527481   -679.50526   -108.07357    80.186644 
   47000    116.49515   -108.97604   0.10540726   -108.87063   -1079.5485    4.3122954    4.3122954    4.3122954   -1079.5485   -2533.8003   -2201.2095    1496.3644    344.83012    1551.6145    11.431416    80.190977 
   47100    92.854363   -108.95497  0.084016579   -108.87096   -843.71233    4.3119778    4.3119778    4.3119778   -843.71233    100.51227   -2465.0306   -166.61871   -534.37029    112.72148    1755.1706    80.173258 
   47200     85.38553   -108.94817  0.077258622   -108.87092    1103.8105    4.3121635    4.3121635    4.3121635    1103.8105    3030.0231   -1808.9107    2090.3191   -1041.4835    1212.8518    1268.7654    80.183617 
   47300    122.92202   -108.98188   0.11122242   -108.87066   -1447.6416    4.3121471    4.3121471    4.3121471   -1447.6416   -687.02582   -2402.8009   -1253.0981    89.467801   -147.46328     -603.994    80.182704 
   47400    97.078131   -108.95862  0.087838333   -108.87078   -1888.8259    4.3125303    4.3125303    4.3125303   -1888.8259   -441.78543   -6178.0768    953.38459    978.90547    217.53135    1195.9317    80.204082 
   47500    105.23969   -108.96585  0.095223085   -108.87062   -1125.6932    4.3124172    4.3124172    4.3124172   -1125.6932   -3098.3014   -1741.6903     1462.912    -195.4049   -437.12351    -34.19192    80.197771 
   47600    79.153493   -108.94236  0.071619744   -108.87074    922.16995    4.3117724    4.3117724    4.3117724    922.16995     4624.116   -2228.2885    370.68237   -1321.3228    1541.9816    1161.5098    80.161807 
   47700    79.561915   -108.94287  0.071989293   -108.87088    9.3149534    4.3123511    4.3123511    4.3123511    9.3149534    609.94183   -3627.5437    3045.5467   -758.32288   -207.00378    803.83556    80.194086 
   47800    140.27292   -108.99731   0.12692189   -108.87039   -1335.8142    4.3122335    4.3122335    4.3122335   -1335.8142   -2380.3862    -3865.066    2238.0095     148.2356    324.47325    581.00463    80.187524 
   47900    107.52973   -108.96803  0.097295163   -108.87073    901.53495     4.311939     4.311939     4.311939    901.53495    41.725104   -1996.8256    4659.7053    379.59705    757.37346    441.44909    80.171097 
   48000    86.147089   -108.94898  0.077947697   -108.87103    519.42052    4.3121508    4.3121508    4.3121508    519.42052    487.30519    -1116.243    2187.1993    -785.3455    465.26981    784.38936    80.182913 
   48100    86.308969   -108.94895  0.078094169   -108.87085    1649.4978    4.3117905    4.3117905    4.3117905    1649.4978    3578.4944   -832.96007    2202.9592   -705.56161   -223.93264   -434.44585    80.162812 
   48200    101.83214   -108.96288  0.092139857   -108.87074   -427.86112    4.3121887    4.3121887    4.3121887   -427.86112   -741.15749   -4808.1066    4265.6808     425.8826   -267.77166    144.60534    80.185027 
   48300    112.43441   -108.97255   0.10173302   -108.87082   -1697.3228    4.3124639    4.3124639    4.3124639   -1697.3228   -3399.6314   -2809.4422    1117.1052      945.484    457.60062    531.65162    80.200376 
   48400     101.3418   -108.96255  0.091696194   -108.87085    1600.7141    4.3118518    4.3118518    4.3118518    1600.7141    3466.5644   -1839.2684    3174.8464   -786.69258    437.40631    970.18453    80.166232 
   48500    91.899538   -108.95419  0.083152633   -108.87104    1047.8251    4.3118293    4.3118293    4.3118293    1047.8251     1087.475    2228.6902   -172.68985   -1229.1666    1781.6251    766.62302    80.164978 
   48600    100.96836   -108.96237  0.091358291   -108.87101   -1625.0883    4.3126166    4.3126166    4.3126166   -1625.0883    890.34576   -4770.1687   -995.44193   -63.877219   -962.37344   -130.12297      80.2089 
   48700    112.14127    -108.9721   0.10146778   -108.87063     -1125.35    4.3121285    4.3121285    4.3121285     -1125.35   -3556.9339   -3483.6421    3664.5259    259.79812    1384.3459   -124.75877     80.18167 
   48800    101.56833   -108.96267  0.091901159   -108.87077   -1713.0735    4.3123498    4.3123498    4.3123498   -1713.0735    673.48104    -3587.963   -2224.7384   -50.906976   -56.555699    1079.5948     80.19401 
   48900    61.263853   -108.92663  0.055432822   -108.87119     988.9246    4.3122431    4.3122431    4.3122431     988.9246    2992.8194   -1206.0916     1180.046   -1117.9638    184.63361    542.66591    80.188058 
   49000    114.96531   -108.97473   0.10402303    -108.8707    21.621321    4.3117405    4.3117405    4.3117405    21.621321   -599.04714    -1462.147    2126.0581   -396.80942    -1246.382   -458.84801    80.160026 
   49100    122.60626   -108.98163   0.11093672   -108.87069   -1981.0793    4.3127297    4.3127297    4.3127297   -1981.0793   -1605.6936   -4579.6338     242.0894    752.19318    1662.9201    2013.4931    80.215209 
   49200    100.72088   -108.96197  0.091134367   -108.87083   -625.14774    4.3122516    4.3122516    4.3122516   -625.14774   -2170.3663    -4346.357      4641.28    547.75182   -642.40564   -491.33541    80.188532 
   49300    100.56269   -108.96161  0.090991234   -108.87062    1338.5464    4.3116829    4.3116829    4.3116829    1338.5464    2991.3676   -488.50354    1512.7751   -1545.8337    1047.5746    20.339683     80.15681 
   49400    62.581878   -108.92762  0.056625398     -108.871    1713.4593    4.3122519    4.3122519    4.3122519    1713.4593    1599.2916   -151.36453    3692.4507   -953.97783   -354.62472    387.05568    80.188552 
   49500    114.27007   -108.97407   0.10339396   -108.87067   -1622.2807    4.3121077    4.3121077    4.3121077   -1622.2807   -3225.8809   -4486.7281    2845.7671    201.91199    462.80802     382.2977    80.180505 
   49600    117.54547   -108.97688   0.10635761   -108.87052    348.58805    4.3120957    4.3120957    4.3120957    348.58805    94.373751   -3638.0156     4589.406    492.03641   -287.73225   -332.89984     80.17984 
   49700    100.03539   -108.96142   0.09051412    -108.8709    187.92516    4.3122415    4.3122415    4.3122415    187.92516    640.23029   -1200.2918     1123.837   -555.33821    837.79039     2080.643    80.187972 
   49800    82.511418   -108.94574  0.074658065   -108.87109    1678.9207    4.3117462    4.3117462    4.3117462    1678.9207    2083.3787    316.32164    2637.0619   -536.32189    -662.8953   -947.63876    80.160346 
   49900    116.80748   -108.97623   0.10568986   -108.87054   -389.99553    4.3122373    4.3122373    4.3122373   -389.99553   -1202.9141   -428.67246    461.59996    170.31293    288.37791   -521.52723    80.187736 
   50000    98.961001    -108.9603  0.089541993   -108.87076   -2060.9441    4.3125262    4.3125262    4.3125262   -2060.9441   -2658.9714   -4510.4922    986.63137    782.95533    1278.3092    864.23452    80.203857 
   50100    95.271472   -108.95704   0.08620363   -108.87083   -1017.1987    4.3121429    4.3121429    4.3121429   -1017.1987    2380.2759   -5510.2339    78.361777   -256.71856   -213.77294    491.08714    80.182472 
   50200    79.943089   -108.94322  0.072334187   -108.87088    2066.1387    4.3118429    4.3118429    4.3118429    2066.1387     363.4622    2532.0066    3302.9473   -1799.4752    375.95151   -743.74869    80.165739 
   50300    113.98671   -108.97409   0.10313757   -108.87095   -1746.7322    4.3125496    4.3125496    4.3125496   -1746.7322    219.96907   -2673.7189   -2786.4467    -234.2542   -192.59162     1951.448    80.205158 
   50400    104.31964   -108.96524  0.094390602   -108.87085   -199.94311    4.3119024    4.3119024    4.3119024   -199.94311   -4089.2005   -1607.5806    5096.9518    660.36977    810.81535    154.54915    80.169056 
   50500     133.2263   -108.99108   0.12054596   -108.87053     -1663.36    4.3125573    4.3125573    4.3125573     -1663.36    786.63618    -4809.304   -967.41218    352.98769    -728.4742   -423.09023    80.205591 
   50600    52.658694   -108.91891  0.047646693   -108.87126    1587.8727    4.3117797    4.3117797    4.3117797    1587.8727    1886.5067   -2116.1999    4993.3112   -1142.2601    296.87397    653.83244     80.16221 
   50700    96.789183   -108.95849  0.087576887   -108.87091    -268.5248    4.3119438    4.3119438    4.3119438    -268.5248   -1504.5024   -379.58734    1078.5154   -268.62551   -823.73692   -537.76663    80.171367 
   50800    112.88386   -108.97278   0.10213969   -108.87064    20.266924    4.3125443    4.3125443    4.3125443    20.266924    -1857.054   -2008.8849    3926.7397    258.53584    1333.3247    337.30516    80.204862 
   50900    114.29102   -108.97426   0.10341292   -108.87085   -1391.7681    4.3118814    4.3118814    4.3118814   -1391.7681   -1586.1696    -4804.964    2215.8293    543.89234   -522.78801    1405.6593    80.167886 
   51000    90.817238   -108.95321  0.082173345   -108.87104    1515.8232    4.3122459    4.3122459    4.3122459    1515.8232    732.96147   -1278.3411     5092.849   -959.82972    683.53852     103.7788    80.188215 
   51100    106.84201   -108.96745  0.096672894   -108.87078     714.4802    4.3120279    4.3120279    4.3120279     714.4802    914.07579    538.66109    690.70371   -1170.8355   -305.01078   -861.62412    80.176058 
   51200    83.103784   -108.94614   0.07519405   -108.87094   -521.44896    4.3119189    4.3119189    4.3119189   -521.44896   -3915.3495   -359.75452    2710.7571    96.644296    1004.0431    1224.4704    80.169975 
   51300     115.5839   -108.97511   0.10458274   -108.87052    -1647.177    4.3129803    4.3129803    4.3129803    -1647.177   -306.35977   -4635.3544   0.18322989    861.11894   -747.17715    -459.5877    80.229193 
   51400    95.701625   -108.95737  0.086592842   -108.87077    811.36373    4.3113688    4.3113688    4.3113688    811.36373    502.97072   -1569.9625     3501.083   -301.16751    644.94959    28.596851    80.139297 
   51500    78.200284   -108.94191   0.07075726   -108.87115    9.8513639    4.3124169    4.3124169    4.3124169    9.8513639    1771.1285   -959.31869   -782.25571   -1051.7416   -283.83226    792.51379    80.197753 
   51600    116.12624   -108.97577   0.10507346    -108.8707   -323.56981    4.3123298    4.3123298    4.3123298   -323.56981   -3303.4599    726.49992    1606.2505    409.65724    892.79872     814.3407    80.192897 
   51700    123.57204   -108.98236   0.11181058   -108.87055   -699.76273    4.3117276    4.3117276    4.3117276   -699.76273    -1614.494   -1416.1498     931.3556    566.46538    609.69954   -329.18793    80.159304 
   51800     91.77087   -108.95398  0.083036212   -108.87094   -1462.7823    4.3129174    4.3129174    4.3129174   -1462.7823     360.0601   -4463.4659   -284.94108    99.700115   -123.55222     725.8065    80.225683 
   51900    77.875437   -108.94126  0.070463332   -108.87079    1733.9581    4.3113999    4.3113999    4.3113999    1733.9581     228.6569   -79.084555     5052.302    -1661.414   -282.21859    -573.5606    80.141032 
   52000    101.42212   -108.96241  0.091768862   -108.87064    -287.1985    4.3121401    4.3121401    4.3121401    -287.1985    198.00967   -715.78498   -343.82018   -506.32434    396.19005      703.165    80.182313 
   52100    92.750498   -108.95487    0.0839226   -108.87095   -1103.0539    4.3125837    4.3125837    4.3125837   -1103.0539   -5427.0407   -2182.2508    4300.1298    276.90216   -276.46048    1040.0237    80.207063 
   52200    137.84035   -108.99542   0.12472084    -108.8707   -557.73149    4.3117878    4.3117878    4.3117878   -557.73149    -134.4342   -3416.1492    1877.3889    756.34965   -188.22112    380.06735    80.162662 
   52300    85.302552   -108.94822  0.077183542   -108.87103    1932.2277    4.3120522    4.3120522    4.3120522    1932.2277    834.83742    517.34183    4444.5038   -829.32339    457.32363   -178.57532    80.177411 
   52400     91.16575   -108.95353  0.082488686   -108.87104   -982.30646     4.312296     4.312296     4.312296   -982.30646   -2283.3287   -1202.9446    539.35389   -595.05224    294.48086    280.98643    80.191012 
   52500    90.640315    -108.9527  0.082013261   -108.87068    1050.9796    4.3118392    4.3118392    4.3118392    1050.9796    -2100.732   -1175.2444    6428.9151    288.12956    398.65938     105.4057    80.165532 
   52600    132.79659   -108.99078   0.12015714   -108.87062   -3238.5548    4.3126209    4.3126209    4.3126209   -3238.5548   -3086.8494   -3433.5745   -3195.2407     435.4293    65.922758    368.10727    80.209141 
   52700    53.694501   -108.91995  0.048583913   -108.87137     1925.796    4.3120265    4.3120265    4.3120265     1925.796    402.35653   -1411.4735     6786.505   -748.05344    93.350283    279.01109    80.175977 
   52800    133.05129   -108.99104   0.12038761   -108.87065    -233.2631    4.3118623    4.3118623    4.3118623    -233.2631    497.49178     1552.075   -2749.3561   -1388.7107    326.49395    965.60394     80.16682 
   52900    78.995383   -108.94255  0.071476682   -108.87107    1176.7058    4.3121749    4.3121749    4.3121749    1176.7058   -3522.2999    1438.4852    5613.9319    251.91836    902.57342    903.29043    80.184254 
   53000    132.50524   -108.99062   0.11989352   -108.87073   -3572.8547     4.312676     4.312676     4.312676   -3572.8547   -1890.5562   -5469.3707   -3358.6371    796.27418   -384.26826   -530.40445    80.212211 
   53100    89.631053    -108.9519   0.08110006    -108.8708    1863.9006    4.3113653    4.3113653    4.3113653    1863.9006   -1289.9431     1261.123    5620.5218     165.2532    408.17728   -523.73379    80.139101 
   53200    87.415406   -108.94998  0.079095296   -108.87089   -208.18615    4.3127425    4.3127425    4.3127425   -208.18615    2417.3255   -681.52662   -2360.3573   -1287.3546    569.85823    1052.9817    80.215922 
   53300    65.936723    -108.9307  0.059660933   -108.87104    1471.7204    4.3113962    4.3113962    4.3113962    1471.7204   -3026.1979    136.84872    7304.5104    107.65473    272.90421    411.52033    80.140824 
   53400    152.86061    -109.0086    0.1383115   -108.87029    -2116.248    4.3124318    4.3124318    4.3124318    -2116.248   -2515.3284   -2562.3056     -1271.11    139.26414   -119.04232    505.80624    80.198588 
   53500    92.651482    -108.9548  0.083833008   -108.87096    172.37934    4.3125759    4.3125759    4.3125759    172.37934   -2242.8211    -2831.484    5591.4432    422.47796    170.41778    1045.5837    80.206628 
   53600    102.63756   -108.96375  0.092868625   -108.87088   -80.925055    4.3113622    4.3113622    4.3113622   -80.925055   -705.72287    968.95311    -506.0054   -1313.8545   0.93652296   -174.90996    80.138925 
   53700    74.286669   -108.93798  0.067216139   -108.87076    2714.0396    4.3126062    4.3126062    4.3126062    2714.0396   -583.63039    1775.6231    6950.1262   -837.77071    541.83409    24.545459    80.208315 
   53800    117.94755   -108.97764   0.10672142   -108.87092   -3285.3886    4.3120611    4.3120611    4.3120611   -3285.3886   -4223.9091    -4536.633   -1095.6236    214.11496   -42.524443    1122.6157    80.177908 
   53900    84.816288   -108.94798   0.07674356   -108.87123   -732.80769    4.3122954    4.3122954    4.3122954   -732.80769   -3272.7436   -4164.6234    5238.9439    802.53186     123.7223   -693.80038     80.19098 
   54000     124.5781   -108.98338   0.11272089   -108.87066   -418.06864    4.3128237    4.3128237    4.3128237   -418.06864   -1275.2626    387.80478   -366.74812    -670.4805    426.78564    829.91028    80.220454 
   54100    70.073983   -108.93458  0.063404412   -108.87117    2017.3954    4.3109495    4.3109495    4.3109495    2017.3954   -344.89475    2821.1665    3575.9144   -1048.6133    708.67727    1727.4106    80.115917 
   54200    110.80499   -108.97108   0.10025869   -108.87082   -1118.4171    4.3132369    4.3132369    4.3132369   -1118.4171   -3189.9505   -1880.1639    1714.8631    405.56276   -124.25007   -517.22574    80.243515 
   54300    135.60533   -108.99312   0.12269855   -108.87042   -1641.7636    4.3119491    4.3119491    4.3119491   -1641.7636   -3269.6256   -2974.8305    1319.1654     285.2683    105.92839    -783.7925    80.171661 
   54400    69.652679   -108.93408  0.063023208   -108.87106    10.956293     4.311982     4.311982     4.311982    10.956293   -846.30807    -1314.613      2193.79   -228.56847    474.29292    1505.5567    80.173494 
   54500    83.158722   -108.94629  0.075243759   -108.87104      748.233    4.3126896    4.3126896    4.3126896      748.233   -911.35056    1802.9298    1353.1197   -1348.1548     200.1576   -172.58714    80.212973 
   54600     100.2217   -108.96147  0.090682698   -108.87079    2079.3942    4.3109573    4.3109573    4.3109573    2079.3942    218.32999    1962.3933    4057.4593    -266.3668    599.16362    339.98158    80.116351 
   54700    122.22417   -108.98147     0.110591   -108.87088   -2626.9469    4.3130965    4.3130965    4.3130965   -2626.9469   -3561.6822   -5479.1487    1159.9901    542.45322   -126.38732    1239.1027    80.235677 
   54800    111.14073   -108.97136   0.10056247    -108.8708   -177.72039     4.312041     4.312041     4.312041   -177.72039   -3259.3862   -781.98956    3508.2146    772.54381    393.75222   -448.16873    80.176785 
   54900    99.020918   -108.96034  0.089596207   -108.87074    1654.0543     4.311537     4.311537     4.311537    1654.0543    1760.1287    1619.6788    1582.3554   -1307.0775    334.06125   -215.89039    80.148678 
   55000    62.613741    -108.9279  0.056654229   -108.87124    372.04661    4.3126432    4.3126432    4.3126432    372.04661   -2668.9203     500.5492     3284.511   -449.61153    296.32592     1358.002    80.210383 
   55100    119.95789   -108.97919   0.10854042   -108.87065    -1722.961    4.3120504    4.3120504    4.3120504    -1722.961   -1458.0086    -4917.108    1206.2336    255.06649   -687.63158    -576.5826     80.17731 
   55200    107.89258   -108.96826  0.097623472   -108.87064   -388.21886    4.3122928    4.3122928    4.3122928   -388.21886    -3612.804   -3210.0038    5658.1513    377.18083    270.23619    258.30131    80.190835 
   55300    97.092256   -108.95887  0.087851114   -108.87101   -1764.4765    4.3125107    4.3125107    4.3125107   -1764.4765   -2078.6293   -881.55057   -2333.2495   -964.74003    289.29685    2311.8102    80.202987 
   55400    77.753315   -108.94142  0.070352833   -108.87107    2866.7636    4.3117477    4.3117477    4.3117477    2866.7636    -611.2591    2539.8503    6671.6995   -1070.2326    450.63064    -578.8591    80.160426 
   55500    139.07078   -108.99646   0.12583416   -108.87063   -1880.3665    4.3123314    4.3123314    4.3123314   -1880.3665   -1940.1239   -1625.3293   -2075.6463   -36.811813    41.913162   -703.55867    80.192984 
   55600     78.25604   -108.94195   0.07080771   -108.87115   -1162.9007     4.312644     4.312644     4.312644   -1162.9007   -4356.3789   -4647.4575    5515.1342    803.57226    252.24637    756.79102    80.210428 
   55700    115.20252   -108.97504   0.10423766    -108.8708   -1022.6145    4.3120473    4.3120473    4.3120473   -1022.6145   -1396.3506   -1829.3645    157.87148    65.879293    248.17001    256.59202    80.177136 
   55800    66.578555   -108.93125  0.060241675   -108.87101    2509.3823    4.3115876    4.3115876    4.3115876    2509.3823    651.05242     3750.002    3127.0924   -1502.2878   -62.591228   -201.80778    80.151501 
   55900      104.239   -108.96534  0.094317639   -108.87102   -1159.4707    4.3128421    4.3128421    4.3128421   -1159.4707   -1568.6107   -3320.8271    1411.0258    72.473732   -230.32299     1324.154    80.221481 
   56000    121.64834   -108.98063   0.11006998   -108.87056    917.99167    4.3112651    4.3112651    4.3112651    917.99167   -1784.9484   -503.94867     5042.872    518.71986   -127.02079   -282.85727    80.133516 
   56100    128.71135   -108.98701   0.11646073   -108.87054   -1540.8562    4.3128575    4.3128575    4.3128575   -1540.8562   -2469.8641    -2041.124   -111.58053    60.436776    918.73395    -47.84125    80.222343 
   56200    51.987465   -108.91823  0.047039351   -108.87119    1812.7531    4.3117506    4.3117506    4.3117506    1812.7531   -269.08792    623.25324    5084.0939   -1075.5913   -204.24752    95.104981    80.160586 
   56300    107.31745   -108.96766  0.097103082   -108.87055    350.83545    4.3114597    4.3114597    4.3114597    350.83545     1810.785   -35.537506    -722.7411   -558.80899    552.13353   -12.272806    80.144367 
   56400    98.183598   -108.95949  0.088838583   -108.87065      -562.66    4.3131481    4.3131481    4.3131481      -562.66   -3013.7736   -4090.7076    5416.5013    279.92029   -315.84941   -361.40895    80.238557 
   56500     109.7067   -108.97008  0.099264924   -108.87082   -1777.7486    4.3114755    4.3114755    4.3114755   -1777.7486   -2154.2589   -3391.3308    212.34399    966.47774    229.91701    1696.8644    80.145248 
   56600    104.32038   -108.96517  0.094391269   -108.87078    803.46273    4.3125705    4.3125705    4.3125705    803.46273   -1793.0655    732.22108    3471.2326   -844.51905   -443.93845   -251.69126    80.206326 
   56700    92.468686    -108.9546   0.08366761   -108.87093    269.04415     4.312206     4.312206     4.312206    269.04415    554.58205   -204.58443    457.13483   -1148.3843      223.677    318.58455    80.185991 
   56800    94.338909   -108.95625  0.085359828   -108.87089   -929.98393    4.3115964    4.3115964    4.3115964   -929.98393   -1109.2036   -3930.9589    2250.2106    394.24014    -602.1851   -309.11801     80.15199 
   56900    122.86272   -108.98153   0.11116877   -108.87036    -1479.576    4.3134151    4.3134151    4.3134151    -1479.576   -4589.9281   -2900.7162    3051.9163    567.81641    556.48943    436.64698    80.253461 
   57000    81.517107   -108.94471  0.073758392   -108.87095    325.04157    4.3111413    4.3111413    4.3111413    325.04157   -68.783917   -650.64559    1694.5542   -665.34744    671.50629    344.57599    80.126608 
   57100    79.135644   -108.94279  0.071603594   -108.87119   -1.2168915    4.3125049    4.3125049    4.3125049   -1.2168915   -1575.6387   -1269.9386    2841.9266   -1030.9035   -196.28382    207.57403    80.202667 
   57200    111.81191   -108.97191   0.10116976   -108.87074    1004.5459    4.3122096    4.3122096    4.3122096    1004.5459     1114.461   -702.92497    2602.1017   -175.86346    -69.79871   -162.38709    80.186192 
   57300    128.74266   -108.98729   0.11648906    -108.8708   -1080.6874    4.3115076    4.3115076    4.3115076   -1080.6874   -2903.2896   -2452.0607     2113.288    552.12116    47.381482    645.48243    80.147038 
   57400    93.376185   -108.95553  0.084488734   -108.87104   -197.23347     4.313068     4.313068     4.313068   -197.23347   -3465.2022   -1114.7419    3988.2437    707.47532    43.331051    -616.8821    80.234088 
   57500    85.538778   -108.94819  0.077397284   -108.87079    2232.0192    4.3109607    4.3109607    4.3109607    2232.0192    2651.0691    2288.3221    1756.6664   -1270.1159   -771.37085    -459.1657     80.11654 
   57600    91.626205   -108.95385  0.082905316   -108.87094   -781.08902    4.3123201    4.3123201    4.3123201   -781.08902    446.75221   -4893.5472    2103.5279   -551.53629    508.32402    324.88158    80.192358 
   57700    88.793617   -108.95127  0.080342331   -108.87093   -325.00511    4.3124873    4.3124873    4.3124873   -325.00511   -1060.6238   -2633.0598    2718.6683    869.76782    58.915163    630.07036    80.201681 
   57800    146.69201   -109.00324   0.13273001   -108.87051    -1131.339    4.3117778    4.3117778    4.3117778    -1131.339   -2178.5824   -1920.6824    705.24797    209.09896     872.2434   -223.04936    80.162107 
   57900    72.828558   -108.93701   0.06589681   -108.87111    1349.1959    4.3124195    4.3124195    4.3124195    1349.1959   -1194.0127    1250.3201    3991.2803   -993.82663   -536.10965    421.16249    80.197902 
   58000    96.147826   -108.95792  0.086996573   -108.87092   -703.14574    4.3120529    4.3120529    4.3120529   -703.14574    1999.4821   -3038.5056   -1070.4137   -613.60492    255.31595   -500.47063    80.177452 
   58100     114.3028   -108.97394   0.10342358   -108.87052    -755.3947    4.3122917    4.3122917    4.3122917    -755.3947   -1332.8523   -4024.6711    3091.3392    261.89667   -456.23981   -350.20108    80.190773 
   58200    93.050263   -108.95501  0.084193834   -108.87082   -1638.3725    4.3124705    4.3124705    4.3124705   -1638.3725   -2074.6478   -3979.9898    1139.5202    702.89477    120.97171    1223.4467    80.200749 
   58300    94.405444   -108.95631   0.08542003   -108.87089   -300.17608    4.3123139    4.3123139    4.3123139   -300.17608   -3508.7821   -283.93132    2892.1852   -48.858979   -431.82785   -678.73874     80.19201 
   58400    93.093787   -108.95494  0.084233214   -108.87071    1823.4707    4.3116861    4.3116861    4.3116861    1823.4707    3024.1221   -452.32114    2898.6112    -1437.727    226.68211    653.06024    80.156993 
   58500    102.78877   -108.96385  0.093005438   -108.87084   -989.01759    4.3124526    4.3124526    4.3124526   -989.01759   -1150.9653   -3510.6441    1694.5566    -12.65861    444.41655    756.45593    80.199746 
   58600    127.58709     -108.986   0.11544348   -108.87055   -1466.6068    4.3125152    4.3125152    4.3125152   -1466.6068   -2967.8991   -4306.0895    2874.1681    884.64157    405.68573   -487.31833    80.203239 
   58700    93.678874   -108.95554  0.084762614   -108.87078    1869.0502    4.3113891    4.3113891    4.3113891    1869.0502   -484.23423     2260.714    3830.6708   -342.47905    594.96083   -975.24198    80.140428 
   58800     86.69698   -108.94944   0.07844525     -108.871   -481.34012    4.3127682    4.3127682    4.3127682   -481.34012    -1177.312   -1760.8986    1494.1903   -1205.8997   -770.46247    951.16225    80.217355 
   58900     69.49882   -108.93387  0.062883992   -108.87098    1700.0067    4.3114061    4.3114061    4.3114061    1700.0067    3218.2607   -2309.3893    4191.1489    22.195104     334.3985   -785.04111    80.141374 
   59000    139.26472   -108.99651   0.12600965    -108.8705   -2053.1859    4.3124671    4.3124671    4.3124671   -2053.1859   -2053.8141   -4461.8937    356.15005    478.16595   -322.31878    605.32444    80.200555 
   59100    101.73162   -108.96293  0.092048904   -108.87088    -565.0941    4.3127186    4.3127186    4.3127186    -565.0941   -3565.0767   -1544.3796    3414.1739    731.95001    148.64266    221.67471    80.214592 
   59200    89.876639   -108.95228  0.081322272   -108.87095     1709.094    4.3111099    4.3111099    4.3111099     1709.094    2021.9748    1480.5453    1624.7618   -639.10675   -602.69231   -530.67272    80.124861 
   59300    110.47555   -108.97064  0.099960603   -108.87068   -717.32482    4.3130538    4.3130538    4.3130538   -717.32482   -36.087027   -2523.5056    407.61819   -1017.5529    1357.6831   -820.72346    80.233296 
   59400    74.647165   -108.93854  0.067542323     -108.871   -645.43719    4.3117961    4.3117961    4.3117961   -645.43719    1107.0273   -5560.9694    2517.6305    700.48429    109.69279    1806.2287    80.163128 
   59500    121.50701   -108.98067    0.1099421   -108.87073   -2589.6828    4.3124908    4.3124908    4.3124908   -2589.6828   -3697.6009   -5055.4797    984.03232    504.07352    461.48595   -1729.6724    80.201877 
   59600    92.049855   -108.95414  0.083288643   -108.87085    891.05726    4.3126637    4.3126637    4.3126637    891.05726    -530.8432    773.58398     2430.431   -795.26928   -683.69795    758.09736    80.211529 
   59700    83.670862   -108.94676  0.075707154   -108.87105    1096.9294    4.3111415    4.3111415    4.3111415    1096.9294     2188.529   -1663.5492    2765.8085   -978.49213     207.4063    1244.6523    80.126619 
   59800    118.54292   -108.97801   0.10726012   -108.87075   -958.17597    4.3131326    4.3131326    4.3131326   -958.17597   -1886.4648   -3508.9373    2520.8742    456.56063   -119.49369   -635.22692    80.237694 
   59900    116.53096   -108.97605   0.10543966   -108.87061    -788.1591    4.3118416    4.3118416    4.3118416    -788.1591   -521.43723   -3957.4227    2114.3826    474.47409     60.57008   -765.29343    80.165665 
   60000    90.863074   -108.95312  0.082214819   -108.87091   -484.81681    4.3121398    4.3121398    4.3121398   -484.81681   -3765.7317   -2141.5515    4452.8328    386.73516    54.631275    988.05386    80.182298 
   60100    78.169855    -108.9416  0.070729728   -108.87087     1596.547    4.3124654    4.3124654    4.3124654     1596.547    2644.8591   -413.93544    2558.7173   -1245.2924    721.41529   -510.62273    80.200464 
   60200    92.566662    -108.9545  0.083756261   -108.87074    1302.1009    4.3112377    4.3112377    4.3112377    1302.1009    1337.7553   -1426.9851    3995.5325    -470.1821    1164.1869    327.46737    80.131984 
   60300    124.54069   -108.98337   0.11268704   -108.87068   -2449.7027    4.3130129    4.3130129    4.3130129   -2449.7027   -3564.7665   -6001.7559    2217.4142     853.8612   -510.19056    970.19562    80.231011 
   60400    106.07049   -108.96678  0.095974811    -108.8708    380.36757    4.3118208    4.3118208    4.3118208    380.36757   -1062.2359    -172.2371    2375.5757     217.8551     228.7911   -1112.4957    80.164505 
   60500    109.65555   -108.96994  0.099218645   -108.87072    198.17371    4.3119696    4.3119696    4.3119696    198.17371    82.597484   -1428.6134     1940.537    -1206.808   -537.33739   -207.11207    80.172806 
   60600    60.122133   -108.92542   0.05439977   -108.87103    1351.5089    4.3122243    4.3122243    4.3122243    1351.5089    1657.5005   -1439.9203    3836.9466    1.6627332     374.7846    429.81879     80.18701 
   60700    118.64646   -108.97787   0.10735381   -108.87052   -2035.3291    4.3121236    4.3121236    4.3121236   -2035.3291   -467.16006   -5072.4778   -566.34941    539.98001   -322.92645   -665.53443    80.181395 
   60800    107.47841   -108.96781  0.097248724   -108.87056   -1424.1876    4.3125573    4.3125573    4.3125573   -1424.1876   -3652.2373   -4093.9695    3473.6439    570.56656    591.27076   -383.04273    80.205588 
   60900     90.21693   -108.95255  0.081630175   -108.87092   -204.74744    4.3119795    4.3119795    4.3119795   -204.74744    1016.6291   -2552.1561    921.28476   -106.46469   -5.3296349    1659.0588    80.173358 
   61000    97.148396   -108.95874   0.08790191   -108.87084    1535.3455    4.3121214    4.3121214    4.3121214    1535.3455    1043.0575   -367.16463    3930.1435   -1397.0034    1338.8975   -833.24694    80.181271 
   61100    111.42965   -108.97159   0.10082389   -108.87076   -179.95429    4.3119724    4.3119724    4.3119724   -179.95429    1525.0069   -3879.9263    1815.0566    103.20919   -18.856474    518.32458    80.172962 
   61200     106.4947   -108.96717  0.096358645   -108.87081    -1835.654    4.3126255    4.3126255    4.3126255    -1835.654   -4741.7569   -3889.2916    3124.0866    844.95782   -554.14049   -776.99428    80.209395 
   61300    99.803081    -108.9611  0.090303925   -108.87079   -266.22514    4.3121982    4.3121982    4.3121982   -266.22514    576.86305   -3597.8552    2222.3167   -238.86533   -256.00398    117.95916    80.185553 
   61400    73.918593   -108.93785  0.066883096   -108.87097    1775.9552    4.3114629    4.3114629    4.3114629    1775.9552    1826.4361   -1513.4022    5014.8317   -1337.6454    587.62702    325.47616    80.144543 
   61500    96.032187   -108.95786  0.086891941   -108.87097    69.566041    4.3128065    4.3128065    4.3128065    69.566041     62.74507   -2778.8411    2924.7941    476.21275    81.677127    585.13024    80.219495 
   61600     129.8993   -108.98818   0.11753561   -108.87064   -710.37148    4.3116062    4.3116062    4.3116062   -710.37148   -1189.3989   -3253.4178    2311.7023    265.34092   -106.51013   -1021.1818    80.152538 
   61700      114.829   -108.97462   0.10389969   -108.87072   -974.61576    4.3126382    4.3126382    4.3126382   -974.61576   -3920.6274   -2051.0563    3047.8363    383.93277    1070.6378    533.18669    80.210105 
   61800    74.994586   -108.93894  0.067856677   -108.87108     837.0415    4.3120881    4.3120881    4.3120881     837.0415    1974.0498   -2096.0163     2633.091   -604.79404    132.15484   -363.49018    80.179414 
   61900    89.002459   -108.95136  0.080531295   -108.87083    588.48391    4.3114268    4.3114268    4.3114268    588.48391    2759.3623   -2364.9229    1371.0123   -933.98648     595.2108   -565.00289    80.142528 
   62000    101.59082    -108.9626  0.091921506   -108.87068   -1290.1447    4.3131053    4.3131053    4.3131053   -1290.1447    -3033.013   -3621.8864    2784.4653    407.18763   -1057.7451    151.91851     80.23617 
   62100    111.90337     -108.972   0.10125252   -108.87075    -1460.852    4.3115843    4.3115843    4.3115843    -1460.852   -1391.2175    -3892.012    900.67355    957.15062    337.38363    8.5999245    80.151311 
   62200    105.49495   -108.96629   0.09545405   -108.87084    328.80301    4.3123333    4.3123333    4.3123333    328.80301   -532.84045   -802.16299    2321.4125   -1004.8873   -483.64454   -74.624629    80.193092 
   62300     83.32359   -108.94632  0.075392935   -108.87093    1457.8038    4.3120547    4.3120547    4.3120547    1457.8038    3129.0967   -1719.9257    2964.2404   -853.20047    509.25179   -23.366018    80.177551 
   62400    112.21376   -108.97222   0.10153337   -108.87069    -1016.318    4.3117698    4.3117698    4.3117698    -1016.318    -447.4799    -4099.597    1498.1229    770.00894   -475.75901   -1003.5005    80.161659 
   62500    102.76633    -108.9635  0.092985131   -108.87052   -537.87388    4.3128506    4.3128506    4.3128506   -537.87388   -2751.9149   -3277.2648    4415.5581     454.0429    841.93817    -437.9773    80.221957 
   62600    103.03996    -108.9639  0.093232721   -108.87066   -764.06351    4.3117239    4.3117239    4.3117239   -764.06351    355.76554   -3225.9209    577.96483     118.4925    94.723594    1234.6475    80.159099 
   62700     63.49607   -108.92851  0.057452578   -108.87106    2257.3617    4.3120547    4.3120547    4.3120547    2257.3617    1583.0651   -1510.2826    6699.3026   -1179.0086    667.43913   -746.13794    80.177553 
   62800    118.15991   -108.97757   0.10691357   -108.87065   -317.52134    4.3122164    4.3122164    4.3122164   -317.52134    2403.3957    -3217.776   -138.18373   -573.74606   -744.43958    569.54595    80.186572 
   62900    116.69563   -108.97627   0.10558866   -108.87068   -674.94563    4.3121538    4.3121538    4.3121538   -674.94563    -5030.092   -3221.2748      6226.53    336.33436    -171.6025   -146.93433    80.183077 
   63000    112.60296   -108.97269   0.10188553    -108.8708   -1209.0141    4.3125385    4.3125385    4.3125385   -1209.0141   -656.26419   -3341.6591     370.8809    665.16216   -162.99639   -1095.1518     80.20454 
   63100    78.099412   -108.94158  0.070665989   -108.87092    1174.0256     4.311717     4.311717     4.311717    1174.0256    1377.4588   -413.63574    2558.2538   -1367.0675    576.75126    -583.6125    80.158716 
   63200    83.752926   -108.94666  0.075781407   -108.87088   -102.95013    4.3124723    4.3124723    4.3124723   -102.95013    935.36693   -4027.5573      2783.34   -66.661097   -324.05876    326.66611    80.200848 
   63300    97.712013   -108.95918  0.088411883   -108.87077   -839.18127    4.3118911    4.3118911    4.3118911   -839.18127   -1166.1914   -4257.6398    2906.2874    630.27731    535.77414   -1412.7206    80.168427 
   63400     141.4005   -108.99847   0.12794215   -108.87052   -2728.2374    4.3128503    4.3128503    4.3128503   -2728.2374   -3633.7594   -3037.8159   -1513.1368    429.35714    673.85787    990.61045    80.221936 
   63500    73.273741   -108.93745  0.066299621   -108.87115    2330.2534    4.3116002    4.3116002    4.3116002    2330.2534    1135.5367   -775.64942    6630.8729   -548.58929    -321.5665    225.39781    80.152198 
   63600    110.28084    -108.9707  0.099784418   -108.87092   -566.31965    4.3120082    4.3120082    4.3120082   -566.31965    2526.4556    -953.4575   -3271.9571   -1109.8028   -623.87499   -2143.7904    80.174954 
   63700    79.622398   -108.94292  0.072044019   -108.87088    1221.7217    4.3124834    4.3124834    4.3124834    1221.7217   -1658.1136    -3294.462    8617.7409    -57.66154   -287.69954   -173.13915    80.201469 
   63800    128.50822   -108.98691   0.11627694   -108.87063   -2591.7399    4.3115721    4.3115721    4.3115721   -2591.7399    -970.8972   -5762.5492   -1041.7733    956.37176   -8.6748104    577.87342    80.150632 
   63900    79.821056   -108.94327  0.072223769   -108.87104    889.74421    4.3127329    4.3127329    4.3127329    889.74421   -1319.1461   -1254.2843     5242.663   -48.526545    79.506119   -1604.0359    80.215389 
   64000    92.957594   -108.95495  0.084109984   -108.87084    1754.8971    4.3115029    4.3115029    4.3115029    1754.8971    4454.1427   -1448.6938    2259.2423   -1357.2232   -51.116133     597.0874    80.146776 
   64100    100.55489   -108.96182  0.090984179   -108.87083    842.75363    4.3117927    4.3117927    4.3117927    842.75363   -1763.4279   -1054.4405    5346.1294    323.20175    168.10179    439.80613    80.162936 
   64200    129.40754   -108.98768   0.11709066   -108.87059   -2165.7366    4.3132383    4.3132383    4.3132383   -2165.7366   -2157.7246   -5669.5229    1330.0377    339.22726    407.16905   -1665.1808    80.243594 
   64300    99.074825   -108.96049  0.089644984   -108.87084    183.17271    4.3111585    4.3111585    4.3111585    183.17271   -983.36571   -2981.7929    4514.6767    373.42776    27.391376    48.938296    80.127568 
   64400    84.378951   -108.94722  0.076347848   -108.87087   -206.16603    4.3129261    4.3129261    4.3129261   -206.16603    536.12832   -1936.3556    781.72919   -1040.2783    -412.3874    69.257049    80.226171 
   64500    66.734368   -108.93134  0.060382658   -108.87096    1303.4473    4.3118068    4.3118068    4.3118068    1303.4473    1960.2691   -1625.1387    3575.2116   -765.08753   -205.60877   -1660.6794    80.163724 
   64600    133.25024   -108.99113   0.12056762   -108.87057   -2595.6766    4.3121889    4.3121889    4.3121889   -2595.6766   -4556.9647   -4132.9033    902.83823   -2.6184931    331.48867    786.06767    80.185038 
   64700    106.16393   -108.96698  0.096059359   -108.87092   -1270.9038    4.3131011    4.3131011    4.3131011   -1270.9038   -2488.5927   -4849.4597     3525.341    1151.4465   -276.09103    213.56583    80.235932 
   64800    103.74291   -108.96469  0.093868767   -108.87082   -69.243287     4.311471     4.311471     4.311471   -69.243287    1324.5852   -1623.5584    91.243245   -1004.3366    322.46549   -2257.2124    80.144995 
   64900    86.493605   -108.94911  0.078261231   -108.87085    1008.6383    4.3123206    4.3123206    4.3123206    1008.6383    252.10288   -248.71284    3022.5248   -702.07713   -132.71706   -214.66005    80.192383 
   65000    88.231925   -108.95064    0.0798341   -108.87081   -44.091109    4.3121457    4.3121457    4.3121457   -44.091109   -897.23104   -2933.8537    3698.8114     553.5126    638.28378    77.880584    80.182629 
   65100     125.4094   -108.98408   0.11347306   -108.87061   -2290.7213    4.3121473    4.3121473    4.3121473   -2290.7213   -3101.6556   -5248.4467    1477.9385     480.4476   -246.12364   -1085.4209    80.182717 
   65200    79.831437   -108.94315  0.072233162   -108.87092    1572.0231    4.3121243    4.3121243    4.3121243    1572.0231    1362.2335   -3225.8474    6579.6831    -83.28441   -53.522512    541.26755    80.181433 
   65300    107.03759   -108.96777  0.096849862   -108.87092    700.73698    4.3118103    4.3118103    4.3118103    700.73698    1559.1057    203.04086    340.06442   -1141.2034   -890.97258     123.5534    80.163918 
   65400    89.265124   -108.95188   0.08076896   -108.87111    2229.8789    4.3117588    4.3117588    4.3117588    2229.8789   -345.91374   -148.35668    7183.9071   -700.85935    818.96912   -1373.2643    80.161048 
   65500    131.64185   -108.98988   0.11911231   -108.87077   -1733.4971    4.3123626    4.3123626    4.3123626   -1733.4971   -2903.2734   -3386.8442    1089.6263    580.32249   -468.01137   -224.12694    80.194728 
   65600    90.860172   -108.95307  0.082212193   -108.87086   -41.771563    4.3122688    4.3122688    4.3122688   -41.771563   -1696.8827   -4816.9693    6388.5373    938.09911    485.63239   -716.49029    80.189492 
   65700     87.42218   -108.94995  0.079101426   -108.87085   -145.87759    4.3116903    4.3116903    4.3116903   -145.87759    4266.1982   -2944.1952   -1759.6357   -1422.4288   -242.47737   -1004.8889    80.157227 
   65800    71.174197   -108.93535  0.064399909   -108.87095    1239.1034     4.312442     4.312442     4.312442    1239.1034   -3038.4578    381.36381    6374.4041   -122.38105    1104.4268    771.52053    80.199155 
   65900    139.78154   -108.99704   0.12647727   -108.87056   -2898.8629    4.3124166    4.3124166    4.3124166   -2898.8629   -2250.4348   -4317.8503   -2128.3035    430.95758   -550.06838    252.57721    80.197741 
   66000    90.833866   -108.95308   0.08218839   -108.87089    39.335512    4.3119734    4.3119734    4.3119734    39.335512   -2877.1875   -2703.4473    5698.6414    379.78265    276.15221   -1307.5312    80.173017 
   66100    131.93334   -108.99001   0.11937606   -108.87064    -2987.746    4.3132638    4.3132638    4.3132638    -2987.746   -765.42425   -4728.9963   -3468.8175    -733.4124   -409.26634   -463.95652    80.245016 
   66200    42.220946    -108.9094  0.038202399    -108.8712    3257.4069    4.3108499    4.3108499    4.3108499    3257.4069    2505.4837   -11.727819     7278.465   -797.88408    444.98047   -950.48066    80.110364 
   66300    129.70796     -108.988   0.11736249   -108.87064   -3471.1981    4.3132551    4.3132551    4.3132551   -3471.1981    -4314.388   -2524.6309   -3574.5755   -541.19048    213.93215   -369.61624     80.24453 
   66400    81.481358    -108.9446  0.073726045   -108.87087    1146.9258    4.3119578    4.3119578    4.3119578    1146.9258   -2752.2726   -3707.7103    9900.7602    1236.3812   -176.22473   -137.18771    80.172148 
   66500    129.81161   -108.98812   0.11745627   -108.87067   -1400.3747    4.3116313    4.3116313    4.3116313   -1400.3747    1321.1019   -3608.2353   -1913.9907     61.62958    294.23968   -273.26441    80.153935 
   66600     68.80914   -108.93341  0.062259956   -108.87115     2690.678    4.3126607    4.3126607    4.3126607     2690.678    430.70814   -458.34906     8099.675   -1447.1487    179.64251    15.891106    80.211357 
   66700    123.81569   -108.98268   0.11203103   -108.87065    283.69818    4.3110694    4.3110694    4.3110694    283.69818    295.09235   -185.77301    741.77521    182.80781    497.77241   -396.80936    80.122603 
   66800    95.394082   -108.95702   0.08631457   -108.87071      802.095    4.3123269    4.3123269    4.3123269      802.095   -3812.0111   -1813.0552    8031.3513    568.08576   -895.78266   -1237.3429    80.192737 
   66900    116.54103   -108.97603   0.10544878   -108.87058    -1743.563    4.3125812    4.3125812    4.3125812    -1743.563    697.84182   -5098.7915   -829.73933    201.84822    842.42053   -242.40809    80.206922 
   67000    59.499947   -108.92492  0.053836802   -108.87108     2839.388    4.3109367    4.3109367    4.3109367     2839.388    1199.2669   -859.51456    8178.4117   -872.75238   -452.05086    200.22935    80.115206 
   67100    112.76058   -108.97293   0.10202814    -108.8709   -1649.4983     4.313047     4.313047     4.313047   -1649.4983    488.41328   -2241.6075   -3195.3006    -682.6626    902.78513    -569.5493    80.232918 
   67200    94.626553    -108.9566  0.085620094   -108.87098     327.8442    4.3116227    4.3116227    4.3116227     327.8442   -3919.9274    -327.6167    5231.0767   -186.94725   -876.73738   -103.13641    80.153453 
   67300    142.21246   -108.99923   0.12867682   -108.87055   -2557.2618    4.3125271    4.3125271    4.3125271   -2557.2618   -3092.2696   -4329.2875   -250.22839    1327.8732    998.62808   -978.94707    80.203903 
   67400    76.259295   -108.93997  0.069001013   -108.87097    235.24893    4.3125096    4.3125096    4.3125096    235.24893    1419.3583   -2622.0434    1908.4319   -742.62187   -592.28844   -1429.3348    80.202928 
   67500    86.125478   -108.94878  0.077928142   -108.87085   -724.29331     4.311769     4.311769     4.311769   -724.29331   -961.16738   -1570.2185    358.50591   -834.55393    1234.3428    527.31282    80.161614 
   67600    94.034614   -108.95574  0.085084495   -108.87065   -713.08027    4.3124524    4.3124524    4.3124524   -713.08027   -2050.1883   -2956.0861    2867.0336    346.80403   -1075.0609    -532.8341    80.199734 
   67700    113.22643   -108.97307   0.10244965   -108.87062   -1624.2955    4.3124284    4.3124284    4.3124284   -1624.2955   -3350.8111   -2995.3696    1473.2942    615.05943     773.9072   -871.73852    80.198396 
   67800    104.47153   -108.96552  0.094528032   -108.87099    486.69283    4.3118164    4.3118164    4.3118164    486.69283   -306.49273   -3123.5007    4890.0719   -554.46601   -279.02718    810.83811    80.164261 
   67900    96.287975   -108.95803  0.087123383   -108.87091     1637.566    4.3119561    4.3119561    4.3119561     1637.566    1366.5305    244.28062    3301.8868   -967.85281    465.76654   -743.56968    80.172048 
   68000    99.442732   -108.96078  0.089977874    -108.8708    395.01218    4.3120589    4.3120589    4.3120589    395.01218   -1512.6435   -792.27619    3489.9562   -677.38097   -417.24151   -1911.9647    80.177784 
   68100    104.11829   -108.96491  0.094208413    -108.8707   -86.181806    4.3117856    4.3117856    4.3117856   -86.181806   -2202.1557   -3359.4674    5303.0776    707.71245    337.20077    430.42669    80.162542 
   68200    107.23738   -108.96768  0.097030634   -108.87065   -97.382425    4.3124921    4.3124921    4.3124921   -97.382425   -794.70702   -3197.6342    3700.1939    1037.7749    63.181529   -416.34698     80.20195 
   68300    74.127418   -108.93803  0.067072046   -108.87096    1874.5424    4.3115434    4.3115434    4.3115434    1874.5424    2549.3186   -1181.4201    4255.7288   -1239.1089    131.59925   -482.80809    80.149035 
   68400    105.38936   -108.96616  0.095358509    -108.8708    -125.0372    4.3118272    4.3118272    4.3118272    -125.0372   -404.81728   -100.14369    129.84939   -323.15048     42.24479    601.27467    80.164861 
   68500    109.28383    -108.9696  0.098882305   -108.87072   -150.53127    4.3126929    4.3126929    4.3126929   -150.53127   -3863.8715   -1491.1772     4903.455    332.65508   -475.42167   -952.43727    80.213157 
   68600    126.98742   -108.98564   0.11490089   -108.87073    -2071.279    4.3117029    4.3117029    4.3117029    -2071.279    426.55949   -4527.5752   -2112.8212    398.21415    734.69019   -2104.1475    80.157931 
   68700    76.209725   -108.93994  0.068956161   -108.87098    645.99053    4.3124888    4.3124888    4.3124888    645.99053   -1775.2262   -936.71328    4649.9111   -671.17053    -25.20635    903.16471    80.201766 
   68800    92.486751   -108.95451  0.083683956   -108.87083   -555.24585    4.3122215    4.3122215    4.3122215   -555.24585    1640.8059   -1538.0625    -1768.481   -666.68175   -213.13535   -1285.0821    80.186852 
   68900    83.228595   -108.94631  0.075306982   -108.87101   -761.44379    4.3116396    4.3116396    4.3116396   -761.44379   -3632.5999   -1481.5647    2829.8332    -419.9392   -561.00083    -1323.151    80.154397 
   69000    124.60001   -108.98346   0.11274071   -108.87072   -2485.1139    4.3133246    4.3133246    4.3133246   -2485.1139    -3375.837   -5266.1986    1186.6937     1206.231    771.78807    1248.6455    80.248411 
   69100    105.15351   -108.96598  0.095145103   -108.87083    1078.2318    4.3112388    4.3112388    4.3112388    1078.2318    230.30211    -1278.091    4282.4841    3.1588226   -734.31533   -807.42165    80.132046 
   69200    99.557811   -108.96098     0.090082    -108.8709    138.67531    4.3123238    4.3123238    4.3123238    138.67531   -211.13549   -509.09152     1136.253   -1532.2879     266.2199   -1823.0652    80.192561 
   69300    79.649742   -108.94292   0.07206876   -108.87085    1515.3698    4.3122525    4.3122525    4.3122525    1515.3698   -2520.9911    496.02697    6571.0736    161.62078   -57.852736    138.34939    80.188587 
   69400    130.20084   -108.98825   0.11780845   -108.87045   -1807.8611    4.3115486    4.3115486    4.3115486   -1807.8611   -1839.4955   -4601.5229     1017.435    612.30318    408.95741   -177.27757    80.149322 
   69500    73.105972   -108.93711   0.06614782   -108.87096    895.95879    4.3126948    4.3126948    4.3126948    895.95879   -720.05455   -4131.4924    7539.4233   -95.981074   -243.16793   -1055.5329    80.213264 
   69600    109.22737   -108.96957  0.098831223   -108.87073     716.6649    4.3116251    4.3116251    4.3116251     716.6649    809.95066    120.11632    1219.9277   -770.09429   -88.230004    1303.0833     80.15359 
   69700    84.631369   -108.94738  0.076576242   -108.87081    2548.1933    4.3116167    4.3116167    4.3116167    2548.1933   -860.87444    1992.2754     6513.179   -636.57629   -578.50709   -1337.8894    80.153122 
   69800    121.40103    -108.9805    0.1098462   -108.87065   -2065.3506    4.3128281    4.3128281    4.3128281   -2065.3506   -2786.5143   -2530.7595   -878.77807   -208.94182    31.685735   -1069.8959    80.220699 
   69900    115.01068   -108.97464   0.10406408   -108.87058   -752.40898    4.3117803    4.3117803    4.3117803   -752.40898   -2711.8767    -3578.043    4032.6928    1538.8652    339.76701   -173.70352    80.162245 
   70000    86.936184   -108.94937  0.078661686   -108.87071     123.9881    4.3122864    4.3122864    4.3122864     123.9881    2402.9347   -3045.4478    1014.4774   -750.66161   -155.87179   -315.63848    80.190478 
   70100    72.702711   -108.93675  0.065782941   -108.87097   -97.715331    4.3122486    4.3122486    4.3122486   -97.715331   -1950.0509    1455.1215    201.78341   -895.61765     33.29206   -1723.9493    80.188366 
   70200    105.46021   -108.96612  0.095422612    -108.8707   -779.89074    4.3119346    4.3119346    4.3119346   -779.89074   -2647.3997   -1216.4141    1524.1416    469.20708    309.76776    1249.0384    80.170852 
   70300    120.22023   -108.97955   0.10877779   -108.87077   -2203.7112    4.3126222    4.3126222    4.3126222   -2203.7112   -2570.9579   -4473.3728    433.19719    567.46692    53.141332   -1074.4518    80.209209 
   70400    109.13094   -108.96966  0.098743968   -108.87091   -1206.0454    4.3124016    4.3124016    4.3124016   -1206.0454   -1794.0147   -2860.3183    1036.1969   -773.46328   -499.11633   -721.52973    80.196902 
   70500    81.575516   -108.94478  0.073811241   -108.87096    2394.7145    4.3115668    4.3115668    4.3115668    2394.7145    803.41109    739.28504    5641.4475    -757.0235   -554.81522   -1285.3941     80.15034 
   70600    102.83202   -108.96389  0.093044573   -108.87084   -839.27615    4.3124752    4.3124752    4.3124752   -839.27615   -3113.1569    498.21221    97.116232   -469.96208   -45.268401   -248.55814    80.201009 
   70700    91.619689   -108.95377   0.08289942   -108.87087   -798.23382    4.3122095    4.3122095    4.3122095   -798.23382   -2804.0003    -4438.688    4847.9869     400.4009    165.91954   -243.82114    80.186187 
   70800    111.38631   -108.97152   0.10078467   -108.87073   -215.64217    4.3118516    4.3118516    4.3118516   -215.64217   -1743.9669   -3804.1661    4901.2064    1119.4028   -192.15217    537.75953    80.166223 
   70900    93.430094   -108.95551  0.084537513   -108.87098    951.86211    4.3124639    4.3124639    4.3124639    951.86211    795.29275   -495.31382    2555.6074   -1512.5902    19.775842   -939.00028    80.200376 
   71000    84.028364   -108.94708  0.076030629   -108.87105    2079.1837    4.3114001    4.3114001    4.3114001    2079.1837   -1381.3138    2509.5077     5109.357   -496.36216    491.70142    -24.87068     80.14104 
   71100    136.48379     -108.994    0.1234934   -108.87051   -1279.6464    4.3124005    4.3124005    4.3124005   -1279.6464   -3813.0454   -1795.2385    1769.3448    469.89574    110.98284   -189.29794     80.19684 
   71200    96.639487   -108.95822  0.087441439   -108.87078   -774.46965    4.3124864    4.3124864    4.3124864   -774.46965   -1130.6474   -3869.1358    2676.3743    309.30597   -365.74597   -1022.9058    80.201634 
   71300    87.751507   -108.95031  0.079399408   -108.87091   -398.52755    4.3115331    4.3115331    4.3115331   -398.52755   -335.85894   -2451.0808    1591.3571   -919.09415   -263.59565    66.884083    80.148458 
   71400    80.584291   -108.94369   0.07291436   -108.87077    1131.3152      4.31256      4.31256      4.31256    1131.3152    2.7445546    1526.0555    1865.1455    -335.4742   -160.38727   -196.23607    80.205743 
   71500    104.17426   -108.96499  0.094259061   -108.87073   -1127.8714    4.3118358    4.3118358    4.3118358   -1127.8714    -1955.737   -849.32293   -578.55434   -456.21267    171.63945   -159.86471    80.165343 
   71600    119.24233   -108.97855   0.10789296   -108.87065   -1972.8205    4.3124588    4.3124588    4.3124588   -1972.8205   -4602.6871   -3018.0176    1702.2432    1172.6384     116.6838   -490.42682    80.200091 
   71700    117.98781   -108.97734   0.10675785   -108.87059   -711.29785    4.3125856    4.3125856    4.3125856   -711.29785   -150.31988   -2590.3773     606.8036    5.6702525    211.88369   -745.87178    80.207168 
   71800    74.408217    -108.9383  0.067326119   -108.87097    1149.9211    4.3113094    4.3113094    4.3113094    1149.9211    -269.3052    1248.2328    2470.8358   -1453.3868    186.68304   -1338.3014    80.135983 
   71900    89.805388   -108.95206  0.081257802    -108.8708   -331.07863    4.3127138    4.3127138    4.3127138   -331.07863   -1542.6151   -1943.3886    2492.7679    16.545701    633.54485    1383.4348    80.214324 
   72000    111.54333   -108.97146   0.10092675   -108.87053   -574.60907    4.3119022    4.3119022    4.3119022   -574.60907   -3864.5698   -1913.1389    4053.8815    709.41202    -722.2433   -873.93808    80.169043 
   72100     106.9034   -108.96752  0.096728439   -108.87079   -1180.2275      4.31217      4.31217      4.31217   -1180.2275   -1008.6184   -4644.3488    2112.2846    -273.0691   -349.27714   -94.882826    80.183982 
   72200    85.946552   -108.94876  0.077766246     -108.871    1602.7722    4.3122789    4.3122789    4.3122789    1602.7722    -1572.938    734.56616    5646.6883   -1041.9619   -417.24075   -135.19176    80.190057 
   72300     108.9721   -108.96931  0.098600247   -108.87071     1588.751    4.3114533    4.3114533    4.3114533     1588.751    74.572414    1101.4393    3590.2414   -360.85048    395.11187    -119.0182     80.14401 
   72400    105.80944   -108.96659  0.095738601   -108.87085   -852.59463    4.3124939    4.3124939    4.3124939   -852.59463   -2932.3923   -3324.6098    3699.2182   -468.56639    108.32076   -1283.5454    80.202052 
   72500     110.7647   -108.97098   0.10022223   -108.87076   -1394.6981    4.3122084    4.3122084    4.3122084   -1394.6981   -3520.7867   -2858.0307    2194.7229    1544.3015    475.80008    960.80365    80.186123 
   72600    86.238097   -108.94891  0.078030043   -108.87088      952.024      4.31181      4.31181      4.31181      952.024    1020.8234   -1406.7102    3241.9588   -865.66664    203.25326   -697.98851    80.163902 
   72700     77.20314   -108.94097  0.069855024   -108.87111    68.767365    4.3120799    4.3120799    4.3120799    68.767365   -759.79587    -529.4878    1495.5858   -967.43623    601.35169    676.28824    80.178956 
   72800     102.1664   -108.96328  0.092442308   -108.87084   -57.995019    4.3121082    4.3121082    4.3121082   -57.995019   -2247.9263   -328.64732    2402.5886    365.69942   -146.59253    594.49131    80.180537 
   72900    144.08711   -109.00093   0.13037304   -108.87056   -2107.5635    4.3122836    4.3122836    4.3122836   -2107.5635    -2278.891   -3820.2137   -223.58588    572.90598   -879.89079   -1630.7377    80.190322 
   73000    87.948523   -108.95065  0.079577672   -108.87107   -385.00308    4.3121017    4.3121017    4.3121017   -385.00308   -2170.5725   -324.44372     1340.007   -928.15377    163.56222   -991.93918    80.180171 
   73100    78.745791   -108.94224  0.071250846   -108.87099    1143.6933     4.312127     4.312127     4.312127    1143.6933    1057.6779   -151.58968    2524.9918   -440.88377    448.62065     1304.839    80.181584 
   73200    101.75385    -108.9628  0.092069017   -108.87073   -201.98565    4.3115879    4.3115879    4.3115879   -201.98565   -1428.1044    -1398.699    2220.8464   -387.31883      176.399   -1016.9297    80.151515 
   73300    92.135189   -108.95425  0.083365856   -108.87089   -1158.7751    4.3127197    4.3127197    4.3127197   -1158.7751   -1718.7246   -3691.8587    1934.2581    457.65312    32.291204   -290.40672    80.214653 
   73400    123.82051   -108.98278    0.1120354   -108.87074   -584.76964    4.3119994    4.3119994    4.3119994   -584.76964    -3101.434   -2303.1675    3650.2926    1069.5923    677.45261    1097.0046    80.174466 
   73500    91.758575   -108.95388  0.083025087   -108.87086    2345.4263    4.3114977    4.3114977    4.3114977    2345.4263    833.40065    2025.5583      4177.32   -1446.9084   -330.16588   -763.74229    80.146483 
   73600    85.146907   -108.94804  0.077042711   -108.87099    630.40179    4.3125898    4.3125898    4.3125898    630.40179   -1019.6087   -1175.0312    4085.8453   -774.54562    80.798469   -660.51863      80.2074 
   73700     123.9833   -108.98262    0.1121827   -108.87044   -906.30312    4.3115779    4.3115779    4.3115779   -906.30312   -3640.9057   -3402.5889    4324.5852     664.4089   -466.35835    635.78054    80.150956 
   73800    97.666462   -108.95899  0.088370668   -108.87061   -184.12176    4.3125495    4.3125495    4.3125495   -184.12176    -231.4819   -3907.2893    3586.4059    307.43921   -369.73873   -564.36853    80.205152 
   73900    85.878397    -108.9486  0.077704579   -108.87089   -642.31977    4.3121824    4.3121824    4.3121824   -642.31977   -2657.8318   -844.46687    1575.3393    -1318.373     163.8403   -258.22403    80.184675 
   74000    77.835901   -108.94128  0.070427559   -108.87085     2094.734    4.3114439    4.3114439    4.3114439     2094.734    918.94074    1099.5881    4265.6732    70.162206    645.39952     1687.166    80.143486 
   74100    126.13687   -108.98476   0.11413129   -108.87063   -1694.3986    4.3128253    4.3128253    4.3128253   -1694.3986   -2100.5987   -2902.3325   -80.264615   -684.17764    18.848406   -1557.5879    80.220545 
   74200    114.81292   -108.97472   0.10388515   -108.87083   -2119.0912     4.311999     4.311999     4.311999   -2119.0912   -3448.8474   -3997.2199    1088.7938    1025.4483    57.330839    -524.3197    80.174444 
   74300    96.485058   -108.95818  0.087301708   -108.87088    564.50067    4.3122396    4.3122396    4.3122396    564.50067     575.5922    -852.5066    1970.4164    187.61759    738.04436     769.3013    80.187864 
   74400     90.85693   -108.95304   0.08220926   -108.87083    38.599993    4.3120438    4.3120438    4.3120438    38.599993    -375.0591    1236.0099    -745.1508   -1371.9249   -494.69688   -59.044309     80.17694 
   74500    66.788684   -108.93147  0.060431805   -108.87104    363.84393     4.311843     4.311843     4.311843    363.84393    56.006758   -1647.8504    2683.3754   -252.78301   -275.04812   -905.26049    80.165744 
   74600     131.8005   -108.98985   0.11925586    -108.8706   -1886.0226    4.3125544    4.3125544    4.3125544   -1886.0226   -2849.2176   -4725.3349    1916.4848    1117.6258   -588.06229    798.35897    80.205429 
   74700    114.25845    -108.9742   0.10338344   -108.87082   -197.99158      4.31195      4.31195      4.31195   -197.99158   -829.61548   -514.51384    750.15457   -521.91042    435.53903   -941.09193    80.171712 
   74800    72.606172   -108.93695   0.06569559   -108.87126    2305.5209    4.3119125    4.3119125    4.3119125    2305.5209    1048.3259    817.84024    5050.3965    -1071.248    50.531119   -152.93048    80.169618 
   74900    121.08795   -108.98035   0.10956292   -108.87079    213.29628    4.3118713    4.3118713    4.3118713    213.29628   -2182.0714    1453.4008    1368.5595    119.86703    461.85925   -331.46906     80.16732 
   75000    90.428485   -108.95272  0.081821594    -108.8709    146.59234    4.3122068    4.3122068    4.3122068    146.59234    42.119124   -5178.4143    5576.0722   -85.163768    -138.6792    263.52685    80.186035 
   75100    110.18352   -108.97057  0.099696364   -108.87087   -2526.7577    4.3124257    4.3124257    4.3124257   -2526.7577   -4585.0918    -5232.766    2237.5846    1158.3914    251.77795   -66.201457    80.198249 
   75200    85.017766   -108.94782  0.076925861   -108.87089    1628.8006    4.3119189    4.3119189    4.3119189    1628.8006    1305.6075    1191.5556    2389.2387   -478.31422   -330.15756    1324.9488    80.169975 
   75300    89.511768    -108.9519  0.080992129   -108.87091    987.63263    4.3122116    4.3122116    4.3122116    987.63263   -823.00203    499.96902    3285.9309   -1279.5696   -759.52614   -1316.1473    80.186304 
   75400     113.0099   -108.97305   0.10225374   -108.87079   -1652.1106    4.3120693    4.3120693    4.3120693   -1652.1106   -3606.8987   -2592.5356    1243.1025    120.13183   -32.551986   -196.00498    80.178365 
   75500    123.52469   -108.98226   0.11176774   -108.87049   -1484.2978    4.3128398    4.3128398    4.3128398   -1484.2978    -1521.048   -4603.9798    1672.1345    856.33639   -93.456171   -231.37558    80.221355 
   75600    97.758027    -108.9592  0.088453517   -108.87074   -986.51027    4.3118787    4.3118787    4.3118787   -986.51027   -1441.5668   -2278.9806    761.01658   -1291.0987    598.03518   -183.31159    80.167736 
   75700    59.771242   -108.92516  0.054082276   -108.87108    851.73418    4.3121284    4.3121284    4.3121284    851.73418    1157.8152    1991.3983   -594.01096    -287.9886   -51.964424    48.213799    80.181662 
   75800    104.28934     -108.965  0.094363189   -108.87064   -36.044129    4.3124064    4.3124064    4.3124064   -36.044129   -957.69297   -2122.6323    2972.1929    62.270549    478.80958    388.14673    80.197173 
   75900    124.27222   -108.98306   0.11244412   -108.87062   -2100.4682    4.3117461    4.3117461    4.3117461   -2100.4682   -2436.0165   -3524.0628   -341.32532    476.15965   -634.46833    -190.5792    80.160337 
   76000    94.639739   -108.95663  0.085632025     -108.871    -218.6837     4.312917     4.312917     4.312917    -218.6837   -331.54836    -2605.811    2281.3082    745.69294    411.47897    36.301726    80.225663 
   76100    111.87831   -108.97185   0.10122984   -108.87062    1469.1959    4.3112934    4.3112934    4.3112934    1469.1959   -189.16119    2520.4876    2076.2612   -1157.4886   -1086.4965   -643.57396    80.135093 
   76200    74.584108   -108.93844  0.067485269   -108.87095    1885.2952    4.3118054    4.3118054    4.3118054    1885.2952    2491.8839    827.77304    2336.2287   -939.59629    171.24088   -843.29444    80.163644 
   76300    109.75471   -108.97004   0.09930837   -108.87074   -1819.6043    4.3128643    4.3128643    4.3128643   -1819.6043   -4761.2996    -5107.037    4409.5238    1038.7081   -174.45169    609.89473    80.222719 
   76400    111.73406   -108.97178   0.10109932   -108.87068   -211.50663    4.3113214    4.3113214    4.3113214   -211.50663    159.10943   -2988.8373     2195.208    417.90611    645.88578    132.87731    80.136652 
   76500    76.287935   -108.94009  0.069026926   -108.87106    728.63613    4.3126829    4.3126829    4.3126829    728.63613   -325.03041   -614.51205    3125.4509   -1389.1332     -315.347    35.764083    80.212598 
   76600        95.79   -108.95773  0.086672805   -108.87106    531.84173     4.311752     4.311752     4.311752    531.84173   -1821.1005    1205.1632    2211.4625    357.22988    144.43705    -123.3808    80.160667 
   76700    124.20412   -108.98303    0.1123825   -108.87065   -29.065676    4.3119872    4.3119872    4.3119872   -29.065676   -234.69997   -2443.7748    2591.2778   -55.082769   -265.66187    480.96815    80.173787 
   76800    115.13623   -108.97496   0.10417768   -108.87078   -2671.0976    4.3131213    4.3131213    4.3131213   -2671.0976    -5084.326   -5175.7853    2246.8184    588.63022   -222.92375   -637.08983    80.237064 
   76900    77.518155   -108.94118  0.070140055   -108.87104   -152.08898     4.311529     4.311529     4.311529   -152.08898   -124.42762   -1490.0965    1158.2571    258.45918   -122.70551    762.34164     80.14823 
   77000    87.214705   -108.94972  0.078913698    -108.8708    526.71222    4.3123803    4.3123803    4.3123803    526.71222    566.14811    404.57661    609.41195   -1365.7653   -702.01803   -998.17176    80.195716 
   77100    92.582969   -108.95469  0.083771016   -108.87091   -717.71181    4.3121293    4.3121293    4.3121293   -717.71181   -1633.8806   -1305.5932    786.33839   -346.02692    777.99473     575.2748    80.181709 
   77200    123.20412   -108.98223   0.11147768   -108.87075   -1412.3964    4.3121809    4.3121809    4.3121809   -1412.3964     -1331.54    -3879.096    973.44681    1452.0381    -135.4666    102.72291    80.184588 
   77300    117.02787   -108.97655   0.10588927   -108.87066    102.17979    4.3122138    4.3122138    4.3122138    102.17979   -1348.1663    -765.8877    2420.5933   -803.86553    308.66606   -593.29437    80.186425 
   77400    76.695146    -108.9404   0.06939538   -108.87101    1028.1411    4.3117001    4.3117001    4.3117001    1028.1411    2065.1194    1201.4588   -182.15482   -1238.3127   -522.09787   -622.68907    80.157771 
   77500    91.472911   -108.95369  0.082766612   -108.87092    493.36465    4.3120447    4.3120447    4.3120447    493.36465   -717.03589   -1753.8037    3950.9336    872.66179    882.72774    1495.6545    80.176992 
   77600    118.37665   -108.97761   0.10710968    -108.8705   -489.74699    4.3120766    4.3120766    4.3120766   -489.74699   -732.92456   -2142.7283    1406.4119    216.28031   -1205.8014   -618.42188    80.178773 
   77700    92.246515   -108.95431  0.083466586   -108.87084   -188.89233    4.3122583    4.3122583    4.3122583   -188.89233    -780.3695   -4051.1838    4264.8763    672.21501    395.82198    263.58583    80.188911 
   77800    93.220105   -108.95517   0.08434751   -108.87083     943.6137    4.3116363    4.3116363    4.3116363     943.6137   -1285.8637    1501.1869    2615.5178    -199.6379   -764.06464    249.58071    80.154212 
   77900    98.831745   -108.96012   0.08942504    -108.8707    1437.0194    4.3121714    4.3121714    4.3121714    1437.0194    2094.8221    356.64876    1859.5875   -1303.3127    358.23176   -498.20775    80.184062 
   78000    120.17833   -108.97946   0.10873988   -108.87072   -1704.8703    4.3122168    4.3122168    4.3122168   -1704.8703   -4655.5179   -4158.0372    3698.9444    262.20337   -185.92845   -369.23072    80.186593 
   78100    98.582882   -108.96003  0.089199863   -108.87084   -227.15094    4.3120264    4.3120264    4.3120264   -227.15094   -668.06633     -2653.54    2640.1535    1414.7683    782.14136    1385.4049    80.175971 
   78200    101.74887   -108.96276  0.092064512    -108.8707   -654.97539    4.3126466    4.3126466    4.3126466   -654.97539   -1362.5218   -2034.6604     1432.256   -1465.9649   -763.13854   -502.55656     80.21057 
   78300    56.495514   -108.92224  0.051118328   -108.87112    777.72809    4.3112482    4.3112482    4.3112482    777.72809    -206.4214    -48.59117    2588.1968   -239.21219     191.7054    487.13242    80.132573 
   78400    120.03901   -108.97927   0.10861381   -108.87066   -2154.9923    4.3130215    4.3130215    4.3130215   -2154.9923     -1872.78   -2999.3491   -1592.8478    1081.6127     85.45574    1590.6212     80.23149 
   78500    127.03024   -108.98552   0.11493963   -108.87058   -632.56066    4.3120997    4.3120997    4.3120997   -632.56066   -2379.7457    -3512.777    3994.8407   -51.619276   -688.64354   -1247.9287    80.180059 
   78600    93.703786   -108.95583  0.084785155   -108.87104    33.049942    4.3116751    4.3116751    4.3116751    33.049942   -194.36746    530.47356   -236.95627    27.448287   -131.21664   -861.59919     80.15638 
   78700    91.293238   -108.95358   0.08260404   -108.87097    280.43885    4.3128425    4.3128425    4.3128425    280.43885    26.430043   -518.74064    1333.6271   -822.73978    384.82411    926.58414    80.221505 
   78800    88.776267   -108.95113  0.080326632    -108.8708    889.96474    4.3108777    4.3108777    4.3108777    889.96474    626.66572    -366.0616    2409.2901   -830.71581    544.42121     20.70073    80.111912 
   78900    104.13577   -108.96506  0.094224229   -108.87083   -1837.4414    4.3129094    4.3129094    4.3129094   -1837.4414   -1259.3183   -5112.2914    859.28538    937.27297   -325.99866    57.229365    80.225235 
   79000    112.06995   -108.97214   0.10140324   -108.87074    368.63805    4.3121449    4.3121449    4.3121449    368.63805   -1562.1927   -1040.1347    3708.2416    833.08708    263.33854    1048.5722    80.182584 
   79100    83.275426   -108.94628  0.075349356   -108.87093    3197.3826    4.3108344    4.3108344    4.3108344    3197.3826    4033.0101    2593.6753    2965.4623   -1813.2232   -663.65749   -216.84586    80.109499 
   79200    107.75141   -108.96857  0.097495744   -108.87108    -1364.912     4.313212     4.313212     4.313212    -1364.912   -3989.3427   -1754.5855    1649.1921      705.862    475.21564    66.211398    80.242121 
   79300    103.51625   -108.96442  0.093663675   -108.87076    426.46498    4.3112335    4.3112335    4.3112335    426.46498    -195.1775   -2778.1612    4252.7336    873.80985   -784.58964    425.49917    80.131752 
   79400    125.69881   -108.98428   0.11373493   -108.87055   -1812.0455    4.3126234    4.3126234    4.3126234   -1812.0455   -1917.3594   -4314.4297     795.6525    175.90794    306.54588   -265.97279    80.209276 
   79500    58.444421   -108.92391   0.05288174   -108.87103    1052.3146    4.3123765    4.3123765    4.3123765    1052.3146    -1053.105   -74.545723    4284.5946   -139.74342   -345.92005    71.376039    80.195505 
   79600    91.772934   -108.95374   0.08303808    -108.8707    767.11019     4.311313     4.311313     4.311313    767.11019    1208.4044    562.25133    530.67484   -549.17591    894.81303    1749.2986    80.136185 
   79700    123.56837   -108.98233   0.11180725   -108.87053   -2331.1518    4.3130991    4.3130991    4.3130991   -2331.1518   -4485.7031   -3996.0323    1488.2799   -402.68447   -765.36265   -535.77365    80.235823 
   79800    104.17083    -108.9651  0.094255959   -108.87085   -1463.7721    4.3121091    4.3121091    4.3121091   -1463.7721   -1905.3653   -3373.6651    887.71414    1242.0679    429.11096     234.8335    80.180587 
   79900    117.75002   -108.97727   0.10654269   -108.87073   -88.099325    4.3119842    4.3119842    4.3119842   -88.099325   -349.64706   -866.69403    952.04311    -579.4132   -641.47517    269.80862    80.173621 
   80000    68.001873   -108.93251  0.061529523   -108.87098     1619.126    4.3122299    4.3122299    4.3122299     1619.126    661.91598    1712.2304    2483.2317   -1349.6275    531.09761    453.85043    80.187321 
   80100    89.780117   -108.95212  0.081234936   -108.87088    -1437.199    4.3120341    4.3120341    4.3120341    -1437.199    -1468.919   -3071.1837    228.50567     1358.267   -276.58715    289.77289      80.1764 
   80200    130.10702   -108.98819   0.11772356   -108.87047   -2258.6541    4.3124521    4.3124521    4.3124521   -2258.6541   -2557.0387   -4762.3684    543.44475    351.98289    64.518113    315.42367    80.199721 
   80300    86.663891   -108.94949  0.078415309   -108.87108    1320.8033    4.3120988    4.3120988    4.3120988    1320.8033    888.01944    591.30526    2483.0853   -142.27459   -565.78916   -580.08899     80.18001 
   80400    105.25092   -108.96637  0.095233242   -108.87113    635.28143    4.3117254    4.3117254    4.3117254    635.28143    -149.9992    726.39629    1329.4472   -727.20494    998.40539    739.87783    80.159184 
   80500    88.804706   -108.95131  0.080352364   -108.87095    2300.7955    4.3118529    4.3118529    4.3118529    2300.7955    440.96646    2534.0026    3927.4176   -426.37007   -517.68366    59.179815    80.166297 
   80600    128.04938   -108.98653   0.11586177   -108.87066    -2599.608    4.3126848    4.3126848    4.3126848    -2599.608   -2581.9739   -5699.0689    482.21873    65.749982   -92.467275    127.56384    80.212702 
   80700     90.05074   -108.95237  0.081479802   -108.87089   -642.48655    4.3117353    4.3117353    4.3117353   -642.48655   -2234.4987   -3026.5515    3333.5906     1785.574   -169.24378     499.4574    80.159735 
   80800    74.759672   -108.93858  0.067644123   -108.87093    2311.6098    4.3121116    4.3121116    4.3121116    2311.6098    2627.6036    1424.0519    2883.1738    -1518.887    302.06473    1366.7193    80.180726 
   80900     107.0742   -108.96781  0.096882987   -108.87092   -307.99275    4.3121739    4.3121739    4.3121739   -307.99275   -2902.3075     375.2632    1603.0661    299.99188   -439.66662   -305.56282    80.184202 
   81000    97.533488    -108.9592   0.08825035   -108.87095   -610.91764     4.311837     4.311837     4.311837   -610.91764   -1612.3518   -2406.9809    2186.5798    1203.7325    -73.80944    138.27719    80.165405 
   81100    142.97771   -108.99998   0.12936923   -108.87061   -2910.1537    4.3132756    4.3132756    4.3132756   -2910.1537   -3889.7245   -4216.0988   -624.63782   -82.122933   -47.079009   -411.24249    80.245671 
   81200    76.688562   -108.94034  0.069389423   -108.87095    906.59159     4.311347     4.311347     4.311347    906.59159    191.25348   -546.37988    3074.9012   -798.41021    33.211838    285.19607    80.138081 
   81300    71.129414   -108.93533  0.064359388   -108.87097    463.99912    4.3123369    4.3123369    4.3123369    463.99912   -537.59955    1984.2554   -54.658492   -86.199262    438.17319    1345.9737    80.193291 
   81400    119.59436   -108.97875   0.10821149   -108.87054   -1577.6265    4.3127719    4.3127719    4.3127719   -1577.6265   -2246.0309   -3545.6824    1058.8338   -619.87453   -670.09985   -92.983885    80.217564 
   81500    97.799658   -108.95931  0.088491186   -108.87081   -1053.7248    4.3114274    4.3114274    4.3114274   -1053.7248   -1605.5166   -2010.3661    454.70838    946.50428    130.59216    615.37789    80.142563 
   81600     108.3263   -108.96891  0.098015914   -108.87089   -1441.5402    4.3131806    4.3131806    4.3131806   -1441.5402   -2312.8018   -2215.7799    203.96094    577.68621   -340.35562    468.10109     80.24037 
   81700    93.789787   -108.95559   0.08486297   -108.87073    2638.9109     4.311193     4.311193     4.311193    2638.9109    1695.6464    4261.6051    1959.4812   -2005.1235    388.02035   -331.71995    80.129494 
   81800    96.897767   -108.95847  0.087675135    -108.8708    506.38175    4.3118708    4.3118708    4.3118708    506.38175    -1070.779   -362.16284    2952.0871    892.25902   -788.60954   -725.07036    80.167292 
   81900    124.37373    -108.9831   0.11253597   -108.87056    -2677.394    4.3132292    4.3132292    4.3132292    -2677.394   -3572.2697   -4450.8037   -9.1085312    1182.2624    690.67197    1077.6949    80.243081 
   82000    75.471897   -108.93919  0.068288559    -108.8709    2085.9959    4.3108218    4.3108218    4.3108218    2085.9959    1425.4552    74.700845    4757.8315   -641.18977   -866.15961   -277.72484    80.108799 
   82100    100.52773   -108.96195    0.0909596   -108.87099    -1024.619    4.3127968    4.3127968    4.3127968    -1024.619   -2402.2395    211.29024   -882.90772   -726.56015    902.07796    1395.2453    80.218953 
   82200    74.294234   -108.93837  0.067222985   -108.87115    2422.5445    4.3117283    4.3117283    4.3117283    2422.5445    206.21328    2014.5725    5046.8478    621.60428   -1284.9934    217.21274    80.159344 
   82300    150.99431   -109.00712   0.13662282    -108.8705   -1458.7994    4.3117138    4.3117138    4.3117138   -1458.7994   -2518.1253   -2327.3695    469.09649   -708.01759    185.67998   -303.20548    80.158538 
   82400    97.434495   -108.95903  0.088160779   -108.87087   -1119.2415    4.3130803    4.3130803    4.3130803   -1119.2415   -3366.9836   -2713.4956    2722.7548    1415.7886    -572.9005   -390.72476    80.234776 
   82500    78.473378   -108.94195  0.071004361   -108.87095    571.79757    4.3113005    4.3113005    4.3113005    571.79757    319.29533    1310.3251    85.772266   -462.19056    958.79023     2103.339    80.135486 
   82600    96.223019   -108.95785   0.08706461   -108.87079   -15.307122    4.3123044    4.3123044    4.3123044   -15.307122   -1840.3266   -316.12348    2110.5287   -875.45188   -1039.4496    -1582.869    80.191478 
   82700    96.047793   -108.95782  0.086906062   -108.87091   -1405.2384    4.3126108    4.3126108    4.3126108   -1405.2384    -2250.858   -2382.6514    417.79425    1255.3221    404.32672    1004.2993    80.208574 
   82800    113.92007   -108.97396   0.10307728   -108.87088   -887.69725      4.31173      4.31173      4.31173   -887.69725    -2688.883   -1970.7188    1996.5101    835.63305   -227.02331    1012.5358    80.159441 
   82900     109.5746   -108.96987  0.099145397   -108.87072   -201.18877    4.3125227    4.3125227    4.3125227   -201.18877   -605.99198    1293.3384   -1290.9127   -1812.5071   -154.12633   -441.87265    80.203659 
   83000    74.785182   -108.93873  0.067667205   -108.87106    1005.5458     4.311772     4.311772     4.311772    1005.5458   -1550.6718    2144.5043    2422.8048   -441.68167   -358.02073   -459.18446    80.161781 
   83100    122.24466   -108.98131   0.11060954    -108.8707   -1222.2918    4.3121407    4.3121407    4.3121407   -1222.2918   -1094.3969   -3161.7004    589.22199    361.18569   -235.49133    1264.7849    80.182349 
   83200    100.95906   -108.96208  0.091349881   -108.87073    47.479537     4.312349     4.312349     4.312349    47.479537   -2328.1785     -416.078    2886.6951   -36.097208   -66.347332   -459.52165    80.193969 
   83300    89.221782    -108.9516  0.080729743   -108.87087   -361.73916    4.3118845    4.3118845    4.3118845   -361.73916   -1157.4695   -708.46843    780.72044    976.12613   -134.75477    566.39542    80.168056 
   83400    80.900975   -108.94402  0.073200902   -108.87082    1543.5973    4.3116848    4.3116848    4.3116848    1543.5973    152.41566    2967.7241    1510.6522   -747.66134       261.94     827.4806    80.156919 
   83500    114.53704   -108.97421   0.10363552   -108.87057    40.895074    4.3123368    4.3123368    4.3123368    40.895074   -1611.4613    -1140.123    2874.2695   -153.33262   -1314.5445   -1246.1746    80.193289 
   83600    125.00778   -108.98373   0.11310966   -108.87062   -1232.4559    4.3120177    4.3120177    4.3120177   -1232.4559   -3100.6601   -2759.9671    2163.2593    1283.4378    612.11173     196.9652    80.175489 
   83700    89.954661   -108.95221  0.081392868   -108.87082     1292.628    4.3119244    4.3119244    4.3119244     1292.628   -1230.1923    2005.7929    3102.2836   -308.27783   -938.31062    1317.5119    80.170282 
   83800    97.030026   -108.95859  0.087794806    -108.8708   -90.860379    4.3122821    4.3122821    4.3122821   -90.860379   -1380.2169     864.9535    242.68227   -1441.9382    413.67951    90.936044    80.190235 
   83900    67.645494   -108.93229  0.061207065   -108.87109    349.21921    4.3114985    4.3114985    4.3114985    349.21921   -277.51489   -2015.4124    3340.5849    583.43756   -1344.2221    -113.2888    80.146528 
   84000    125.50491   -108.98417   0.11355948   -108.87061   -2371.1531    4.3129755    4.3129755    4.3129755   -2371.1531   -4095.7685   -3003.9982   -13.692667    423.49667    775.06238    1887.4973    80.228925 
   84100    107.64056   -108.96808  0.097395437   -108.87069    310.66244    4.3119859    4.3119859    4.3119859    310.66244   -1483.1108   -371.16015    2786.2582    373.81997   -743.99365   -1113.1566    80.173711 
   84200    93.830177   -108.95584  0.084899516   -108.87094   -23.488955     4.311715     4.311715     4.311715   -23.488955   -2452.6381    3634.5693   -1252.3981    62.355781    891.42383    222.81171    80.158605 
   84300    90.802851   -108.95309  0.082160328   -108.87093    346.28327    4.3128319    4.3128319    4.3128319    346.28327    153.00308   -1820.3462    2706.1929   -1286.2667   -1110.7772   -531.77071    80.220914 
   84400    124.53936   -108.98336   0.11268583   -108.87068   -1955.2128    4.3115432    4.3115432    4.3115432   -1955.2128    -1720.289   -3069.8661   -1075.4834    643.53788     165.1595    754.36755    80.149023 
   84500    77.119897   -108.94079  0.069779703   -108.87101   -111.88947    4.3125713    4.3125713    4.3125713   -111.88947   -3429.8988   -1198.0739    4292.3044     1055.854   -325.18445    629.00335     80.20637 
   84600    104.96949   -108.96571    0.0949786   -108.87073    59.810606    4.3122975    4.3122975    4.3122975    59.810606    80.069566    2544.2793   -2444.9171   -1225.2843   -144.71687    1043.3407    80.191095 
   84700    81.236867    -108.9444  0.073504824   -108.87089    2081.8121    4.3110065    4.3110065    4.3110065    2081.8121   -361.24402    1691.6358    4915.0445   -732.44527   -891.31875   -1047.1904    80.119096 
   84800    122.18128   -108.98135   0.11055219    -108.8708   -2273.3822    4.3133579    4.3133579    4.3133579   -2273.3822   -682.49929   -4172.7314    -1964.916    1032.5783    148.94331    328.19578    80.250264 
   84900    114.72731   -108.97455   0.10380768   -108.87074    404.62094    4.3113826    4.3113826    4.3113826    404.62094   -2686.9926   -572.03321    4472.8886   -334.80533   -110.54521   -121.37817    80.140068 
   85000     99.75629   -108.96101  0.090261588   -108.87075    404.51792    4.3120963    4.3120963    4.3120963    404.51792   -1346.7885     2228.109    332.23325    485.30045   -121.78701    20.397771    80.179871 
   85100    67.129558   -108.93169  0.060740235   -108.87095    756.99743    4.3125773    4.3125773    4.3125773    756.99743   -988.60395    152.38444    3107.2118    26.831222    -100.6732    356.02309    80.206704 
   85200    107.60926   -108.96787  0.097367116    -108.8705   -638.99792    4.3113463    4.3113463    4.3113463   -638.99792     1215.768   -2571.2437   -561.51808   -671.14161   -970.82233    776.43491    80.138043 
   85300     110.9796   -108.97102   0.10041667    -108.8706   -1622.9956    4.3130617    4.3130617    4.3130617   -1622.9956   -3692.0611   -3968.4838    2791.5583    1509.1329    4.7343498    428.18382    80.233734 
   85400    100.77346   -108.96202  0.091181948   -108.87083   -328.71428    4.3119648    4.3119648    4.3119648   -328.71428   -2396.4224    2390.0287   -979.74912    263.62176   -571.75658    633.92064    80.172534 
   85500    97.025375   -108.95868  0.087790598   -108.87089     1630.288    4.3116562    4.3116562    4.3116562     1630.288   -655.87318    2158.0033    3388.7339    -2177.188    13.985907   -682.95431    80.155324 
   85600    104.13265    -108.9651  0.094221412   -108.87088   -1049.5128     4.312883     4.312883     4.312883   -1049.5128    107.82233   -2396.4727   -859.88813   -119.27613   -884.26641   -26.362828    80.223762 
   85700    98.461397   -108.95992  0.089089941   -108.87083   -1760.8881    4.3118567    4.3118567    4.3118567   -1760.8881   -1931.6893   -4277.9399    926.96477     1617.397    1105.1399    1580.2061    80.166508 
   85800    95.524053   -108.95711  0.086432171   -108.87068   -166.16015     4.312428     4.312428     4.312428   -166.16015   -640.65806   -362.69548     504.8731   -736.33842   -445.74046    -421.1341    80.198373 
   85900    97.978261   -108.95939   0.08865279   -108.87073   -36.156878    4.3121462    4.3121462    4.3121462   -36.156878    -3286.864    2591.9791    586.41424    610.76749    366.42288     129.6818    80.182652 
   86000    77.076827   -108.94077  0.069740732   -108.87103    1882.2341    4.3115615    4.3115615    4.3115615    1882.2341    4248.7505   -776.40716    2174.3589   -365.01957    -1043.245    345.07539    80.150041 
   86100    149.44922   -109.00579   0.13522479   -108.87057   -2317.0558    4.3126378    4.3126378    4.3126378   -2317.0558    -2163.215   -2807.2567   -1980.6956   -360.90922   -51.627834   -376.74947    80.210079 
   86200    84.240113   -108.94722  0.076222225     -108.871    913.21163    4.3119561    4.3119561    4.3119561    913.21163   -383.32706   -223.47737    3346.4393    659.66009     -824.688    253.98842    80.172052 
   86300    100.21028   -108.96157   0.09067237    -108.8709   -610.47071    4.3119493    4.3119493    4.3119493   -610.47071   -718.19857     452.7052   -1565.9188   -205.02763    353.06417    1049.4463    80.171669 
   86400    74.972848    -108.9387  0.067837009   -108.87087    1902.8947    4.3120342    4.3120342    4.3120342    1902.8947    821.54218    819.05075    4068.0912    -1849.128   -1251.3361   -532.61379    80.176406 
   86500    116.66811   -108.97625   0.10556376   -108.87069   -1854.6854    4.3122785    4.3122785    4.3122785   -1854.6854    1300.8718   -4475.2433   -2389.6846    1746.2421    731.97421     529.3182    80.190034 
   86600    95.433746   -108.95731  0.086350459   -108.87096   -450.28705    4.3120198    4.3120198    4.3120198   -450.28705   -2662.6392   -1132.2078    2443.9859    1108.2405   -600.41863    1137.6504    80.175602 
   86700    120.70779   -108.97985   0.10921894   -108.87063   -617.87186    4.3125749    4.3125749    4.3125749   -617.87186   -1258.3502    1403.4802   -1998.7455    -1160.935    232.45501   -1616.8785    80.206574 
   86800     80.12224   -108.94341  0.072496287   -108.87092    1590.6723    4.3114452    4.3114452    4.3114452    1590.6723    467.97254   -210.28477    4514.3293   -271.52728   -1235.5893    345.42894    80.143554 
   86900    112.55167   -108.97248   0.10183912   -108.87064   -1902.8484    4.3125717    4.3125717    4.3125717   -1902.8484   -94.821284   -2574.9707   -3038.7533    207.38376    258.92778     1651.005    80.206395 
   87000     93.11949   -108.95493  0.084256471   -108.87067   -61.634615    4.3124421    4.3124421    4.3124421   -61.634615   -727.53211   -2927.0867    3469.7149    132.95582   -961.29728   -77.948256    80.199164 
   87100    103.72032   -108.96455  0.093848323    -108.8707    -1497.085    4.3116114    4.3116114    4.3116114    -1497.085   -1419.6358    534.34604   -3605.9653    369.42778     352.6274    489.17062    80.152825 
   87200    65.444292   -108.93042  0.059215371    -108.8712    1783.3791    4.3123973    4.3123973    4.3123973    1783.3791    1171.8238     395.6511    3782.6625    -834.0673   -553.26942    1026.9199    80.196665 
   87300    134.87444   -108.99275   0.12203723   -108.87072   -450.31853    4.3118137    4.3118137    4.3118137   -450.31853     2616.576   -1502.7962   -2464.7354   -1036.2085    97.157073   -1623.2522    80.164108 
   87400    105.08428   -108.96601  0.095082469   -108.87092   -93.163089     4.311918     4.311918     4.311918   -93.163089   -1708.3229   -1615.0991    3043.9327    1585.6693   -8.3871338    407.34604    80.169927 
   87500    98.659578   -108.96008  0.089269259   -108.87081    -526.1843    4.3127757    4.3127757    4.3127757    -526.1843     1539.289   -192.39288    -2925.449   -327.31344    194.66927    998.54289    80.217778 
   87600    96.119981   -108.95759  0.086971379   -108.87062    854.42127    4.3110832    4.3110832    4.3110832    854.42127    150.63482    482.60151    1930.0275    -800.2853   -760.19371   -515.09534     80.12337 
   87700    68.855994   -108.93328   0.06230235   -108.87098    798.79321    4.3123726    4.3123726    4.3123726    798.79321    4720.3818   -2363.1516    39.149449    153.19725   -727.94535    650.88028    80.195283 
   87800    126.78185   -108.98553   0.11471488   -108.87081    -2039.518    4.3124457    4.3124457    4.3124457    -2039.518   -1933.9113   -3106.8161   -1077.8265     913.1606   -381.01364    1581.3088    80.199364 
   87900    101.15005   -108.96235  0.091522694   -108.87083    1277.3341    4.3113774    4.3113774    4.3113774    1277.3341    1129.2147    1592.6135    1110.1741   -419.73755   -957.28971   -957.49329    80.139775 
   88000      107.132   -108.96786  0.096935281   -108.87092   -1379.6791    4.3128902    4.3128902    4.3128902   -1379.6791   -541.73783   -1025.1289   -2572.1707   -543.57706    303.59735   -314.28183    80.224162 
   88100    78.485228   -108.94204  0.071015083   -108.87103    1181.7848    4.3115691    4.3115691    4.3115691    1181.7848    3086.3677   -906.60056    1365.5872   -1224.1405   -1136.9526    956.54424    80.150465 
   88200     130.5959   -108.98867   0.11816591   -108.87051   -2271.3163    4.3123591    4.3123591    4.3123591   -2271.3163    -1127.565   -4864.6634   -821.72029    1053.3321    739.86796   -655.24964    80.194531 
   88300    75.875408   -108.93961  0.068653664   -108.87096   -396.49822    4.3126116    4.3126116    4.3126116   -396.49822   -1355.8409    -584.7076    751.05383    1155.1858   -1167.2848    1467.0892     80.20862 
   88400    103.62614   -108.96457  0.093763105    -108.8708     -572.829    4.3116101    4.3116101    4.3116101     -572.829    986.12607   -207.99357   -2496.6195   -930.27479    777.30725    499.25177    80.152752 
   88500    80.800495   -108.94397  0.073109985   -108.87086    1849.2092    4.3121005    4.3121005    4.3121005    1849.2092    3400.2427   -196.70969    2344.0948   -617.42759   -2156.6695   -269.83043    80.180105 
   88600    135.05751   -108.99288   0.12220287   -108.87067   -2737.5201    4.3126007    4.3126007    4.3126007   -2737.5201   -1651.7637   -3942.9249   -2617.8717    241.36155    694.75319   -9.3277559    80.208012 
   88700    91.025208   -108.95325  0.082361521   -108.87088    1738.2378    4.3114672    4.3114672    4.3114672    1738.2378    2128.8506   -679.26176    3765.1245   -425.75173   -1569.7897     883.6662    80.144784 
   88800    124.23474    -108.9829   0.11241021   -108.87049   -1122.7671     4.312627     4.312627     4.312627   -1122.7671   -1195.9002    1034.1862   -3206.5874   -512.47892     1229.707   -482.77921     80.20948 
   88900    39.481917   -108.90698  0.035724068   -108.87125    2849.4904    4.3114177    4.3114177    4.3114177    2849.4904    6421.6106   -535.15966    2662.0202   -374.67423   -1472.7223    826.26678    80.142022 
   89000    126.13047   -108.98493    0.1141255    -108.8708    -2062.276    4.3121671    4.3121671    4.3121671    -2062.276    1008.9967   -3998.4761   -3197.3485   -269.89064    936.98636   -19.715381    80.183823 
   89100    107.44783   -108.96807  0.097221055   -108.87085   -68.110375    4.3125945    4.3125945    4.3125945   -68.110375   -1295.2635   -1745.4893    2836.4217    1705.7678   -1457.5379    380.25911    80.207668 
   89200    104.35155   -108.96531  0.094419476   -108.87089   -138.72148     4.311679     4.311679     4.311679   -138.72148     2691.379   -113.52617   -2994.0173   -410.79802    843.45956    385.36506    80.156593 
   89300    91.238568   -108.95341  0.082554574   -108.87085    1266.4646    4.3121599    4.3121599    4.3121599    1266.4646    1473.0516    1658.2737    668.06843   -1890.0032   -1853.7619   -247.67332    80.183419 
   89400    105.71533   -108.96642  0.095653449   -108.87077   -1025.8281    4.3123614    4.3123614    4.3123614   -1025.8281    1679.2913   -3358.4969   -1398.2787    388.43057   -237.61475   -124.49191    80.194659 
   89500    98.825998   -108.96035  0.089419839   -108.87093   -2342.9291    4.3119383    4.3119383    4.3119383   -2342.9291   -1270.4273   -5019.9074   -738.45272    978.53054   -853.94939    1660.9036    80.171056 
   89600    95.591843   -108.95727  0.086493508   -108.87078   -739.54763    4.3128781    4.3128781    4.3128781   -739.54763   -1407.9437   -734.15983   -76.539338    -941.2268     37.54862    117.20133    80.223491 
   89700    92.694542   -108.95468   0.08387197   -108.87081    719.94972    4.3116762    4.3116762    4.3116762    719.94972    3296.5665    513.30288   -1650.0202    -127.3969   -248.99953    -37.01285    80.156437 
   89800    89.653593   -108.95216  0.081120455   -108.87104    -36.87201    4.3120582    4.3120582    4.3120582    -36.87201    121.08466   -621.58483    389.88414   -63.041996   -1000.6892    552.78915    80.177744 
   89900    136.98509   -108.99452   0.12394699   -108.87057   -2163.9317    4.3128692    4.3128692    4.3128692   -2163.9317   -1048.7901   -4750.0571   -692.94799   -563.53235     304.3436   -1262.5595    80.222991 
   90000    99.882408   -108.96117  0.090375702   -108.87079    422.32993      4.31154      4.31154      4.31154    422.32993    800.90819   -777.79569    1243.8773    1096.8712   -807.01225    1140.7587    80.148842 
   90100    84.055186   -108.94704  0.076054899   -108.87098     50.59927     4.312438     4.312438     4.312438     50.59927    1423.8883   -904.67267   -367.41785   -1024.7469    414.91933    1054.1914    80.198933 
   90200    72.855467   -108.93681  0.065921157   -108.87089    2479.8529    4.3117731    4.3117731    4.3117731    2479.8529     4353.501    1482.3213    1603.7362   -1123.6564   -2269.1538   -723.66195    80.161845 
   90300    134.42582   -108.99221    0.1216313   -108.87058   -2192.8098    4.3119196    4.3119196    4.3119196   -2192.8098   -1600.3662   -4371.7188   -606.34439    942.28073    919.16816    459.70418    80.170012 
   90400    80.623537   -108.94399  0.072949871   -108.87104    620.21414    4.3124851    4.3124851    4.3124851    620.21414    2231.0364   -2009.1239    1638.7299    422.62752   -1192.2119    1594.5745    80.201559 
   90500     134.7642   -108.99256   0.12193748   -108.87063   -495.41146    4.3119214    4.3119214    4.3119214   -495.41146    154.56205     464.1196   -2104.9161   -2265.6665     1376.488    -1768.152    80.170113 
   90600    67.088773   -108.93181  0.060703332   -108.87111    2848.4852    4.3114442    4.3114442    4.3114442    2848.4852    3157.4297     1278.328     4109.698    544.24578    -2203.212   -266.83921      80.1435 
   90700    114.83754   -108.97478   0.10390742   -108.87088   -2788.1999     4.312913     4.312913     4.312913   -2788.1999   -1313.5593   -3825.3503   -3225.6902    619.49089    1370.7928    1285.2096    80.225435 
   90800    96.639619   -108.95822  0.087441558   -108.87078   -359.04645    4.3117839    4.3117839    4.3117839   -359.04645   -518.89713   -2669.7301    2111.4879     346.9935   -1933.4015   -158.35679    80.162446 
   90900     100.3489   -108.96152  0.090797795   -108.87072   -1576.9275    4.3123064    4.3123064    4.3123064   -1576.9275    942.97144   -2868.6204   -2805.1335    242.29424    962.38286    1019.6455    80.191591 
   91000    69.900476   -108.93429   0.06324742   -108.87104    1134.7137    4.3123822    4.3123822    4.3123822    1134.7137   -3.4727442    2297.2449    1110.3689   -792.05465   -2553.5784    1028.3547    80.195822 
   91100    132.45443   -108.99033   0.11984756   -108.87048   -764.45513    4.3116544    4.3116544    4.3116544   -764.45513   -1136.2742   -2014.2427    857.15157   -1051.3181    387.31177   -1924.4006    80.155225 
   91200     105.0569   -108.96583  0.095057689   -108.87077   -1196.7395     4.312784     4.312784     4.312784   -1196.7395   -1089.1152    -2130.918   -370.18534    657.01692   -799.76567    814.69894    80.218241 
   91300     104.3205   -108.96515  0.094391383   -108.87076   -1708.6818    4.3123669    4.3123669    4.3123669   -1708.6818   -1284.7676   -3037.0311   -804.24671   -117.30915    758.43228    1366.3074    80.194968 
   91400    76.515818   -108.94005   0.06923312   -108.87082    1918.7866    4.3112619    4.3112619    4.3112619    1918.7866    2945.2651    826.61248    1984.4823   -1434.1299   -1005.8655   -1614.5188    80.133334 
   91500    94.158577    -108.9561  0.085196659    -108.8709   -515.54911    4.3128318    4.3128318    4.3128318   -515.54911   -2244.7111   -1039.2185    1737.2823    1270.4242   -551.88135    427.36086    80.220906 
   91600     104.2825   -108.96522  0.094356999   -108.87087    -76.04638    4.3116047    4.3116047    4.3116047    -76.04638     962.1864   -2647.2178    1456.8923    163.51718    198.69705    1484.0801    80.152452 
   91700    126.89455   -108.98544   0.11481686   -108.87062   -228.64844    4.3122023    4.3122023    4.3122023   -228.64844    124.42616   -537.86779    -272.5037   -98.829909   -776.34313   -640.46617    80.185787 
   91800    92.624473   -108.95476   0.08380857   -108.87096    676.22479    4.3122439    4.3122439    4.3122439    676.22479    449.05258   -429.15318     2008.775   -1315.0839    -364.8635   -232.96171    80.188107 
   91900     75.38301   -108.93924  0.068208131   -108.87103    2128.0778    4.3110534    4.3110534    4.3110534    2128.0778    2782.0647    29.294807    3572.8738   -229.54914    -1570.994     256.0848    80.121708 
   92000    132.69139   -108.99056   0.12006196    -108.8705   -2009.7549    4.3128823    4.3128823    4.3128823   -2009.7549   -3685.9029   -2924.4501    581.08834   -258.11061     1015.359   -451.97174    80.223725 
   92100    75.122854   -108.93899  0.067972737   -108.87102    315.41876    4.3117042    4.3117042    4.3117042    315.41876    2848.1167   -2209.8387     307.9783    1269.5697    -1104.892    1217.8786    80.157998 
   92200    107.41625   -108.96822  0.097192479   -108.87103   -1285.7637    4.3121283    4.3121283    4.3121283   -1285.7637   -1897.9043   -625.10249   -1334.2844   -911.66244    1043.2171     528.3076    80.181654 
   92300    83.593572   -108.94666  0.075637221   -108.87103     1607.464    4.3122167    4.3122167    4.3122167     1607.464    308.32331    407.65985    4106.4087      115.874   -2393.9317   -1946.6904    80.186589 
   92400    122.62978   -108.98185     0.110958   -108.87089   -1958.0056    4.3119334    4.3119334    4.3119334   -1958.0056   -1669.2487   -2789.7505   -1415.0176    256.92224    1205.2313    931.22452    80.170787 
   92500    106.81626   -108.96741  0.096649599   -108.87076   -947.11429    4.3126247    4.3126247    4.3126247   -947.11429   -2606.8965   -1469.8406    1235.3942    133.79304   -1859.2647    897.85925    80.209348 
   92600    106.14027   -108.96664  0.096037946    -108.8706   -674.32057     4.312156     4.312156     4.312156   -674.32057    275.76052   -832.97139   -1465.7508   -411.58374    654.06534   -384.19871    80.183203 
   92700     54.79998   -108.92057  0.049584174   -108.87098    1382.3829    4.3117102    4.3117102    4.3117102    1382.3829   -61.918081    819.18864     3389.878    -598.1242   -2647.2804    63.288442    80.158333 
   92800     111.9051   -108.97185   0.10125408    -108.8706   -1565.9366    4.3125599    4.3125599    4.3125599   -1565.9366   -1997.5065   -3482.1895    781.88614   -350.19983    1055.7681    420.87414    80.205737 
   92900     114.4701   -108.97412   0.10357495   -108.87055    259.38779    4.3119277    4.3119277    4.3119277    259.38779   -185.64546    122.96663    840.84221     473.5078    -854.6643   -256.24299    80.170469 
   93000    119.25571   -108.97861   0.10790507   -108.87071   -920.52335    4.3120899    4.3120899    4.3120899   -920.52335   -1587.8889   -1873.1328    699.45164    125.63273    695.78638    324.03606    80.179514 
   93100    69.271021   -108.93372  0.062677876   -108.87104    2748.1697    4.3118533    4.3118533    4.3118533    2748.1697    1893.0901    2467.9459    3883.4732   -1733.2629   -1068.9443    -1408.877    80.166317 
   93200    122.11808   -108.98128     0.110495   -108.87078   -920.49512    4.3118621    4.3118621    4.3118621   -920.49512   -547.59899   -2619.1066    405.22025    986.73523   -240.03865    60.377359    80.166808 
   93300    84.129817   -108.94716  0.076122427   -108.87104   -412.52454    4.3120377    4.3120377    4.3120377   -412.52454   -189.50523   -3769.2226    2721.1542    280.37244   -253.11238    1672.2634    80.176603 
   93400    110.70917   -108.97097   0.10017199    -108.8708   -923.54641    4.3125574    4.3125574    4.3125574   -923.54641    61.917181   -833.77307   -1998.7833    27.793155   -484.66528    414.64755    80.205595 
   93500    89.552754   -108.95188  0.081029214   -108.87085    1731.2151    4.3113222    4.3113222    4.3113222    1731.2151    203.87801    1315.7695    3673.9977   -451.06051   -752.87362   -1194.8623    80.136696 
   93600    82.919806   -108.94609  0.075027583   -108.87106    548.25622      4.31226      4.31226      4.31226    548.25622    2758.6776   -1131.0468    17.137903   -391.28017   -1088.7028    329.85599    80.189002 
   93700     141.6235   -108.99872   0.12814392   -108.87058   -2508.1398    4.3126002    4.3126002    4.3126002   -2508.1398   -4204.7502   -2578.0799   -741.58949   -926.12946    998.97378   -412.67233    80.207984 
   93800    96.687467    -108.9583  0.087484852   -108.87081    332.92721    4.3114383    4.3114383    4.3114383    332.92721    2395.5768   -2911.4009    1514.6058    1169.6476   -782.41416    398.06765     80.14317 
   93900    82.857158   -108.94606  0.074970898   -108.87109   -727.77549    4.3129895    4.3129895    4.3129895   -727.77549   -3662.3282    1488.1145   -9.1127268    -203.8293    303.92105    494.95028    80.229705 
   94000    76.466622   -108.94018  0.069188606   -108.87099    1318.6292    4.3113564    4.3113564    4.3113564    1318.6292    3138.8595     73.83108    743.19703   -855.73567   -1770.7604   -975.46645    80.138605 
   94100    118.68437   -108.97812   0.10738811   -108.87073   -1667.2674    4.3123006    4.3123006    4.3123006   -1667.2674   -2284.0639   -1988.6181   -729.12018    1171.4831      877.657    1153.0442     80.19127 
   94200    109.08076    -108.9695  0.098698567    -108.8708   -1361.1824    4.3128324    4.3128324    4.3128324   -1361.1824   -1374.7986   -2653.8595   -54.889192    221.51259   -1563.9763    784.29451    80.220939 
   94300    107.16436   -108.96768  0.096964564   -108.87072    1096.8695    4.3111506    4.3111506    4.3111506    1096.8695   -352.31973      1541.31    2101.6183   -1393.8504    718.48066    -1867.341    80.127131 
   94400    83.638665   -108.94648  0.075678021   -108.87081    1497.4596    4.3125155    4.3125155    4.3125155    1497.4596    1403.9859    1880.7279    1207.6651   -867.93176   -2149.7753   -306.00237     80.20326 
   94500    103.71453   -108.96452  0.093843089   -108.87068   -1522.9897    4.3120387    4.3120387    4.3120387   -1522.9897   -245.01142   -2846.2985   -1477.6593    258.93245    1412.7454    1503.6525    80.176658 
   94600    97.209175   -108.95857  0.087956904   -108.87062   -34.076046    4.3118832    4.3118832    4.3118832   -34.076046    1564.3039   -2804.4722    1137.9401   -369.84369   -528.99552   -796.97455    80.167984 
   94700    114.05602   -108.97377   0.10320029   -108.87057   -1192.6802    4.3127179    4.3127179    4.3127179   -1192.6802   -1918.6863   -2024.9725    365.61828    1367.0731     617.0324    543.29598     80.21455 
   94800    58.639939   -108.92418  0.053058649   -108.87112    3134.6169    4.3111837    4.3111837    4.3111837    3134.6169    4635.5123    2519.3815    2248.9569   -762.55173   -1486.0626   -101.57275    80.128972 
   94900    141.75113   -108.99895   0.12825941   -108.87069   -1645.0472     4.312562     4.312562     4.312562   -1645.0472   -781.92847   -1167.7002    -2985.513   -464.53631    351.08108    -1050.122    80.205851 
   95000    103.18295   -108.96434  0.093362102   -108.87097   -284.77393    4.3120801    4.3120801    4.3120801   -284.77393    1165.6842    -2814.525    794.51906    445.91343   -896.89515    1143.7984    80.178967 
   95100    97.774994   -108.95948   0.08846887   -108.87101   -951.42102    4.3121545    4.3121545    4.3121545   -951.42102    664.19218   -2343.3104   -1175.1448    60.024765   -52.096529    1210.8417    80.183115 
   95200    81.634007   -108.94477  0.073864165    -108.8709      906.776     4.312132     4.312132     4.312132      906.776    179.67673    767.51849    1773.1328   -1428.7946   -1091.6677    -2236.087    80.181861 
   95300    83.305755   -108.94624  0.075376798   -108.87086    468.74504    4.3119302    4.3119302    4.3119302    468.74504    4319.0498    717.75745   -3630.5721    78.006729   -67.280496    1182.1193    80.170605 
   95400    125.43323   -108.98415   0.11349462   -108.87065   -2408.5878    4.3125336    4.3125336    4.3125336   -2408.5878   -3308.5953   -2372.6349   -1544.5334     878.7797    509.84962    960.49721    80.204269 
   95500    109.85295   -108.97007  0.099397254   -108.87067    54.853374    4.3119759    4.3119759    4.3119759    54.853374    2171.0737   -1287.4982   -719.01531   -268.72129    84.958736   -1840.0416    80.173153 
   95600    95.764454   -108.95758   0.08664969   -108.87093     576.7999    4.3121137    4.3121137    4.3121137     576.7999   -1025.6429    1785.8463    970.19624   -226.62807    -821.5424    132.37801    80.180839 
   95700    84.445642   -108.94744  0.076408192   -108.87103    553.00515    4.3117595    4.3117595    4.3117595    553.00515    3202.6119   -671.61121    -871.9853   -913.53524   -833.00724    876.16845    80.161086 
   95800    109.54622   -108.96982  0.099119719    -108.8707   -983.50816    4.3124138    4.3124138    4.3124138   -983.50816    -1167.015    280.59856    -2064.108    543.77759     377.0482   -555.54727    80.197584 
   95900    102.46464   -108.96345  0.092712159   -108.87074   -917.60137    4.3120018    4.3120018    4.3120018   -917.60137    2030.2015   -3411.2122   -1371.7934    97.587059   -1077.2712     1151.056    80.174597 
   96000    82.599861    -108.9457   0.07473809   -108.87096    784.43867    4.3118699    4.3118699    4.3118699    784.43867    391.58213    824.99144    1136.7424   -229.14742    151.82678   -130.28387    80.167242 
   96100    97.333823   -108.95882  0.088069688   -108.87075    1423.8084    4.3122345    4.3122345    4.3122345    1423.8084     4586.303    1117.5503    -1432.428   -1462.4595   -1006.7333   -2083.3816    80.187582 
   96200    130.72426   -108.98885   0.11828206   -108.87056   -1434.1057    4.3117502    4.3117502    4.3117502   -1434.1057   -1396.1112   -2272.5786   -633.62733    737.56233    862.06256    955.77462    80.160564 
   96300     89.45285   -108.95177  0.080938818   -108.87083    243.75058    4.3125783    4.3125783    4.3125783    243.75058    4335.2797    -1201.759    -2402.269   -103.03024   -362.28989    647.56434    80.206763 
   96400    116.49657   -108.97601   0.10540855    -108.8706   -1028.1835    4.3118685    4.3118685    4.3118685   -1028.1835   -581.23409    -1109.193   -1394.1233    420.59699    117.10471   -1054.7381    80.167163 
   96500    41.723466   -108.90887  0.037752268   -108.87111    3132.3049    4.3113572    4.3113572    4.3113572    3132.3049    7745.7951    78.330466     1572.789   -825.42754    -1856.093     658.2892    80.138647 
   96600     133.7337   -108.99176   0.12100506   -108.87075   -2987.8922    4.3130202    4.3130202    4.3130202   -2987.8922   -3068.3129   -986.22049   -4909.1431    560.47544    591.70721    700.09366    80.231418 
   96700    104.97723    -108.9659  0.094985605   -108.87091    857.27653    4.3112188    4.3112188    4.3112188    857.27653    4015.0842   -1139.8102   -303.44436    319.48495    -860.3779   -640.36301    80.130932 
   96800    112.54796   -108.97277   0.10183576   -108.87093   -717.00651     4.312615     4.312615     4.312615   -717.00651   -43.450229    1209.5244   -3317.0937   -848.03891   -114.03277    378.87699    80.208811 
   96900    78.161498   -108.94175  0.070722166   -108.87103    1304.9056    4.3118016    4.3118016    4.3118016    1304.9056    3132.7763     1038.993   -257.05255   -1556.3144   -1243.0685   -1064.7519    80.163434 
   97000    103.46569   -108.96424  0.093617933   -108.87062   -382.81167    4.3115982    4.3115982    4.3115982   -382.81167     1214.838   -645.89239   -1717.3807    393.30674    661.91389   -347.29979    80.152091 
   97100    107.23161   -108.96765  0.097025416   -108.87062   -1998.4393    4.3130427    4.3130427    4.3130427   -1998.4393   -839.97817   -2406.0623   -2749.2774    1074.6623   -440.48986    1322.2875    80.232673 
   97200    92.982863   -108.95486  0.084132848   -108.87073    74.165294    4.3114959    4.3114959    4.3114959    74.165294    2250.0055    614.18884   -2641.6985   -326.32148    348.89131   -431.26938    80.146386 
   97300    87.671994   -108.95025  0.079327463   -108.87092    1566.6522    4.3119961    4.3119961    4.3119961    1566.6522    3578.2986    1993.8754   -872.21753    181.27154   -1374.7147   -769.76632    80.174279 
   97400    114.36926   -108.97441   0.10348371   -108.87093   -859.41515    4.3123524    4.3123524    4.3123524   -859.41515   -297.07571   -1311.7295   -969.44019   -823.82119   -537.88121    359.12936     80.19416 
   97500    108.99788   -108.96956  0.098623576   -108.87094   -204.85238    4.3116685    4.3116685    4.3116685   -204.85238    2622.7037   -1532.4679    -1704.793    -47.62806     -73.8153   -461.32639     80.15601 
   97600    113.38842   -108.97335   0.10259623   -108.87076   -597.30878    4.3124359    4.3124359    4.3124359   -597.30878    1598.1048   -1616.1961   -1773.8351    -319.8907   -368.16339    297.44611    80.198815 
   97700    67.382992   -108.93197  0.060969547     -108.871    1482.7723    4.3117753    4.3117753    4.3117753    1482.7723     4192.436    2075.9204   -1820.0396   -420.67589   -677.45697    111.82337    80.161968 
   97800    82.209114   -108.94525  0.074384534   -108.87086     523.9883    4.3118472    4.3118472    4.3118472     523.9883    3298.7589    -311.6542   -1415.1398    -749.3777   -215.99636    -1450.198    80.165977 
   97900    136.33847   -108.99382   0.12336191   -108.87046   -2403.4147    4.3125984    4.3125984    4.3125984   -2403.4147   -1930.5448   -3602.6163   -1677.0828    2066.7118    533.91836    530.61026    80.207884 
   98000    90.542673    -108.9528  0.081924913   -108.87088    1188.3154    4.3118182    4.3118182    4.3118182    1188.3154    5633.0635      116.186   -2184.3034   -200.67318   -538.06867    1083.8075     80.16436 
   98100    121.17105   -108.98043   0.10963811   -108.87079    -730.4496    4.3120115    4.3120115    4.3120115    -730.4496   -998.73517    1064.3148   -2256.9285    -1361.414   -192.24921   -1844.5261    80.175139 
   98200     63.53898   -108.92858  0.057491404   -108.87109    2473.9067    4.3120273    4.3120273    4.3120273    2473.9067    5100.9645    2146.3001    174.45548     7.504808   -1618.1554    210.41737    80.176024 
   98300    126.41361    -108.9851   0.11438169   -108.87072    -3265.415    4.3122513    4.3122513    4.3122513    -3265.415   -3188.6118   -2748.7033     -3858.93    296.87319    528.38779    900.71915    80.188519 
   98400    80.046789   -108.94341  0.072428017   -108.87098    99.536163     4.312033     4.312033     4.312033    99.536163    2964.2654    -2410.811   -254.84591   -406.64823    -701.8357   -657.50106    80.176339 
   98500    110.91218   -108.97115   0.10035567    -108.8708   -335.69758    4.3123966    4.3123966    4.3123966   -335.69758   -182.19916    3156.2792   -3981.1728   -190.11202    258.86899    208.31129    80.196624 
   98600    80.782956   -108.94411  0.073094116   -108.87101    1868.8803    4.3114412    4.3114412    4.3114412    1868.8803    2339.9569    1599.0716    1667.6125   -8.3660945   -1456.3959   -492.51085    80.143332 
   98700    124.67497   -108.98342   0.11280853   -108.87062   -1813.0417    4.3126945    4.3126945    4.3126945   -1813.0417   -2394.3228   -487.98043   -2556.8218   -710.98301    1021.0299   -2023.0617    80.213243 
   98800    107.69932   -108.96807  0.097448611   -108.87062   -366.19236    4.3121413    4.3121413    4.3121413   -366.19236    2635.6672   -2714.3618   -1019.8824    1414.6058   -933.39878    1391.8442     80.18238 
   98900    99.049375    -108.9603  0.089621956   -108.87068   -790.06621    4.3117659    4.3117659    4.3117659   -790.06621   -859.45444    -607.3646   -903.37958   -791.50095    379.45816    281.74174    80.161441 
   99000    57.569802   -108.92313  0.052090366   -108.87104    2171.5091    4.3124622    4.3124622    4.3124622    2171.5091    5012.8408    2261.7456   -760.05916   -567.59638   -1713.9015   -1834.3522    80.200284 
   99100    125.80607   -108.98447   0.11383197   -108.87064   -1063.3384    4.3115125    4.3115125    4.3115125   -1063.3384   -2247.8489   -1324.3172     382.1508    327.84664    180.93407    803.54988    80.147311 
   99200    93.197156   -108.95535  0.084326746   -108.87102   -23.665687    4.3122483    4.3122483    4.3122483   -23.665687    4506.3155   -2450.8208   -2126.4917    502.05368   -481.63975    848.06993    80.188349 
   99300    126.53973   -108.98532   0.11449581   -108.87083   -1441.7201    4.3124807    4.3124807    4.3124807   -1441.7201   -1288.2085   -485.27743   -2551.6743   -1846.4448    414.14443    -1560.546    80.201318 
   99400    85.211768   -108.94807  0.077101398   -108.87097    2429.4119    4.3110269    4.3110269    4.3110269    2429.4119    3902.1268    1685.8227    1700.2862    266.27586   -1149.3018   -287.55279    80.120234 
   99500    88.222303   -108.95076  0.079825393   -108.87094   -308.22756    4.3128804    4.3128804    4.3128804   -308.22756   -851.60932    629.96952    -703.0429    255.96201    618.31003   -533.12191    80.223619 
   99600    110.06082   -108.97026  0.099585339   -108.87067   -1741.6955    4.3118563    4.3118563    4.3118563   -1741.6955    406.01672   -2962.4222   -2668.6811    564.63444     72.31488   -746.54311    80.166484 
   99700    92.002649   -108.95393   0.08324593   -108.87069    107.20884    4.3119549    4.3119549    4.3119549    107.20884    1579.6893    241.89847   -1499.9613    329.48985   -348.41447     1703.049    80.171986 
   99800    103.37087   -108.96441  0.093532135   -108.87087   -935.00215     4.312712     4.312712     4.312712   -935.00215   -2074.4275    525.86895   -1256.4479   -395.05162   -489.32132   -943.18621    80.214221 
   99900    85.281813   -108.94817  0.077164777   -108.87101    2262.1066    4.3111533    4.3111533    4.3111533    2262.1066    1370.4485    2249.3982    3166.4732   -553.79577   -1127.8968   -1674.8981    80.127279 
  100000    137.74005   -108.99523    0.1246301    -108.8706   -1803.4016    4.3127241    4.3127241    4.3127241   -1803.4016   -2347.5839   -1515.7886   -1546.8323   -479.01614    26.411281    1047.5552    80.214895 
Loop time of 22.2297 on 1 procs for 100000 steps with 8 atoms

Pair  time (%) = 7.09583 (31.9206)
Kspce time (%) = 5.31821 (23.924)
Neigh time (%) = 0 (0)
Comm  time (%) = 1.08014 (4.85902)
Outpt time (%) = 0.0334404 (0.150431)
Other time (%) = 8.70203 (39.146)

Nlocal:    8 ave 8 max 8 min
Histogram: 1 0 0 0 0 0 0 0 0 0
Nghost:    2189 ave 2189 max 2189 min
Histogram: 1 0 0 0 0 0 0 0 0 0
Neighs:    2344 ave 2344 max 2344 min
Histogram: 1 0 0 0 0 0 0 0 0 0

Total # of neighbors = 2344
Ave neighs/atom = 293
Neighbor list builds = 0
Dangerous builds = 0
unfix 20
unfix 21
print "seeds:4019872"
seeds:4019872
