LAMMPS (10 Feb 2015)
# ---- initialize simulations
clear
units metal
dimension 3
boundary p p p
atom_style charge
atom_modify map array
# ---- create atoms
read_data /Users/eugeneragasa/pyflamestk_git/pypospack/tests/tests_integration/workflow/WorkflowLammpsThermalExpansion/param_6993/MgO_NaCl_unit.npt.T2000/lammps.structure
  triclinic box = (0 0 0) to (4.2565 4.2565 4.2565) with tilt (0 0 0)
  1 by 1 by 1 MPI processor grid
  reading atoms ...
  8 atoms
# ---- define interatomic potential
include potential.mod
mass 1 24.305
mass 2 15.999

group Mg type 1
4 atoms in group Mg
group O type 2
4 atoms in group O

set group Mg charge 1.61814101446
  4 settings made for charge
set group O charge -1.61814101446
  4 settings made for charge

variable R_cut equal 10.0

pair_style buck/coul/long ${R_cut}
pair_style buck/coul/long 10
pair_coeff 1 1 0.0 0.5 0.0 ${R_cut}
pair_coeff 1 1 0.0 0.5 0.0 10
pair_coeff 1 2 1169.10574889 0.285525631363 0.0 ${R_cut}
pair_coeff 1 2 1169.10574889 0.285525631363 0.0 10
pair_coeff 2 2 5328.19415446 0.197938803692 16.6059399876 ${R_cut}
pair_coeff 2 2 5328.19415446 0.197938803692 16.6059399876 10

kspace_style pppm 1.0e-5

neighbor 1.0 bin
neigh_modify every 1 delay 0 check yes
# ---- define settings
compute eng all pe/atom
compute eatoms all reduce sum c_eng
# ---- run minimization
reset_timestep 0
fix 1 all box/relax iso 0.0 vmax 0.001
thermo 10
thermo_style custom step pe lx ly lz xy xz yz press pxx pyy pzz pxy pxz pyz c_eatoms
min_style cg
minimize 1e-25 1e-25 5000 10000
PPPM initialization ...
  G vector (1/distance) = 0.352506
  grid = 8 8 8
  stencil order = 5
  estimated absolute RMS force accuracy = 3.81426e-05
  estimated relative force accuracy = 2.64886e-06
  using double precision FFTs
  3d grid and FFT values/proc = 3375 512
Neighbor list info ...
  1 neighbor list requests
  update every 1 steps, delay 0 steps, check yes
  master list distance cutoff = 11
Memory usage per processor = 4.06549 Mbytes
Step PotEng Lx Ly Lz Xy Xz Yz Press Pxx Pyy Pzz Pxy Pxz Pyz eatoms 
       0   -108.09373       4.2565       4.2565       4.2565            0            0            0    -32837.55    -32837.55    -32837.55    -32837.55 6.8800808e-12 1.9793426e-10 1.5308399e-10   -108.09373 
       9   -108.11055     4.226584     4.226584     4.226584            0            0            0    13.792758    13.792758    13.792758    13.792758 -4.4920118e-11 -8.154534e-11 2.0970287e-11   -108.11055 
Loop time of 0.0118771 on 1 procs for 9 steps with 8 atoms

Minimization stats:
  Stopping criterion = linesearch alpha is zero
  Energy initial, next-to-last, final = 
         -108.09372829     -108.110551709     -108.110551709
  Force two-norm initial, final = 4.74176 0.0024943
  Force max component initial, final = 4.74176 0.00196378
  Final line search alpha, max atom move = 0.00390625 7.67103e-06
  Iterations, force evaluations = 9 28

Pair  time (%) = 0.00325322 (27.3908)
Kspce time (%) = 0.00227642 (19.1665)
Neigh time (%) = 0 (0)
Comm  time (%) = 0.000448465 (3.7759)
Outpt time (%) = 0 (0)
Other time (%) = 0.00589895 (49.6668)

Nlocal:    8 ave 8 max 8 min
Histogram: 1 0 0 0 0 0 0 0 0 0
Nghost:    2189 ave 2189 max 2189 min
Histogram: 1 0 0 0 0 0 0 0 0 0
Neighs:    2344 ave 2344 max 2344 min
Histogram: 1 0 0 0 0 0 0 0 0 0

Total # of neighbors = 2344
Ave neighs/atom = 293
Neighbor list builds = 0
Dangerous builds = 0
unfix 1
# ---- define output variables ----
variable natoms equal "count(all)"
variable tot_energy equal "c_eatoms"
variable length_x equal "lx"
variable length_y equal "ly"
variable length_z equal "lz"
variable tilt_xy equal "xy"
variable tilt_xz equal "xz"
variable tilt_yz equal "yz"
variable tot_press equal "press"
variable press_xx equal "pxx"
variable press_yy equal "pyy"
variable press_zz equal "pzz"
variable press_xy equal "pxy"
variable press_xz equal "pxz"
variable press_yz equal "pyz"

# ---- output ----
print "pypospack:output_section:begin"
pypospack:output_section:begin
print "tot_energy = ${tot_energy}"
tot_energy = -108.110551708828
print "num_atoms = ${natoms}"
num_atoms = 8
print "xx = ${length_x}"
xx = 4.22658398474032
print "yy = ${length_y}"
yy = 4.22658398474032
print "zz = ${length_z}"
zz = 4.22658398474032
print "xy = ${tilt_xy}"
xy = 0
print "xz = ${tilt_xz}"
xz = 0
print "yz = ${tilt_yz}"
yz = 0
print "tot_press = ${tot_press}"
tot_press = 13.7927584127517
print "pxx = ${press_xx}"
pxx = 13.7927584125475
print "pyy = ${press_yy}"
pyy = 13.7927584121258
print "pzz = ${press_zz}"
pzz = 13.7927584135819
print "pxy = ${press_xy}"
pxy = -4.49201179574407e-11
print "pxz = ${press_xz}"
pxz = -8.15453399591787e-11
print "pyz = ${press_yz}"
pyz = 2.09702873442201e-11
print "pypospack:output_section:done"
pypospack:output_section:done
print "pypospack:lammps_sim:done"
pypospack:lammps_sim:done
#------------------------------------------------------------------------------
# RUN THERMOSTAT
# running using an NPT Nose-Hoover style thermostat
#------------------------------------------------------------------------------
variable tempdamp equal 0.1
variable pressdamp equal 1.0
# set initial velocities
velocity all create 2000 7219837 mom yes dist gaussian loop all
# fix for Nose-Hoover style thermostat
fix 20 all npt temp 2000 2000 0.1 aniso 0.0 0.0 1.0 drag 1.0 couple xyz
variable boxx equal lx
variable boxy equal ly
variable boxz equal lz
variable boxp equal press
variable boxt equal temp
# calculate averages every 10000 steps
reset_timestep 0
fix 21 all ave/time 10 10 100 v_boxx v_boxy v_boxz v_boxp v_boxt file lattice.out
thermo_style custom step temp pe ke etotal press lx ly lz press pxx pyy pzz pxy pxz pyz vol
thermo_modify flush yes
thermo 100
run 100000
PPPM initialization ...
  G vector (1/distance) = 0.352801
  grid = 8 8 8
  stencil order = 5
  estimated absolute RMS force accuracy = 3.76353e-05
  estimated relative force accuracy = 2.61363e-06
  using double precision FFTs
  3d grid and FFT values/proc = 3375 512
Memory usage per processor = 3.06549 Mbytes
Step Temp PotEng KinEng TotEng Press Lx Ly Lz Press Pxx Pyy Pzz Pxy Pxz Pyz Volume 
       0         2000   -108.11055     1.809642   -106.30091    25614.317     4.226584     4.226584     4.226584    25614.317    28187.239    36216.286    12439.425   -10835.797   -1624.6084    106.87101    75.503748 
     100    840.08705   -106.85616   0.76012842   -106.09603    5300.7366    4.2619684    4.2619684    4.2619684    5300.7366   -517.08659    32485.969   -16066.672    5868.8834   -17530.177   -3670.0866    77.415992 
     200    1355.4962     -106.819    1.2264814   -105.59252   -10019.508    4.3162534    4.3162534    4.3162534   -10019.508   -23971.418    49570.817   -55657.923   -5318.1503   -10711.085   -8093.1082    80.411989 
     300    1778.8247   -106.77123     1.609518   -105.16171   -39354.534    4.3501185    4.3501185    4.3501185   -39354.534   -17432.211   -21689.236   -78942.155    20742.221    6386.5263   -1257.7151    82.319602 
     400     1286.073    -105.9398    1.1636659   -104.77613   -19681.726    4.3429764    4.3429764    4.3429764   -19681.726   -54390.401    44378.191   -49032.968    30213.197   -1752.3948   -21656.848    81.914808 
     500    2407.0679   -106.69541    2.1779656   -104.51745   -2387.9624    4.3228984    4.3228984    4.3228984   -2387.9624    10205.838    15039.061   -32408.786    6406.5842   -11447.396    1824.0455    80.783949 
     600    1480.1447   -105.74262     1.339266   -104.40335    17520.122    4.3172327    4.3172327    4.3172327    17520.122   -32208.519     143397.9   -58629.015    860.17185   -17594.122    103.43131    80.466736 
     700    2326.1434   -106.48157    2.1047434   -104.37683    18182.519    4.3299309    4.3299309    4.3299309    18182.519    37976.917    11013.752    5556.8885    28023.754   -5171.3707   -17208.046    81.178851 
     800    2086.8512   -106.28005    1.8882268   -104.39183   -47287.442    4.3523754    4.3523754    4.3523754   -47287.442   -74341.779   -2836.8735   -64683.674   -9379.8473     -5935.38    4337.9741    82.447793 
     900     2767.567   -106.84856    2.5041528   -104.34441    -3632.509    4.3455657    4.3455657    4.3455657    -3632.509   -41524.436    56837.399    -26210.49   -5711.5613    2920.4444   -14268.902    82.061407 
    1000    1828.4133   -105.98946    1.6543868   -104.33507    35941.918    4.3268384    4.3268384    4.3268384    35941.918    39833.601    23594.166    44397.987   -6480.6919   -38427.392   -9442.5291    81.005036 
    1100    2102.2886   -106.27066    1.9021949   -104.36847    31553.041    4.3400965    4.3400965    4.3400965    31553.041   -18505.282    110011.88    3152.5279   -38301.315    5095.8358    108.32055    81.751959 
    1200    1481.1066   -105.72181    1.3401364   -104.38168    -19008.93    4.3709813    4.3709813    4.3709813    -19008.93   -40102.514    86908.169   -103832.45   -10826.189   -45969.506    3058.9552    83.509683 
    1300    1944.3544    -106.0963    1.7592927   -104.33701    2652.8065    4.3527428    4.3527428    4.3527428    2652.8065    5231.3719    64585.376   -61858.328    323.29233    2873.7398   -5830.9441    82.468674 
    1400    2113.1358   -106.21904    1.9120097   -104.30703     20931.26    4.3078727    4.3078727    4.3078727     20931.26   -39404.591    14612.237    87586.135   -35016.379   -15827.742    4588.3039    79.944498 
    1500    2716.4253   -106.86494    2.4578787   -104.40706   -5766.6878    4.3163962    4.3163962    4.3163962   -5766.6878   -23290.825   -16647.062    22637.824   -3769.7593    18461.438   -13812.478    80.419971 
    1600    1599.4187   -105.91163    1.4471877   -104.46444    100.54578    4.3633433    4.3633433    4.3633433    100.54578   -37637.989   -53891.669    91831.295    7954.7947    -20377.55   -5837.0858    83.072669 
    1700    1609.0032   -105.81368    1.4558599   -104.35782   -2022.9668    4.3887375    4.3887375    4.3887375   -2022.9668     21539.76   -9962.1583   -17646.502    11696.178   -25089.631    10246.553    84.531547 
    1800    2218.0276    -106.2713     2.006918   -104.26438   -28149.567    4.3767624    4.3767624    4.3767624   -28149.567   -6008.1479    2085.3741   -80525.928    3333.6968    2745.4869    5070.9952    83.841476 
    1900    2261.3534   -106.28386    2.0461201   -104.23774   -20576.786    4.3239974    4.3239974    4.3239974   -20576.786   -36424.621    1027.8874   -26333.625    -10777.88    1417.3031    951.66503     80.84558 
    2000    2101.5743   -106.16728    1.9015485   -104.26573    37057.409    4.2810619    4.2810619    4.2810619    37057.409    25743.398    21497.484    63931.345   -5713.4735    5257.9474    3873.6481    78.461123 
    2100    2326.7928   -106.50205     2.105331   -104.39671    15285.292    4.3026654    4.3026654    4.3026654    15285.292    31488.638    67076.048    -52708.81    5557.3689    8337.2735    15892.225    79.654942 
    2200     1845.759   -106.08407    1.6700815   -104.41399   -31817.315     4.341977     4.341977     4.341977   -31817.315   -63858.494    -74101.97    42508.519    43165.174   -14044.448    923.89024    81.858268 
    2300    1816.8917    -105.9846    1.6439618   -104.34064   -14380.365    4.3395902    4.3395902    4.3395902   -14380.365    -68821.36   -10756.697    36436.963   -1513.6845    38310.991    11609.788     81.72335 
    2400    1899.4888   -106.03674    1.7186974   -104.31805    20533.005    4.3291276    4.3291276    4.3291276    20533.005    7263.1676    96350.722   -42014.875    -2341.143    4776.4311    33599.604    81.133676 
    2500    1849.5173   -106.01196    1.6734821   -104.33848   -34233.023     4.329118     4.329118     4.329118   -34233.023   -80797.207    2070.8503   -23972.711   -7241.9901    15671.644     2591.639    81.133137 
    2600    2051.3266   -106.19519    1.8560834   -104.33911     598.0902    4.3136425    4.3136425    4.3136425     598.0902   -54713.911    8617.8866    47890.296   -17251.292     12180.36   -10923.321    80.266155 
    2700    2359.1405   -106.49599    2.1345999   -104.36139    18840.767    4.3061971    4.3061971    4.3061971    18840.767    9692.9026    54942.493   -8113.0956    22548.647   -21635.496    2824.3492    79.851248 
    2800     1947.833   -106.16008    1.7624402   -104.39764   -35494.778    4.3176319    4.3176319    4.3176319   -35494.778   -65326.988    20858.089   -62015.437   -25325.065     44539.71    19109.092    80.489057 
    2900    2043.5911   -106.24258    1.8490842    -104.3935    4681.8108    4.3205813    4.3205813    4.3205813    4681.8108   -24984.418    87803.583   -48773.733   -10909.426   -17168.478   -24804.681    80.654119 
    3000    1721.8096   -105.96056    1.5579296   -104.40263    25527.333    4.3178775    4.3178775    4.3178775    25527.333    1875.8188    64576.099    10130.082   -2543.2705    19927.419   -16000.008    80.502791 
    3100    2290.0048    -106.4553    2.0720445   -104.38326   -2970.6171    4.3242915    4.3242915    4.3242915   -2970.6171    3502.6053    18905.359   -31319.816   -1492.1978   -5496.7213   -3855.3018    80.862076 
    3200    1472.5982   -105.71119    1.3324378   -104.37875   -22400.963    4.3280807    4.3280807    4.3280807   -22400.963   -20815.969    11182.743   -57569.662    13989.544      3470.56   -21641.493     81.07483 
    3300    2263.4692   -106.41767    2.0480345   -104.36964   -26691.499    4.3120228    4.3120228    4.3120228   -26691.499   -75547.177    26680.123   -31207.442    26163.554    28525.439    22732.254    80.175772 
    3400    2487.9091   -106.62557    2.2511125   -104.37446   -210.72546    4.2912902    4.2912902    4.2912902   -210.72546   -20674.153   -17452.106    37494.082   -11497.251   -8330.6079   -28836.855    79.024846 
    3500     1878.205   -106.12405    1.6994394   -104.42461   -9618.4392    4.3015334    4.3015334    4.3015334   -9618.4392   -52825.914    92514.549   -68543.953    -7180.576    26825.674   -6579.8052     79.59209 
    3600    1817.5788   -106.05665    1.6445835   -104.41207   -20188.342     4.318737     4.318737     4.318737   -20188.342   -30650.112    6183.8823   -36098.795    38690.537    10403.925    20679.825    80.550877 
    3700    1697.3953   -105.92195    1.5358389   -104.38611    9555.5279    4.3034258    4.3034258    4.3034258    9555.5279    65885.681   -65766.353    28547.256   -8654.2155    9012.2782   -30259.382    79.697183 
    3800    2644.0024   -106.78656    2.3923489   -104.39421   -16216.471    4.2955937    4.2955937    4.2955937   -16216.471   -28813.193    -13091.14   -6745.0804    5711.8142    8083.5073     13956.52    79.262835 
    3900    1514.9847   -105.79333      1.37079   -104.42254    13964.246    4.2985384    4.2985384    4.2985384    13964.246    48213.688   -34535.159    28214.209    37944.375    6997.9088   -4737.0982    79.425951 
    4000    1620.3464   -105.88893    1.4661235    -104.4228   -338.68613     4.294382     4.294382     4.294382   -338.68613    36190.619   -22603.762   -14602.915    4945.1095    5374.4108   -15992.686    79.195776 
    4100    2429.6809   -106.61546    2.1984263   -104.41704   -17377.268      4.30018      4.30018      4.30018   -17377.268   -13307.456   -29587.876   -9236.4701   -9575.6022   -2447.2537   -899.75746    79.516985 
    4200    2146.3064   -106.35432    1.9420231    -104.4123   -11272.418     4.305432     4.305432     4.305432   -11272.418    7706.5645   -15994.078    -25529.74    523.69512   -509.16271    -27135.16    79.808694 
    4300    1744.1387   -105.98805    1.5781333   -104.40992    10104.626    4.3062739    4.3062739    4.3062739    10104.626    9625.8952    20693.949   -5.9674166   -13950.438    2596.3441    3350.1592    79.855521 
    4400    2233.1615   -106.40624    2.0206114   -104.38563   -11856.467    4.3131927    4.3131927    4.3131927   -11856.467   -602.76931    40048.887   -75015.519    10243.379   -9762.2523    2878.7623    80.241045 
    4500    1673.1552   -105.90501     1.513906    -104.3911   -24080.546    4.3141715    4.3141715    4.3141715   -24080.546    12997.421    775.66761   -86014.725    4951.8778   -16867.966   -28142.411    80.295684 
    4600    2592.7488   -106.72753    2.3459736   -104.38156    4127.1171    4.3142929    4.3142929    4.3142929    4127.1171   -45673.866    39315.002    18740.215   -15772.387     1600.019   -192.01463    80.302467 
    4700    2312.6491    -106.4874    2.0925335   -104.39487   -9026.9227    4.3226906    4.3226906    4.3226906   -9026.9227    339.32197    46318.411   -73738.501     46438.87    -7108.455   -14192.218    80.772301 
    4800    1491.8883   -105.75179    1.3498919    -104.4019   -16872.449    4.3274917    4.3274917    4.3274917   -16872.449   -26264.635    51168.709   -75521.421   -17111.174    1068.3308   -5867.8849    81.041737 
    4900     2207.052   -106.38452     1.996987   -104.38754   -15490.169    4.3137703    4.3137703    4.3137703   -15490.169   -35387.116    18735.309   -29818.699   -8804.1007    22780.095    6353.2526    80.273289 
    5000    2020.9578   -106.22049    1.8286051   -104.39189    10836.097     4.293377     4.293377     4.293377    10836.097   -37775.262    80115.492   -9831.9378    22548.867   -38775.698   -683.43729    79.140186 
    5100    1963.8949   -106.19534    1.7769734   -104.41837   -5938.0839    4.2920451    4.2920451    4.2920451   -5938.0839   -26328.595     41033.78   -32519.437   -13719.052    14848.698    9656.5675    79.066557 
    5200    1791.9599     -106.062    1.6214029   -104.44059   -27390.321    4.3047083    4.3047083    4.3047083   -27390.321    -18934.26    1036.9508   -64273.653   -7655.3466    30412.765   -2131.0238    79.768457 
    5300    1902.5324   -106.15127    1.7214513   -104.42982   -6154.2604    4.3064169    4.3064169    4.3064169   -6154.2604    631.39693    5931.3649   -25025.543    5938.2146   -32658.252   -15292.999    79.863475 
    5400    1983.4938   -106.21301    1.7947069    -104.4183     26281.96    4.3085152    4.3085152    4.3085152     26281.96   -7830.3742   -4818.8171    91495.071   -5078.5786    24180.459    5835.0951    79.980272 
    5500    2291.4305   -106.49252    2.0733345   -104.41919   -20011.711    4.2933805    4.2933805    4.2933805   -20011.711   -59793.545    5119.6729    -5361.261    4549.8224   -26609.205   -7934.6087    79.140379 
    5600    1446.6345    -105.7533    1.3089453   -104.44436    23948.904    4.2827469    4.2827469    4.2827469    23948.904   -13830.947   -2456.1704     88133.83    790.98308   -42522.613   -31074.271    78.553804 
    5700    2901.6088   -107.07052    2.6254366   -104.44509   -15388.842    4.3023947    4.3023947    4.3023947   -15388.842   -58107.261    37551.347   -25610.612    10427.868    26673.725    19999.233    79.639906 
    5800    1250.1556   -105.55531    1.1311671   -104.42414   -8586.3906    4.3156012    4.3156012    4.3156012   -8586.3906   -64555.763    12129.048    26667.544   -231.18575   -32150.145    958.90248    80.375543 
    5900     2345.699   -106.51426    2.1224378   -104.39182    11122.474    4.3052929    4.3052929    4.3052929    11122.474   -6226.9461   -2631.1968    42225.565   -8245.3861   -3259.9923   -28350.851    79.800961 
    6000    2075.2166   -106.28433    1.8776996   -104.40663   -4014.0832    4.3048146    4.3048146    4.3048146   -4014.0832   -13732.864   -21346.666    23037.281    23204.912   -11380.271    41708.855    79.774366 
    6100    1553.6819   -105.83216     1.405804   -104.42635   -41162.331    4.3241789    4.3241789    4.3241789   -41162.331   -94332.782    30846.078   -60000.288    909.59893   -37130.041   -285.26333    80.855761 
    6200    2630.6879   -106.75048    2.3803017   -104.37018    12309.349    4.3117859    4.3117859    4.3117859    12309.349   -31987.402   -17600.475    86515.925     65.67869    297.40305     385.5895    80.162558 
    6300    1173.3658   -105.44839     1.061686    -104.3867    9549.7722    4.3029349    4.3029349    4.3029349    9549.7722   -188.15603    13773.122     15064.35    16555.534    -37945.87   -4714.7584    79.669912 
    6400    2682.9693    -106.8059     2.427607    -104.3783   -22289.419    4.3102739    4.3102739    4.3102739   -22289.419   -25506.325   -42193.159    831.22607   -7868.7617    43202.341   -4114.4174    80.078259 
    6500    1334.5319   -105.60588    1.2075125   -104.39836    32558.416    4.3017598    4.3017598    4.3017598    32558.416    37944.319   -16594.438    76325.367    26927.387   -40433.702    36706.006    79.604657 
    6600    2326.6204   -106.53866     2.105175   -104.43348    30001.263    4.3128578    4.3128578    4.3128578    30001.263    49133.435    5235.7687    35634.585   -19333.893   -36413.285   -15338.255    80.222357 
    6700    2072.5404   -106.28582    1.8752781   -104.41054   -16297.637    4.3374539    4.3374539    4.3374539   -16297.637   -771.61549    1226.4748   -49347.771   -20056.794    9456.8431    14746.731    81.602716 
    6800    1576.1054   -105.79928    1.4260932   -104.37318   -19309.746    4.3215813    4.3215813    4.3215813   -19309.746    24693.976   -8203.1317   -74420.081   -476.87659   -36621.908    9246.5895    80.710135 
    6900    2230.0663    -106.3789    2.0178109   -104.36109    20397.429    4.3103511    4.3103511    4.3103511    20397.429   -12647.268   -48698.271    122537.83    8765.2807   -12089.064   -15051.722    80.082561 
    7000    1790.7958    -106.0265    1.6203496   -104.40615   -19355.376    4.3092122    4.3092122    4.3092122   -19355.376   -30303.095   -7180.5855   -20582.449    10178.143   -25479.794    32095.548    80.019095 
    7100    2295.4423   -106.48463    2.0769644   -104.40766    29413.737    4.3060177    4.3060177    4.3060177    29413.737   -9455.6703    66102.251    31594.629   -11699.385   -42226.858    431.85245    79.841268 
    7200     1491.906   -105.78991    1.3499079      -104.44   -11245.637     4.340095     4.340095     4.340095   -11245.637    55828.412    -6829.168   -82736.155    20156.852    418.85489      32703.6    81.751875 
    7300    1160.2621   -105.44252    1.0498295   -104.39269   -34323.796    4.3391944    4.3391944    4.3391944   -34323.796   -46553.373    38190.644   -94608.659    9976.1188   -45927.285    33170.091    81.700991 
    7400    3121.8087    -107.1366    2.8246781   -104.31193    4619.4984    4.3008255    4.3008255    4.3008255    4619.4984   -6905.6867    11532.462    9231.7193    -33492.64    14097.557   -7912.5267    79.552797 
    7500    1692.5145   -105.87951    1.5314227   -104.34809    3722.2375    4.2969085    4.2969085    4.2969085    3722.2375    7763.4476    65347.903   -61944.638    4738.1977   -30995.019    18489.424     79.33564 
    7600    1723.6477   -105.95852    1.5595927   -104.39892    -4960.838    4.3169537    4.3169537    4.3169537    -4960.838    10025.836    27327.075   -52235.424    9809.6062    2475.6921   -29558.309    80.451134 
    7700      1929.59   -106.13306    1.7459336   -104.38713    16774.334    4.3324485    4.3324485    4.3324485    16774.334    80242.633   -13159.757   -16759.875    16247.782    15045.356    21046.264    81.320536 
    7800    1916.4476   -106.10894     1.734042    -104.3749   -16622.577    4.3341297    4.3341297    4.3341297   -16622.577     -14487.3    7379.0984    -42759.53    2890.4656   -47466.469    6973.5841    81.415239 
    7900     1639.144   -105.85469     1.483132   -104.37156   -3532.7744    4.3213536    4.3213536    4.3213536   -3532.7744     9641.224     63239.87   -83479.417    7299.6222    38007.882    -12760.49    80.697374 
    8000     2619.972   -106.73432    2.3706058   -104.36371   -17115.171     4.303468     4.303468     4.303468   -17115.171    9704.4192   -8280.2611    -52769.67     22187.71   -11011.644    10914.076    79.699524 
    8100    1969.5702   -106.17886    1.7821085   -104.39675   -12509.443    4.3076315    4.3076315    4.3076315   -12509.443    19752.965     6783.731   -64065.024   -15809.719   -21564.989   -14415.343    79.931071 
    8200    2265.9585   -106.45485    2.0502869   -104.40457   -26184.023    4.3275806    4.3275806    4.3275806   -26184.023    24329.102   -25988.958   -76892.213    9141.1864    43660.263    13255.476    81.046729 
    8300    2645.6924   -106.79035    2.3938781   -104.39647   -52219.134    4.3294902    4.3294902    4.3294902   -52219.134   -25072.112   -29484.944   -102100.35    14385.949   -58443.189   -2593.0992    81.154066 
    8400     2186.487   -106.38951    1.9783794   -104.41113   -10512.902    4.3035518    4.3035518    4.3035518   -10512.902    29683.955   -19133.912    -42088.75    -907.9685    51581.629   -18430.501    79.704181 
    8500    2581.4078   -106.76035     2.335712   -104.42464    41173.476    4.2873959    4.2873959    4.2873959    41173.476     72565.01   -13233.798    64189.217    9772.4775   -8114.4534    1280.9715      78.8099 
    8600    1679.9622   -105.97752    1.5200651   -104.45745    -15519.75    4.3060685    4.3060685    4.3060685    -15519.75   -12707.698    21763.338   -55614.889    18885.457    1099.5187   -13393.781    79.844096 
    8700    1589.0804   -105.86003    1.4378333    -104.4222    -17735.27    4.3103174    4.3103174    4.3103174    -17735.27    -4861.984    44115.784    -92459.61   -17785.036    59902.112    5288.0598     80.08068 
    8800    2558.5794   -106.70584    2.3150564   -104.39078    3665.8946    4.3032793    4.3032793    4.3032793    3665.8946     81985.85    -8775.714   -62212.452   -3720.1452   -23879.913    16543.583    79.689042 
    8900    1474.6405   -105.74971    1.3342858   -104.41542   -8115.1731    4.3128793    4.3128793    4.3128793   -8115.1731   -8711.6335    60540.413   -76174.299    7876.0533    58148.308    2662.3846    80.223557 
    9000    2056.8749   -106.26689    1.8611036   -104.40579    3407.3117    4.3197772    4.3197772    4.3197772    3407.3117    89100.859   -51521.003   -27357.921    -43525.02   -7878.6165    17280.848    80.609096 
    9100    2284.3923   -106.47354    2.0669662   -104.40658    5176.5078    4.3111017    4.3111017    4.3111017    5176.5078    86514.793   -29105.383   -41879.887   -11206.363    23093.363   -810.15445    80.124401 
    9200    1727.9737   -105.99654    1.5635069   -104.43304   -18238.153    4.3080682    4.3080682    4.3080682   -18238.153   -14987.279   -5429.6341   -34297.547    16844.513    295.96541   -812.67365    79.955383 
    9300    2002.9977   -106.23183    1.8123544   -104.41948    17947.077    4.3047735    4.3047735    4.3047735    17947.077    61403.633    3249.5829   -10811.985    33920.146   -51287.011    2819.3163     79.77208 
    9400    1705.7788   -105.96281    1.5434245   -104.41939   -7861.5319    4.2969331    4.2969331    4.2969331   -7861.5319   -31112.503    44763.583   -37235.676    8726.7423    72043.088   -1017.8951    79.336999 
    9500    1832.3919   -106.08244    1.6579867   -104.42445    844.11638    4.3083802    4.3083802    4.3083802    844.11638    5756.5876    29563.408   -32787.647    5027.2415   -33047.296    9397.8922    79.972756 
    9600    2127.7136   -106.32066       1.9252   -104.39546   -27896.092    4.3243441    4.3243441    4.3243441   -27896.092   -6809.8909   -29170.834    -47707.55    13086.738    15834.226   -8035.5243    80.865025 
    9700    2464.4909   -106.58861    2.2299231   -104.35869   -38079.743    4.3285757    4.3285757    4.3285757   -38079.743   -51510.824    -5895.559   -56832.845    6951.2266    4308.4344   -2032.6957    81.102649 
    9800    2124.8777   -106.27542     1.922634   -104.35279   -40974.908    4.3174819    4.3174819    4.3174819   -40974.908   -23182.185   -25159.168   -74583.371    10209.412   -33542.953   -25131.381    80.480668 
    9900    2111.7294   -106.27708    1.9107371   -104.36634    19102.656    4.3116147    4.3116147    4.3116147    19102.656    54718.789    63046.127   -60456.948    19763.468    20121.092    2782.4544    80.153007 
   10000    2526.1976   -106.67531    2.2857567   -104.38955   -24480.137    4.3291344    4.3291344    4.3291344   -24480.137   -67371.087    38969.762   -45039.086    17279.438   -16978.613   -898.77889    81.134062 
   10100    2267.8226   -106.42919    2.0519735   -104.37721   -25044.809    4.3385661    4.3385661    4.3385661   -25044.809   -39431.431    22266.033   -57969.029    12175.464    31159.703   -20880.197    81.665506 
   10200    2247.3117   -106.37823    2.0334148   -104.34482    19105.747    4.3225501    4.3225501    4.3225501    19105.747    43428.303   -6915.8986    20804.837    12732.714   -36595.241    -540.9298    80.764425 
   10300    1646.5766   -105.87716    1.4898571    -104.3873    15708.722    4.3187241    4.3187241    4.3187241    15708.722   -36539.572    130903.34     -47237.6    26394.959    23655.349   -37153.102    80.550157 
   10400    2192.5169   -106.39006    1.9838353   -104.40623   -23445.786    4.3290251    4.3290251    4.3290251   -23445.786     5505.034   -39391.842   -36450.551    7739.5623    27343.567   -29211.451    81.127916 
   10500    1963.1965   -106.16811    1.7763415   -104.39176    40339.283    4.3210479    4.3210479    4.3210479    40339.283    16733.569   -13822.132    118106.41    1676.3814    8475.0538    12351.272    80.680249 
   10600     1809.225   -106.04995    1.6370248   -104.41292   -7457.7302    4.3323076    4.3323076    4.3323076   -7457.7302   -26928.805    48013.801   -43458.186   -24081.454    34941.941   -31954.761    81.312601 
   10700    2361.1635   -106.50791    2.1364304   -104.37148   -26382.837    4.3513929    4.3513929    4.3513929   -26382.837     -35463.3   -27830.122   -15855.089    7468.2677    11912.973    17900.473    82.391972 
   10800    1737.6089   -105.91109     1.572225   -104.33887   -14882.177    4.3234962    4.3234962    4.3234962   -14882.177    35088.374   -73706.855   -6028.0507    2760.4227    12223.075   -31495.148    80.817466 
   10900    1815.9377   -105.93103    1.6430986   -104.28793    79859.791    4.2818361    4.2818361    4.2818361    79859.791    169975.15    11729.517    57874.703   -4602.8762    7441.0833   -4444.0066    78.503699 
   11000    2357.9229   -106.52258    2.1334982   -104.38908   -24680.195    4.3114636    4.3114636    4.3114636   -24680.195   -20592.838    5008.8009   -58456.549    22102.446   -1908.2624    391.28038    80.144584 
   11100    1348.6333   -105.61839    1.2202717   -104.39812   -60699.863    4.3407521    4.3407521    4.3407521   -60699.863   -4432.4243   -72294.294   -105372.87   -6412.1192    12666.234   -56457.005    81.789007 
   11200    2673.4607   -106.77572    2.4190034   -104.35672    13473.108    4.3194432    4.3194432    4.3194432    13473.108   -34853.369   -13658.556    88931.249   -5434.8205   -25891.254    18258.649    80.590399 
   11300    2032.6844   -106.22362    1.8392156   -104.38441   -4289.0465    4.3041994    4.3041994    4.3041994   -4289.0465    4758.4457   -6600.8803   -11024.705   -14154.188    36081.383   -28413.014    79.740166 
   11400    1937.9968   -106.15439    1.7535402   -104.40085     19178.77    4.3024073    4.3024073    4.3024073     19178.77     38760.99    37294.411   -18519.092   -3693.1755    36621.454   -8434.8169     79.64061 
   11500     2095.778   -106.31727     1.896304   -104.42097    8046.3777    4.3198917    4.3198917    4.3198917    8046.3777    46655.125    -28216.97     5700.978   -1284.7683   -42332.135   -42366.759    80.615502 
   11600    2316.7009    -106.4933    2.0961996    -104.3971   -73876.316    4.3470287    4.3470287    4.3470287   -73876.316   -61457.651    -99444.04   -60727.257     17224.22    35865.881   -20839.548    82.144319 
   11700    1538.8296    -105.7295    1.3923653   -104.33714   -26617.527    4.3541601    4.3541601    4.3541601   -26617.527   -103209.19    -37841.32    61197.932   -5930.6887    2795.5248    14987.077    82.549259 
   11800    2164.2189   -106.27451    1.9582307   -104.31628   -23053.163    4.3255958    4.3255958    4.3255958   -23053.163    416.98742   -64525.297   -5051.1779    7496.9295      15505.7   -22594.198    80.935268 
   11900    2491.3807   -106.60352    2.2542536   -104.34926   -27893.747     4.299964     4.299964     4.299964   -27893.747   -68097.305    9792.6171   -25376.554    -12821.06    30545.909    15361.377    79.505002 
   12000    2100.3836   -106.31578    1.9004712    -104.4153    17912.312    4.2934455    4.2934455    4.2934455    17912.312   -35299.501    28244.829    60791.609   -1626.1535   -33903.208   -26420.949    79.143977 
   12100    1728.1997   -106.04855    1.5637114   -104.48484    23160.481    4.3053168    4.3053168    4.3053168    23160.481   -15055.206   -20402.186    104938.84    2162.4474    23317.234   -814.50819     79.80229 
   12200    1946.0021    -106.2542    1.7607836   -104.49342   -20190.971    4.3393311    4.3393311    4.3393311   -20190.971   -24891.142   -35809.207    127.43513   -10679.112   -5401.1715   -3578.5412    81.708711 
   12300    2028.8234   -106.26234    1.8357221   -104.42662   -16405.771     4.341692     4.341692     4.341692   -16405.771   -38931.538    40341.603   -50627.379    -169.9088   -2767.2888   -10340.184    81.842149 
   12400    1668.2514   -105.89154     1.509469   -104.38208    38554.614    4.3103673    4.3103673    4.3103673    38554.614    20046.474    45820.478     49796.89   -30106.913    30285.438    5113.0275    80.083462 
   12500     2114.042   -106.29486    1.9128297   -104.38203    32579.884    4.2906756    4.2906756    4.2906756    32579.884    64065.585    17822.492    15851.573   -17409.281   -42028.882    12745.387    78.990899 
   12600    1769.4389   -106.02434    1.6010255   -104.42331    42319.277      4.30944      4.30944      4.30944    42319.277    10627.841    52754.894    63575.097     17044.63    6655.0504   -14132.293    80.031788 
   12700    2057.3142   -106.27686    1.8615012   -104.41535   -14804.782    4.3324668    4.3324668    4.3324668   -14804.782   -78375.203    41563.649   -7602.7934   -11183.372   -16821.567    1578.3756    81.321563 
   12800    2352.9124   -106.51075    2.1289646   -104.38178   -24192.927    4.3401721    4.3401721    4.3401721   -24192.927   -12671.356   -31973.549   -27933.876    4270.7011    852.74337   -22855.597     81.75623 
   12900    2012.9732   -106.18385    1.8213804   -104.36247   -13517.838    4.3330213    4.3330213    4.3330213   -13517.838   -42368.075   -67565.232    69379.794   -20717.512    14330.401   -1705.2416    81.352795 
   13000     2056.736   -106.21517     1.860978   -104.35419   -30721.964    4.3200177    4.3200177    4.3200177   -30721.964   -28036.747   -19225.816    -44903.33   -1585.0143   -44503.966   -6126.8373    80.622558 
   13100    2375.0615    -106.5165    2.1490055   -104.36749    -3991.956    4.3116065    4.3116065    4.3116065    -3991.956    32880.188   -26048.588   -18807.468    7987.5908     18886.14    -15087.98     80.15255 
   13200    1880.1399   -106.08231    1.7011901   -104.38112    10253.199    4.3075913    4.3075913    4.3075913    10253.199   -30316.946    63258.276   -2181.7339    -13239.39   -38512.168   -20634.956    79.928836 
   13300    1762.1159   -106.00865    1.5943995   -104.41425   -1253.5206    4.3090163    4.3090163    4.3090163   -1253.5206   -5319.5928   -25090.622    26649.652    16053.116   -23265.336     19533.19    80.008186 
   13400    2640.1637   -106.78819    2.3888756   -104.39931   -36309.106    4.3201844    4.3201844    4.3201844   -36309.106   -57916.009   -54544.415    3533.1072   -17409.563    21020.534    29709.539     80.63189 
   13500    1854.7224   -106.06825    1.6781918   -104.39006    -4936.511    4.3233199    4.3233199    4.3233199    -4936.511   -47328.708   -23330.576    55849.751   -9070.7191   -13187.667    -26915.11    80.807584 
   13600    2238.1802   -106.41278    2.0251525   -104.38762    4734.1317    4.3311628    4.3311628    4.3311628    4734.1317    25447.937   -27296.038    16050.497     18825.51    16403.684     19474.33    81.248157 
   13700    1701.2016    -105.9251     1.539283   -104.38582   -44892.718    4.3431588    4.3431588    4.3431588   -44892.718    4511.8057   -109892.64    -29297.32   -22403.517    8137.9314   -46378.421     81.92513 
   13800    2147.5747    -106.3027    1.9431708   -104.35953   -19079.947    4.3302559    4.3302559    4.3302559   -19079.947   -39603.365   -17437.429   -199.04856    11313.682   -4209.1505   -9626.0913     81.19713 
   13900    2001.5344   -106.18845    1.8110304   -104.37742    12363.713    4.3155197    4.3155197    4.3155197    12363.713    10238.418    13666.184    13186.535    6630.2479    16332.042   -5832.8363    80.370988 
   14000    1710.1969   -105.96197    1.5474221   -104.41455    10236.461    4.3141472    4.3141472    4.3141472    10236.461    50571.343    8489.3217   -28351.282   -23047.649   -1622.6371   -34797.406    80.294331 
   14100    2383.9704   -106.58681    2.1570666   -104.42974   -13592.703    4.3174127    4.3174127    4.3174127   -13592.703    4603.7057   -6681.6789   -38700.135    21375.183    6757.0669   -534.85084    80.476797 
   14200    1828.7403   -106.10356    1.6546827   -104.44887   -21996.882    4.3164079    4.3164079    4.3164079   -21996.882   -19844.023   -5908.4621   -40238.161    39804.657    5469.9708   -22076.978    80.420623 
   14300    1971.2909   -106.21943    1.7836654   -104.43576    10204.733    4.3051253    4.3051253    4.3051253    10204.733    47831.999    10550.709   -27768.509    -41648.08   -11209.652   -15359.884    79.791638 
   14400    1963.2904   -106.22109    1.7764264   -104.44467   -10385.513     4.312047     4.312047     4.312047   -10385.513   -17578.784    16537.067   -30114.821    41060.865    34284.259    11061.723    80.177124 
   14500    1617.9353   -105.89441    1.4639418   -104.43047   -25336.619    4.3250794    4.3250794    4.3250794   -25336.619    5992.5018    -53697.12   -28305.239     2066.437   -17850.553    -17321.77    80.906283 
   14600    2547.6788   -106.70644    2.3051933   -104.40125   -2543.0096    4.3160251    4.3160251    4.3160251   -2543.0096   -14909.979    24205.082   -16924.132   -23833.854    13582.518    17303.111    80.399231 
   14700    1094.4583   -105.42361   0.99028887   -104.43332    31464.514    4.3272363    4.3272363    4.3272363    31464.514    51985.709    70365.063   -27957.231     33228.54    21774.098     597.3172    81.027385 
   14800    2097.4098   -106.31719    1.8977805   -104.41941   -34726.353    4.3379568    4.3379568    4.3379568   -34726.353    -13914.68   -29761.446   -60502.933    10922.161    11634.728   -26955.941    81.631102 
   14900    2440.1738    -106.6078    2.2079205   -104.39988    21878.112    4.3126394    4.3126394    4.3126394    21878.112   -15010.303    57424.937    23219.703   -7597.9404    13456.109    14182.773    80.210172 
   15000     1371.392   -105.66023    1.2408643   -104.41937   -13186.545    4.3003238    4.3003238    4.3003238   -13186.545    -36853.84    -46949.13    44243.336    47899.349   -1234.9892   -3110.3765    79.524965 
   15100    2223.2713   -106.45871    2.0116626   -104.44705    17378.899    4.3152321    4.3152321    4.3152321    17378.899   -1416.5772    18774.193     34779.08   -16221.651    4445.9373   -7302.7003    80.354919 
   15200    1784.0963    -106.0705    1.6142878   -104.45621    12441.964       4.3389       4.3389       4.3389    12441.964   -5163.2283    53808.117   -11318.997   -26423.449   -10495.699    17509.706    81.684363 
   15300    1899.3115   -106.12973    1.7185369   -104.41119   -24447.275    4.3474211    4.3474211    4.3474211   -24447.275   -14285.231   -39260.617   -19795.976    36533.115    8584.5372    -8171.665    82.166563 
   15400     1921.302    -106.1186    1.7384345   -104.38016   -778.35012     4.360739     4.360739     4.360739   -778.35012   -54695.009    50821.605    1538.3533   -19974.436    3330.6484    21768.916     82.92401 
   15500    2173.4709   -106.29963    1.9666021   -104.33303   -31868.777    4.3520285    4.3520285    4.3520285   -31868.777   -26127.901   -13356.338   -56122.092    29473.092    12126.865    8440.8133    82.428083 
   15600    2581.5058   -106.63546    2.3358007   -104.29966    1747.5545    4.3077469    4.3077469    4.3077469    1747.5545    96844.027   -68439.557   -23161.806     33768.12    -14121.46    9909.0942    79.937495 
   15700    1692.1613   -105.90637    1.5311031   -104.37527     27940.53    4.2943614    4.2943614    4.2943614     27940.53    65670.795     20146.75   -1995.9558   -17478.146    18200.267    -7570.927    79.194637 
   15800    2520.1859   -106.74461    2.2803172   -104.46429   -16968.427    4.3367788    4.3367788    4.3367788   -16968.427   -35390.138    19509.637    -35024.78    23788.216    22619.563     3592.377    81.564618 
   15900    1753.2571   -105.98572    1.5863839   -104.39933   -72173.989    4.3796072    4.3796072    4.3796072   -72173.989   -72830.835   -44856.113    -98835.02   -22012.221   -14145.099    -13949.67    84.005069 
   16000    1019.2771   -105.29781   0.92226334   -104.37555     -31467.1    4.3355545    4.3355545    4.3355545     -31467.1   -79926.769    89154.543   -103629.07   -23356.244    43956.017    11436.142    81.495562 
   16100    2622.3472   -106.65446    2.3727549    -104.2817     68830.26    4.2620123    4.2620123    4.2620123     68830.26     51420.17    106942.89    48127.722    19591.889   -22116.825    18044.934    77.418381 
   16200    1392.1974   -105.66447    1.2596895   -104.40478    34038.726    4.2728188    4.2728188    4.2728188    34038.726   -35835.368    69587.371    68364.173   -36985.412    43839.218    -11616.46    78.008772 
   16300    1786.3523   -106.08655    1.6163291   -104.47022   -12979.764     4.342484     4.342484     4.342484   -12979.764   -75110.252    26028.617    10142.342    1101.3102    6714.9771    4626.5283    81.886945 
   16400     1930.482   -106.10514    1.7467407    -104.3584   -41029.117    4.3824356    4.3824356    4.3824356   -41029.117   -64858.427   -55402.525      -2826.4     5786.906    15289.493   -7736.3212    84.167926 
   16500     1961.147   -106.04991    1.7744871   -104.27543   -50874.934    4.3675502    4.3675502    4.3675502   -50874.934   -91642.223   -20878.083   -40104.496   -33743.137    -7581.141   -21854.345    83.313179 
   16600    2127.2304   -106.21592    1.9247628   -104.29116    29410.875    4.3140546    4.3140546    4.3140546    29410.875   -36663.003    87899.772    36995.858    19238.054   -23380.772    986.03235    80.289157 
   16700    1589.3901    -105.7565    1.4381135   -104.31839     68273.09    4.2695771    4.2695771    4.2695771     68273.09     2265.551     147057.4    55496.323   -34318.276     44627.91   -19265.878    77.831351 
   16800    1739.2189   -106.02472    1.5736819   -104.45104    35966.481    4.2915583    4.2915583    4.2915583    35966.481    5575.0535    77079.644    25244.747   -51924.909   -31217.775    -8992.511    79.039659 
   16900    2188.1722   -106.43058    1.9799041   -104.45068   -32046.146    4.3468271    4.3468271    4.3468271   -32046.146   -91720.413    6680.5809   -11098.606    26640.659   -8442.2179   -13355.289    82.132886 
   17000    1748.7553   -105.94354    1.5823105   -104.36123   -43753.148    4.3604322    4.3604322    4.3604322   -43753.148   -111877.61   -31930.104    12548.273   -52589.585   -4982.1095   -4039.3646    82.906507 
   17100    2669.7139   -106.70946    2.4156132   -104.29384   -15007.397    4.3392317    4.3392317    4.3392317   -15007.397    -55968.93    20632.381   -9685.6435    16523.521    5764.2284   -813.31986    81.703098 
   17200    1107.5174   -105.33685    1.0021051   -104.33475   -67184.021    4.3166532    4.3166532    4.3166532   -67184.021   -138069.98    -108504.4    45022.316   -85326.734    3578.1928   -14661.286    80.434338 
   17300    2617.3437   -106.69334    2.3682276   -104.32511    63303.285    4.2810621    4.2810621    4.2810621    63303.285    35662.437    87187.918    67059.499   -6926.3958   -3749.5264    8279.6146    78.461133 
   17400    1617.6561   -105.90146    1.4636892   -104.43778   -19599.412     4.294137     4.294137     4.294137   -19599.412   -65038.015    3352.9455    2886.8342   -57134.599    26740.204   -5926.5346    79.182224 
   17500    1735.8056   -105.99625    1.5705934   -104.42565   -16750.535    4.3232803    4.3232803    4.3232803   -16750.535   -78805.009   -41698.682    70252.085    9002.7467   -4157.0869    -5601.089    80.805361 
   17600     2250.882     -106.413    2.0366454   -104.37635    32888.745    4.3112606    4.3112606    4.3112606    32888.745    61636.667    26186.908    10842.659    -37664.64   -14301.465   -28238.604    80.133262 
   17700    1943.4262   -106.13663    1.7584529   -104.37818    25393.208    4.3146821    4.3146821    4.3146821    25393.208   -29067.113    21819.636    83427.102   -10864.473    15445.996   -9621.3607    80.324202 
   17800    2613.3618   -106.70696    2.3646247   -104.34234   -45730.404    4.3355635    4.3355635    4.3355635   -45730.404    -68887.14   -57189.525   -11114.548   -26851.821    11347.951    5858.7165    81.496068 
   17900    1549.6249   -105.74014    1.4021332     -104.338   -33624.646    4.3173654    4.3173654    4.3173654   -33624.646   -71679.839   -48716.117    19522.019   -52277.155     28466.92     13527.84    80.474152 
   18000    2251.0151   -106.37135    2.0367657   -104.33459    33906.286    4.3047235    4.3047235    4.3047235    33906.286    55616.828    50913.851   -4811.8205    24201.606   -14214.658   -6967.0863    79.769299 
   18100    1312.1665   -105.56572    1.1872758   -104.37844   -2751.4854    4.3050854    4.3050854    4.3050854   -2751.4854   -58139.015    21712.582    28171.977   -49443.477   -63276.048    12093.594    79.789418 
   18200    2216.3745   -106.39868    2.0054223   -104.39326    30006.724    4.3049387    4.3049387    4.3049387    30006.724   -900.92994    38299.417    52621.684    2968.4419    8124.6263    -3178.721    79.781266 
   18300     2034.973   -106.24816    1.8412863   -104.40687   -6729.1335    4.3279402    4.3279402    4.3279402   -6729.1335   -8931.7522    -47546.04    36290.392   -13778.523   -20.948278     25819.81    81.066936 
   18400    1669.5396   -105.89233    1.5106345   -104.38169   -40326.122    4.3379096    4.3379096    4.3379096   -40326.122    -71198.47    -49147.89   -632.00558   -23252.961   -18301.389   -14216.148    81.628436 
   18500     2797.909   -106.85946    2.5316069   -104.32785     5437.736    4.3295534    4.3295534    4.3295534     5437.736   -40423.704    15250.092     41486.82   -2220.5671    3270.3874    5730.3745    81.157618 
   18600    1487.7324    -105.6956    1.3461315   -104.34947   -46851.344    4.3280134    4.3280134    4.3280134   -46851.344   -114049.49   -30112.504    3607.9594   -35670.239   -34610.376    9359.7809    81.071051 
   18700    2655.4508   -106.74034    2.4027077   -104.33763    4029.2348    4.3212619    4.3212619    4.3212619    4029.2348    -17630.11    70230.905   -40513.091    16185.907   -7567.7111   -19980.605    80.692237 
   18800    1715.2504   -105.93355    1.5519946   -104.38156   -25368.805    4.3235322    4.3235322    4.3235322   -25368.805   -70176.867    -16831.28    10901.733   -26222.123    14311.372    9835.3129     80.81949 
   18900    2293.3808    -106.4322    2.0750992    -104.3571   -19597.545    4.3274011    4.3274011    4.3274011   -19597.545   -43071.998   -50426.893    34706.256    37806.909   -20809.968    8598.8713    81.036643 
   19000     1536.615   -105.74248    1.3903615   -104.35211    40231.943    4.3188435    4.3188435    4.3188435    40231.943   -9781.8512    91000.755    39476.926   -23589.543    29823.262    -1545.217    80.556835 
   19100     1992.091   -106.15044    1.8024858   -104.34795    26992.277    4.3261018    4.3261018    4.3261018    26992.277   -16485.905    11127.045    86335.692     2213.856    -287.2934    14423.883    80.963672 
   19200    1770.6417   -105.95171    1.6021139   -104.34959   -12178.303    4.3307662    4.3307662    4.3307662   -12178.303   -97538.071    3231.2277    57771.936   -14995.871    47076.865    9972.0722     81.22584 
   19300    2015.0638   -106.15244    1.8232721   -104.32917   -7752.5536     4.309591     4.309591     4.309591   -7752.5536   -67309.376    9841.8757     34209.84   -8229.9597    2868.1315    19242.974    80.040199 
   19400    2203.1401   -106.33388    1.9934474   -104.34043    36152.399    4.2802182    4.2802182    4.2802182    36152.399   -13623.293    97259.651     24820.84    31353.186    25442.525    -3984.103    78.414742 
   19500    1345.6215   -105.61281    1.2175466   -104.39526    28557.014    4.2814706    4.2814706    4.2814706    28557.014   -68767.905    136692.66    17746.286   -26486.003    41834.034    24658.245    78.483598 
   19600    1951.6266   -106.18577    1.7658727   -104.41989    12185.419    4.2969086    4.2969086    4.2969086    12185.419   -29488.062    39951.415    26092.905   -12264.257   -9684.6168   -11186.061    79.335642 
   19700    2054.5906   -106.26794    1.8590367   -104.40891    13448.323    4.3110612    4.3110612    4.3110612    13448.323    709.84208    90105.438    -50470.31      16085.3    30396.601    11933.333    80.122144 
   19800    1977.3685   -106.17711    1.7891646   -104.38794    5061.2436    4.3212412    4.3212412    4.3212412    5061.2436   -35320.424    16447.497    34056.658   -61219.937   -21260.167   -4918.4864    80.691077 
   19900    1908.4956   -106.10826     1.726847   -104.38142   -32511.268    4.3106775    4.3106775    4.3106775   -32511.268   -98294.603   -8552.0997    9312.8991    58315.067    47368.851   -5114.3672    80.100755 
   20000    2218.6757   -106.37773    2.0075044   -104.37023     25935.43    4.2723502    4.2723502    4.2723502     25935.43   -21308.129    54366.753    44747.665   -11660.507    9123.6427     17987.09    77.983107 
   20100    2286.7012   -106.47364    2.0690553   -104.40459    10412.883    4.2687123    4.2687123    4.2687123    10412.883    -21375.29     46946.76     5667.179    -20577.54    19210.414    740.59767    77.784067 
   20200    1269.5436   -105.61628    1.1487097   -104.46757   -27741.528    4.2936749    4.2936749    4.2936749   -27741.528   -119545.79    29959.389    6361.8176    61019.834     26931.52   -3160.2345    79.156662 
   20300    2321.1009   -106.55412    2.1001809   -104.45394    20126.761    4.3216045    4.3216045    4.3216045    20126.761   -57180.301     125143.1   -7582.5139   -8079.4686    -10150.18    8525.6334    80.711434 
   20400    1455.2524   -105.73228    1.3167429   -104.41553   -11182.697     4.333472     4.333472     4.333472   -11182.697   -70264.919    96084.249   -59367.422    9393.7937    28156.818   -9329.5576    81.378183 
   20500    1582.3402   -105.79645    1.4317346   -104.36471    41378.338     4.298337     4.298337     4.298337    41378.338   -6936.4028    106887.92    24183.493    34166.549   -25990.889   -16594.674    79.414789 
   20600     1778.483   -105.96772    1.6092088   -104.35851    24629.732    4.2683288    4.2683288    4.2683288    24629.732   -18524.065    43021.008    49392.253   -51888.674    27440.936   -7520.8201    77.763105 
   20700    2527.4656   -106.68329     2.286904   -104.39639    15722.355    4.2717303    4.2717303    4.2717303    15722.355    21839.174     45787.62    -20459.73    23612.766   -15423.828    8384.5745    77.949164 
   20800    2042.2473   -106.29764    1.8478682   -104.44977   -28140.667    4.2991817    4.2991817    4.2991817   -28140.667   -59548.382   -62019.232    37145.612   -33756.906    25971.676    6099.0891    79.461619 
   20900    1653.4732   -105.90161    1.4960973   -104.40551   -12360.427    4.3241589    4.3241589    4.3241589   -12360.427   -5675.1281   -7779.0773   -23627.076   -28490.197    9680.2692   -6741.7553    80.854639 
   21000    2213.8526   -106.35778    2.0031404   -104.35464    7338.1928    4.3139623    4.3139623    4.3139623    7338.1928    49151.344    12119.592   -39256.357    -2246.645    -17297.48   -11792.511    80.284006 
   21100    1456.7349   -105.68112    1.3180844   -104.36303    4426.1649    4.3018965    4.3018965    4.3018965    4426.1649    15157.009    38419.991   -40298.505   -59605.574    12937.088    10559.488    79.612245 
   21200    1890.8129   -106.10962    1.7108472   -104.39877   -12453.981    4.3040575    4.3040575    4.3040575   -12453.981   -33868.324    64785.551    -68279.17    5989.2227   -280.72995    15636.394    79.732284 
   21300    2061.0652   -106.26253    1.8648951   -104.39763     47904.36    4.2867827    4.2867827    4.2867827     47904.36    15443.801    47632.272    80637.005    19381.904    21481.501    15802.529    78.776088 
   21400    1752.9112   -106.01052    1.5860709   -104.42445     34395.61    4.2925257    4.2925257    4.2925257     34395.61    48496.452    24315.324    30375.055   -26215.305    28790.833    1580.6611    79.093121 
   21500    1379.7822   -105.67347    1.2484559   -104.42502   -14186.897    4.3242759    4.3242759    4.3242759   -14186.897   -80772.917    -30679.55    68891.777      74995.7   -4951.0973    7270.3228    80.861198 
   21600    2830.0559   -106.92488     2.560694   -104.36418   -17177.869    4.3144269    4.3144269    4.3144269   -17177.869   -39255.962    27993.589   -40271.233    676.42307   -511.32329     -17119.5     80.30995 
   21700    1588.6624    -105.7924    1.4374552   -104.35495    11771.379     4.289784     4.289784     4.289784    11771.379   -18989.135   -2141.8189    56445.092    51871.755   -6072.7609   -12996.452    78.941662 
   21800     2188.295   -106.36344    1.9800153   -104.38342    3080.7561    4.3008041    4.3008041    4.3008041    3080.7561   -48730.716   -22714.615    80687.599   -19845.715    -13802.46   -17664.069    79.551613 
   21900    2072.6785   -106.26182    1.8754031   -104.38642    2656.3822    4.3089053    4.3089053    4.3089053    2656.3822   -91600.986    33147.901    66422.232    16320.881   -4203.0897    9327.7318    80.002002 
   22000    1921.0777   -106.12941    1.7382315   -104.39117   -3757.6779    4.2999404    4.2999404    4.2999404   -3757.6779   -42826.193   -11259.373    42812.533    55179.171    19417.375   -8945.3784    79.503692 
   22100    1569.3365    -105.8174    1.4199687   -104.39743   -9830.8132    4.2986348    4.2986348    4.2986348   -9830.8132   -53186.535    9502.0204    14192.076   -41565.086   -24325.362    -6054.449    79.431297 
   22200    2800.5859   -106.92362    2.5340289   -104.38959    1020.2581    4.3000953    4.3000953    4.3000953    1020.2581   -45236.517    21772.799    26524.492     15322.47    9541.4619    10657.465    79.512285 
   22300    2134.1539   -106.34382    1.9310273   -104.41279   -33983.981    4.3014379    4.3014379    4.3014379   -33983.981   -71984.089   -36439.184     6471.332   -35713.383   -3195.6342    5901.1887    79.586788 
   22400    1339.0997   -105.63528    1.2116456   -104.42364   -25113.732    4.3006736    4.3006736    4.3006736   -25113.732   -48854.668   -19310.489   -7176.0381   -36448.216   -21620.383   -1348.8708     79.54437 
   22500    3038.3723   -107.13488    2.7491831    -104.3857   -42418.297    4.3203902    4.3203902    4.3203902   -42418.297    -66384.24   -32137.004   -28733.647    7871.2221   -4359.9025    19300.478    80.643417 
   22600    1307.7116   -105.53762     1.183245   -104.35438   -97254.974    4.3376145    4.3376145    4.3376145   -97254.974   -137294.39   -89732.778    -64737.75   -66376.168   -34784.555    1839.2631    81.611782 
   22700    2824.3226   -106.87078    2.5555064   -104.31528    25041.008    4.2881949    4.2881949    4.2881949    25041.008   -13768.712    24984.656    63907.078    43868.377    12460.264    17846.147    78.853969 
   22800    1764.0554   -105.91917    1.5961544   -104.32301    27369.647    4.2569453    4.2569453    4.2569453    27369.647    -42671.17     43308.82    81471.292   -33151.976   -18211.201   -20077.248    77.142587 
   22900     1819.579   -106.05332    1.6463933   -104.40693    1075.1344    4.2796348    4.2796348    4.2796348    1075.1344   -16678.107    2405.6553    17497.855   -5169.2277   -38151.201    12553.075    78.382686 
   23000    2202.8434   -106.40922     1.993179   -104.41604   -13267.969    4.3106748    4.3106748    4.3106748   -13267.969    -7750.906   -80849.109    48796.108    38162.376    25839.183   -7115.1708    80.100603 
   23100    1549.3857   -105.81306    1.4019168   -104.41115   -25078.546    4.3231069    4.3231069    4.3231069   -25078.546   -64957.695    14764.398   -25042.342   -45138.725   -49549.347    4900.9164    80.795641 
   23200    2530.4421   -106.65802    2.2895972   -104.36842   -30158.524    4.3085742    4.3085742    4.3085742   -30158.524   -30771.815   -15490.876   -44212.881    41590.842   -34275.503    2736.2751     79.98356 
   23300     1975.975   -106.16664    1.7879037   -104.37874    32681.098    4.2731513    4.2731513    4.2731513    32681.098    20845.835   -7091.9921    84289.453   -44195.716    15510.603    1610.6049    78.026983 
   23400     1694.822   -105.94619    1.5335105   -104.41268    31144.039    4.2566899    4.2566899    4.2566899    31144.039     5911.184    59615.885    27905.049   -28510.794   -55592.774   -6128.1337    77.128707 
   23500    1914.6189   -106.20458    1.7323875    -104.4722     40488.86    4.2826779    4.2826779    4.2826779     40488.86    98325.925    22559.258    581.39639    19898.769    10910.837    9133.7861    78.550009 
   23600    2064.5344   -106.31523    1.8680342   -104.44719   -44797.141    4.3258131    4.3258131    4.3258131   -44797.141   -39144.511   -59469.692   -35777.221   -41597.018   -20808.628    12595.737    80.947467 
   23700    2013.6155   -106.23134    1.8219616   -104.40937   -32470.131    4.3121733    4.3121733    4.3121733   -32470.131    -28601.67   -12587.775   -56220.948   -7568.3981   -57460.437   -23296.345    80.184166 
   23800    1616.0118   -105.85452    1.4622015   -104.39232     11087.48    4.2702301    4.2702301    4.2702301     11087.48    27130.353    21912.843   -15780.758    2961.9087     16780.05    36952.991     77.86707 
   23900    2394.1857   -106.58142    2.1663095   -104.41511    31685.013     4.263189     4.263189     4.263189    31685.013   -10623.789    51019.342    54659.488    -21078.45    12972.547    2821.7056    77.482524 
   24000    2163.4506   -106.42221    1.9575356   -104.46467     8674.838    4.2804035    4.2804035    4.2804035     8674.838   -5591.7264    3732.8054    27883.435    27135.481   -30091.232    14119.332    78.424931 
   24100    1300.3595   -105.67439    1.1765926   -104.49779   -30379.278     4.310916     4.310916     4.310916   -30379.278    699.13762    2052.6967   -93889.669   -2357.1079    12552.896     36025.52    80.114049 
   24200    1999.0669   -106.24623    1.8087977   -104.43744   -12772.455    4.3194966    4.3194966    4.3194966   -12772.455   -47919.103   -2801.0113     12402.75   -5021.2988    32017.141    -2570.336    80.593387 
   24300    2673.9607   -106.80416    2.4194558    -104.3847    9659.4924    4.2972767    4.2972767    4.2972767    9659.4924     107293.4   -66524.154   -11790.765   -3934.0569   -12519.048    17838.905    79.356032 
   24400    1637.4576   -105.87308    1.4816061   -104.39147   -20662.998    4.2875612    4.2875612    4.2875612   -20662.998   -24480.469    37569.889   -75078.412   -13634.087    55604.825    6170.6323    78.819014 
   24500    1952.9153    -106.1695    1.7670388   -104.40246    -7990.637    4.2979241    4.2979241    4.2979241    -7990.637   -48541.683     60588.84   -36019.068    21888.629   -39375.677   -24467.351    79.391903 
   24600     2288.659   -106.46386    2.0708268   -104.39303   -24855.914    4.3030863    4.3030863    4.3030863   -24855.914   -22082.427   -61192.302    8706.9855   -6422.1289    7214.5515    11003.785    79.678322 
   24700    1728.4622   -105.97471    1.5639489   -104.41076    -7016.972    4.2980508    4.2980508    4.2980508    -7016.972    44157.208    4856.5518   -70064.676   -2691.6245   -193.65934   -10327.811    79.398925 
   24800    2189.1046   -106.38661    1.9807478   -104.40586    9844.8133    4.2969808    4.2969808    4.2969808    9844.8133    72879.737    16190.996   -59536.293    3951.5286   -12916.602   -6913.7889    79.339644 
   24900    2239.5847   -106.42102    2.0264233   -104.39459   -14148.403    4.3145197    4.3145197    4.3145197   -14148.403    31618.183   -58429.686   -15633.706   -26772.941    12401.099   -5632.0003     80.31513 
   25000    1127.8501   -105.40813    1.0205025   -104.38763   -29374.211    4.3261743    4.3261743    4.3261743   -29374.211    4948.7102   -15550.993   -77520.349   -8422.9401   -12538.018   -5590.1455    80.967747 
   25100    2608.2257   -106.71242    2.3599774   -104.35244    7064.6186    4.3112584    4.3112584    4.3112584    7064.6186    11744.932    53699.968   -44251.045   -20622.964    27830.167    6421.8321    80.133142 
   25200    2321.2566   -106.45098    2.1003218   -104.35065    9576.5628    4.2882182    4.2882182    4.2882182    9576.5628   -16304.166    52775.439   -7741.5847   -37411.137   -39598.527    18685.333    78.855253 
   25300    1436.2352   -105.69796    1.2995358   -104.39842    11078.861    4.2789389    4.2789389    4.2789389    11078.861    49394.932     37321.56   -53479.909    8313.5512    9384.7851    18164.712    78.344451 
   25400    1662.5202   -105.94746    1.5042832   -104.44318    2090.9846     4.284244     4.284244     4.284244    2090.9846    73179.865   -486.94625   -66419.965   -946.58324    8847.1626    11249.969    78.636212 
   25500    3222.6951   -107.35177    2.9159623   -104.43581   -4306.1473    4.2976646    4.2976646    4.2976646   -4306.1473   -10906.669    28741.771   -30753.544   -27658.343   -8553.9851   -2367.6626    79.377524 
   25600    1532.2792   -105.83199    1.3864384   -104.44555   -35122.331    4.3163151    4.3163151    4.3163151   -35122.331    14066.355   -66072.759   -53360.589    3581.1704    32806.782   -5043.3383    80.415436 
   25700    1398.1578   -105.67736    1.2650825   -104.41228   -29737.055    4.3083222    4.3083222    4.3083222   -29737.055     28558.37   -57301.205   -60468.331    11540.663   -2188.6308    36629.225    79.969525 
   25800    3044.1593   -107.12141    2.7544193   -104.36699    13821.917    4.2834067    4.2834067    4.2834067    13821.917    28877.781    60649.429   -48061.458    13789.228   -25537.275   -10648.891    78.590118 
   25900    2201.5948   -106.39108    1.9920492   -104.39903    14232.024    4.2775587    4.2775587    4.2775587    14232.024    49674.102    3974.5085    -10952.54   -4889.7544    31975.333    15598.767    78.268668 
   26000    943.28411   -105.29354   0.85350328   -104.44004    121.43355    4.2818711    4.2818711    4.2818711    121.43355   -61106.894    42149.191    19322.003   -10258.049   -20701.263    23618.457    78.505625 
   26100     2378.414   -106.59293     2.152039   -104.44089    21663.025    4.3014914    4.3014914    4.3014914    21663.025    74054.097    49699.788   -58764.809    16859.766    20920.412   -3175.4653    79.589755 
   26200    2354.3694   -106.54838    2.1302829    -104.4181   -20886.907    4.3163316    4.3163316    4.3163316   -20886.907    5745.2167    6096.1216    -74502.06   -3846.1806   -30956.934    3557.4666    80.416359 
   26300    1354.3235    -105.6377    1.2254204   -104.41228   -17703.077    4.2869538    4.2869538    4.2869538   -17703.077   -56347.309     94395.46   -91157.382   -15026.617   -17922.068    6214.9909    78.785519 
   26400    2111.0027    -106.3052    1.9100796   -104.39512     38695.62    4.2571453    4.2571453    4.2571453     38695.62    58303.349    93757.505   -35973.994    15435.134    49073.066   -10880.706    77.153461 
   26500    2214.4842    -106.4362    2.0037118   -104.43249    23198.327    4.2638782    4.2638782    4.2638782    23198.327    20955.115     69342.92   -20703.055    6931.9628    -37605.31   -38790.619    77.520106 
   26600    2247.2268   -106.49124     2.033338    -104.4579    6569.4141    4.2859851    4.2859851    4.2859851    6569.4141    -41306.14    112750.18   -51735.799   -11704.839    23691.851    9590.4485    78.732122 
   26700    2328.2141   -106.54307    2.1066171   -104.43645   -16659.771    4.3052632    4.3052632    4.3052632   -16659.771     14631.07   -15521.588   -49088.794    9990.6342   -37.475468   -34297.307    79.799305 
   26800    1245.8744   -105.56493    1.1272933   -104.43764   -29092.678    4.2999403    4.2999403    4.2999403   -29092.678   -3644.8191   -25462.094   -58171.122    3236.1448   -8287.3346   -17904.456    79.503691 
   26900    2794.5345   -106.93216    2.5285536    -104.4036     20559.13    4.2829734    4.2829734    4.2829734     20559.13      61170.5    28762.002   -28255.112   -6065.7419    9596.3824     24109.29    78.566267 
   27000    2084.5488   -106.29425    1.8861436   -104.40811    3141.9807    4.2864848    4.2864848    4.2864848    3141.9807   -36530.759   -12049.606    58006.307   -899.55816   -8409.0905   -3443.7795    78.759668 
   27100    1301.7774   -105.58847    1.1778755    -104.4106    3569.1349    4.2958284    4.2958284    4.2958284    3569.1349    6569.5859   -26189.282    30327.101   -16489.389    10197.891    30170.948    79.275824 
   27200    2295.1419   -106.46144    2.0766926   -104.38475    -8288.878     4.310045     4.310045     4.310045    -8288.878    47325.387    -24849.35   -47342.671    16681.475    1744.1277    30541.944    80.065499 
   27300    1862.8257   -106.07048    1.6855238   -104.38496   -48692.058    4.3056605    4.3056605    4.3056605   -48692.058   -80645.779    -70049.53    4619.1358    27482.057    8565.0642   -17372.318    79.821403 
   27400    2118.3507   -106.30278    1.9167282   -104.38605   -6338.4267    4.2685482    4.2685482    4.2685482   -6338.4267    20999.354   -11327.677   -28686.957    5319.5255    4824.5479    44456.496    77.775099 
   27500    1947.2264   -106.17136    1.7618914   -104.40947    52138.607    4.2574179    4.2574179    4.2574179    52138.607    68905.677    98413.665    -10903.52   -7156.4601   -10340.952    -40621.75    77.168284 
   27600    1937.3795   -106.20043    1.7529817   -104.44745    27444.911     4.290221     4.290221     4.290221    27444.911    15104.126    59432.264    7798.3426   -3892.3317    12457.494    15119.875    78.965793 
   27700    1394.7824   -105.67969    1.2620284   -104.41766   -10484.605    4.3181225    4.3181225    4.3181225   -10484.605    12405.336     50471.16   -94330.309   -7910.3411    -4774.735   -46476.027    80.516495 
   27800    2039.3856    -106.2444     1.845279   -104.39912   -43758.302    4.3090217    4.3090217    4.3090217   -43758.302   -25556.812   -3839.0128   -101879.08   -1459.4955    4910.1505   -33386.424    80.008487 
   27900    2457.8382   -106.61983    2.2239037   -104.39592    27225.387    4.2658356    4.2658356    4.2658356    27225.387   -2436.7554    98941.494   -14828.578    2802.5935    39887.885    19340.382    77.626917 
   28000    1672.1372   -105.94012    1.5129849   -104.42714    -13765.61    4.2536031    4.2536031    4.2536031    -13765.61    42563.077   -19922.436    -63937.47    8485.7194   -6118.7935   -58676.027    76.961035 
   28100    1665.1702   -105.96568     1.506681   -104.45899   -19126.547    4.2729506    4.2729506    4.2729506   -19126.547     17591.56   -11618.325   -63352.876    5559.5688    12690.051    18796.861    78.015986 
   28200    2288.3557   -106.54046    2.0705523   -104.46991    7674.2697    4.2930646    4.2930646    4.2930646    7674.2697   -37608.903    108328.66   -47696.946   -6415.0135    38247.016   -332.73539    79.122915 
   28300    2522.2757   -106.72842    2.2822081   -104.44621   -19227.442    4.3071211    4.3071211    4.3071211   -19227.442   -6889.5029   -1240.7546   -49552.069   -5338.7793    -2121.454   -2868.7944     79.90266 
   28400     801.8427    -105.1634   0.72552413   -104.43788   -534.40473    4.2953977    4.2953977    4.2953977   -534.40473    44953.169    42947.331   -89503.715   -3783.0222    29614.107    55117.989    79.251981 
   28500    2638.1271   -106.78655    2.3870328   -104.39952    18936.915    4.2932456    4.2932456    4.2932456    18936.915     22312.79    54775.976    -20278.02   -16818.355   -25095.715   -10099.817    79.132921 
   28600    1574.7057   -105.82949    1.4248268   -104.40466    10900.483     4.299177     4.299177     4.299177    10900.483   -578.31508    58211.748   -24931.986   -4249.6186    23367.145    48658.613    79.461354 
   28700    1886.2687   -106.08577    1.7067355   -104.37903   -7306.3845    4.3140526    4.3140526    4.3140526   -7306.3845    9077.3408   -22686.643   -8309.8513   -3688.6679    15350.489    3722.6702    80.289048 
   28800    2368.1204   -106.49584    2.1427251   -104.35311   -47808.921    4.3160477    4.3160477    4.3160477   -47808.921   -41681.266   -38679.717   -63065.779    10892.829   -25398.447   -23799.015    80.400494 
   28900    1270.0123   -105.55757    1.1491338   -104.40844   -41239.393    4.2724743    4.2724743    4.2724743   -41239.393    12817.153    -50878.53   -85656.802    9280.4286    36522.455    107135.51    77.989904 
   29000    2429.5192   -106.60277      2.19828   -104.40449    39353.613    4.2302386    4.2302386    4.2302386    39353.613    60022.966    17468.874    40568.999    12712.624    13755.736   -23787.423    75.699773 
   29100    2601.9421   -106.81597    2.3542919   -104.46167    6131.4294    4.2515084    4.2515084    4.2515084    6131.4294    2115.1812    25753.862   -9474.7549    3338.9158    4307.5918    15835.009    76.847389 
   29200    1189.1433   -105.56868    1.0759618   -104.49272   -28095.933    4.2984224    4.2984224    4.2984224   -28095.933   -38724.227    9760.9887   -55324.561   -478.53493    33243.334    62958.251    79.419522 
   29300    2577.6968   -106.76552    2.3323543   -104.43317   -34931.847    4.3278843    4.3278843    4.3278843   -34931.847   -103807.43   -280.11047   -708.00113    12458.822   -29122.313   -10721.381    81.063792 
   29400    1761.8589   -105.97945     1.594167   -104.38528   -39310.958    4.3283611    4.3283611    4.3283611   -39310.958   -17182.391   -32484.268   -68266.214   -22224.455    48407.043    43499.881    81.090591 
   29500    2113.5738   -106.26919     1.912406   -104.35679    5741.5772    4.2922523    4.2922523    4.2922523    5741.5772   -1318.8153    62220.027    -43676.48    15045.178   -17558.189    3496.5562    79.078011 
   29600    2146.0158   -106.26974    1.9417602   -104.32798    33378.599    4.2706459    4.2706459    4.2706459    33378.599    26160.581    69635.165    4340.0519    630.85006   -4581.7605    7684.2932    77.889816 
   29700    1469.3318   -105.71828    1.3294822    -104.3888   -10325.166    4.2830814    4.2830814    4.2830814   -10325.166    30836.162   -6416.2387   -55395.421   -8112.1963     19826.25    48817.899    78.572215 
   29800    3128.1188   -107.22137    2.8303876   -104.39098   -7311.8155    4.2954513    4.2954513    4.2954513   -7311.8155   -51972.527    43972.966   -13935.885    2190.0718   -19808.469   -36179.428    79.254953 
   29900    1625.0164   -105.89585    1.4703489    -104.4255   -20228.858    4.2923882    4.2923882    4.2923882   -20228.858   -14111.415    17035.717   -63610.876   -13025.917    22621.368    50393.887     79.08552 
   30000    1604.4941    -105.8737    1.4517799   -104.42192    9788.0475    4.2809866    4.2809866    4.2809866    9788.0475   -8882.9271    18819.794    19427.275   -2370.7772   -5934.9357   -9624.6943    78.456983 
   30100    2232.5567   -106.44461    2.0200642   -104.42454      4438.33    4.2799871    4.2799871    4.2799871      4438.33   -51638.178   -23009.059    87962.226    37462.842   -12867.923   -10264.923    78.402041 
   30200    2519.0552   -106.70218    2.2792941   -104.42288    10453.672    4.2730719    4.2730719    4.2730719    10453.672   -28097.562    56456.052    3002.5266   -3496.2118    29592.979     37923.05    78.022634 
   30300    1613.2644   -105.91277    1.4597156   -104.45305   -6458.9132    4.2730564    4.2730564    4.2730564   -6458.9132    -39846.16    18284.991    2184.4293    18325.332    4160.2995   -27542.656    78.021783 
   30400    1499.2053   -105.81191    1.3565124   -104.45539   -1637.8491    4.2812788    4.2812788    4.2812788   -1637.8491   -70224.782   -4027.0573    69338.292    9362.1526    6778.2751    1586.0435    78.473047 
   30500    2828.2111    -106.9721    2.5590248   -104.41308   -22280.562    4.3036511    4.3036511    4.3036511   -22280.562   -58931.727      15810.3   -23720.259    -9275.662    14259.773    7932.5372    79.709698 
   30600    1310.7483   -105.59436    1.1859926   -104.40836   -60545.881     4.301359     4.301359     4.301359   -60545.881   -100300.86   -68040.706   -13296.076      20620.8   -25859.005   -21852.649    79.582409 
   30700    2563.7485   -106.70677    2.3197335   -104.38703    13719.423    4.2651082    4.2651082    4.2651082    13719.423   -39679.943    32744.839    48093.375   -19249.175    4401.8758    5346.0426    77.587215 
   30800    2261.8215   -106.45255    2.0465436   -104.40601   -4452.8898    4.2604434    4.2604434    4.2604434   -4452.8898    6604.7876    3505.6259   -23469.083    8449.9617    3524.2933    56757.849    77.332919 
   30900    2100.3935   -106.33342    1.9004802   -104.43294   -4187.4149    4.2611532    4.2611532    4.2611532   -4187.4149   -43742.314   -15217.401     46397.47    8852.2176   -21412.376   -39080.437    77.371574 
   31000    1719.8152   -106.02039    1.5561249   -104.46426    2369.9695    4.2722598    4.2722598    4.2722598    2369.9695    17091.782    3533.6727   -13515.546   -7643.2853    6049.6173    55006.944    77.978156 
   31100    1477.9803   -105.79438    1.3373076   -104.45708   -9142.8289    4.2952205    4.2952205    4.2952205   -9142.8289    48277.552   -60208.317   -15497.722    9345.1711     10843.44    55615.758    79.242177 
   31200    2232.1282   -106.42439    2.0196765   -104.40472    15757.634    4.2975057    4.2975057    4.2975057    15757.634   -16018.006   -2743.1794    66034.087    21192.994   -18563.545    -1991.548    79.368723 
   31300    1078.7056   -105.38192   0.97603546   -104.40589   -13973.841    4.2991719    4.2991719    4.2991719   -13973.841   -18278.138    36917.465   -60560.849   -14764.369    29504.327    87788.206    79.461072 
   31400    2860.3378   -106.97044    2.5880938   -104.38234    7931.0718    4.2854611    4.2854611    4.2854611    7931.0718   -63707.062    32046.258    55454.019    -10230.02    4064.2197   -41133.813    78.703249 
   31500    1203.1509   -105.50411    1.0886363   -104.41548    1449.5694    4.2617926    4.2617926    4.2617926    1449.5694    50669.957     13416.26   -59737.509      14985.9   -16980.387    104934.17    77.406413 
   31600    1747.1222   -106.00137    1.5808329   -104.42053    7031.0403    4.2574877    4.2574877    4.2574877    7031.0403   -13025.091    48137.097   -14018.885   -11802.081    53715.509    8011.2797    77.172079 
   31700     1989.699   -106.23138    1.8003215   -104.43105    15762.274     4.277377     4.277377     4.277377    15762.274    11548.086   -43467.803     79206.54    1603.7292   -12353.765    46261.479    78.258693 
   31800    2074.6956   -106.29296    1.8772281   -104.41573   -3385.2517    4.2955157    4.2955157    4.2955157   -3385.2517   -13351.874   -9328.9801    12525.099    9586.6193   -667.17878    46173.401    79.258514 
   31900    1752.6965   -105.98135    1.5858767   -104.39547    27208.409    4.2991281    4.2991281    4.2991281    27208.409   -16935.131    50033.096    48527.263    1266.5374    26690.234    -817.0905    79.458645 
   32000    1977.2454   -106.15554    1.7890532   -104.36649   -18402.054    4.3067611    4.3067611    4.3067611   -18402.054    38371.894   -15084.206    -78493.85   -6049.2954   -12395.445    70773.991    79.882631 
   32100     1822.677   -106.00322    1.6491965   -104.35402   -33799.332    4.2995628    4.2995628    4.2995628   -33799.332   -80018.424    5604.8425   -26984.415    -635.7479    69003.263   -22488.894    79.482749 
   32200     1562.486   -105.77076    1.4137702   -104.35699    8398.9104    4.2647107    4.2647107    4.2647107    8398.9104    88758.817   -15188.998   -48373.087   -24172.882    28555.171    75694.576    77.565524 
   32300     2400.134    -106.5463    2.1716917   -104.37461    33601.261    4.2596329    4.2596329    4.2596329    33601.261    52677.405    42021.399    6104.9799    12169.906   -32850.009   -7138.7939     77.28879 
   32400    1463.1147   -105.75356    1.3238569    -104.4297   -51702.411    4.2936071    4.2936071    4.2936071   -51702.411   -27385.927   -17668.291   -110053.02    8419.0126     42912.33    26219.874     79.15291 
   32500    2757.5435   -106.87214    2.4950833   -104.37706    16148.683    4.2988684    4.2988684    4.2988684    16148.683    102982.53    10580.699   -65117.177   -29778.466   -12264.726    15960.258    79.444247 
   32600     1111.343   -105.40785    1.0055665   -104.40228   -15482.831    4.2994867    4.2994867    4.2994867   -15482.831    -30656.36     58845.89   -74638.024   -441.15986    13814.459   -11440.914     79.47853 
   32700    2440.6709   -106.58525    2.2083703   -104.37688   -2193.3752     4.291621     4.291621     4.291621   -2193.3752    12993.343     434.1067   -20007.576    5352.9329    12409.639    7781.3343    79.043121 
   32800    2001.9705   -106.19293     1.811425    -104.3815    31384.934    4.2639594    4.2639594    4.2639594    31384.934    119986.31   -4173.7776   -21657.735    2480.3799   -1870.7582   -23620.605    77.524536 
   32900    1358.6159   -105.66965    1.2293042   -104.44034   -8023.9331    4.2768867    4.2768867    4.2768867   -8023.9331   -29208.966    60807.257    -55670.09   -9242.6964    53157.593   -9488.6077    78.231783 
   33000    3036.6218   -107.13347    2.7475992   -104.38587   -10158.535    4.3000975    4.3000975    4.3000975   -10158.535    37432.045   -52684.761   -15222.889   -10321.829     -26995.8    14525.354    79.512408 
   33100    1238.3546   -105.49704    1.1204892   -104.37655    10668.959    4.3027646    4.3027646    4.3027646    10668.959    78410.077   -4739.7533   -41663.446     8569.567    53504.886   -22285.027    79.660449 
   33200    2433.1444    -106.5703    2.2015602   -104.36874    -36720.81    4.2996286    4.2996286    4.2996286    -36720.81   -5503.5099   -49409.261   -55249.658    9087.4083    1137.2688    42913.071    79.486402 
   33300    1947.7534   -106.15466    1.7623682   -104.39229   -11351.008    4.2772586    4.2772586    4.2772586   -11351.008     32946.56   -15365.922   -51633.664    23300.325    13123.671    32659.277    78.252195 
   33400    1844.5892   -106.07739    1.6690231   -104.40837    16980.638    4.2779402    4.2779402    4.2779402    16980.638    56051.364    32221.578   -37331.028   -7541.2626    57133.096   -9728.9461     78.28961 
   33500    2142.9201   -106.33992    1.9389591   -104.40096   -23811.287    4.2998998    4.2998998    4.2998998   -23811.287    38412.437   -70991.062   -38855.234    8509.9486   -21212.944    60309.071     79.50144 
   33600    1652.5947    -105.8828    1.4953024   -104.38749    13700.554    4.3041348    4.3041348    4.3041348    13700.554    36662.988    6958.2787   -2519.6036    18474.299    36316.532   -27776.482    79.736579 
   33700    2136.8003   -106.31346    1.9334218   -104.38004     31814.36    4.2940833    4.2940833    4.2940833     31814.36    87293.052   -21216.159    29366.186   -6939.1537   -4988.1448    30079.794    79.179252 
   33800    2172.9652   -106.35517    1.9661446   -104.38903    7018.4172    4.2831656    4.2831656    4.2831656    7018.4172   -4791.9056    -4935.138    30782.295     21456.89    3082.7382   -2397.9708    78.576848 
   33900    1064.5027   -105.38113   0.96318439   -104.41794    19475.428    4.2733095    4.2733095    4.2733095    19475.428     61399.09    32242.908   -35215.715    843.83861    56468.874    10428.537    78.035649 
   34000    2795.3104   -106.94402    2.5292556   -104.41476    13375.174    4.2823246    4.2823246    4.2823246    13375.174    6492.5787   -17514.915    51147.857   -25016.131   -22155.949   -641.78985    78.530569 
   34100    1657.9285   -105.93591    1.5001286   -104.43578   -27150.399    4.3056352    4.3056352    4.3056352   -27150.399   -58032.762   -2498.8678   -20919.566    21323.512    45690.627   -17562.669    79.819995 
   34200    1304.9853   -105.59084    1.1807781   -104.41007   -20025.293    4.3088831    4.3088831    4.3088831   -20025.293   -64644.289    -49763.73    54332.138    -33275.82    17374.757    17088.227    80.000764 
   34300    2582.4315   -106.69959    2.3366383   -104.36295    5629.4262    4.2944569    4.2944569    4.2944569    5629.4262    8799.2275   -45471.552    53560.603   -22293.338    -22886.79   -8005.7532    79.199919 
   34400    1822.8952   -106.02536    1.6493939   -104.37597   -38790.765    4.2931064    4.2931064    4.2931064   -38790.765   -77765.737    39587.209   -78193.768   -16671.704    72101.427   -13237.053    79.125222 
   34500    1360.5847   -105.63229    1.2310856    -104.4012   -10603.226    4.2833518    4.2833518    4.2833518   -10603.226   -26637.986    -38606.42    33434.728   -67457.846   -11467.404    5046.4314    78.587092 
   34600    2699.7163   -106.83776      2.44276     -104.395    14438.105    4.2678246    4.2678246    4.2678246    14438.105    12041.246    29071.972    2201.0972    32493.735   -13781.915      4213.31    77.735552 
   34700    1569.6317    -105.8562    1.4202357   -104.43596    -21302.95    4.2683841    4.2683841    4.2683841    -21302.95   -51658.134   -13108.901    858.18416   -89461.003    43032.233    2396.9614    77.766128 
   34800    2780.6478   -106.94727    2.5159885   -104.43128    10102.751    4.2769125    4.2769125    4.2769125    10102.751    3922.3374   -2192.8027    28578.719    11017.547    12428.186   -3888.2292    78.233199 
   34900    1593.3531   -105.88711    1.4416994   -104.44541   -25982.872    4.2928553    4.2928553    4.2928553   -25982.872   -57434.256   -52371.024    31856.662   -53490.972   -13155.759    18896.957    79.111341 
   35000    1909.8149    -106.1468    1.7280406   -104.41875   -47159.852    4.2968783    4.2968783    4.2968783   -47159.852   -90059.549    440.94011   -51860.948   -16926.465    24359.621    5748.5184    79.333965 
   35100    2052.7179   -106.23884    1.8573423    -104.3815   -1733.3795    4.2888816    4.2888816    4.2888816   -1733.3795   -75761.031   -32519.573    103080.47   -34729.567   -4675.1329   -9232.0468    78.891857 
   35200     2002.563   -106.19482    1.8119611   -104.38286   -25944.638    4.2876708    4.2876708    4.2876708   -25944.638   -54106.869   -29393.666    5666.6214   -46483.767     13458.07    25544.719    78.825058 
   35300    2104.9104   -106.28501    1.9045672   -104.38044    3164.2587    4.2838108    4.2838108    4.2838108    3164.2587   -49412.613    47866.147    11039.243   -15783.057    9455.4308    4772.7334    78.612364 
   35400    1662.5932   -105.90353    1.5043493   -104.39918    14366.841    4.2855652    4.2855652    4.2855652    14366.841   -53384.135   -32653.513    129138.17   -44333.609   -6850.6289   -21015.589    78.708988 
   35500    2417.8838   -106.56738    2.1877521   -104.37963   -23046.368    4.2914237    4.2914237    4.2914237   -23046.368   -31691.779   -3684.8627   -33762.463   -7834.1111    39667.722    17264.503    79.032218 
   35600    1642.9931   -105.87921    1.4866147    -104.3926   -8301.4401    4.2860605    4.2860605    4.2860605   -8301.4401   -61402.839   -31614.817    68113.335   -85501.135    7517.8265    6454.9782    78.736282 
   35700    2967.9376    -107.0601    2.6854523   -104.37465    10943.742    4.2871982    4.2871982    4.2871982    10943.742    9733.1354    25666.348   -2568.2565    26535.532    5073.2613   -6465.7056    78.798994 
   35800    884.21893   -105.21343   0.80005987   -104.41337    -36070.78    4.2917553    4.2917553    4.2917553    -36070.78   -87532.951   -37886.339    17206.949   -100309.21    27453.979    4129.8331    79.050544 
   35900    3048.7326   -107.13216    2.7585573    -104.3736    3432.8213    4.2833882    4.2833882    4.2833882    3432.8213   -13108.701    21385.486    2021.6789    23382.207   -10506.639   -2093.3471      78.5891 
   36000    992.47466   -105.30653   0.89801193   -104.40852    14036.616    4.2900727    4.2900727    4.2900727    14036.616   -8211.9097    21614.473    28707.283    -76275.88     10522.01   -23581.332    78.957604 
   36100    2144.8425   -106.32809    1.9406986   -104.38739   -19311.236    4.3047706    4.3047706    4.3047706   -19311.236   -60730.048    19775.465   -16979.126    4251.4885    38427.297   -2470.7305    79.771921 
   36200    2120.3049   -106.29927    1.9184964   -104.38077    19930.385    4.2979502    4.2979502    4.2979502    19930.385   -26415.591    12046.035    74160.712   -37106.221    -26634.57    7552.8842    79.393354 
   36300    1297.4992   -105.56891    1.1740046   -104.39491      7487.83    4.2850248    4.2850248    4.2850248      7487.83   -57337.996    51203.979    28597.507   -27050.899    54178.048   -16422.364    78.679216 
   36400    2269.5584   -106.43656    2.0535441   -104.38301    26099.968    4.2847468    4.2847468    4.2847468    26099.968   -41518.899    12351.715    107467.09    9231.5987    11922.292   -13727.902    78.663905 
   36500    1773.1813   -106.00008    1.6044117   -104.39567   -8203.0271    4.2898973    4.2898973    4.2898973   -8203.0271   -22738.295    4133.2815    -6004.068   -46087.616    33601.303     12695.46    78.947919 
   36600    2071.8948   -106.26297     1.874694   -104.38828   -14530.039    4.3028359    4.3028359    4.3028359   -14530.039   -12772.943    20617.187    -51434.36    7941.0535     48061.95    420.74558    79.664409 
   36700    2432.2123   -106.57471    2.2007168   -104.37399   -6888.9906    4.3020338    4.3020338    4.3020338   -6888.9906   -26812.908    -35166.38    41312.316   -38727.125   -38665.462   -1461.0225    79.619869 
   36800     1178.353   -105.45123    1.0661986   -104.38503    9199.2292    4.2921471    4.2921471    4.2921471    9199.2292    24768.147    38058.717   -35229.176    -13702.55     88436.33    15661.939    79.072196 
   36900    3369.8666   -107.41779    3.0491261   -104.36866    211.28127    4.2934799    4.2934799    4.2934799    211.28127    16657.282   -17355.431    1331.9926    34047.786   -27962.469   -1513.8906    79.145881 
   37000    1432.9943   -105.69153    1.2966034   -104.39492    4973.2959    4.2885897    4.2885897    4.2885897    4973.2959    6801.7244    52977.908   -44859.745    -26581.72    65447.972     5843.806    78.875751 
   37100    2252.6681   -106.43546    2.0382615    -104.3972    18402.787     4.296829     4.296829     4.296829    18402.787    20592.492    17995.823    16620.047   -915.72173   -1730.5623    28208.865    79.331236 
   37200    2053.0496   -106.25289    1.8576424   -104.39525     14883.78    4.3074741    4.3074741    4.3074741     14883.78    -13179.86     65504.46   -7673.2617    27903.178    14398.436    9668.6398    79.922308 
   37300    1686.2042   -105.90327     1.525713   -104.37756   -11518.337     4.315309     4.315309     4.315309   -11518.337    9576.9107    5843.4374   -49975.359     -42558.5     44085.09     4542.786    80.359217 
   37400    2883.6663   -106.93456    2.6092019   -104.32536   -46177.325    4.3280395    4.3280395    4.3280395   -46177.325    -45129.99   -31368.364   -62033.619    18250.753    10445.778   -14234.724    81.072518 
   37500    1252.6067   -105.45016    1.1333849   -104.31677   -26932.785    4.3108218    4.3108218    4.3108218   -26932.785    -76937.55   -8968.3928    5107.5862   -26212.763    83462.861    5177.1814    80.108799 
   37600    2575.5084   -106.61673    2.3303741   -104.28635     14131.53    4.2917929    4.2917929    4.2917929     14131.53    57316.049   -32158.075    17236.617   -2337.3646   -2171.2041    6989.5712    79.052622 
   37700    1270.5598   -105.49445    1.1496292   -104.34483   -16274.755    4.2928893    4.2928893    4.2928893   -16274.755   -34665.112    54483.187   -68642.339     5696.697    133104.46   -6265.4137    79.113223 
   37800     2400.996   -106.51192    2.1724717   -104.33945    63007.538    4.2868165    4.2868165    4.2868165    63007.538    135328.67    9682.6519     44011.29   -22152.866   -15710.511    8598.6221    78.777951 
   37900     1280.117   -105.55846    1.1582768   -104.40018    1893.0673     4.301274     4.301274     4.301274    1893.0673   -31916.808    37739.988   -143.97775    15733.256    80282.861   -4652.4367    79.577689 
   38000     2305.978   -106.45762    2.0864973   -104.37113   -36473.862    4.3128387    4.3128387    4.3128387   -36473.862   -2862.7977   -73262.807   -33295.983    13466.789   -30027.683     13593.18    80.221289 
   38100    1806.5333   -106.00684    1.6345893   -104.37225    -5538.585    4.2771848    4.2771848    4.2771848    -5538.585   -20136.249    39315.895   -35795.401    284.57754    97393.627    7011.6233    78.248146 
   38200    2230.7902   -106.37279    2.0184659   -104.35433     32517.45    4.2514003    4.2514003    4.2514003     32517.45    8028.2921    48090.895    41433.163    213.59993    30810.807    898.95461     76.84153 
   38300    1781.0356   -106.00786    1.6115185   -104.39634   -8286.9763    4.2757798    4.2757798    4.2757798   -8286.9763   -41516.732    58890.838   -42235.036    25639.727    30592.656    5897.9159    78.171057 
   38400    2089.8157   -106.28147    1.8909092   -104.39056   -33953.967    4.3053696    4.3053696    4.3053696   -33953.967    -86103.39    42697.519   -58456.031    3332.8789    70699.813     8331.085    79.805225 
   38500    2414.7377   -106.53928    2.1849054   -104.35437    -27805.44     4.312897     4.312897     4.312897    -27805.44   -59561.433   -42224.199    18369.312    26136.121   -7581.2464    7314.3017    80.224543 
   38600    1371.7267   -105.60608    1.2411671   -104.36491   -880.39875    4.2964834    4.2964834    4.2964834   -880.39875   -56709.818    98642.711   -44574.089    6307.0946    79478.309   -4543.3459    79.312092 
   38700    2640.5772     -106.738    2.3892497   -104.34875    44878.074    4.2746334    4.2746334    4.2746334    44878.074    40844.951    60959.337    32829.933    -35478.52   -36115.552    12335.919      78.1082 
   38800    1209.3254   -105.50231    1.0942231   -104.40809    1185.7508    4.2699817    4.2699817    4.2699817    1185.7508   -70773.526    45641.907    28688.871    37929.019    85443.749    244.96783    77.853485 
   38900    2922.0903   -107.05531    2.6439687   -104.41134    10212.085    4.2856523    4.2856523    4.2856523    10212.085    16079.516    10517.118    4039.6198    23106.391   -17260.161    4441.2784    78.713783 
   39000    1734.5474   -105.98846     1.569455     -104.419    222.96306    4.3011936    4.3011936    4.3011936    222.96306   -21844.231    48714.086   -26200.966   -18285.486     67620.86     1241.651    79.573227 
   39100    1773.2885    -106.0018    1.6045087   -104.39729    7348.6744    4.3043602    4.3043602    4.3043602    7348.6744   -17211.386   -22308.302    61565.711    22162.892    14993.498   -3738.8255    79.749108 
   39200    2151.1132   -106.31353    1.9463724   -104.36716   -37820.931    4.3071149    4.3071149    4.3071149   -37820.931   -35819.714   -1212.3555   -76430.724    10308.498    58667.675     604.2637     79.90232 
   39300    1873.5482   -106.05493    1.6952257   -104.35971    10216.246    4.2867678    4.2867678    4.2867678    10216.246    -22757.54    3365.8863     50040.39    397.76319     56782.03   -1012.2245    78.775265 
   39400    2350.4539   -106.49006    2.1267401   -104.36332    21189.741    4.2720385    4.2720385    4.2720385    21189.741    16788.233   -6603.6596    53384.649    16001.587    21669.699   -11903.938    77.966039 
   39500    1251.6648   -105.55032    1.1325326   -104.41779    21860.507     4.292397     4.292397     4.292397    21860.507   -75728.165    76891.535    64418.151   -14876.102    84725.138     9927.182    79.086008 
   39600    2690.6825   -106.81206    2.4345861   -104.37748   -452.40295     4.306925     4.306925     4.306925   -452.40295   -26061.078    8596.5876    16107.282    4338.9893    -28203.74    1560.8467    79.891749 
   39700    798.84644   -105.11771   0.72281304    -104.3949    17593.818    4.2968417    4.2968417    4.2968417    17593.818   -23694.913    54537.836    21938.531    1978.8744     93949.04    1426.4946    79.331936 
   39800    3260.3477   -107.29892    2.9500311   -104.34889   -23878.276    4.3023911    4.3023911    4.3023911   -23878.276   -10408.338   -39764.616   -21461.875    20.220306   -26911.647    768.24507     79.63971 
   39900    1016.9734   -105.27609   0.92017892   -104.35591   -19044.144    4.3076496    4.3076496    4.3076496   -19044.144   -85956.756    95762.698   -66938.374    18781.062    115004.97    1807.7477     79.93208 
   40000      2586.15    -106.6475    2.3400029   -104.30749    33362.413    4.2949269    4.2949269    4.2949269    33362.413    23598.929    51808.406    24679.906   -5721.9214    -24457.24    5583.0139    79.225928 
   40100    1225.0833   -105.47337    1.1084811   -104.36489   -13724.465    4.2928225    4.2928225    4.2928225   -13724.465   -14109.535     44403.41   -71467.271   -11102.668    103060.36    -7080.553    79.109527 
   40200    3061.0097   -107.11393    2.7696659   -104.34427    16370.959    4.2964795    4.2964795    4.2964795    16370.959    9178.1171   -10529.621     50464.38    11181.362   -35529.884   -754.12522    79.311878 
   40300    874.04443    -105.1723   0.79085377   -104.38145   -12921.979    4.2965489    4.2965489    4.2965489   -12921.979   -38425.402    65974.655   -66315.191    723.81956     106989.3    15243.771    79.315723 
   40400    2848.7723   -106.93719    2.5776291   -104.35956    8000.9881    4.3022424    4.3022424    4.3022424    8000.9881   -3198.1984   -7405.2658    34606.429     93.13726   -27445.516    7457.8719    79.631451 
   40500    1657.0579   -105.86597    1.4993408   -104.36662   -21867.902    4.3124196    4.3124196    4.3124196   -21867.902   -43165.535    52779.461   -75217.632    23159.404    97514.304   -9287.1022    80.197907 
   40600      2689.58   -106.75485    2.4335885   -104.32126    1953.3171    4.3062835    4.3062835    4.3062835    1953.3171    43312.097    1505.6264   -38957.773   -14536.869   -21559.885    6222.9949    79.856055 
   40700    1591.0442   -105.76024    1.4396103   -104.32063    498.61412    4.3016532    4.3016532    4.3016532    498.61412   -44023.519    76309.747   -30790.386   -1546.3839    80228.605    10548.762    79.598736 
   40800    2695.3417   -106.74011    2.4388018    -104.3013    13578.792    4.3170396    4.3170396    4.3170396    13578.792   -27986.339     63315.63    5407.0844   -24348.377   -29609.673    25978.752    80.455935 
   40900    1142.6198   -105.36175    1.0338664   -104.32788   -47648.259    4.3361621    4.3361621    4.3361621   -47648.259   -105336.34    28395.339   -66003.779    8402.5514    105820.57   -4929.3973    81.529828 
   41000    3301.4526   -107.24715    2.9872237   -104.25993   -26973.564    4.3284612    4.3284612    4.3284612   -26973.564   -53488.525   -54150.297     26718.13    6692.5866   -37993.325    8498.1679    81.096218 
   41100    1330.6023   -105.50548    1.2039569   -104.30152   -25218.369    4.2984986    4.2984986    4.2984986   -25218.369   -52103.977    31422.827   -54973.956   -6593.8453    103252.71   -7026.7733    79.423746 
   41200    2717.0419   -106.75551    2.4584366   -104.29708    38263.306    4.2679761    4.2679761    4.2679761    38263.306    44522.152     45242.45    25025.315   -8920.8361   -35265.294    19283.071    77.743832 
   41300    1677.4375   -105.90707    1.5177807   -104.38929    627.79682    4.2825439    4.2825439    4.2825439    627.79682   -63337.343    103465.39   -38244.661    30.419201     94681.11   -4324.9811    78.542638 
   41400    2488.0273   -106.63237    2.2512194   -104.38115   -39483.755      4.32365      4.32365      4.32365   -39483.755   -63257.726    -12917.58   -42275.957   -9218.4266     -16111.9    8015.0037    80.826092 
   41500    1182.8541    -105.4132    1.0702713   -104.34292   -17103.329    4.3243341    4.3243341    4.3243341   -17103.329   -107415.97    31478.395    24627.585    5772.3767    44487.366    -576.5796    80.864468 
   41600    3004.0914    -107.0132     2.718165   -104.29504   -8351.8093    4.2952286    4.2952286    4.2952286   -8351.8093   -31398.072    11535.991   -5193.3462   -693.01171    30813.756   -13213.822    79.242623 
   41700    1661.5294   -105.84639    1.5033867     -104.343   -2039.9331    4.2862958    4.2862958    4.2862958   -2039.9331   -31659.071    53732.918   -28193.646    6666.1557    3354.4974    8028.7776    78.749247 
   41800    1764.6964   -105.97172    1.5967344   -104.37499    2575.7139    4.2910159    4.2910159    4.2910159    2575.7139   -35473.575    46016.677   -2815.9609    20394.127    32476.491   -1631.8063    79.009695 
   41900    2080.7527   -106.26322    1.8827087   -104.38051    34420.679    4.3142818    4.3142818    4.3142818    34420.679    74145.403    34712.312   -5595.6766    34156.191   -21769.273    15602.429    80.301843 
   42000    1370.2965   -105.61168    1.2398731    -104.3718   -31198.509     4.343517     4.343517     4.343517   -31198.509   -52892.923    29313.533   -70016.136   -14384.012    55023.802    18933.805    81.945401 
   42100    2753.4777   -106.77149    2.4914045   -104.28008   -17995.247    4.3429452    4.3429452    4.3429452   -17995.247   -15611.617    -61728.85    23354.726   -2097.3082    6196.9924   -17398.321    81.913042 
   42200    1309.4775   -105.44774    1.1848428    -104.2629    -1048.432    4.3264824    4.3264824    4.3264824    -1048.432   -30732.033    45868.584   -18281.848   -8532.1879    85625.689   -21920.746    80.985045 
   42300    2776.1624   -106.73429      2.51193   -104.22236   -449.33067    4.3211759    4.3211759    4.3211759   -449.33067   -36484.624   -35674.263    70810.895   -6435.3729   -30624.724    3242.8496     80.68742 
   42400    1363.9112   -105.51827    1.2340955   -104.28418   -31746.672    4.3226885    4.3226885    4.3226885   -31746.672   -47263.333   -22996.115   -24980.569    8574.6024    93645.435    5518.3703    80.772186 
   42500    2818.2712   -106.82519     2.550031   -104.27516   -2367.5737    4.3089613    4.3089613    4.3089613   -2367.5737   -29863.582    26237.978   -3477.1164    471.28316   -27256.676   -2939.4238    80.005117 
   42600    1306.5378   -105.49016    1.1821829   -104.30798   -3185.8436    4.2974568    4.2974568    4.2974568   -3185.8436   -103131.29    153822.12   -60248.361   -1855.1592    86915.169    8866.8576    79.366014 
   42700     2701.173    -106.7525    2.4440781   -104.30843   -23997.259    4.3032918    4.3032918    4.3032918   -23997.259   -3273.8202   -52039.856     -16678.1   -12824.434   -12887.468    16217.922    79.689738 
   42800    1268.1606   -105.50038    1.1474583   -104.35292   -30766.306    4.3112982    4.3112982    4.3112982   -30766.306   -94633.451    57886.936   -55552.402   -13095.975    95819.022    1714.9988     80.13536 
   42900    2589.2546   -106.68413     2.342812   -104.34132    15627.654    4.3060158    4.3060158    4.3060158    15627.654    56978.512    994.70389   -11090.253    6033.7793   -45401.014    5406.7454    79.841165 
   43000    1174.6689   -105.42702    1.0628651   -104.36415    -5681.697    4.3092505    4.3092505    4.3092505    -5681.697   -41717.856    108684.13    -84011.36    14690.575    105835.72   -14333.842    80.021229 
   43100    3070.9023   -107.10438     2.778617   -104.32576   -1749.1932    4.3114162    4.3114162    4.3114162   -1749.1932    11505.533    34442.303   -51195.416    5913.8443   -36931.353   -744.59703    80.141941 
   43200    1360.8395   -105.58898    1.2313162   -104.35766   -41956.587    4.3080287    4.3080287    4.3080287   -41956.587   -90257.852    47527.794   -83139.703    19422.988    105315.63    9815.0637    79.953182 
   43300    3690.4744   -107.65956    3.3392188   -104.32035   -11837.735    4.3016871    4.3016871    4.3016871   -11837.735    12634.516   -20515.126   -27632.594     -4156.19   -17240.499     9602.853     79.60062 
   43400    1163.8066   -105.41825    1.0530367   -104.36521    -24614.15    4.2955487    4.2955487    4.2955487    -24614.15   -76556.428    86584.165   -83870.187    12303.604    114348.82    17834.546    79.260343 
   43500    2777.6047   -106.85211    2.5132351   -104.33887    15518.733    4.2867412    4.2867412    4.2867412    15518.733    20514.344    11253.246    14788.608   -24099.906   -34118.481    14846.961    78.773801 
   43600    1393.0001   -105.63478    1.2604158   -104.37436   -9960.8323    4.2996003    4.2996003    4.2996003   -9960.8323   -60111.254    69407.063   -39178.306    1980.4351    102584.21   -7568.8436     79.48483 
   43700    2850.1202   -106.92058    2.5788486   -104.34173    -31262.32    4.3064999    4.3064999    4.3064999    -31262.32   -70574.929    11686.095   -34898.125    2129.0699    -27394.84    19491.652    79.868093 
   43800    993.27013   -105.24246   0.89873169   -104.34373   -10444.808    4.2960702    4.2960702    4.2960702   -10444.808   -72580.443    66392.856   -25146.835    9906.7694    96841.042   -11347.807    79.289213 
   43900     2779.321   -106.84366    2.5147881   -104.32888    10998.428    4.2920887    4.2920887    4.2920887    10998.428   -37105.857    2811.7223     67289.42     1020.302   -11748.099    10205.229    79.068966 
   44000    1173.2714    -105.4248    1.0616006    -104.3632   -17662.118    4.3031388    4.3031388    4.3031388   -17662.118    -129407.1    54304.752    22115.992   -18647.163    106108.08   -5269.4423    79.681235 
   44100    2453.3565   -106.56439    2.2198485   -104.34454   -4109.2627    4.3055735    4.3055735    4.3055735   -4109.2627   -60877.501    10514.008    38035.705    11310.783   -23814.005   -19050.522    79.816564 
   44200    1557.4126   -105.76127    1.4091797   -104.35209   -34087.576    4.3103672    4.3103672    4.3103672   -34087.576   -81765.218   -11807.123   -8690.3878    -11963.58    78291.495   -11445.913    80.083456 
   44300    1834.6883   -106.02592    1.6600645   -104.36585   -27851.125    4.2889852    4.2889852    4.2889852   -27851.125   -56278.016    23276.988   -50552.346   -18640.695    37908.436    -18120.43    78.897575 
   44400     2422.799   -106.53082    2.1921995   -104.33862    46744.547    4.2461231    4.2461231    4.2461231    46744.547    42337.525    72230.959    25665.157   -3050.2864   -15330.034    13497.438    76.555736 
   44500    1493.5789   -105.76397    1.3514216   -104.41255    -24430.52    4.2577859    4.2577859    4.2577859    -24430.52   -68348.893     41324.05   -46266.717   -17296.586    109081.17   -7191.5988    77.188299 
   44600    2535.3768    -106.7007    2.2940622   -104.40664    17447.306    4.2853935    4.2853935    4.2853935    17447.306    54149.546   -32594.826    30787.198   -8004.7765   -34841.941   -12510.316    78.699527 
   44700     1797.364   -106.05641    1.6262927   -104.43011   -30055.703    4.2990971    4.2990971    4.2990971   -30055.703   -70952.182    40610.746   -59825.672    4845.1025    95961.778     12301.84    79.456924 
   44800    2482.4442   -106.64469    2.2461677   -104.39853     353.2378    4.2936176    4.2936176    4.2936176     353.2378     16034.23   -23015.656    8041.1393   -12932.495    -23719.47    1868.9681    79.153494 
   44900    1305.8074   -105.57604     1.181522   -104.39452    13657.834     4.276489     4.276489     4.276489    13657.834     -23319.1    88806.107   -24513.504    13225.127    89137.935   -6822.7405    78.209961 
   45000    2488.3632    -106.6245    2.2515233   -104.37298    24594.235     4.277318     4.277318     4.277318    24594.235    1138.4329    57542.951    15101.321    12100.592    -1614.045    6324.5919    78.255452 
   45100    1862.3224   -106.08719    1.6850684   -104.40212   -18709.159    4.2863702    4.2863702    4.2863702   -18709.159   -37688.347    11996.721   -30435.852   -37474.744    23422.027   -8905.8347     78.75335 
   45200      2010.78   -106.21587     1.819396   -104.39647    7155.7466    4.2904018    4.2904018    4.2904018    7155.7466     10220.91    62098.707   -50852.378   -9975.4448    43936.658   -4260.0522    78.975774 
   45300    2248.8762   -106.42263    2.0348304    -104.3878    34312.343    4.2851376    4.2851376    4.2851376    34312.343    27584.199    11221.592    64131.237    3157.0718   -68064.144    12643.516    78.685429 
   45400    2074.3472   -106.26997    1.8769129   -104.39305   -26200.435      4.29087      4.29087      4.29087   -26200.435    -62193.93   -5003.9621   -11403.414   -30410.827    75290.304   -22162.581    79.001635 
   45500    1576.5743   -105.81659    1.4265175   -104.39007     3591.053     4.295435     4.295435     4.295435     3591.053   -17442.085    58803.872   -30588.628   -3641.0124   -94650.088    13390.728    79.254049 
   45600    2461.8525   -106.60448    2.2275358   -104.37695   -3431.9193    4.3045545    4.3045545    4.3045545   -3431.9193     1096.607    64101.269   -75493.634   -3101.9639    38616.988   -3497.1359    79.759905 
   45700    1362.1618   -105.63655    1.2325126   -104.40404   -30889.398    4.2884882    4.2884882    4.2884882   -30889.398   -64092.841    36629.643   -65204.998   -10475.841   -20798.731   -18811.628     78.87015 
   45800    2404.1061   -106.54218    2.1752857    -104.3669    60355.791    4.2568306    4.2568306    4.2568306    60355.791    56025.147    106847.17     18195.05    13305.592   -35721.812   -2956.4972    77.136356 
   45900    1599.6856   -105.85883    1.4474291    -104.4114    5655.6434     4.267617     4.267617     4.267617    5655.6434   -20435.839    39106.454    -1703.685    4669.4599    7408.7805    24138.634     77.72421 
   46000    2378.8713   -106.55344    2.1524528   -104.40099      401.105    4.2855403    4.2855403    4.2855403      401.105   -5218.1557    38428.724   -32007.253   -13026.309   -26774.522   -12053.898    78.707614 
   46100    1477.6655   -105.73103    1.3370228   -104.39401    16504.866    4.2957042    4.2957042    4.2957042    16504.866    60649.915    20453.232   -31588.551    44972.316     5866.521    8334.4926    79.268951 
   46200    2581.2791   -106.69176    2.3355956   -104.35617   -17342.276    4.3078163    4.3078163    4.3078163   -17342.276   -13392.112    18750.595   -57385.311    280.73478    4374.7621    7758.6211    79.941361 
   46300    1705.6595   -105.88847    1.5433165   -104.34515   -20396.211    4.3062885    4.3062885    4.3062885   -20396.211   -356.76618   -78303.002    17471.136    18291.532   -13013.663   -14935.155    79.856333 
   46400    2047.5098   -106.18783    1.8526299    -104.3352    4578.1407    4.2865997    4.2865997    4.2865997    4578.1407    4546.7936   -9772.4937    18960.122    18999.798    6603.3831    27552.138    78.766001 
   46500    1831.8951   -106.01028    1.6575372   -104.35274    35120.458    4.2695882    4.2695882    4.2695882    35120.458    37915.152    5061.2174    62385.005   -13230.193   -15297.173   -51029.415    77.831961 
   46600    1692.5774   -105.92905    1.5314796   -104.39757    14410.166    4.2800236    4.2800236    4.2800236    14410.166    11888.096   -34201.876    65544.277    37789.885   -10854.364    -5544.369    78.404049 
   46700    2308.7958   -106.48583     2.089047   -104.39678    7966.2883    4.2860975    4.2860975    4.2860975    7966.2883   -89.006757    24360.393   -372.52089   -11145.794     31115.07    -6157.333    78.738319 
   46800    1350.7381   -105.62748    1.2221762    -104.4053    10217.152    4.2908138    4.2908138    4.2908138    10217.152    104381.81   -74565.478    835.12647   -20110.174   -10667.776   -46942.884    78.998531 
   46900    2936.0122    -107.0274    2.6565656   -104.37083   -27105.744    4.3063343    4.3063343    4.3063343   -27105.744   -28219.941    -22235.56   -30861.731    17068.834     114.9649    21371.105    79.858884 
   47000    1036.4306   -105.31859   0.93778417   -104.38081   -40575.778    4.3065639    4.3065639    4.3065639   -40575.778   -19683.519    -68854.36   -33189.455   -32442.729   -973.41605   -62654.602    79.871653 
   47100    3033.9329   -107.08639    2.7451662   -104.34123    28299.929    4.2862176    4.2862176    4.2862176    28299.929    39002.858   -6824.4341    52721.362    29395.044    15282.584    24101.662     78.74494 
   47200    1207.6436   -105.47005    1.0927013   -104.37735    26056.139      4.27351      4.27351      4.27351    26056.139    75588.914    20939.485   -18359.984   -8925.6212   -32159.398   -53512.415    78.046635 
   47300    2450.8699   -106.60877    2.2175986   -104.39117    9556.3729    4.2801988    4.2801988    4.2801988    9556.3729    44108.882   -48113.136    32673.372   -18893.608    24463.546   -1280.4551    78.413678 
   47400    2048.6322   -106.25707    1.8536454   -104.40343    -7466.857     4.294121     4.294121     4.294121    -7466.857   -5648.6152    6152.9214   -22904.877    10799.966   -19116.062   -12430.234    79.181337 
   47500    1201.4076   -105.51728    1.0870589   -104.43022    -25335.96    4.2897064    4.2897064    4.2897064    -25335.96    54882.097   -83117.052   -47772.924   -36269.484   -18805.983   -65032.704    78.937378 
   47600     2670.354   -106.81129    2.4161924    -104.3951    23695.109    4.2758227    4.2758227    4.2758227    23695.109   -5059.2765    16602.834    59541.771   -17581.139     6272.484     28743.65    78.173411 
   47700    1391.1925   -105.68016    1.2587802   -104.42138    12727.839     4.271858     4.271858     4.271858    12727.839    81576.802   -24375.342   -19017.943    14160.219    -37980.02    -49727.23    77.956156 
   47800    2304.3137   -106.50717    2.0849914   -104.42218   -2808.2042     4.287474     4.287474     4.287474   -2808.2042    2054.1023   -5947.1691   -4531.5458   -1451.1744    541.82143    17869.107    78.814206 
   47900    1831.4229   -106.06343    1.6571099   -104.40632    92.838683    4.3009316    4.3009316    4.3009316    92.838683    11398.428    38129.757   -49249.669   -4725.0658    31775.684   -28685.833    79.558686 
   48000    1979.4025   -106.16204     1.791005   -104.37103   -6700.2171    4.3158102    4.3158102    4.3158102   -6700.2171    10548.537   -11114.179   -19535.009      7301.55    -43134.05   -36501.987    80.387221 
   48100    2041.1683   -106.17645    1.8468919   -104.32956   -18348.785    4.3141421    4.3141421    4.3141421   -18348.785   -6933.9118    34983.841   -83096.283   -11592.647     48720.93    -4146.546    80.294046 
   48200    1682.4571   -105.85143    1.5223226   -104.32911    13177.663     4.284859     4.284859     4.284859    13177.663    80202.211    23246.977     -63916.2   -12595.474   -15855.703   -73262.317    78.670084 
   48300    2596.3072   -106.67639    2.3491933   -104.32719     35195.09    4.2683275    4.2683275    4.2683275     35195.09    11879.161    44974.298    48731.811    17914.905    5414.1074    21507.547    77.763038 
   48400    903.89116    -105.2242   0.81785972   -104.40634    26252.063    4.2840215    4.2840215    4.2840215    26252.063    103649.45    42598.553   -67491.817   -7090.5125    26996.652   -62738.337     78.62396 
   48500    3419.2677   -107.45989    3.0938252   -104.36607     -20835.9    4.3096852    4.3096852    4.3096852     -20835.9   -32121.169   -17394.468   -12992.064    4232.2491   -18548.621    9275.9567    80.045449 
   48600    1156.2049   -105.44318    1.0461585   -104.39702   -18219.171    4.2977092    4.2977092    4.2977092   -18219.171    14972.406   -31837.752   -37792.168    17097.781    47899.832   -28891.267    79.379998 
   48700    2411.8995   -106.54174    2.1823373   -104.35941    23067.149     4.277436     4.277436     4.277436    23067.149    35266.976    39517.925    -5583.454    2117.8027   -19332.282   -21665.506     78.26193 
   48800    1966.4065   -106.15557     1.779246   -104.37632   -21161.683    4.2826204    4.2826204    4.2826204   -21161.683   -24791.117    -29499.82   -9194.1134    3792.8724   -21347.723   -24985.571    78.546845 
   48900     1327.676   -105.60901    1.2013091    -104.4077   -35515.645    4.2754173    4.2754173    4.2754173   -35515.645   -4964.0432   -39494.482   -62088.411    24016.753     50246.99   -81859.298    78.151178 
   49000    2814.2491   -106.94518    2.5463917   -104.39879   -1594.2076    4.2707035    4.2707035    4.2707035   -1594.2076   -44382.055    33938.076    5661.3561   -14453.137   -19076.013     30415.44     77.89297 
   49100    1190.6536   -105.50473    1.0773284    -104.4274   -39725.861    4.2943356    4.2943356    4.2943356   -39725.861   -573.49471   -49903.568    -68700.52    25449.025   -11270.239   -76122.291    79.193209 
   49200     2275.662    -106.4475    2.0590668   -104.38843   -376.65922    4.2944088    4.2944088    4.2944088   -376.65922    5650.4831   -4214.5878    -2565.873     21711.81    11404.233    1791.4699    79.197258 
   49300    1478.9584    -105.7246    1.3381926   -104.38641    37775.569    4.2777725    4.2777725    4.2777725    37775.569    99949.662    147.89044    13229.154   -40112.307   -6979.7897   -43842.152    78.280401 
   49400    2660.2304    -106.7917    2.4070323   -104.38467   -93.799291    4.2917844    4.2917844    4.2917844   -93.799291    8608.7187   -37697.102    28806.985    10555.398   -7836.8969   -24991.667    79.052151 
   49500    2128.3772   -106.30375    1.9258004   -104.37795   -1739.8264    4.2946123    4.2946123    4.2946123   -1739.8264    49786.532   -73825.277    18819.266    6944.1718   -5855.0001   -35893.315    79.208518 
   49600    1359.2971   -105.60378    1.2299206   -104.37386   -12162.868    4.2866123    4.2866123    4.2866123   -12162.868    58028.036    -61050.01   -33466.631   -11322.084    -2491.224   -40009.879    78.766696 
   49700    2459.2173   -106.57179    2.2251515   -104.34664   -12429.627    4.2854389    4.2854389    4.2854389   -12429.627   -2892.6781   -24710.858   -9685.3452   -6601.1847    10107.367   -21872.158    78.702027 
   49800    1345.4236   -105.59699    1.2173676   -104.37963    -12920.27     4.271004     4.271004     4.271004    -12920.27    75122.422   -88471.237   -25411.997   -6678.0781    8686.4476   -50864.435    77.909412 
   49900    2840.4285   -106.94742    2.5700794   -104.37734    10017.819    4.2642597    4.2642597    4.2642597    10017.819     23974.32   -47560.627    53639.763   -6868.6012   -2750.6205    63256.102    77.540919 
   50000    2045.1795    -106.2482    1.8505214   -104.39768    -27238.47    4.2780382    4.2780382    4.2780382    -27238.47    38933.419   -83189.605   -37459.225    11516.779    139.38789   -89817.963     78.29499 
   50100    1450.4091   -105.71382    1.3123607   -104.40146   -9993.6975     4.283803     4.283803     4.283803   -9993.6975    72631.655   -88350.004   -14262.743    3567.3917    18892.264    90482.516     78.61193 
   50200    2651.6576   -106.78004    2.3992755   -104.38076    15013.149    4.2832478    4.2832478    4.2832478    15013.149    11717.311   -37278.728    70600.864    8422.1734   -11352.389   -41170.184    78.581369 
   50300    1194.5441   -105.49975    1.0808486    -104.4189   -5462.4344    4.2727839    4.2727839    4.2727839   -5462.4344    116586.14   -103565.99   -29407.459    9251.9729    2804.6006    74989.325    78.006857 
   50400    2718.2446   -106.86009    2.4595248   -104.40057    21485.003    4.2660142    4.2660142    4.2660142    21485.003     38366.16   -36482.818    62571.665    7031.2574   -186.65872    12150.694     77.63667 
   50500    1964.8333   -106.20093    1.7778225   -104.42311    5312.4521    4.2675044    4.2675044    4.2675044    5312.4521    48750.055   -36377.129    3564.4304   -14667.852   -3153.8877    62477.154    77.718057 
   50600    1825.0569   -106.06782    1.6513498   -104.41647   -17950.731    4.2744712    4.2744712    4.2744712   -17950.731    57309.775   -89222.122   -21939.847    12225.134   -21949.671    29967.676    78.099307 
   50700    2505.5616    -106.6571    2.2670848   -104.39002   -7673.6909    4.2835042    4.2835042    4.2835042   -7673.6909   -16065.047    8213.6166   -15169.642   -3402.1966    13863.328     658.7665    78.595483 
   50800    1356.3211    -105.6298    1.2272278   -104.40257   -1284.9139    4.2844345    4.2844345    4.2844345   -1284.9139    39492.682   -17579.724     -25767.7   -16139.355   -1451.5579    75913.463    78.646704 
   50900    2075.2411   -106.25589    1.8777218   -104.37817    27370.643    4.2774069    4.2774069    4.2774069    27370.643    25270.271    37309.195    19532.463    17135.573   -5445.4944   -38922.351    78.260335 
   51000    1773.1217   -105.99884    1.6043577   -104.39448   -4924.5084    4.2796103    4.2796103    4.2796103   -4924.5084    16411.606   -14449.117   -16736.015   -16080.472    17861.179    76148.244    78.381336 
   51100    2684.1789     -106.803    2.4287015    -104.3743    8831.3491      4.27902      4.27902      4.27902    8831.3491   -25229.392   -4537.2191    56260.659   -2453.4158   -33450.723   -27919.348    78.348906 
   51200    1659.1778   -105.89576    1.5012589    -104.3945    13285.908    4.2750067    4.2750067    4.2750067    13285.908   -17920.974    51278.486    6500.2107    5531.0966    27269.304    18852.832    78.128665 
   51300    2492.0219   -106.64341    2.2548338   -104.38858    24605.982    4.2777001    4.2777001    4.2777001    24605.982    78199.313   -15946.094    11564.727   -3900.6259   -4024.1768    5395.0823    78.276429 
   51400    1385.0523   -105.66729    1.2532245   -104.41407    13979.493    4.2780882    4.2780882    4.2780882    13979.493    10096.133   -1891.7217    33734.066   -2687.8145   -31058.535   -47017.913    78.297735 
   51500    2120.1665   -106.32771    1.9183712   -104.40934   -13564.869    4.2759034    4.2759034    4.2759034   -13564.869   -52587.563    7245.2268    4647.7304    3126.1719    60991.238    24112.256    78.177836 
   51600    2434.7183   -106.60107    2.2029842   -104.39809    2291.8467     4.274036     4.274036     4.274036    2291.8467    36683.715   -20606.531   -9201.6441    20456.213   -25107.559   -61103.813    78.075455 
   51700    1876.5765   -106.10346    1.6979659   -104.40549   -9966.6018    4.2906915    4.2906915    4.2906915   -9966.6018   -22960.703    53507.405   -60446.508    4305.7033    14284.481    1370.0343    78.991775 
   51800    2092.4059   -106.26934    1.8932528   -104.37609   -30005.179    4.3025075    4.3025075    4.3025075   -30005.179    -15699.82    -30832.65   -43483.066    4240.2678    8542.1337   -37872.497     79.64617 
   51900    1566.6425   -105.78544     1.417531   -104.36791   -8412.7206    4.2858224    4.2858224    4.2858224   -8412.7206    1254.8039    24786.775   -51279.741    17251.148   -14259.238   -40628.396    78.723159 
   52000    2105.2261   -106.26168    1.9048528   -104.35683    5262.6612    4.2771328    4.2771328    4.2771328    5262.6612   -67083.336    91312.928   -8441.6082   -9849.3724    22202.076    18914.293    78.245292 
   52100    1793.3293   -105.99963    1.6226421   -104.37699    1602.8439    4.2826558    4.2826558    4.2826558    1602.8439     48097.62    7569.2889   -50858.377    1825.9275    4635.6744   -90145.585    78.548793 
   52200    2648.1418   -106.76886    2.3960944   -104.37277    29887.231    4.2844365    4.2844365    4.2844365    29887.231   -16252.406     92553.89    13360.209    8545.3381    2326.3782    39106.581    78.646815 
   52300    640.68714   -105.00055   0.57970719   -104.42084   -17359.918    4.2844217    4.2844217    4.2844217   -17359.918    28628.343   -8324.5679   -72383.529    1396.0131     2393.327    -102934.4    78.645998 
   52400    2285.6273   -106.47339    2.0680836   -104.40531    12930.148    4.2785249    4.2785249    4.2785249    12930.148   -19612.178    33574.912    24827.711    2785.6204   -525.51463     4534.836    78.321718 
   52500    1867.1288    -106.1028    1.6894174   -104.41338    9935.4906    4.2826237    4.2826237    4.2826237    9935.4906    50166.632   -19650.116   -710.04467    2584.9035    6990.8234   -61808.864    78.547025 
   52600    2058.5947   -106.24383    1.8626597   -104.38117   -23152.991    4.2928815    4.2928815    4.2928815   -23152.991    1403.6421   -45602.371   -25260.243    156.52796     4834.421   -31870.583    79.112793 
   52700    1909.2975   -106.07867    1.7275725   -104.35109    12616.799    4.2778451    4.2778451    4.2778451    12616.799    19800.146    34722.171   -16671.918   -21201.338   -11918.494   -26146.746    78.284391 
   52800    2134.8672   -106.28758    1.9316728   -104.35591     22426.42    4.2694343    4.2694343    4.2694343     22426.42    26871.988    34752.497    5654.7759    13172.469    19721.648   -52308.153    77.823542 
   52900    2028.8522    -106.2122    1.8357481   -104.37646   -1869.0288    4.2819768    4.2819768    4.2819768   -1869.0288   -19619.296   -8897.7417    22909.951    5312.2474    25970.365   -13550.826    78.511436 
   53000    2118.0746   -106.29451    1.9164784   -104.37803   -16725.507    4.2814765    4.2814765    4.2814765   -16725.507    62834.178   -74920.168   -38090.532   -15375.283   -16732.436   -55077.935    78.483922 
   53100    2068.7159   -106.23915    1.8718176   -104.36733   -22677.408    4.2788638    4.2788638    4.2788638   -22677.408   -73498.901    5480.7885   -14.110393    40859.507    47009.483    24246.522     78.34033 
   53200     1340.598   -105.59804    1.2130013   -104.38503   -28455.983    4.2873501    4.2873501    4.2873501   -28455.983    16918.515   -62117.134   -40169.329   -7883.0051    1774.4565   -91599.829    78.807373 
   53300    2847.4511   -106.94286    2.5764336   -104.36642    20825.861    4.2769432    4.2769432    4.2769432    20825.861    25635.337    16910.096    19932.149    10498.376   -5207.4634    20277.822    78.234887 
   53400    1208.4419   -105.48828    1.0934236   -104.39486    14759.649    4.2687418    4.2687418    4.2687418    14759.649    20033.037     55460.91   -31214.998    26600.151    49913.294   -37190.058     77.78568 
   53500    2700.9532   -106.82086    2.4438792   -104.37698    15717.564    4.2830201    4.2830201    4.2830201    15717.564    48069.643   -9826.2803    8909.3298   -11151.531   -28169.032   -11122.025     78.56884 
   53600    1073.2485    -105.3656   0.97109784    -104.3945   -1775.0282    4.2937295    4.2937295    4.2937295   -1775.0282     2958.376    41550.156   -49833.616    16302.314    50217.175   -1074.2487     79.15968 
   53700    2942.4308   -106.98632    2.6623733   -104.32395    6971.4665    4.3036046    4.3036046    4.3036046    6971.4665   -16958.604    45534.527   -7661.5232     1511.001   -5570.4413   -9563.5442    79.707114 
   53800    1496.7012    -105.6715    1.3542467   -104.31725   -34697.295    4.3093798    4.3093798    4.3093798   -34697.295   -49376.024   -29786.906   -24928.954     -1882.34    20135.611    9827.3974    80.028432 
   53900    2612.2217   -106.65147    2.3635931   -104.28788    12333.017    4.2896258    4.2896258    4.2896258    12333.017    71566.184   -5753.4769   -28813.656    8802.8882    2210.4669    13251.993    78.932932 
   54000    1503.5426   -105.68753    1.3604369    -104.3271    6478.4954    4.2640545    4.2640545    4.2640545    6478.4954   -30758.506    29030.821    21163.171   -14052.468   -54778.205   -1179.4974    77.529724 
   54100    2388.8272   -106.50363     2.161461   -104.34217    44833.549    4.2599902    4.2599902    4.2599902    44833.549    29896.215    58730.839    45873.592     10857.82     45391.51   -13704.242    77.308242 
   54200    1151.8691   -105.44992    1.0422354   -104.40768    14570.659    4.2851362    4.2851362    4.2851362    14570.659    -11757.54    119471.81   -64002.297    17509.075   -97457.761   -3617.4932    78.685352 
   54300    3083.9769   -107.12004    2.7904471   -104.32959   -14131.615    4.3152922    4.3152922    4.3152922   -14131.615    12861.671   -21353.031   -33903.485    14662.728    43827.482   -385.77527    80.358279 
   54400    1122.4554   -105.34579    1.0156213   -104.33017   -15844.633    4.3069795    4.3069795    4.3069795   -15844.633   -39809.972    55378.985   -63102.912    2560.6469   -120513.23    2451.6668    79.894783 
   54500    2892.4025   -106.90477    2.6171066   -104.28767    16866.829    4.2834858    4.2834858    4.2834858    16866.829    41601.339    24939.518   -15940.369    -23768.89    48616.601   -21738.268    78.594468 
   54600    1368.1818   -105.57237    1.2379597   -104.33442    2621.1956    4.2706407    4.2706407    4.2706407    2621.1956   -94094.896    125308.84   -23350.361    8937.2482   -126606.66   -5279.4835    77.889535 
   54700    2312.5763   -106.41776    2.0924677   -104.32529    13259.594    4.2614585    4.2614585    4.2614585    13259.594   -9929.3545     2964.363    46743.773   -1247.5578    33357.615   -898.56047    77.388207 
   54800    1283.9901   -105.54459    1.1617812   -104.38281    24823.655    4.2640517    4.2640517    4.2640517    24823.655   -39894.672    92686.525    21679.111   -2015.8881   -54397.129    1315.9869    77.529574 
   54900    3120.8817   -107.18225    2.8238393   -104.35841    -17038.66    4.2942143    4.2942143    4.2942143    -17038.66   -15648.492   -19504.116   -15963.373     8411.336    2382.0689   -11377.097    79.186498 
   55000    974.20532   -105.27447   0.88148145   -104.39299   -42916.845    4.2870319    4.2870319    4.2870319   -42916.845   -415.38949   -51975.396   -76359.749    6085.7097    16531.551   -7904.5727    78.789825 
   55100    3393.3375   -107.42074    3.0703631   -104.35037     16362.99    4.2554749    4.2554749    4.2554749     16362.99   -35639.717    59306.499    25422.189   -11475.396   -7123.5305    10596.333    77.062676 
   55200    761.84955    -105.0961   0.68933748   -104.40676   -22193.747    4.2568046    4.2568046    4.2568046   -22193.747     15574.08   -14080.776   -68074.545   -9200.9421    38671.975   -43517.885    77.134939 
   55300    2457.2471   -106.62242    2.2233688   -104.39906   -3081.6069    4.2713935    4.2713935    4.2713935   -3081.6069      -9170.7    25140.002   -25214.122    12430.643   -8830.1127    6396.3238    77.930732 
   55400    1343.3102   -105.61647    1.2154553   -104.40102    6913.7768     4.297052     4.297052     4.297052    6913.7768    -49782.03    85627.663   -15104.302    14700.186    22599.142   -21210.368    79.343586 
   55500         2401   -106.51098    2.1724753    -104.3385   -23767.607     4.320786     4.320786     4.320786   -23767.607   -22444.694   -15399.451   -33458.678   -9891.9426    5983.4681   -10129.986    80.665582 
   55600    1824.4921   -105.95678    1.6508388   -104.30594   -31853.062    4.3094954    4.3094954    4.3094954   -31853.062     -62823.5    27192.221   -59927.908    2638.7802    27082.836   -7605.0328    80.034873 
   55700    1549.6204   -105.69822    1.4021291   -104.29609    17219.823    4.2678794    4.2678794    4.2678794    17219.823    6363.7199    54585.386   -9289.6359    11996.538    1485.9526   -34619.054    77.738546 
   55800    2486.4606   -106.54857    2.2498018   -104.29877        41650    4.2460249    4.2460249    4.2460249        41650    36569.833    41638.699    46741.469    8526.1921     7907.004    53663.784    76.550423 
   55900    1231.0738   -105.51565    1.1139015   -104.40175    4420.0014     4.259402     4.259402     4.259402    4420.0014   -26592.231    66301.586   -26449.351    3141.2367    40153.086   -14498.351    77.276226 
   56000     3178.232   -107.25707    2.8757311   -104.38134   -12009.195    4.2913485    4.2913485    4.2913485   -12009.195   -26229.297   -11096.406    1298.1186    -6660.649   -22596.605    27223.909    79.028064 
   56100    994.44415   -105.29576   0.89979397   -104.39596    -48850.71    4.2917929    4.2917929    4.2917929    -48850.71   -55164.564    21295.827   -112683.39   -5336.6594    57883.615    44320.292     79.05262 
   56200      3464.32   -107.47304    3.1345896   -104.33845    24317.159    4.2750714    4.2750714    4.2750714    24317.159   -23640.378    41670.197    54921.658   -5865.2269   -9994.5949     -14242.9     78.13221 
   56300    850.45535   -105.15422   0.76950988   -104.38471   -43263.036    4.2797166    4.2797166    4.2797166   -43263.036   -32332.108   -3251.9845   -94205.014    1758.5651    54621.624    62195.408     78.38718 
   56400     2414.197    -106.5511    2.1844161   -104.36668    11377.848    4.2630125    4.2630125    4.2630125    11377.848   -46749.944    62535.872    18347.617   -2996.6164    41574.204   -1053.9038    77.472903 
   56500    1539.8425    -105.7919    1.3932818   -104.39861    20113.308    4.2671313    4.2671313    4.2671313    20113.308   -7024.7107    17673.843     49690.79    4127.0302   -7436.1838    29933.439    77.697675 
   56600    1562.2922   -105.81346    1.4135948   -104.39987   -26647.639    4.2985464    4.2985464    4.2985464   -26647.639   -37969.895   -23579.627   -18393.395    12916.809    49698.711    36276.213    79.426394 
   56700    2358.0282   -106.47075    2.1335935   -104.33716    1448.3105    4.3170758    4.3170758    4.3170758    1448.3105    48668.619   -24733.503   -19590.185   -5878.5149   -39293.157   -2408.1273    80.457964 
   56800     1505.083   -105.66238    1.3618308   -104.30055    9495.6547    4.3201244    4.3201244    4.3201244    9495.6547    97905.758   -2739.7873   -66679.007   -26680.361    17237.631    19326.934    80.628535 
   56900    2359.3685   -106.39907    2.1348062   -104.26426   -10156.491    4.3053995    4.3053995    4.3053995   -10156.491    35764.484   -19900.337    -46333.62    -4663.697   -26358.756   -2411.0959    79.806887 
   57000     1467.482    -105.6296    1.3278085   -104.30179   -3879.2995    4.2842333    4.2842333    4.2842333   -3879.2995    64562.778    97.015286   -76297.692    7141.5504   -27168.585    43889.768    78.635624 
   57100    3073.6311   -107.08379     2.781086    -104.3027   -14523.477    4.2942127    4.2942127    4.2942127   -14523.477   -5736.0575   -9522.6385   -28311.735    10646.634    9329.4217    151.31403    79.186413 
   57200    1091.0113   -105.32455   0.98716992   -104.33738   -45958.086     4.303395     4.303395     4.303395   -45958.086    21289.223   -12640.122   -146523.36    4717.4115   -44361.196    37350.462    79.695471 
   57300    3448.9352   -107.41165    3.1206691   -104.29098    9043.4999    4.2903206    4.2903206    4.2903206    9043.4999   -20565.053    37889.885    9805.6679    2818.6333    9116.6774   -18319.132    78.971292 
   57400    764.05476   -105.05208    0.6913328   -104.36075   -74021.704    4.2875873    4.2875873    4.2875873   -74021.704   -13232.382   -91250.675   -117582.05   -5124.8076   -18847.546    62229.627    78.820452 
   57500    2669.0227   -106.78303    2.4149878   -104.36804    23642.913    4.2577701    4.2577701    4.2577701    23642.913   -3021.0361    50865.027    23084.747     807.1411   -23060.064   -7991.0224    77.187439 
   57600    1676.1113   -105.92635    1.5165808   -104.40977    8838.8017    4.2553428    4.2553428    4.2553428    8838.8017    15096.574    23880.066   -12460.235    2161.4835    21230.878    33778.387    77.055502 
   57700    2100.7511   -106.31839    1.9008037   -104.41759   -25887.043    4.2936419    4.2936419    4.2936419   -25887.043   -23500.845   -22845.738   -31314.545   -2954.6733   -36948.845    14287.289    79.154839 
   57800    2319.2289   -106.46617    2.0984871   -104.36768    24817.757    4.2926692    4.2926692    4.2926692    24817.757    -8721.485    36200.314    46974.443    10203.658    25670.463   -4753.3475    79.101051 
   57900    721.44983   -105.04175   0.65278297   -104.38897    22628.648    4.2794059    4.2794059    4.2794059    22628.648    42038.814    49401.858   -23554.727    7970.9825    38652.511     60896.98    78.370106 
   58000    3312.7058   -107.34473    2.9974058   -104.34732   -8155.5954    4.2824348    4.2824348    4.2824348   -8155.5954    -45155.29    10920.031    9768.4725    4620.1342   -7989.1481    -31393.48    78.536632 
   58100    628.35842   -104.95794    0.5685519   -104.38939    1055.9366    4.2779631    4.2779631    4.2779631    1055.9366    7507.1422    19482.938   -23822.271    1482.1611     26859.95    49600.984    78.290869 
   58200    2962.5377   -107.04015    2.6805663   -104.35958    29546.358    4.2826562    4.2826562    4.2826562    29546.358   -42374.451    130817.72    195.80538   -1506.2662    -3001.474   -11560.856    78.548813 
   58300     1301.744   -105.57493    1.1778453   -104.39709   -24791.954    4.2968109    4.2968109    4.2968109   -24791.954    29926.599    16411.071   -120713.53    2521.1513    11723.276    41619.225    79.330231 
   58400    2671.8529   -106.75887    2.4175487   -104.34132    1153.0577    4.2980037    4.2980037    4.2980037    1153.0577   -9030.6639    11600.565    889.27182     18235.93    11706.787   -15772.751    79.396318 
   58500    1443.0534   -105.64808     1.305705   -104.34238   -33728.812     4.295722     4.295722     4.295722   -33728.812   -34959.992   -34830.893   -31395.553    15315.694    -21410.99    46252.365    79.269933 
   58600    2734.3262   -106.80005    2.4740758   -104.32598    -13038.04    4.2927849    4.2927849    4.2927849    -13038.04    12263.419   -34739.688   -16637.849   -1443.9468    11041.197    15284.697    79.107449 
   58700    1168.2025   -105.41991    1.0570141    -104.3629   -11651.585    4.2708716    4.2708716    4.2708716   -11651.585   -63596.818   -3668.2563    32310.319   -16.795745   -14806.225    14661.348    77.902167 
   58800    2581.1128   -106.69366    2.3354451   -104.35821    13313.373    4.2586662    4.2586662    4.2586662    13313.373    43887.831    13349.759   -17297.471   -1471.5315    -3412.849    44106.568    77.236182 
   58900    1485.2597   -105.73455    1.3438942   -104.39065   -32517.734    4.2860632    4.2860632    4.2860632   -32517.734    -66291.77   -76063.184    44801.753    7303.6961     12696.85   -20193.842    78.736428 
   59000    2343.1404   -106.48048    2.1201227   -104.36035   -25644.911     4.303123     4.303123     4.303123   -25644.911   -47539.224   -27555.169   -1840.3398    38910.986   -2357.5313    13669.825    79.680361 
   59100    1857.3575   -106.04768    1.6805761    -104.3671   -2615.9905    4.2982382    4.2982382    4.2982382   -2615.9905    51833.362    -34148.94   -25532.394   -38310.226    14072.643   -12932.007    79.409313 
   59200    1278.2382   -105.53704    1.1565768   -104.38047   -1718.4327    4.2776368    4.2776368    4.2776368   -1718.4327   -5818.8862   -12975.072     13638.66    30184.273     21820.18   -13754.949    78.272951 
   59300    2544.7921   -106.66128    2.3025813    -104.3587    57990.778    4.2601043    4.2601043    4.2601043    57990.778    99179.328     39749.25    35043.757   -5147.6782   -20939.578    11173.135    77.314455 
   59400    1486.7689   -105.76352    1.3452597   -104.41826    759.89087    4.2764395    4.2764395    4.2764395    759.89087   -15308.158    2658.6567    14929.174   -27729.553    9195.3479   -1998.6053    78.207247 
   59500    3120.7597   -107.20658     2.823729   -104.38285   -17484.016    4.2985522    4.2985522    4.2985522   -17484.016   -2355.8508   -16532.209   -33563.986    5329.8261    2858.1957     8539.056    79.426718 
   59600    1004.5839   -105.30529   0.90896862   -104.39632   -7788.5285    4.3064638    4.3064638    4.3064638   -7788.5285     25514.66    3930.0841    -52810.33   -40795.494   -47493.027    16275.543    79.866087 
   59700     2373.424   -106.49627    2.1475239   -104.34875     12292.92    4.3096267    4.3096267    4.3096267     12292.92    12964.249   -12901.952    36816.462   -38001.139     3723.791    -12552.93    80.042189 
   59800    1159.3228    -105.4021    1.0489796   -104.35312   -783.65256    4.2954236    4.2954236    4.2954236   -783.65256   -13903.035    28047.614   -16495.537     11619.99    -38987.85    16880.899    79.253415 
   59900    2602.6003   -106.67814    2.3548875   -104.32326    21672.409    4.2821155    4.2821155    4.2821155    21672.409    36077.054    56968.531   -28028.358   -25865.111    958.44867    14359.269    78.519069 
   60000    1869.0763    -106.0297    1.6911795   -104.33852   -43240.193    4.2972239    4.2972239    4.2972239   -43240.193   -44592.123   -62574.406    -22554.05    32076.616    -17099.34   -27370.267    79.353111 
   60100    2201.8901    -106.3186    1.9923164   -104.32628   -42864.553    4.3084664    4.3084664    4.3084664   -42864.553   -41979.101    -79748.34   -6866.2182   -656.09373   -23556.742    43374.231    79.977554 
   60200    1826.4975   -105.98394    1.6526533   -104.33129   -22423.225    4.3082888    4.3082888    4.3082888   -22423.225    6988.0212   -63986.717   -10270.979   -260.72964    6773.4559   -38789.176    79.967664 
   60300    1337.9706   -105.57658    1.2106239   -104.36596   -35262.297    4.2919431    4.2919431    4.2919431   -35262.297   -79712.523   -9732.6117   -16341.755    11423.583   -92194.951    -16470.48    79.060921 
   60400      2895.88   -106.97217    2.6202531   -104.35192    63893.815    4.2494716    4.2494716    4.2494716    63893.815   -21.595133     100068.8    91634.241   -5049.6387    22736.378    9069.2375    76.736995 
   60500    1310.7852   -105.61364     1.186026   -104.42762     14379.94    4.2572926    4.2572926    4.2572926     14379.94    11833.659     43754.71   -12448.549    12061.749   -25150.298   -33039.392     77.16147 
   60600    2255.0196   -106.43491    2.0403891   -104.39452    -20685.53    4.3003786    4.3003786    4.3003786    -20685.53   -56784.721   -34595.219    29323.349   -13011.309   -30716.278   -2551.2673    79.528004 
   60700     1510.403   -105.75433    1.3666443   -104.38768   -26294.375    4.3024975    4.3024975    4.3024975   -26294.375   -60607.053     14772.91   -33048.982   -41223.772    17468.567    21312.921    79.645619 
   60800    2303.5084   -106.45048    2.0842628   -104.36621    9261.7649    4.2801111    4.2801111    4.2801111    9261.7649   -17964.743    72167.633   -26417.595    11965.005   -42099.563   -29632.836    78.408856 
   60900    1987.3102   -106.16804      1.79816   -104.36988   -5691.6972    4.2665735    4.2665735    4.2665735   -5691.6972    4131.0922   -68153.707    46947.523     -15881.2    15824.312    62012.941    77.667209 
   61000     2000.146   -106.20966    1.8097741   -104.39988   -4278.7889    4.2698769    4.2698769    4.2698769   -4278.7889   -25513.601    29058.241   -16381.007   -16337.001   -22061.775   -6401.6895    77.847749 
   61100    2082.2408   -106.28764    1.8840552   -104.40359    280.21058    4.2772861    4.2772861    4.2772861    280.21058    58439.072   -21999.125   -35599.315   -7328.9912   -21032.899    28288.652    78.253706 
   61200    1327.4944   -105.62186    1.2011448   -104.42072    7594.1919    4.2834928    4.2834928    4.2834928    7594.1919     79923.94   -70132.427    12991.062   -5337.6885    15660.662    63171.756    78.594855 
   61300    3018.6163   -107.11594    2.7313075   -104.38463   -10720.812    4.2925114    4.2925114    4.2925114   -10720.812   -21794.417   -11666.473    1298.4531    6402.8188     20541.02   -25621.581     79.09233 
   61400     1624.387   -105.86564    1.4697795   -104.39586   -4602.6015    4.2881613    4.2881613    4.2881613   -4602.6015    97459.254   -54866.734   -56400.325    5070.8937    -13582.97    58736.457    78.852116 
   61500     2331.162   -106.47362    2.1092843   -104.36433    8497.4298    4.2909173    4.2909173    4.2909173    8497.4298    36935.796     4125.969   -15569.475   -277.63694    17154.351   -9288.2205    79.004248 
   61600    1170.0426   -105.44146    1.0586792   -104.38278   -17573.989    4.3024507    4.3024507    4.3024507   -17573.989    31509.845   -44234.913     -39996.9   -18162.952    6680.2603     19760.25    79.643017 
   61700    2710.0291   -106.79494    2.4520912   -104.34285   -19816.566    4.3031616    4.3031616    4.3031616   -19816.566   -23477.135   -10957.867   -25014.695   -15877.544   -16282.686    4101.5252      79.6825 
   61800    1443.3625   -105.66796    1.3059847   -104.36198   -21415.235    4.2845534    4.2845534    4.2845534   -21415.235    26057.188    11962.151   -102265.04    4867.4454    538.68743    12181.874    78.653251 
   61900    3010.5305   -107.07259    2.7239913    -104.3486    8485.1551    4.2704444    4.2704444    4.2704444    8485.1551    5959.6772   -7417.5942    26913.382    10080.081    426.68616   -6723.2985    77.878796 
   62000    1161.3712   -105.44128    1.0508331   -104.39044    14795.898    4.2806846    4.2806846    4.2806846    14795.898    19291.068    71782.227   -46685.602   -7985.8477   -51911.887   -1432.3986    78.440378 
   62100    2608.5189   -106.72822    2.3602428   -104.36798    9577.7851    4.2985965    4.2985965    4.2985965    9577.7851    30550.107    21996.945   -23813.696    11095.476    34560.125    8278.7081    79.429171 
   62200     1343.125   -105.59604    1.2152877   -104.38075   -41728.975    4.3082079    4.3082079    4.3082079   -41728.975   -107741.89    10527.088   -27972.125    31496.158   -83235.248   -6408.7205    79.963161 
   62300     2640.923   -106.73385    2.3895626   -104.34429    11618.182    4.2965389    4.2965389    4.2965389    11618.182    45878.907   -27697.798    16673.435    20496.635    18060.117     6405.046    79.315169 
   62400    1527.3469   -105.74325    1.3819756   -104.36127    971.35082    4.2894071    4.2894071    4.2894071    971.35082    -23368.54    21599.251    4683.3417    6133.7309   -82923.361   -9380.0685    78.920856 
   62500    1945.1937   -106.13258    1.7600522   -104.37253     1743.182    4.2984325    4.2984325    4.2984325     1743.182   -14829.058    25517.807   -5459.2026    5824.3437   -13152.208   -10260.483    79.420082 
   62600    2009.5429   -106.18992    1.8182767   -104.37164    20277.537    4.3025186    4.3025186    4.3025186    20277.537    15516.453    80758.322   -35442.165   -5608.4983   -49899.903    2702.3443    79.646788 
   62700    1635.0701   -105.84244    1.4794458   -104.36299     -16931.6    4.3073187    4.3073187    4.3073187     -16931.6   -39484.112    48252.816   -59563.504   -3109.1452   -46156.328    -17883.48    79.913661 
   62800    1787.6124   -105.94329    1.6174693   -104.32582    29413.044    4.2981548    4.2981548    4.2981548    29413.044   -48255.894    66429.152    70065.874   -10909.715    -65098.83   -15435.511    79.404692 
   62900    2768.4903    -106.8185    2.5049882   -104.31351    4616.0312    4.3039963    4.3039963    4.3039963    4616.0312   -29971.612     43499.32    320.38543    15813.504    30.472944   -7029.0533    79.728881 
   63000    1276.7071   -105.46314    1.1551914   -104.30795   -52990.895    4.3150915    4.3150915    4.3150915   -52990.895   -95623.209    43083.742   -106433.22   -8856.2625   -95834.529   -30048.468    80.347066 
   63100    2648.2722   -106.68411    2.3962124    -104.2879    7417.2661    4.2955048    4.2955048    4.2955048    7417.2661   -49901.732    55414.651    16738.879   -3968.2564   -2128.5233    28734.744    79.257913 
   63200    1362.5738   -105.56255    1.2328854   -104.32967    9560.5935    4.2906602    4.2906602    4.2906602    9560.5935   -39335.334    93442.845    -25425.73    2353.2184   -63978.589    12285.644    78.990048 
   63300    1933.4004   -106.08015    1.7493813   -104.33077    5978.6072    4.2958945    4.2958945    4.2958945    5978.6072   -8326.0265    16531.204    9730.6443   -9201.8426   -10604.831   -14589.506    79.279486 
   63400    1801.2418   -105.96936    1.6298014   -104.33956    34708.901    4.2896292    4.2896292    4.2896292    34708.901    7399.3688   -1523.5261    98250.859   -20073.915   -36739.034    8494.9503    78.933119 
   63500    2140.6484   -106.30452    1.9369036   -104.36762    512.43187    4.2939353    4.2939353    4.2939353    512.43187    3274.6725   -208.01832   -1529.3586    5901.8791   -78666.675   -15198.132    79.171068 
   63600    2215.3465   -106.36811     2.004492   -104.36362    9065.8636    4.2897656    4.2897656    4.2897656    9065.8636   -13102.657   -4262.0376    44562.286   -25792.444    108.84116   -5099.5952    78.940646 
   63700    1684.5767   -105.88266    1.5242404   -104.35842    7611.5204    4.2787506    4.2787506    4.2787506    7611.5204   -13262.506    78713.011   -42615.943   -12266.758   -97613.689    1749.4861     78.33411 
   63800    2645.2064   -106.74942    2.3934383   -104.35598    32107.413    4.2834189    4.2834189    4.2834189    32107.413    14815.199     -15761.3     97268.34    7988.0093     20623.68   -23173.001     78.59079 
   63900    1236.9755   -105.51462    1.1192415   -104.39538    1602.1826    4.2926412    4.2926412    4.2926412    1602.1826   -81056.027    6796.1469    79066.428   -21798.868   -90719.966   -6248.7983    79.099508 
   64000    2768.3678   -106.87323    2.5048774   -104.36836    -2577.362    4.2991727    4.2991727    4.2991727    -2577.362    37362.274   -41051.969   -4042.3908    7662.1418    28403.003    5818.9498    79.461119 
   64100    1036.3094   -105.33811   0.93767453   -104.40043    -25086.47    4.2859099    4.2859099    4.2859099    -25086.47   -72311.877    94450.302   -97397.835    17179.846    -94067.99   -16868.919    78.727981 
   64200    2539.3688   -106.66202    2.2976743   -104.36435    38014.942    4.2650455    4.2650455    4.2650455    38014.942    -1368.369    83238.887    32174.309   -20958.016    5840.7255    7657.7507    77.583792 
   64300    1626.9134   -105.87969    1.4720654   -104.40762     276.2917    4.2765833    4.2765833    4.2765833     276.2917   -39699.861    101727.83    -61199.09   -12440.689   -52022.549   -11084.034    78.215136 
   64400     2073.136   -106.25976     1.875817   -104.38394   -12729.406    4.2962091    4.2962091    4.2962091   -12729.406   -53250.486    60844.542   -45782.273    20074.838    -19937.15   -30975.225    79.296902 
   64500    1684.4273   -105.88654    1.5241053   -104.36244     23019.62    4.2898574    4.2898574    4.2898574     23019.62    9582.0063    30592.429    28884.426    -518.7877   -25061.945    6693.2077    78.945717 
   64600    2426.8337   -106.55729    2.1958501   -104.36144    14176.562     4.294255     4.294255     4.294255    14176.562   -12329.902    14844.865    40014.723   -11123.895   -24940.405   -21818.502    79.188751 
   64700    1310.0998   -105.53093    1.1854059   -104.34552   -31271.199    4.3189241    4.3189241    4.3189241   -31271.199    -104142.2   -60610.714     70939.32    43081.074   -19651.469   -697.68059    80.561344 
   64800    2395.0238   -106.44967    2.1670679    -104.2826   -21910.747    4.3053566    4.3053566    4.3053566   -21910.747   -50782.405   -9547.4418   -5402.3931   -28976.738   -20722.251   -3167.9495    79.804501 
   64900    1870.3821   -105.96841     1.692361   -104.27605   -8047.5826    4.2895031    4.2895031    4.2895031   -8047.5826   -48761.309   -47536.618    72155.179    83482.409    8856.3103   -5940.3687     78.92616 
   65000    2260.8772   -106.34261    2.0456892   -104.29692   -40734.372    4.2987104    4.2987104    4.2987104   -40734.372   -93374.119    20297.077   -49126.073   -30320.268   -69469.994   -7129.0188    79.435486 
   65100    1617.4401   -105.78994    1.4634938   -104.32645    -12573.04    4.2875765    4.2875765    4.2875765    -12573.04   -42011.786   -78936.401    83229.068    92038.673    7755.4578     3066.989    78.819858 
   65200    2369.2755   -106.47076    2.1437703   -104.32699    47000.456    4.2690135    4.2690135    4.2690135    47000.456    81663.184     55131.64    4206.5449   -12765.586   -41487.086   -1714.1005    77.800538 
   65300    1376.7115   -105.62237    1.2456775   -104.37669   -7447.2632    4.2792791    4.2792791    4.2792791   -7447.2632   -62265.701   -4671.1602    44595.072    57434.515   -14552.754   -5457.4391    78.363139 
   65400    2521.3301   -106.62461    2.2813525   -104.34326   -5134.5809    4.2929916    4.2929916    4.2929916   -5134.5809    -20474.39    7350.5599   -2279.9129    9277.5614   -17862.756    14723.211    79.118875 
   65500    1573.5311   -105.78305     1.423764   -104.35929    3720.1846    4.2910226    4.2910226    4.2910226    3720.1846    -30064.89    81551.341   -40325.897    26134.926   -27953.661   -11777.459    79.010062 
   65600    2279.4734   -106.42527    2.0625154   -104.36276   -11399.042    4.2963823    4.2963823    4.2963823   -11399.042   -54473.464    31068.099   -10791.759    54066.966    10067.567    2156.9544    79.306495 
   65700    2060.7591   -106.22619    1.8646181   -104.36157   -15171.252    4.3014567    4.3014567    4.3014567   -15171.252    -31502.93    8821.4184   -22832.245   -20363.073   -57561.571   -13911.885    79.587832 
   65800    1764.9748   -105.94601    1.5969863   -104.34902   -145.27442    4.2947492    4.2947492    4.2947492   -145.27442   -64951.919   -29912.778    94428.874    70243.129    7271.9185   -9725.7388    79.216091 
   65900    2690.4572   -106.75949    2.4343822   -104.32511    8940.1969    4.2939369    4.2939369    4.2939369    8940.1969   -11418.438    40999.021   -2759.9925   -33279.988   -48592.928    11614.357    79.171151 
   66000    1493.5965   -105.71949    1.3514375   -104.36806   -40869.668    4.2992103    4.2992103    4.2992103   -40869.668   -107225.28   -5451.8764   -9931.8425    91981.864   -26361.416    517.59139    79.463204 
   66100    3031.6726   -107.10295    2.7431211   -104.35983    3273.2287    4.2924552    4.2924552    4.2924552    3273.2287    51.935196   -16783.132    26550.883   -14549.885    6706.9274    -4296.192    79.089226 
   66200    1115.5069   -105.40502    1.0093341   -104.39569   -18421.175    4.2889217    4.2889217    4.2889217   -18421.175   -126159.02   -12009.481    82904.981     31926.51   -44842.695    2976.7044     78.89407 
   66300    2351.5226   -106.49637     2.127707   -104.36866    10131.038    4.2904546    4.2904546    4.2904546    10131.038   -35232.643    6813.5119    58812.247    22986.399   -10393.641    6121.2748    78.978692 
   66400    1720.3805   -105.92419    1.5566364   -104.36755   -2161.4286    4.2918008    4.2918008    4.2918008   -2161.4286   -102514.38    65731.683    30298.413    12538.998    28804.933   -13658.505    79.053059 
   66500    1813.7176   -106.01337    1.6410898   -104.37228   -26208.353    4.2948916    4.2948916    4.2948916   -26208.353   -88199.389    -6507.709     16082.04    48821.857   -42203.408   -420.84757    79.223976 
   66600    2584.9718    -106.7167    2.3389368   -104.37776   -34008.832    4.2911829    4.2911829    4.2911829   -34008.832   -63588.875    39705.261   -78142.883   -28270.325    70476.758   -15981.788     79.01892 
   66700    1911.1997   -106.11448    1.7292936   -104.38518    15780.574     4.273975     4.273975     4.273975    15780.574   -58291.463    9464.4382    96168.748    62824.223   -24463.654   -5440.4265    78.072111 
   66800    2158.9524   -106.35743    1.9534655   -104.40397   -3758.1561    4.2655187    4.2655187    4.2655187   -3758.1561   -49523.462    58704.512   -20455.518   -15332.666    28246.522   -13976.092    77.609621 
   66900    2329.2231   -106.53633      2.10753    -104.4288   -19141.377    4.2835559    4.2835559    4.2835559   -19141.377   -45404.585    -14600.11    2580.5654    -7036.338    39512.033   -13052.653    78.598332 
   67000    1875.5947   -106.11432    1.6970775   -104.41724   -11994.886    4.3056678    4.3056678    4.3056678   -11994.886   -77610.206    48033.926   -6408.3772    37272.708   -11547.908   -9877.5116    79.821807 
   67100    1297.9884   -105.55612    1.1744472   -104.38168   -3097.0542    4.3079975    4.3079975    4.3079975   -3097.0542   -49868.942     55826.48     -15248.7    11203.842    52613.629    1960.3969    79.951447 
   67200    2402.9662   -106.50953    2.1742543   -104.33528    20512.661    4.2979667    4.2979667    4.2979667    20512.661    4632.2434   -20505.726    77411.466   -21612.916   -18966.313    35120.012    79.394268 
   67300    1677.8575   -105.87704    1.5181607   -104.35888   -12162.542    4.3031379    4.3031379    4.3031379   -12162.542   -100682.09    92422.906    -28228.44    13265.063     41698.23    6094.9157    79.681186 
   67400    2289.3218   -106.40689    2.0714265   -104.33546    7485.0591    4.2985395    4.2985395    4.2985395    7485.0591     3553.207   -3764.7044    22666.675   -29406.327   -33589.038   -9355.5638    79.426014 
   67500    1654.8948   -105.85349    1.4973836   -104.35611    7552.6806    4.2929874    4.2929874    4.2929874    7552.6806    26760.392    25591.131   -29693.481   -7421.8051    73570.641    754.31038    79.118647 
   67600    2508.9776   -106.64179    2.2701756   -104.37162    22816.366    4.2950885    4.2950885    4.2950885    22816.366   -4873.2126    49092.319     24229.99    1739.6642   -7552.0376   -7572.9612    79.234868 
   67700    1331.9232   -105.59551    1.2051521   -104.39036   -31405.017    4.3001227    4.3001227    4.3001227   -31405.017   -65546.487    8258.5433   -36927.106   -32937.894    65772.574   -14070.239    79.513807 
   67800    2078.9732   -106.27733    1.8810987   -104.39623    12418.527    4.2943251    4.2943251    4.2943251    12418.527   -23103.032    97985.721   -37627.107    13422.032    31779.528   -2327.8978    79.192628 
   67900      2374.13   -106.54603    2.1481627   -104.39787    2087.9398    4.2893425    4.2893425    4.2893425    2087.9398    7507.3325    33754.409   -34997.922   -2476.6337    24287.221   -2652.1474    78.917294 
   68000    1393.9694    -105.6707    1.2612928   -104.40941   -10690.154    4.2888206    4.2888206    4.2888206   -10690.154   -89108.048    76350.775   -19313.189   -71693.182    39327.517    12613.304    78.888492 
   68100    2284.5213   -106.46256    2.0670829   -104.39547    24566.522    4.2921964    4.2921964    4.2921964    24566.522   -13040.515    96300.817   -9560.7368   -208.44198   -1034.8418    9149.5039     79.07492 
   68200    1711.5281   -105.94939    1.5486266   -104.40076   -8323.8694    4.3006896    4.3006896    4.3006896   -8323.8694   -43587.332    48912.813    -30297.09   -46542.077    39171.242    13208.124    79.545259 
   68300    2393.1897   -106.53627    2.1654083   -104.37086   -14452.207    4.3092388    4.3092388    4.3092388   -14452.207   -64008.627    16242.788    4409.2161   -50185.169   -13083.608    16156.591     80.02058 
   68400     2024.535   -106.18093    1.8318418   -104.34909   -36966.202    4.3193802    4.3193802    4.3193802   -36966.202   -102475.51    26067.664   -34490.765   -18487.183     34768.32    24800.984    80.586871 
   68500    2123.8177   -106.23395    1.9216749   -104.31227   -24400.349     4.325991     4.325991     4.325991   -24400.349   -75439.632   -14338.092    16576.678    -51347.47   -9372.8023   -2550.3679    80.957453 
   68600     2148.662   -106.24254    1.9441545   -104.29838    57157.228    4.3092058    4.3092058    4.3092058    57157.228    36948.146    112197.98    22325.562    30381.677    38993.171   -25276.777     80.01874 
   68700    1030.8597   -105.25912   0.93274354   -104.32638    28272.386    4.3077503    4.3077503    4.3077503    28272.386   -11091.004    74115.263      21792.9    -55710.74   -12727.449    -14227.22    79.937685 
   68800    2666.9558   -106.74385    2.4131177   -104.33073    3850.5625     4.303319     4.303319     4.303319    3850.5625    -10281.15    45337.496   -23504.659    54555.404    1054.4336   -7782.2159    79.691247 
   68900    1142.0215    -105.3897     1.033325   -104.35638    54442.142    4.2819966    4.2819966    4.2819966    54442.142    10804.696    39145.052    113376.68   -78553.698   -1596.5342    9408.0731    78.512524 
   69000    2484.9532   -106.63563    2.2484379   -104.38719   -5873.7909    4.2914362    4.2914362    4.2914362   -5873.7909    18643.476   -48470.596    12205.748    7263.6318     950.1169    19760.859    79.032911 
   69100    1889.1975   -106.10674    1.7093856   -104.39735    6605.2546    4.2884286    4.2884286    4.2884286    6605.2546    21545.047   -8789.6045    7060.3209   -26256.877    4575.0301    9415.8905    78.866858 
   69200     1602.292   -105.86263    1.4497875   -104.41285    8028.3937    4.2793598    4.2793598    4.2793598    8028.3937   -14072.815   -34195.417    72353.413   -58009.811   -5147.7191     6036.857    78.367575 
   69300    2755.9436   -106.90183    2.4936357   -104.40819   -19930.439    4.2869973    4.2869973    4.2869973   -19930.439    16594.589   -33832.583   -42553.323    18261.561    11366.041    39863.138    78.787918 
   69400    1751.3573   -106.00929    1.5846649   -104.42463    5066.4578    4.2885442    4.2885442    4.2885442    5066.4578   -24603.886   -22569.719    62372.978   -88500.638   -14333.972   -15204.935     78.87324 
   69500    2184.7082    -106.3864    1.9767699   -104.40963    16878.648    4.2927634    4.2927634    4.2927634    16878.648    5211.8291    47585.489   -2161.3731    40207.832    1583.3291    18945.128     79.10626 
   69600    1609.4763   -105.87296     1.456288   -104.41667   -10418.542    4.2991233    4.2991233    4.2991233   -10418.542    -36096.49   -42423.577     47264.44   -72516.892    11173.945    23594.393    79.458377 
   69700     2404.328   -106.56262    2.1754865   -104.38713    5466.9484     4.298201     4.298201     4.298201    5466.9484   -48826.825    71910.469    -6682.799    17403.206    3293.4534   -20199.985    79.407252 
   69800    1492.4228   -105.74469    1.3503755   -104.39432   -5283.6195    4.2856494    4.2856494    4.2856494   -5283.6195    -26060.31    33849.294   -23639.842   -11021.616    5757.2492    30812.466    78.713624 
   69900    2257.6033   -106.41704    2.0427269   -104.37432    31175.934    4.2765234    4.2765234    4.2765234    31175.934    60010.965    20557.809    12959.028    -26844.86    2188.8838   -17004.477     78.21185 
   70000    1865.0554   -106.08553    1.6875413   -104.39799   -22050.596    4.2835915    4.2835915    4.2835915   -22050.596   -23934.538    41633.031   -83850.281    29930.095    10356.447   -29811.758     78.60029 
   70100     2603.298   -106.73562    2.3555187    -104.3801   -15791.404    4.2997758    4.2997758    4.2997758   -15791.404       -28009    15036.503   -34401.716   -825.34735   -11991.228   -1490.2502    79.494567 
   70200    1472.6341   -105.71492    1.3324703   -104.38245   -32392.217    4.3058143    4.3058143    4.3058143   -32392.217    23465.928   -68229.559   -52413.021   -1091.1219    11531.788   -96376.851    79.829958 
   70300    2515.2002   -106.62294     2.275806   -104.34713   -5491.5094    4.3027272    4.3027272    4.3027272   -5491.5094   -23240.458    12024.613   -5258.6839    13395.941   -15657.132    33890.336    79.658374 
   70400    1551.1619   -105.77958    1.4035239   -104.37605   -20905.561    4.3010193    4.3010193    4.3010193   -20905.561    94583.045   -94115.984   -63183.745    19918.207   -8080.2736   -82271.757    79.563553 
   70500    2589.8246   -106.70597    2.3433277   -104.36265    24596.733    4.2793753    4.2793753    4.2793753    24596.733    57666.087    17787.405   -1663.2923   -5463.6431    32908.449    3353.3037    78.368428 
   70600    1509.8756   -105.76058    1.3661671   -104.39442    34079.013    4.2694679    4.2694679    4.2694679    34079.013    51083.378    48770.954    2382.7073    24557.258   -18906.467   -59382.983    77.825382 
   70700     2012.983   -106.22731    1.8213893   -104.40592   -15047.245     4.291891     4.291891     4.291891   -15047.245   -28082.704   -11336.768   -5722.2628    13560.011     -1986.04   -23010.177    79.058042 
   70800    2428.6598   -106.58113    2.1975024   -104.38363    8083.9913    4.2884098    4.2884098    4.2884098    8083.9913    28301.003    35168.261   -39217.291   -2746.0308    35808.023   -7396.7776    78.865823 
   70900    1225.6222   -105.51138    1.1089687   -104.40241    16208.042    4.2776182    4.2776182    4.2776182    16208.042     65960.95   -19337.487    2000.6638    19423.238   -22480.854   -80088.376    78.271934 
   71000    3084.8573   -107.17687    2.7912437   -104.38562   -10295.092    4.2784599    4.2784599    4.2784599   -10295.092    -25022.19    19167.837   -25030.924   -6241.8164   -11414.118    27156.504    78.318146 
   71100    1493.6226   -105.76733    1.3514611   -104.41587     30584.87    4.2790094    4.2790094    4.2790094     30584.87    94162.441     3521.166   -5928.9967    5282.3685    16022.831   -89595.328    78.348327 
   71200    2417.7346   -106.58101    2.1876171   -104.39339    26400.105    4.3009761    4.3009761    4.3009761    26400.105    31353.961    10065.828    37780.528    28907.349   -19449.165    21457.025    79.561155 
   71300    1689.6172   -105.90332    1.5288012   -104.37452    -28566.52    4.3127874    4.3127874    4.3127874    -28566.52    14249.168   -17118.546   -82830.182   -3087.6342    3982.4042   -70575.137    80.218427 
   71400    1945.8053   -106.12859    1.7606056   -104.36798   -1794.8448    4.2874027    4.2874027    4.2874027   -1794.8448   -31306.209    15860.493    10061.181    6430.9287     44498.04     1292.733    78.810275 
   71500    2611.9359   -106.70991    2.3633345   -104.34658   -3330.8268    4.2700779    4.2700779    4.2700779   -3330.8268    16832.483   -42335.228    15510.264    622.90322   -23811.546   -59945.091    77.858743 
   71600    1650.0446   -105.89439     1.492995    -104.4014   -8227.0519    4.2863427    4.2863427    4.2863427   -8227.0519    45065.653   -24649.383   -45097.426   -3203.0415    14561.731   -67138.334    78.751833 
   71700    2184.6687   -106.37204    1.9767341    -104.3953    -28954.61    4.3017658    4.3017658    4.3017658    -28954.61   -42919.312   -8841.1669   -35103.351    998.30073    23501.213    11184.794    79.604988 
   71800    1395.9076   -105.66436    1.2630466   -104.40131   -39260.759    4.2925298    4.2925298    4.2925298   -39260.759    24833.737   -66790.714     -75825.3    9906.7082    2640.9767   -127095.97    79.093348 
   71900    2876.7708   -106.98055    2.6029627   -104.37759    23723.716    4.2729163    4.2729163    4.2729163    23723.716   -6146.4261    74793.418    2524.1554    3523.7487   -17489.967    30579.859    78.014109 
   72000    1558.4587   -105.83256    1.4101261   -104.42244    958.19686    4.2794063    4.2794063    4.2794063    958.19686    24330.097     438.9014   -21894.407   -242.19424    27269.897   -72471.443    78.370132 
   72100    2285.2611   -106.47938    2.0677523   -104.41163     -25924.8    4.3051666    4.3051666    4.3051666     -25924.8   -62594.186    20507.503   -35687.716     1965.597   -25311.988   -13921.882    79.793937 
   72200    1814.7481   -106.02874    1.6420222   -104.38671   -14072.518    4.3065471    4.3065471    4.3065471   -14072.518   -63952.119    61390.735   -39656.169   -5868.8694   -32577.575   -9741.7971    79.870721 
   72300    2222.6763    -106.3713    2.0111242   -104.36017    33559.466    4.2837469    4.2837469    4.2837469    33559.466    74318.034   -23605.538    49965.903   -11914.131    27495.929   -68321.668    78.608843 
   72400    2105.7989   -106.27464    1.9053711   -104.36927    57402.501    4.2705022    4.2705022    4.2705022    57402.501      63639.7    61747.854    46819.949    9905.4161   -52672.416    29450.668    77.881957 
   72500    1667.2539   -105.92573    1.5085663   -104.41717     12710.74    4.2828795    4.2828795    4.2828795     12710.74      49739.6    -16490.64    4883.2602    1248.2444    16937.785   -79907.688    78.561105 
   72600    3193.7449   -107.27877    2.8897675   -104.38901   -9939.6384    4.2970412    4.2970412    4.2970412   -9939.6384   -2837.1934   -22839.398   -4142.3238   -20150.372    9770.8259    27655.152    79.342988 
   72700      949.837   -105.27291   0.85943247   -104.41348    26337.902     4.292817     4.292817     4.292817    26337.902     114411.9   -18994.239   -16403.954    12059.458    -26252.85   -60742.209    79.109222 
   72800    2449.8603   -106.59603    2.2166851   -104.37934   -3248.7139    4.2969981    4.2969981    4.2969981   -3248.7139     29790.72   -32515.665    -7021.197   -6605.3591   -1669.5418    -13403.12    79.340598 
   72900    1877.3956   -106.08255     1.698707   -104.38385    26546.603    4.2885393    4.2885393    4.2885393    26546.603    44718.179    1729.0141    33192.616   -5183.3571    11943.037   -10976.501    78.872966 
   73000    2096.7973   -106.26844    1.8972263   -104.37122    25439.028    4.2888077    4.2888077    4.2888077    25439.028    40984.039    4307.9142     31025.13   -4779.7597   -33927.948   -52868.638    78.887778 
   73100    1892.2911   -106.07722    1.7121848   -104.36503   -23124.674    4.3144413    4.3144413    4.3144413   -23124.674   -42794.139   -17650.956   -8928.9274   -31602.919     36730.84    10714.235     80.31075 
   73200    1969.3948   -106.11579    1.7819498   -104.33384   -48322.071    4.3139037    4.3139037    4.3139037   -48322.071   -9725.6421   -31422.234   -103818.34     37052.98   -15363.093   -48253.047    80.280733 
   73300    2522.8124   -106.59604    2.2826937   -104.31335    -11757.09    4.2891667    4.2891667    4.2891667    -11757.09   -47133.224    4875.6064    6986.3487   -14997.956    24383.593    26348.059    78.907591 
   73400    1635.1828   -105.83015    1.4795478   -104.35061   -21714.185    4.2825164    4.2825164    4.2825164   -21714.185    13051.056    -22680.79   -55512.823   -3855.2745     21121.76    -64916.12    78.541124 
   73500    2387.6626   -106.53305    2.1604073   -104.37265    261.50665    4.2899494    4.2899494    4.2899494    261.50665    220.95653   -20508.756    21072.319    800.76298   -27803.123   -18632.071    78.950796 
   73600     1691.374   -105.93584    1.5303907   -104.40544   -30146.587    4.2895291    4.2895291    4.2895291   -30146.587   -45729.714   -12774.429   -31935.619   -30230.102    47458.641   -6284.8986    78.927594 
   73700    1588.7327   -105.85911    1.4375188    -104.4216   -1892.8502    4.2822065    4.2822065    4.2822065   -1892.8502    10954.443    2057.1839   -18690.178    1129.9264    24490.091   -73372.682    78.524075 
   73800    2613.3637   -106.77211    2.3646264   -104.40748    29699.533    4.2810225    4.2810225    4.2810225    29699.533    30124.177   -23076.382    82050.803    14156.709   -13558.569    36777.182    78.458956 
   73900    1328.2748   -105.64083    1.2018509   -104.43898   -14961.104    4.2852946    4.2852946    4.2852946   -14961.104    31772.877   -61887.122   -14769.067   -1335.1459    30162.539   -57061.215    78.694079 
   74000    1867.6115    -106.1188    1.6898541   -104.42894    12915.968    4.2841871    4.2841871    4.2841871    12915.968   -24732.721    24767.443    38713.183    3290.1835    17519.614   -25864.234     78.63308 
   74100    2121.9711   -106.33407    1.9200041   -104.41407    12968.362     4.289113     4.289113     4.289113    12968.362    27118.932   -42746.939    54533.092   -4986.0688   -33798.877   -22755.184    78.904629 
   74200    1622.3861   -105.87903    1.4679691   -104.41106   -10634.706    4.3037444    4.3037444    4.3037444   -10634.706    47200.451   -60922.625   -18181.943   -5604.1286    23686.636   -47546.686    79.714883 
   74300    2223.1432   -106.40091    2.0115467   -104.38936    3355.8177    4.2889389    4.2889389    4.2889389    3355.8177   -42180.625   -12403.727    64651.805    35118.381    9066.5425    29600.193     78.89502 
   74400    1513.7434   -105.76887    1.3696668   -104.39921    19614.678    4.2659673    4.2659673    4.2659673    19614.678    56094.956   -9556.6408    12305.719   -40865.415    -28087.36   -70052.092     77.63411 
   74500    2808.6885   -106.94252    2.5413604   -104.40116     13768.98    4.2722707    4.2722707    4.2722707     13768.98    860.83239    27849.694    12596.414    11152.888    3825.2225     16092.25    77.978752 
   74600    1314.7215   -105.61695    1.1895877   -104.42736    13366.407    4.2914247    4.2914247    4.2914247    13366.407   -13098.159    51168.246    2029.1323    39608.725    14912.903   -24432.535    79.032274 
   74700    2040.4213   -106.26435    1.8462161   -104.41813   -24931.279    4.2999809    4.2999809    4.2999809   -24931.279    -22712.86    1731.2555   -53812.231   -50478.738   -28661.034    -35206.11    79.505942 
   74800    2499.1597   -106.65657    2.2612923   -104.39527    21288.338    4.2818973    4.2818973    4.2818973    21288.338    15183.227    54991.447   -6309.6592    38514.145   -10813.486    17950.224    78.507064 
   74900    1647.8049   -105.89593    1.4909685   -104.40497    23060.836    4.2766639    4.2766639    4.2766639    23060.836    107131.37     1300.081   -39248.939     20130.97   -7101.5763   -56275.475    78.219561 
   75000    2261.6063   -106.44499    2.0463489   -104.39864   -21111.586    4.2936433    4.2936433    4.2936433   -21111.586   -27854.887    31310.385   -66790.257   -25244.182   -62502.044    13967.603    79.154914 
   75100    2140.0286   -106.34034    1.9363429     -104.404   -2209.0816    4.2785387    4.2785387    4.2785387   -2209.0816    64209.665    -41843.08   -28993.829    11194.263    11310.862   -42061.897    78.322471 
   75200    1618.8318   -105.87932     1.464753   -104.41457   -6025.1848    4.2642391    4.2642391    4.2642391   -6025.1848   -2030.3944    53356.157   -69401.317    12508.982   -25797.734   -12253.054    77.539795 
   75300    1588.9311    -105.8766    1.4376983    -104.4389   -37074.655    4.2713167    4.2713167    4.2713167   -37074.655    -38299.91    26451.571   -99375.627   -2050.2701   -10059.372    19392.805    77.926528 
   75400     3176.533   -107.29765    2.8741938   -104.42345   -1799.6061    4.2799854    4.2799854    4.2799854   -1799.6061    65727.202   -36547.115   -34578.905    -6898.258    3786.6238    -11583.11    78.401949 
   75500    1411.3576   -105.72499     1.277026   -104.44797   -5085.2908    4.2744643    4.2744643    4.2744643   -5085.2908    4447.7587    69015.507   -88719.139    22979.191   -18126.305    12775.833    78.098929 
   75600     2101.089   -106.31564    1.9011095   -104.41453     33209.94    4.2754236    4.2754236    4.2754236     33209.94    67448.201    83240.346   -51058.728    5464.9399    34482.959    8013.6017    78.151523 
   75700    2037.9172   -106.23249    1.8439503   -104.38854    -6415.428    4.2930806    4.2930806    4.2930806    -6415.428    39075.738    6449.6765   -64771.699    41850.789   -28932.465   -16220.984    79.123796 
   75800    1462.2248   -105.71714    1.3230517   -104.39408   -10138.771    4.2910609    4.2910609    4.2910609   -10138.771     -3273.28    61081.785   -88224.819    5668.1478   -17334.489    26406.943    79.012178 
   75900    2628.3742   -106.74541    2.3782082    -104.3672   -28263.023    4.2944207    4.2944207    4.2944207   -28263.023    8005.6062   -52763.988   -40030.688   -16846.097    3853.5297   -27719.836     79.19792 
   76000    1593.5978   -105.80771    1.4419208   -104.36578   -7533.8633    4.2916681    4.2916681    4.2916681   -7533.8633    4676.6646   -2037.0377   -25241.217    1171.5341   -21960.255   -13326.855    79.045722 
   76100    2348.7188   -106.47769    2.1251701   -104.35252    27668.516    4.2775556    4.2775556    4.2775556    27668.516     39830.49    47408.845   -4233.7884     2980.026   -18178.639   -11081.257    78.268493 
   76200    2056.4807   -106.25483    1.8607469   -104.39408   -13135.366    4.2800774    4.2800774    4.2800774   -13135.366   -11586.727   -25836.695   -1982.6772   -26770.034    2042.9365   -50820.492    78.407004 
   76300    2183.9875   -106.37031    1.9761178   -104.39419   -12171.145    4.2757572    4.2757572    4.2757572   -12171.145   -33648.808    21045.262    -23909.89      10929.6   -19918.554    14773.983     78.16982 
   76400    1849.1638   -106.07786    1.6731623    -104.4047    39446.283    4.2584347    4.2584347    4.2584347    39446.283    45212.706    22786.144    50339.997   -16852.582    2316.7421    40027.778    77.223589 
   76500    2274.5971   -106.47669    2.0581033   -104.41858    19528.567    4.2711857    4.2711857    4.2711857    19528.567   -35051.172    82234.337    11402.535   -37818.708    107.64262   -23412.979    77.919355 
   76600    1883.8584   -106.12793    1.7045547   -104.42338   -34208.123    4.2788194    4.2788194    4.2788194   -34208.123    -35493.17     21421.96   -88553.159    17807.988   -26104.466    36161.341    78.337889 
   76700    2521.5997   -106.68078    2.2815964   -104.39918    23865.328    4.2692163    4.2692163    4.2692163    23865.328    15820.009    30068.613    25707.362   -24695.726    9185.5402    9908.3327    77.811623 
   76800    1297.8452   -105.59401    1.1743176    -104.4197   -26907.886    4.2875841    4.2875841    4.2875841   -26907.886    -58936.67    22589.484   -44376.471   -16822.323   -41340.788   -30481.858    78.820279 
   76900    2966.4072   -107.04784    2.6840676   -104.36377   -13260.158    4.2907695    4.2907695    4.2907695   -13260.158    -28364.92   -1673.9496   -9741.6031    6046.3004    22259.148    11741.043    78.996084 
   77000    1027.3381   -105.31429   0.92955708   -104.38474    22931.583    4.2752826    4.2752826    4.2752826    22931.583   -44223.384     87759.46    25258.673   -36959.365   -62039.914   -24208.658    78.143795 
   77100    3204.0751   -107.23718    2.8991145   -104.33806    10335.807    4.2944294    4.2944294    4.2944294    10335.807    -8438.835      36695.8    2750.4555    20611.352    7621.9321   -6698.8083    79.198398 
   77200    1547.4182   -105.73538    1.4001365   -104.33524   -58502.614    4.3067127    4.3067127    4.3067127   -58502.614   -91369.452   -46484.945   -37653.444   -45204.538    -56901.95   -8455.7079    79.879937 
   77300    2638.7071   -106.68984    2.3875576   -104.30228   -13996.237    4.2948197    4.2948197    4.2948197   -13996.237   -32431.592   -8446.0728   -1111.0458    15619.266   -31283.318   -7131.0801    79.219993 
   77400    1703.4205   -105.86819    1.5412907    -104.3269    -60629.21    4.2940158    4.2940158    4.2940158    -60629.21    -95310.45   -50701.967   -35875.212   -50282.584    1986.1758    13670.554    79.175517 
   77500    1871.9272   -106.06023    1.6937591   -104.36648   -7971.4122    4.2677615    4.2677615    4.2677615   -7971.4122   -38118.371   -8484.8699    22689.004   -36711.353   -60909.273   -8681.9997    77.732103 
   77600    2890.1787   -106.97256    2.6150944   -104.35747    44047.981    4.2492188    4.2492188    4.2492188    44047.981    48288.775     50155.98    33699.187    8527.5052    20182.896    8502.3736    76.723301 
   77700    1283.7584    -105.5911    1.1615715   -104.42953     11416.67    4.2668744    4.2668744    4.2668744     11416.67    13203.144     30159.22   -9112.3531   -54362.239    -56916.89    186.15279    77.683643 
   77800      2385.42   -106.55802    2.1583782   -104.39964   -5056.3764     4.291003     4.291003     4.291003   -5056.3764    33515.221   -25272.256   -23412.095    39107.814   -7648.6899   -4278.1711    79.008981 
   77900     1517.891   -105.77052    1.3734197    -104.3971    -6085.656    4.2888169    4.2888169    4.2888169    -6085.656    16282.984   -39490.956    4951.0045    15912.215   -537.06749    11407.326    78.888287 
   78000    2322.4109   -106.46659    2.1013662   -104.36522    4494.8409    4.2843854    4.2843854    4.2843854    4494.8409     10047.94    8716.6003    -5280.017   -3802.7496   -26146.104   -1710.7819    78.644001 
   78100    1501.7944   -105.74757    1.3588551   -104.38872   -35647.469    4.2726497    4.2726497    4.2726497   -35647.469   -12654.326   -96082.089    1794.0079    81391.591    16315.328   -36617.542    77.999506 
   78200    2768.3339   -106.87141    2.5048467   -104.36656    35536.879    4.2495716    4.2495716    4.2495716    35536.879    33033.072    45939.287    27638.279   -40766.452   -9898.5541    19577.311    76.742412 
   78300     1396.081   -105.67172    1.2632035   -104.40851   -13388.551    4.2615686    4.2615686    4.2615686   -13388.551   -34484.145   -60727.856     55046.35    125072.76    5056.4436   -23399.232    77.394205 
   78400    2401.2548   -106.55618    2.1727058   -104.38348   -15445.043    4.2858566    4.2858566    4.2858566   -15445.043     42851.83   -41148.326   -48038.634   -32682.715    5640.0469   -14817.325    78.725041 
   78500    1281.9966   -105.53543    1.1599775   -104.37545   -18336.183    4.2994058    4.2994058    4.2994058   -18336.183   -29205.908    -108130.5    82327.863    111976.46    1755.0094    20928.733    79.474045 
   78600    2853.8617   -106.91065     2.582234   -104.32842    1056.5782    4.2983545    4.2983545    4.2983545    1056.5782    43967.568   -52516.934      11719.1   -32583.764   -10097.123   -22607.325    79.415761 
   78700     1538.406    -105.7618    1.3919821   -104.36982   -33539.519    4.2704436    4.2704436    4.2704436   -33539.519   -45059.839   -91476.061    35917.342    122148.22    282.73132   -4095.3883    77.878748 
   78800    2353.6205   -106.47161    2.1296053     -104.342    32280.121    4.2364357    4.2364357    4.2364357    32280.121     62256.08   -5442.8985    40027.182   -30441.495   -6793.6401     18443.47     76.03295 
   78900     1563.519   -105.80432    1.4147048   -104.38962    2394.5992    4.2496394    4.2496394    4.2496394    2394.5992   -34949.404    -32541.22    74674.421    37130.843   -12618.615   -876.04961    76.746084 
   79000    2422.4388   -106.56921    2.1918735   -104.37733   -9606.5946    4.2794678    4.2794678    4.2794678   -9606.5946   -41717.843   -9860.0807     22758.14    59308.824    181.50013   -19205.939    78.373507 
   79100     2077.766   -106.25145    1.8800063   -104.37145   -17891.299    4.2887192    4.2887192    4.2887192   -17891.299   -65578.599    9612.7518    2291.9502     -48579.7   -2358.1996   -2920.8755    78.882892 
   79200    1730.2399   -105.93365    1.5655574   -104.36809    -23816.46     4.285485     4.285485     4.285485    -23816.46   -82280.942   -7981.2125    18812.774    69253.793   -1353.7718   -428.86918     78.70457 
   79300     2037.963   -106.22181    1.8439918   -104.37782    911.99404    4.2586279    4.2586279    4.2586279    911.99404    15158.126    -8769.568   -3652.5762   -19758.006    2357.3655   -61935.123    77.234101 
   79400    1880.0301   -106.08006    1.7010908   -104.37897     43195.91    4.2365244    4.2365244    4.2365244     43195.91   -46877.204    49959.753    126505.18    15209.559    7385.6559    15177.035    76.037726 
   79500     2206.563   -106.39748    1.9965446   -104.40094    131.90303    4.2572441    4.2572441    4.2572441    131.90303     27878.63   -15006.623   -12476.298    18280.634   -12425.278   -59621.663    77.158836 
   79600    1898.2441   -106.11315    1.7175711   -104.39557   -10976.753    4.2739863    4.2739863    4.2739863   -10976.753   -27588.949   -3640.7962   -1700.5138   -23197.455    11957.985   -40602.134     78.07273 
   79700    1829.8474   -106.04113    1.6556844   -104.38545    1795.7614    4.2771919    4.2771919    4.2771919    1795.7614    -55199.22   -17365.981    77952.486    2202.4129    8268.4848    8670.3746    78.248532 
   79800    2298.8202   -106.45566    2.0800209   -104.37564   -19640.683    4.2830499    4.2830499    4.2830499   -19640.683    17136.367   -21458.116   -54600.299    4269.1655   -22636.151   -48311.353     78.57048 
   79900    2029.6025    -106.2187     1.836427   -104.38227    16566.676    4.2598599    4.2598599    4.2598599    16566.676   -17211.578   -21104.795    88016.401   -7771.0278    969.97818    20473.276     77.30115 
   80000    1822.6221   -106.02443    1.6491467   -104.37528     40336.84    4.2447882    4.2447882    4.2447882     40336.84    8127.0641    37759.329    75124.126    17510.746   -9260.8107    12840.424    76.483558 
   80100    2272.4044   -106.43573    2.0561192   -104.37961    1513.4214    4.2606513    4.2606513    4.2606513    1513.4214   -66422.056   -8201.0791      79163.4   -37826.376   -17574.168   -19668.073    77.344238 
   80200    1437.0328   -105.70131    1.3002575   -104.40105   -10146.285    4.2626794    4.2626794    4.2626794   -10146.285   -62921.265   -46498.252    78980.662   -8817.2271    9526.2608     16960.55     77.45474 
   80300    2701.2266   -106.82329    2.4441266   -104.37917   -2820.7847    4.2752618    4.2752618    4.2752618   -2820.7847   -24312.652    27652.528    -11802.23   -6637.1305    11301.172    17201.814    78.142652 
   80400    1234.4947   -105.51044    1.1169968   -104.39344   -51759.093    4.2832106    4.2832106    4.2832106   -51759.093   -103759.06   -98389.155    46870.933   -63427.567    364.40311   -14781.105    78.579323 
   80500    2698.2651   -106.80105    2.4414469   -104.35961    3935.6046    4.2619396    4.2619396    4.2619396    3935.6046   -5249.3254    9053.5512     8002.588    58321.326    9299.2615    1653.6948    77.414419 
   80600    1279.5239   -105.54494    1.1577401    -104.3872   -28294.403    4.2602116    4.2602116    4.2602116   -28294.403   -83201.259   -46577.903    44895.954   -109374.19    18550.181    4534.6903    77.320295 
   80700    2788.1429    -106.8981    2.5227703   -104.37533    9779.5371    4.2610318    4.2610318    4.2610318    9779.5371    38119.427   -16449.534    7668.7181    35050.726    6452.8726   -18429.387    77.364962 
   80800    1429.8272   -105.70152    1.2937377   -104.40778    28226.537    4.2697207    4.2697207    4.2697207    28226.537   -31809.278   -10590.836    127079.72   -90376.905   -7553.8715   -1034.2033    77.839207 
   80900    2265.1875   -106.40827    2.0495893   -104.35868   -6475.6513    4.2998487    4.2998487    4.2998487   -6475.6513   -22969.312    12216.182   -8673.8241    29580.799    13925.237    6300.0111    79.498609 
   81000    1385.8336   -105.59523    1.2539314   -104.34129   -40587.183    4.2947808    4.2947808    4.2947808   -40587.183   -78869.999    -79946.68    37055.129   -111301.72   -8376.1759   -8867.3345     79.21784 
   81100    3162.4251   -107.15707    2.8614287   -104.29564    3182.1802    4.2619091    4.2619091    4.2619091    3182.1802    18165.318    18004.394   -26623.171    25677.804    10420.412   -1156.8788    77.412757 
   81200     895.5678   -105.15965   0.81032857   -104.34932   -28034.725    4.2530249    4.2530249    4.2530249   -28034.725   -103553.95   -21921.431    41371.203   -118233.69    1656.9885    -587.4876    76.929654 
   81300    2752.0462   -106.85018    2.4901093   -104.36007    14786.622     4.252249     4.252249     4.252249    14786.622   -2028.7289    20518.027    25870.569    13585.296   -745.31454    23817.735    76.887555 
   81400    1296.6593   -105.58228    1.1732446   -104.40904   -21913.573     4.272174     4.272174     4.272174   -21913.573    -92448.01    -64672.98    91380.272   -54862.658    17173.152    -2787.809    77.973459 
   81500    2267.6973   -106.43425    2.0518602   -104.38239    -27139.47    4.2818894    4.2818894    4.2818894    -27139.47   -81828.474   -12642.714    13052.777   -45527.913    18714.576    3311.2701     78.50663 
   81600    2192.4157    -106.3537    1.9837438   -104.36996    -6911.555     4.268938     4.268938     4.268938    -6911.555   -58925.691    2198.2962    35992.729    -8462.684   -2737.8415    6402.7201    77.796408 
   81700       1659.1   -105.87497    1.5011886   -104.37378   -22415.309    4.2652455    4.2652455    4.2652455   -22415.309   -113306.11   -23722.734    69782.921   -48733.883    16032.211   -7568.2558    77.594706 
   81800    2411.1784   -106.54862    2.1816849   -104.36694    14532.282    4.2586529    4.2586529    4.2586529    14532.282   -13193.952     53203.83     3586.967   -1444.4264    16631.436   -3493.3781    77.235461 
   81900     1033.891   -105.34882   0.93548633   -104.41333   -11129.695    4.2523272    4.2523272    4.2523272   -11129.695   -68412.255   -45985.776    81008.946   -117145.35    3493.1359    573.83816    76.891798 
   82000    3340.8157   -107.41321    3.0228402   -104.39037    24544.826    4.2519609    4.2519609    4.2519609    24544.826    19420.648    50427.006    3786.8241    51755.825    4076.1028   -496.53139    76.871931 
   82100    857.88493   -105.22147   0.77623231   -104.44524   -24643.028     4.259273     4.259273     4.259273   -24643.028   -40008.015   -80689.117    46768.047   -137163.61    -12857.31   -33264.059    77.269202 
   82200    2752.3568   -106.89892    2.4903903   -104.40853    11956.645    4.2665293    4.2665293    4.2665293    11956.645    51022.525   -26438.401    11285.811    21504.628    13382.301    20511.456    77.664794 
   82300    1595.9311   -105.85539     1.444032   -104.41136   -9147.3156    4.2710146    4.2710146    4.2710146   -9147.3156   -74237.916   -22906.082    69702.051   -98201.246   -19470.408   -10074.043    77.909994 
   82400    2323.7156   -106.49389    2.1025467   -104.39135   -18439.343    4.2693757    4.2693757    4.2693757   -18439.343    2314.8197   -38568.301   -19064.546    -14896.64    7293.0777   -34081.865    77.820342 
   82500    2098.3767   -106.27373    1.8986554   -104.37508    14494.408    4.2615008    4.2615008    4.2615008    14494.408   -29801.901    30077.986    43207.139   -48699.559    -3336.555   -2598.8456    77.390512 
   82600     1554.277   -105.79164    1.4063425    -104.3853   -10840.828    4.2620286    4.2620286    4.2620286   -10840.828   -21696.906   -42765.681    31940.102   -65420.847   -5184.2841   -10960.085    77.419271 
   82700    2158.0691   -106.32738    1.9526663   -104.37471    2933.5912    4.2645529    4.2645529    4.2645529    2933.5912    47113.867   -15614.701   -22698.393    17543.091    17259.506   -34273.908    77.556913 
   82800     1674.298   -105.90881      1.51494   -104.39387   -8132.1054    4.2665586    4.2665586    4.2665586   -8132.1054   -50917.767   -11721.728    38243.179   -98925.284    1664.5548    16117.721    77.666397 
   82900    2597.4349   -106.73669    2.3502137   -104.38648   -8501.8255    4.2703116    4.2703116    4.2703116   -8501.8255    61457.867   -27411.129   -59552.214    35535.511    5964.1664   -64240.621    77.871526 
   83000    1685.6106   -105.92213    1.5251759   -104.39695   -4835.6497    4.2594282    4.2594282    4.2594282   -4835.6497   -20376.095   -20922.355    26791.501   -88218.953    716.29113    3410.5757    77.277651 
   83100     1908.524   -106.12317    1.7268726   -104.39629    30451.479    4.2577632    4.2577632    4.2577632    30451.479     1216.167    99349.414   -9211.1443   -9735.9047     9311.446   -1686.2409    77.187061 
   83200    2199.0778   -106.38391    1.9897718   -104.39413   -17719.542    4.2706795    4.2706795    4.2706795   -17719.542   -23361.579   -34944.889    5147.8431   -62663.723   -234.60401   -8982.6882    77.891655 
   83300    1341.7166   -105.61464    1.2140134   -104.40062    6435.4593    4.2694787    4.2694787    4.2694787    6435.4593   -58514.411    58316.177    19504.612   -66992.764   -4284.3314    3908.9153    77.825974 
   83400     2501.458   -106.63921    2.2633718   -104.37584    7335.8537    4.2731079    4.2731079    4.2731079    7335.8537    803.58408    3048.4827    18155.494    -14952.58    6728.2273    4694.6499    78.024607 
   83500    1754.5711   -105.96512    1.5875728   -104.37755   -20571.712    4.2763123    4.2763123    4.2763123   -20571.712   -74652.651    -53073.75    66011.264   -97383.869    3460.1502   -8597.0638    78.200269 
   83600    2253.2067   -106.38468    2.0387488   -104.34593   -3880.5889    4.2775073    4.2775073    4.2775073   -3880.5889    42083.598   -30786.297   -22939.067   -16974.664    9436.6598    14644.984    78.265846 
   83700    1013.8558   -105.29755   0.91735805   -104.38019    -28501.66     4.287643     4.287643     4.287643    -28501.66   -89290.997   -25467.964    29253.982   -99412.567    1495.0192    23126.692    78.823528 
   83800    3176.3737   -107.21701    2.8740497   -104.34296    1746.5083     4.280765     4.280765     4.280765    1746.5083   -3471.2574   -3537.9944    12248.777    26520.631   -14534.185   -4633.8956    78.444801 
   83900    1247.3084   -105.50746    1.1285909   -104.37887   -24005.522    4.2695697    4.2695697    4.2695697   -24005.522   -85893.582   -30056.445    43933.462   -124529.18    16968.175     23044.82    77.830951 
   84000    2912.6087   -106.99993    2.6353895   -104.36454    21264.822    4.2606553    4.2606553    4.2606553    21264.822    48083.262    38140.527   -22429.325    40780.945    5613.3652   -15279.839     77.34446 
   84100    1232.5578   -105.51961    1.1152442   -104.40436    4941.9494    4.2618973    4.2618973    4.2618973    4941.9494   -32569.713   -42258.766    89654.328   -124527.56   -4888.0902   -20620.852    77.412116 
   84200    2922.0685   -107.02454     2.643949   -104.38059     7797.253    4.2761952    4.2761952    4.2761952     7797.253   -7090.0193    19944.686    10537.093    46215.683    11936.104    15763.101    78.193844 
   84300     1036.105   -105.34667   0.93748955   -104.40918   -46755.251    4.2948261    4.2948261    4.2948261   -46755.251   -75657.378   -42084.603   -22523.771   -88732.287    8607.6773   -7612.8045     79.22035 
   84400    2865.8997   -106.96703    2.5931263    -104.3739   -7775.2801    4.2898299    4.2898299    4.2898299   -7775.2801    31.335474    33003.581   -56360.757    14580.628   -20566.844    4708.8374    78.944198 
   84500    2079.8328   -106.26662    1.8818764   -104.38474   -15939.883    4.2702603    4.2702603    4.2702603   -15939.883   -15488.471   -47539.991    15208.814   -77994.334   -20.751326      4428.58    77.868724 
   84600    1639.1416   -105.87401    1.4831297   -104.39088    10844.099    4.2478351    4.2478351    4.2478351    10844.099    5324.0979    15227.369    11980.829   -46648.281   -570.36271   -19192.014    76.648377 
   84700    1958.5556   -106.18193    1.7721422   -104.40979    20071.557    4.2453008    4.2453008    4.2453008    20071.557    9614.6529    38939.902    11660.116    4668.1934   -15449.783    1323.6102     76.51127 
   84800    1826.7846   -106.09505    1.6529131   -104.44214   -703.01806    4.2709399    4.2709399    4.2709399   -703.01806    8965.1781    -37674.74    26600.508   -82274.685    3882.7106    20108.826    77.905907 
   84900    2451.1965   -106.62687    2.2178941   -104.40898   -26904.901    4.2839114    4.2839114    4.2839114   -26904.901   -9998.5891   -7222.7049    -63493.41    44072.027   -4243.4272    5250.1637    78.617902 
   85000    1602.0193   -105.86021    1.4495407   -104.41067   -1451.5685    4.2691551    4.2691551    4.2691551   -1451.5685   -10195.284   -8784.2153    14624.794   -53498.542    -10398.92   -22686.946    77.808277 
   85100    2436.4527   -106.59185    2.2045536   -104.38729   -13339.458     4.261606     4.261606     4.261606   -13339.458    41087.518   -45093.008   -36012.884    12823.986   -5821.0583    68254.744    77.396247 
   85200    1635.1233   -105.88468    1.4794939   -104.40519    322.12996    4.2633908    4.2633908    4.2633908    322.12996   -15003.247    19075.345   -3105.7084    13854.667   -5654.9787   -4084.2692    77.493529 
   85300     2377.131   -106.53898    2.1508781    -104.3881     35638.53    4.2630844    4.2630844    4.2630844     35638.53    39866.708    14062.046    52986.835   -35139.793   -304.07377    40613.988    77.476821 
   85400     1326.385   -105.61568     1.200141   -104.41554     8070.725    4.2772684    4.2772684    4.2772684     8070.725     4105.174    -25168.25    45275.251    51932.778   -8477.5283     45696.83    78.252733 
   85500    2759.4956   -106.85288    2.4968496   -104.35604   -19374.373    4.2926046    4.2926046    4.2926046   -19374.373     13248.23   -8804.5873   -62566.761   -7786.5123    4455.3066   -7940.1161    79.097483 
   85600    1429.8865   -105.67236    1.2937913   -104.37857    4113.9945    4.2724262    4.2724262    4.2724262    4113.9945    117546.76   -49411.792    -55792.98    7377.8603   -10595.137    92854.783    77.987267 
   85700    2560.0367   -106.67633     2.316375   -104.35996    23895.261    4.2589485    4.2589485    4.2589485    23895.261   -2448.2306    54557.905    19576.109    48564.206    9557.8358   -30283.118    77.251542 
   85800    1875.2547   -106.08878    1.6967698   -104.39201   -15428.524    4.2621862    4.2621862    4.2621862   -15428.524     65302.32    -17385.76   -94202.131   -26887.948    14362.512    107666.56    77.427861 
   85900    2166.0242   -106.35836    1.9598642    -104.3985    19500.637    4.2533046    4.2533046    4.2533046    19500.637    39294.311    3615.7685    15591.832    52831.901   -2918.3597   -22393.717    76.944832 
   86000     1714.813   -105.96598    1.5515989   -104.41439    42166.247    4.2578496    4.2578496    4.2578496    42166.247    39220.407     56237.26    31041.074    6138.3651   -3170.9446    42138.115    77.191762 
   86100    2092.1155   -106.29865    1.8929901   -104.40566   -12887.163    4.2823753    4.2823753    4.2823753   -12887.163    7764.7063    5924.7648   -52350.961   -17164.092   -4502.0523    23183.937     78.53336 
   86200    2092.1299   -106.27697    1.8930031   -104.38396   -13144.939    4.2857246    4.2857246    4.2857246   -13144.939   -21190.596   -6745.1057   -11499.116    44870.949    107.96043   -51865.369    78.717768 
   86300    2476.8094   -106.61184    2.2410692   -104.37077   -5110.0391    4.2712513    4.2712513    4.2712513   -5110.0391   -2891.8058   -14618.004    2179.6926   -38982.384    6939.6712    55441.295    77.922948 
   86400    1498.4602   -105.74643    1.3558383   -104.39059   -13541.431    4.2570872    4.2570872    4.2570872   -13541.431    36234.175   -17118.574   -59739.894    29695.356    17803.089   -101398.68    77.150301 
   86500    2282.9834   -106.46565    2.0656914   -104.39996    17250.412    4.2494221    4.2494221    4.2494221    17250.412    24228.029    38304.145   -10780.939    1433.1222   -21217.483     19809.49    76.734316 
   86600     1972.624   -106.20707    1.7848716   -104.42219    7259.2346    4.2606091    4.2606091    4.2606091    7259.2346     82388.54   -19239.191   -41371.645   -18891.568    11875.122   -57831.112    77.341941 
   86700    1891.1139   -106.13103    1.7111196   -104.41992   -10848.738    4.2783231    4.2783231    4.2783231   -10848.738    23707.592    19083.127   -75336.932    19078.466    22114.962    -48458.54    78.310633 
   86800    2240.8923   -106.41678    2.0276064   -104.38918   -16279.957     4.284714     4.284714     4.284714   -16279.957   -14862.624   -13919.593   -20057.652   -4413.6203   -45689.966    1854.3699    78.662099 
   86900    1685.4023   -105.89814    1.5249874   -104.37315   -19835.451    4.2806177    4.2806177    4.2806177   -19835.451    57110.565   -39819.812   -76797.107    5079.7302    17280.198   -87970.812    78.436704 
   87000    2270.9033   -106.39956     2.054761   -104.34479    12382.549    4.2844255    4.2844255    4.2844255    12382.549   -51537.034    97165.136   -8480.4539    4525.2643   -29728.848    13127.339    78.646208 
   87100    1554.7092   -105.76116    1.4067335   -104.35443   -10864.524    4.2899605    4.2899605    4.2899605   -10864.524    18991.458    27205.002   -78790.031   -6789.5042   -11128.896   -91005.644    78.951411 
   87200    2729.6755     -106.815    2.4698677   -104.34514     5479.401    4.2782643    4.2782643    4.2782643     5479.401    2920.7837    38978.775   -25461.355    19835.543   -4257.6806    46674.742    78.307406 
   87300    1041.6123   -105.32392    0.9424727   -104.38145    5974.0744     4.262719     4.262719     4.262719    5974.0744    44886.624    27852.589    -54816.99   -11544.322   -45809.884   -79751.596    77.456899 
   87400    2540.6414   -106.67779    2.2988257   -104.37896    25415.747    4.2647321    4.2647321    4.2647321    25415.747    27438.558    31613.271    17195.411    22905.726    25537.205    7391.0951    77.566689 
   87500    1608.7021   -105.85766    1.4555875   -104.40208    4884.6702    4.2786831    4.2786831    4.2786831    4884.6702   -4454.0318    13494.177    5613.8652    3925.5379   -32341.281    7711.3979    78.330405 
   87600    2120.4771   -106.30165    1.9186523   -104.38299    3034.2205    4.2900742    4.2900742    4.2900742    3034.2205    15567.571    21006.542   -27471.452   -3777.1712   -1281.6437   -51731.895    78.957688 
   87700    1689.3498   -105.91672    1.5285592   -104.38816   -29397.915     4.285077     4.285077     4.285077   -29397.915   -62701.135     34097.88   -59590.489    25826.733   -4017.5568    44851.378    78.682089 
   87800    2268.2815   -106.45169    2.0523887    -104.3993    5377.6721    4.2523303    4.2523303    4.2523303    5377.6721   -3197.4496    45443.358   -26112.893   -24610.189   -51833.348   -6864.3043    76.891967 
   87900    2575.4579   -106.72929    2.3303284   -104.39896    49049.106    4.2368305    4.2368305    4.2368305    49049.106    41318.189     76915.18     28913.95    25362.034    41038.526   -7987.2621    76.054212 
   88000    1174.0833   -105.52409    1.0623352   -104.46176   -22579.892    4.2603876    4.2603876    4.2603876   -22579.892   -43946.209    49047.004   -72840.471    30610.199   -48820.668    39271.419    77.329878 
   88100    2649.4852   -106.81052    2.3973099   -104.41321   -14760.152    4.2948742    4.2948742    4.2948742   -14760.152    27612.702   -32622.918    -39270.24   -27191.012   -1352.7842    -30050.55     79.22301 
   88200    1428.7565   -105.66512    1.2927689   -104.37235   -45041.948    4.3105053    4.3105053    4.3105053   -45041.948   -69987.493   -37579.114   -27559.238    16117.776    2503.3924    10807.887    80.091156 
   88300    2687.0928   -106.74335    2.4313381   -104.31201    18588.392    4.2904538    4.2904538    4.2904538    18588.392    5964.1194     59770.95   -9969.8945   -8015.1398   -20511.721   -17191.009    78.978648 
   88400    1089.7874    -105.3162   0.98606255   -104.33014   -3870.4021    4.2713525    4.2713525    4.2713525   -3870.4021   -41440.665   -55740.813    85570.271    13460.201    29315.921   -25931.345    77.928484 
   88500    2789.3304   -106.85699    2.5238448   -104.33315     26447.38    4.2559798    4.2559798    4.2559798     26447.38   -24034.584    52437.992    50938.731   -4033.5575   -1925.5067    11534.762    77.090114 
   88600    1861.5919     -106.084    1.6844075   -104.39959    -3373.126    4.2535554    4.2535554    4.2535554    -3373.126    26548.981   -34673.125   -1995.2337    9750.2896    1181.4514   -43671.923    76.958444 
   88700    2161.8812   -106.38749    1.9561155   -104.43137   -15164.839    4.2594311    4.2594311    4.2594311   -15164.839   -76312.527   -54526.272    85344.281    26000.227    16797.765   -9570.3172     77.27781 
   88800    1997.5944   -106.25025    1.8074654   -104.44278      7801.37     4.266255     4.266255     4.266255      7801.37    5938.5141    17916.221   -450.62483   -15310.934   -21238.845    38820.575    77.649817 
   88900    1689.9321   -105.97676    1.5290861   -104.44767   -11884.092    4.2691963    4.2691963    4.2691963   -11884.092   -6749.5787   -41902.506    12999.809    29996.376   -10213.789   -19981.407    77.810532 
   89000    2219.2038   -106.43707    2.0079822   -104.42908   -32.137932    4.2618548    4.2618548    4.2618548   -32.137932   -20207.646    2412.2574    17698.975    21438.192    15260.386    195.47397    77.409802 
   89100    1696.6206   -105.97125     1.535138   -104.43611   -26460.863      4.26749      4.26749      4.26749   -26460.863    39370.971   -29120.158   -89633.401   -14547.064   -20356.526    111815.04    77.717272 
   89200    2672.5972   -106.83124    2.4182221   -104.41301   -6369.6396     4.269733     4.269733     4.269733   -6369.6396   -21225.488   -983.87271    3100.4414    16765.051   -1439.2085   -36821.887    77.839877 
   89300    1469.7455   -105.75367    1.3298566   -104.42381    1317.4773    4.2702027    4.2702027    4.2702027    1317.4773    75259.464   -27871.126   -43435.906    21524.484    2743.7586    82336.063    77.865573 
   89400     2472.592   -106.62779    2.2372532   -104.39053    2500.7536     4.275404     4.275404     4.275404    2500.7536    15054.155   -4421.8519   -3130.0418   -30196.945    -9121.412    9645.2736     78.15045 
   89500    1560.8203   -105.79517     1.412263   -104.38291    15268.637    4.2740519    4.2740519    4.2740519    15268.637     26545.08    1995.3558    17265.474     38686.72    9550.3524    50817.137    78.076328 
   89600    2348.7026   -106.49764    2.1251554   -104.37248     25982.75     4.276698     4.276698     4.276698     25982.75    44419.312    18764.816    14764.123    9584.5029   -7278.5154    43506.729    78.221432 
   89700    2277.4537   -106.43735     2.060688   -104.37666   -688.67456    4.2751029    4.2751029    4.2751029   -688.67456    36878.086   -60560.299     21616.19   -10572.509    -2944.536    4541.1347    78.133939 
   89800    1462.9953   -105.71342    1.3237489   -104.38967    13555.486    4.2686932    4.2686932    4.2686932    13555.486    61881.965   -19343.933   -1871.5759     43255.64    4170.9195    68100.829    77.783025 
   89900    2089.2278   -106.25392    1.8903773   -104.36355   -34113.726    4.2799603    4.2799603    4.2799603   -34113.726    16330.958   -40560.181   -78111.956   -15974.157    1189.2943   -74393.144    78.400572 
   90000    1959.6132   -106.13055    1.7730992   -104.35745   -12071.547    4.2777912    4.2777912    4.2777912   -12071.547   -4439.0949   -48551.883    16776.335    37459.556   -6380.9563     43970.37    78.281431 
   90100     1975.105   -106.14205    1.7871166   -104.35493   -4238.0982    4.2717657    4.2717657    4.2717657   -4238.0982    29959.603   -4451.4135   -38222.485   -4459.1376    19108.336     -40751.6    77.951103 
   90200    1547.2904   -105.78783    1.4000209   -104.38781   -10247.395    4.2795589    4.2795589    4.2795589   -10247.395    2701.1321    -34858.22    1414.9033    -15462.76   -16921.961   -11917.738    78.378514 
   90300    2640.6433   -106.73714    2.3893096   -104.34783    1576.6991    4.2871096    4.2871096    4.2871096    1576.6991     20324.35    17371.453   -32965.706    3145.9013   -3793.4776   -16593.557    78.794109 
   90400    1639.1373   -105.83726    1.4831259   -104.35413   -2400.4799    4.2903657    4.2903657    4.2903657   -2400.4799    -19213.73    73706.726   -61694.436   -5743.2514    22784.698   -36155.289    78.973781 
   90500    2897.5039   -106.96436    2.6217224   -104.34264     12126.44    4.2834663    4.2834663    4.2834663     12126.44   -7652.3516    21489.917    22541.755    22384.703    -17730.67    7970.0403    78.593397 
   90600    722.82279   -105.05933   0.65402525    -104.4053   -7768.3038    4.2561299    4.2561299    4.2561299   -7768.3038    72107.109   -9335.5609   -86076.459    22598.386    37537.682   -54881.108    77.098268 
   90700    2508.6507   -106.66495    2.2698799   -104.39507    36889.768    4.2434943    4.2434943    4.2434943    36889.768    20028.879    51678.486    38961.939     -20898.6    29001.444    16846.139    76.413639 
   90800    1635.0207   -105.90655    1.4794011   -104.42715   -4462.7871    4.2560522    4.2560522    4.2560522   -4462.7871    19871.878   -7979.7684   -25280.471    -14740.37   -22760.573   -37138.114    77.094044 
   90900    2383.4654   -106.57648    2.1566096   -104.41987    15652.783    4.2758855    4.2758855    4.2758855    15652.783    36849.872    22253.825   -12145.348    27512.228    16911.745     -16796.7    78.176858 
   91000    1504.3111   -105.75358    1.3611323   -104.39245   -30246.222    4.3039598    4.3039598    4.3039598   -30246.222   -38085.743     -54069.5    1416.5764   -72150.578   -17681.543   -28669.635    79.726852 
   91100    2608.7071   -106.66168     2.360413   -104.30127   -51037.806    4.3103546    4.3103546    4.3103546   -51037.806   -33642.179   -56793.116   -62678.124    28093.645   -3359.8085   -14990.408    80.082754 
   91200    1472.8423   -105.60818    1.3326587   -104.27552    -30217.41    4.3022499    4.3022499    4.3022499    -30217.41   -79792.854   -71951.529    61092.152   -119410.77   -9148.1008    7854.1921    79.631867 
   91300    3098.7135   -107.04981    2.8037811   -104.24603    10431.734    4.2865081    4.2865081    4.2865081    10431.734     12152.78    15608.502    3533.9211     38654.66   -1103.6331   -32224.507    78.760953 
   91400    1067.6288   -105.28078   0.96601293   -104.31477   -6699.9586    4.2622346    4.2622346    4.2622346   -6699.9586   -58909.341   -111979.52    150788.99   -133888.15    5186.5105   -9660.1739    77.430497 
   91500    2969.5719    -106.9826    2.6869311   -104.29567    48714.282    4.2546459    4.2546459    4.2546459    48714.282    37139.606    25809.903    83193.337    25611.301    15623.087    23408.318    77.017649 
   91600    1006.2346   -105.28463   0.91046218   -104.37417   -43786.932      4.27961      4.27961      4.27961   -43786.932   -86470.183   -122815.24    77924.623   -144792.28   -7299.3049   -24674.014    78.381323 
   91700     2960.117   -106.99908    2.6783761    -104.3207    848.76183    4.2942408    4.2942408    4.2942408    848.76183   -15286.306    5702.6124    12129.979    22168.147    19529.161    1604.1799    79.187964 
   91800    1054.0632   -105.28064   0.95373858    -104.3269    5299.7169    4.3052549    4.3052549    4.3052549    5299.7169   -47789.863   -29075.953    92764.967   -104094.49   -2533.2043    3712.8489    79.798848 
   91900    2567.6326   -106.60481     2.323248   -104.28156    1804.6274    4.3009198    4.3009198    4.3009198    1804.6274   -43848.497    12522.837    36739.542   -7059.8883   -2919.7176   -4134.9986    79.558035 
   92000    1686.1116   -105.83046    1.5256292   -104.30483   -9541.8665    4.2798216    4.2798216    4.2798216   -9541.8665   -82836.831   -10654.904    64866.136   -91003.247     2584.019     1004.973    78.392948 
   92100    2232.6869   -106.31662     2.020182   -104.29643    -19897.39    4.2753619    4.2753619    4.2753619    -19897.39   -57292.114    -46026.23    43626.173   -66759.266    15572.993    22793.338    78.148141 
   92200    2168.2584   -106.27167    1.9618857   -104.30979    4824.7587    4.2872825    4.2872825    4.2872825    4824.7587   -31498.948   -16504.917    62478.141   -51528.678   -6373.4894   -9116.6298    78.803645 
   92300    1339.2771   -105.53422    1.2118061   -104.32242   -15248.292    4.3043177    4.3043177    4.3043177   -15248.292   -48620.669   -113157.62    116033.41   -79865.493   -2465.9728    11869.868    79.746742 
   92400    2622.8267   -106.64367    2.3731887   -104.27048   -11938.741    4.3009057    4.3009057    4.3009057   -11938.741   -32765.538   -32867.912    29817.227    4675.9993   -11398.944    6494.8632     79.55725 
   92500    1303.2912   -105.47465    1.1792452   -104.29541   -19175.003    4.2838459    4.2838459    4.2838459   -19175.003   -73927.181   -79636.148    96038.321   -96266.493   -7754.0228   -5931.0936    78.614292 
   92600    2722.2682   -106.75774    2.4631654   -104.29457    20100.254    4.2792899    4.2792899    4.2792899    20100.254   -6412.5244   -17567.404    84280.689    16654.141   -2070.5056   -3044.9694    78.363733 
   92700    1289.6857   -105.51054    1.1669348   -104.34361   -22408.062    4.2800099    4.2800099    4.2800099   -22408.062    -57548.25   -81266.679    71590.742   -111717.41    12153.602    5991.5723    78.403297 
   92800    3115.0796   -107.15311    2.8185894   -104.33452    16003.317    4.2896804    4.2896804    4.2896804    16003.317   -9254.9373    4510.0696    52754.818    30586.621   -13046.905   -3573.3177    78.935944 
   92900    1307.1086   -105.53396    1.1826993   -104.35127   -82630.811    4.3149054    4.3149054    4.3149054   -82630.811   -147816.86   -129119.87    29044.303   -134619.14     8668.962   -18853.771    80.336671 
   93000    3080.4738   -107.08163    2.7872774   -104.29435   -10319.144    4.2947269    4.2947269    4.2947269   -10319.144   -19763.159   -25235.258    14040.987    34700.083    2395.3586   -23643.099    79.214859 
   93100    1456.6104    -105.6353    1.3179717   -104.31733   -17645.856    4.2828852    4.2828852    4.2828852   -17645.856   -41310.917   -126065.08    114438.43   -120974.58    5675.1594   -5948.0254    78.561418 
   93200    2890.7839   -106.91661     2.615642   -104.30097     28158.36    4.2857591    4.2857591    4.2857591     28158.36     97522.66    986.90547   -14034.487    33994.782    21367.877   -16018.788    78.719668 
   93300     1321.437   -105.55414     1.195664   -104.35848    -21917.83    4.2886403    4.2886403    4.2886403    -21917.83   -38821.661   -68868.508    41936.679   -130246.11    6762.4085    6221.1004    78.878542 
   93400    2734.5137   -106.81027    2.4742455   -104.33603    6658.4577    4.2895359    4.2895359    4.2895359    6658.4577    38623.251   -511.96349   -18135.914    32278.426   -515.64025    -5836.622    78.927967 
   93500    968.52107   -105.23321   0.87633822   -104.35687     36636.72    4.2898696    4.2898696    4.2898696     36636.72   -73082.202    51800.942    131191.42   -102902.66   -1010.4667   -31443.114    78.946389 
   93600    3113.5313   -107.11807    2.8171885   -104.30088    5153.4071    4.3142892    4.3142892    4.3142892    5153.4071   -65942.757    65292.026    16110.952    27947.393    2065.6825   -10465.585    80.302258 
   93700    858.69322   -105.08255   0.77696367   -104.30558   -17104.238    4.3200877    4.3200877    4.3200877   -17104.238   -104651.49     48592.64    4746.1379   -108167.41   -11534.332    2843.0912    80.626476 
   93800    2827.0608   -106.85344     2.557984   -104.29546   -1728.0582    4.3001192    4.3001192    4.3001192   -1728.0582   -21511.369    45208.726   -28881.532    31748.596    9343.9677    5370.4093    79.513611 
   93900    1260.2422   -105.50989    1.1402937    -104.3696    6690.1355     4.255755     4.255755     4.255755    6690.1355   -86821.411    16532.132    90359.686   -101933.86    8195.4217    25291.528    77.077898 
   94000     2392.214   -106.53983    2.1645255   -104.37531    30334.211    4.2397774    4.2397774    4.2397774    30334.211    21685.288    10818.204     58499.14   -9065.5203   -33900.368   -20465.309    76.213021 
   94100    2050.1646   -106.27498     1.855032   -104.41995   -33308.105    4.2769162    4.2769162    4.2769162   -33308.105   -41253.013   -73525.361    14854.058     -60864.8    11220.773   -2382.3923    78.233402 
   94200    2176.7755   -106.35965    1.9695922   -104.39006   -32216.029    4.3028961    4.3028961    4.3028961   -32216.029   -89190.647   -30297.181     22839.74    -49216.24   -12143.591    15818.669    79.667754 
   94300    2169.6288   -106.32111    1.9631258   -104.35799   -19392.694    4.3041433    4.3041433    4.3041433   -19392.694    -29698.23   -52414.487    23934.635   -29438.926   -23519.494   -13901.471    79.737048 
   94400    1698.6078    -105.8932     1.536936   -104.35627   -17654.157    4.2913468    4.2913468    4.2913468   -17654.157   -42907.144   -47221.614    37166.288   -76992.331    9789.3429    8706.6614    79.027971 
   94500    2568.5553   -106.66612    2.3240828   -104.34204     33773.59    4.2665409    4.2665409    4.2665409     33773.59    61512.817    26772.785    13035.169    13783.133   -5393.5893   -1096.7305    77.665427 
   94600     1088.683   -105.38332   0.98506322   -104.39826    730.91503    4.2555588    4.2555588    4.2555588    730.91503    35461.796   -92120.493    58851.442   -121796.46   -15124.998   -23883.508    77.067237 
   94700    3053.2803   -107.15069    2.7626722   -104.38802    37408.127    4.2655685    4.2655685    4.2655685    37408.127    72058.864    66249.348   -26083.829    46404.629    7327.1372   -2793.3921    77.612335 
   94800    1621.7567   -105.89864    1.4673996   -104.43124   -6246.8062    4.2687595    4.2687595    4.2687595   -6246.8062   -7929.3426    -55054.31    44243.234   -119702.97    5402.7722    6120.7938     77.78665 
   94900    2417.0911   -106.61523    2.1870348    -104.4282    13431.573    4.2832038    4.2832038    4.2832038    13431.573    14454.222    26734.147   -893.65024    21042.889   -20968.875   -35761.739    78.578947 
   95000     1521.559   -105.78666    1.3767385   -104.40993   -59737.438    4.2979222    4.2979222    4.2979222   -59737.438   -104477.97   -71783.244   -2951.1017    -87899.74    44874.913   -7456.6724    79.391801 
   95100    1883.9166   -106.09825    1.7046073   -104.39364     2802.091     4.267659     4.267659     4.267659     2802.091   -43630.388    9791.3975    42245.263   -59392.892   -8943.0876    4224.6115    77.726504 
   95200    2332.7095   -106.48806    2.1106845   -104.37738    31107.734    4.2501213    4.2501213    4.2501213    31107.734    27607.371    17834.805    47881.026   -25026.801   -13505.964   -29596.212    76.772199 
   95300    1476.0747   -105.74624    1.3355834   -104.41065   -20430.685    4.2781599    4.2781599    4.2781599   -20430.685   -101666.95    2594.4961    37780.402   -90938.904    21469.009   -7662.6389    78.301671 
   95400    2631.4018   -106.75765    2.3809477    -104.3767    692.53783    4.2892091    4.2892091    4.2892091    692.53783   -11224.606    38058.978   -24756.759     49146.65   -23177.145   -2694.6429    78.909931 
   95500    1174.5962   -105.45386    1.0627994   -104.39106   -2161.0728    4.2886701    4.2886701    4.2886701   -2161.0728   -67428.755   -22867.448    83812.985   -127852.45    6659.9479    1440.5404    78.880187 
   95600    3072.8331   -107.11902     2.780364   -104.33866    21646.686    4.2885325    4.2885325    4.2885325    21646.686   -28654.145    82898.065    10696.139    51215.898   -3517.4801    15835.271    78.872595 
   95700    773.35511   -105.07237   0.69974796   -104.37262   -5552.9959     4.275217     4.275217     4.275217   -5552.9959   -63917.713   -55623.173     102881.9    -118723.9   -16109.822    -3582.705    78.140193 
   95800    3344.7486   -107.37727    3.0263989   -104.35087    33666.936    4.2706304    4.2706304    4.2706304    33666.936    36344.905    47355.128    17300.776    29565.548    18600.345    20784.284    77.888971 
   95900    1170.1686   -105.45891    1.0587932   -104.40012   -2237.7825     4.276977     4.276977     4.276977   -2237.7825   -37471.454   -44948.094    75706.201   -108953.67   -3561.9083   -4497.0756    78.236739 
   96000    2679.5211   -106.79797     2.424487   -104.37349    10071.279    4.2847714    4.2847714    4.2847714    10071.279    17486.614    -14578.36    27305.584    11270.499   -5885.6332   -536.79601     78.66526 
   96100    1065.5297   -105.34831   0.96411367    -104.3842   -16784.468    4.2966539    4.2966539    4.2966539   -16784.468    5954.4717    -67974.94    11667.066   -76586.144    25893.153    24623.548    79.321537 
   96200    1887.1778   -106.07963    1.7075581   -104.37207   -8136.4175    4.2939828    4.2939828    4.2939828   -8136.4175    7871.7085   -53209.924    20928.963   -36573.496   -15914.206    8455.6564    79.173691 
   96300    2125.4808   -106.29127    1.9231797   -104.36809     4235.187    4.2840308    4.2840308    4.2840308     4235.187   -45004.169    9619.2351    48090.495   -47289.021    15790.549    12807.213    78.624473 
   96400    1939.9417   -106.10411    1.7553001   -104.34881   -2929.1168    4.2933262    4.2933262    4.2933262   -2929.1168   -32544.735   -5699.3518    29456.737   -54488.696    31300.475    12923.487    79.137379 
   96500    2617.9285   -106.69629    2.3687567   -104.32753   -18608.528    4.2970637    4.2970637    4.2970637   -18608.528   -51943.611     2823.474   -6705.4465   -30131.285   -11184.897   -7622.4362    79.344234 
   96600    888.94382     -105.178   0.80433505   -104.37367   -7072.4951    4.2795008    4.2795008    4.2795008   -7072.4951   -83575.936    62329.993    28.457751   -87737.615     23431.19    13528.915    78.375324 
   96700    2622.9698   -106.73459    2.3733182   -104.36127     37152.34     4.262866     4.262866     4.262866     37152.34    50365.724    48367.634    12723.661    15669.695   -2089.3601    13566.949    77.464916 
   96800    1050.4265   -105.35878   0.95044793   -104.40834    7829.6647    4.2736049    4.2736049    4.2736049    7829.6647   -67766.361    9383.4128    81871.943   -109317.64   -25707.689    -15572.46    78.051832 
   96900    3120.8617   -107.19255    2.8238213   -104.36872   -17687.217    4.2955685    4.2955685    4.2955685   -17687.217   -1993.9741    2020.7059   -53088.381    33557.973    18784.132    15955.434     79.26144 
   97000    1058.2785   -105.31709    0.9575526   -104.35954   -15323.922    4.3108502    4.3108502    4.3108502   -15323.922   -86618.827    7892.5172    32754.543    -96283.64   -9844.7244    97.623452    80.110381 
   97100    2971.0679   -106.99788    2.6882847   -104.30959   -16918.664      4.30629      4.30629      4.30629   -16918.664    -14025.09    47.195173   -36778.096    30468.259   -20375.055    1616.6944    79.856416 
   97200    1435.2386   -105.65345    1.2986341   -104.35482   -20116.381    4.2749467    4.2749467    4.2749467   -20116.381   -62911.146   -56510.861    59072.866   -91223.102    9248.3687   -21697.761    78.125377 
   97300    2291.5244    -106.4261    2.0734195   -104.35268    16619.771    4.2501441    4.2501441    4.2501441    16619.771   -11047.015    77506.733   -16600.405    9910.6942   -54612.672    13019.364    76.773432 
   97400    2167.9467   -106.35648    1.9616037   -104.39487   -18467.479    4.2604394    4.2604394    4.2604394   -18467.479   -43953.433   -26335.319    14886.317   -41707.725   -32512.913    118.82881    77.332701 
   97500    1534.9853   -105.82076     1.388887   -104.43187   -15977.142     4.272968     4.272968     4.272968   -15977.142    -31224.72   -43537.714    26831.008   -65864.611    6192.1086   -24066.492     78.01694 
   97600    2756.3567   -106.90103    2.4940095   -104.40702   -4041.6105    4.2799289    4.2799289    4.2799289   -4041.6105   -25831.433    62939.939   -49233.338    11107.938   -40398.765   -874.79119    78.398846 
   97700    1464.6383    -105.7355    1.3252355   -104.41027   -49086.603    4.2982986    4.2982986    4.2982986   -49086.603   -99438.663   -57720.346    9899.1988   -80819.552    2518.9724    3551.7009    79.412661 
   97800    2679.0207    -106.8079    2.4240343   -104.38387   -289.52855     4.279444     4.279444     4.279444   -289.52855    21089.117    15603.268   -37560.971    34735.451       4061.4   -33281.415      78.3722 
   97900    1197.8968   -105.47772    1.0838822   -104.39383    40323.681    4.2392276    4.2392276    4.2392276    40323.681     41337.14    23133.731     56500.17   -79158.707   -5477.8471    35814.463    76.183373 
   98000    2626.3954   -106.78988    2.3764178   -104.41346    38466.488    4.2505296    4.2505296    4.2505296    38466.488    20981.307    60781.409    33636.747    4657.1895    -25097.32    437.98082    76.794324 
   98100    2270.8611   -106.47571    2.0547228   -104.42098    -19217.22    4.2854955    4.2854955    4.2854955    -19217.22   -29944.004   -29385.941    1678.2842   -46812.662    27902.973   -1076.4476    78.705146 
   98200    1139.0539    -105.4645    1.0306399   -104.43386   -24312.062    4.2960249    4.2960249    4.2960249   -24312.062   -58310.183    -16655.28    2029.2761   -51508.471   -19608.626    22757.242    79.286704 
   98300    2759.4607   -106.87671     2.496818    -104.3799   -24372.051    4.2960519    4.2960519    4.2960519   -24372.051   -16139.414   -25047.394   -31929.346    26311.107   -20839.949   -37160.552      79.2882 
   98400    1042.6115   -105.32674   0.94337679   -104.38337   -21906.858    4.2802581    4.2802581    4.2802581   -21906.858   -80883.965   -6113.5271    21276.919   -89587.939    36233.451    4234.1182    78.416935 
   98500    3369.7293   -107.39229    3.0490019   -104.34329    26938.592    4.2590202    4.2590202    4.2590202    26938.592    6116.0792    73813.293     886.4034    30310.997   -26574.112    2550.4535    77.255445 
   98600    1234.5103   -105.52085    1.1170109   -104.40384   -28859.598    4.2621311    4.2621311    4.2621311   -28859.598   -80756.013   -69120.584    63297.803   -94378.504    18138.641    2007.2367    77.424857 
   98700    1970.3115   -106.19959    1.7827793   -104.41681    3872.7911    4.2727442    4.2727442    4.2727442    3872.7911   -52692.995    25986.114    38325.254   -3375.8104    38984.921   -1795.6956    78.004685 
   98800    2251.0137   -106.45489    2.0367645   -104.41812    13938.962    4.2844033    4.2844033    4.2844033    13938.962   -18098.361   -8529.8398    68445.088   -32822.267   -31784.891    18853.186    78.644984 
   98900    1789.3296   -106.02639     1.619023   -104.40736   -32891.495    4.2978133    4.2978133    4.2978133   -32891.495   -102337.41   -17017.852    20680.781   -43609.681    21916.797   -12275.209    79.385765 
   99000    2777.3569    -106.8757    2.5130109   -104.36269    20374.068    4.2843528    4.2843528    4.2843528    20374.068   -410.10428    34771.141    26761.167    12328.442   -20639.764    2357.4655    78.642207 
   99100    814.28136   -105.12774   0.73677888   -104.39096    1280.5782    4.2726197    4.2726197    4.2726197    1280.5782   -17316.113   -20669.612    41827.459    -56365.28   -32092.256    5534.5539    77.997864 
   99200    3295.5554   -107.32623    2.9818878   -104.34434    27788.407    4.2705942    4.2705942    4.2705942    27788.407    20744.842    47556.567    15063.813    28660.683     26781.29   -757.35232    77.886987 
   99300    1230.1342   -105.52098    1.1130512   -104.40793   -22750.228    4.2835503    4.2835503    4.2835503   -22750.228   -37569.519   -34694.261    4013.0956   -79332.317   -21389.747   -1031.9059     78.59802 
   99400     2770.338   -106.89349      2.50666   -104.38683    -34422.52    4.2978323    4.2978323    4.2978323    -34422.52   -27437.994   -43206.238   -32623.328   -15877.356   -13296.589   -1167.1516    79.386821 
   99500    2029.0376   -106.24914    1.8359158   -104.41322     3460.468    4.2703533    4.2703533    4.2703533     3460.468    63756.749   -30822.657   -22552.688   -8581.6919    22800.097   -19405.421     77.87381 
   99600    2040.2356   -106.23279    1.8460481   -104.38674    28784.404    4.2472629    4.2472629    4.2472629    28784.404    35723.874     16032.81    34596.529   -78955.778   -20223.881    12152.723    76.617403 
   99700    2003.8103    -106.2065    1.8130897   -104.39341    -16685.87    4.2721444    4.2721444    4.2721444    -16685.87    33661.945   -61916.939   -21802.615    68139.354    4038.7813    -26876.88    77.971839 
   99800    1319.6058   -105.58616     1.194007   -104.39216   -33529.595    4.2864949    4.2864949    4.2864949   -33529.595   -22755.607   -98754.537    20921.358   -72796.381    3604.5459   -13125.764    78.760223 
   99900    2352.6372   -106.50183    2.1287156   -104.37312     17589.57    4.2720377    4.2720377    4.2720377     17589.57    44768.647   -43352.393    51352.456    23449.077     9565.388    26704.563    77.965996 
  100000      1481.25   -105.74193    1.3402662   -104.40166    11484.244    4.2755269    4.2755269    4.2755269    11484.244    69268.047   -81567.599    46752.284    64831.477    3067.5021   -28193.596    78.157191 
Loop time of 22.8821 on 1 procs for 100000 steps with 8 atoms

Pair  time (%) = 7.19359 (31.4376)
Kspce time (%) = 5.39931 (23.5962)
Neigh time (%) = 0.295685 (1.29221)
Comm  time (%) = 1.17482 (5.1342)
Outpt time (%) = 0.022886 (0.100017)
Other time (%) = 8.79586 (38.4399)

Nlocal:    8 ave 8 max 8 min
Histogram: 1 0 0 0 0 0 0 0 0 0
Nghost:    2189 ave 2189 max 2189 min
Histogram: 1 0 0 0 0 0 0 0 0 0
Neighs:    2303 ave 2303 max 2303 min
Histogram: 1 0 0 0 0 0 0 0 0 0

Total # of neighbors = 2303
Ave neighs/atom = 287.875
Neighbor list builds = 3397
Dangerous builds = 0
unfix 20
unfix 21
print "seeds:7219837"
seeds:7219837
