LAMMPS (10 Feb 2015)
# ---- initialize simulations
clear
units metal
dimension 3
boundary p p p
atom_style charge
atom_modify map array
# ---- create atoms
read_data /Users/eugeneragasa/pyflamestk_git/pypospack/tests/tests_integration/workflow/WorkflowLammpsThermalExpansion/param_5861/MgO_NaCl_unit.npt.T2000/lammps.structure
  triclinic box = (0 0 0) to (4.2565 4.2565 4.2565) with tilt (0 0 0)
  1 by 1 by 1 MPI processor grid
  reading atoms ...
  8 atoms
# ---- define interatomic potential
include potential.mod
mass 1 24.305
mass 2 15.999

group Mg type 1
4 atoms in group Mg
group O type 2
4 atoms in group O

set group Mg charge 1.63577302612
  4 settings made for charge
set group O charge -1.63577302612
  4 settings made for charge

variable R_cut equal 10.0

pair_style buck/coul/long ${R_cut}
pair_style buck/coul/long 10
pair_coeff 1 1 0.0 0.5 0.0 ${R_cut}
pair_coeff 1 1 0.0 0.5 0.0 10
pair_coeff 1 2 1558.72850733 0.278190610155 0.0 ${R_cut}
pair_coeff 1 2 1558.72850733 0.278190610155 0.0 10
pair_coeff 2 2 26609.5495557 0.148782776904 9.00084075824 ${R_cut}
pair_coeff 2 2 26609.5495557 0.148782776904 9.00084075824 10

kspace_style pppm 1.0e-5

neighbor 1.0 bin
neigh_modify every 1 delay 0 check yes
# ---- define settings
compute eng all pe/atom
compute eatoms all reduce sum c_eng
# ---- run minimization
reset_timestep 0
fix 1 all box/relax iso 0.0 vmax 0.001
thermo 10
thermo_style custom step pe lx ly lz xy xz yz press pxx pyy pzz pxy pxz pyz c_eatoms
min_style cg
minimize 1e-25 1e-25 5000 10000
PPPM initialization ...
  G vector (1/distance) = 0.352653
  grid = 8 8 8
  stencil order = 5
  estimated absolute RMS force accuracy = 3.87471e-05
  estimated relative force accuracy = 2.69083e-06
  using double precision FFTs
  3d grid and FFT values/proc = 3375 512
Neighbor list info ...
  1 neighbor list requests
  update every 1 steps, delay 0 steps, check yes
  master list distance cutoff = 11
Memory usage per processor = 4.06549 Mbytes
Step PotEng Lx Ly Lz Xy Xz Yz Press Pxx Pyy Pzz Pxy Pxz Pyz eatoms 
       0   -109.00108       4.2565       4.2565       4.2565            0            0            0    61252.417    61252.417    61252.417    61252.417 -3.6848803e-11 -3.3369169e-11 3.6549969e-10   -109.00108 
      10    -109.0509     4.299065     4.299065     4.299065            0            0            0    8703.9294    8703.9294    8703.9294    8703.9294 1.5032756e-10 -1.0327816e-11 -1.1009458e-10    -109.0509 
      15   -109.05203    4.3066964    4.3066964    4.3066964            0            0            0 0.0034250328 0.0034250327  0.003425033 0.0034250328 -1.8553982e-10 4.3823803e-11 -1.4551403e-10   -109.05203 
Loop time of 0.00811386 on 1 procs for 15 steps with 8 atoms

Minimization stats:
  Stopping criterion = linesearch alpha is zero
  Energy initial, next-to-last, final = 
        -109.001077098     -109.052033723     -109.052033723
  Force two-norm initial, final = 8.84488 3.43431e-05
  Force max component initial, final = 8.84488 7.26821e-06
  Final line search alpha, max atom move = 0.5 3.63411e-06
  Iterations, force evaluations = 15 22

Pair  time (%) = 0.00221825 (27.339)
Kspce time (%) = 0.00142026 (17.5041)
Neigh time (%) = 0 (0)
Comm  time (%) = 0.000252247 (3.10884)
Outpt time (%) = 1.19209e-05 (0.146921)
Other time (%) = 0.00421119 (51.9012)

Nlocal:    8 ave 8 max 8 min
Histogram: 1 0 0 0 0 0 0 0 0 0
Nghost:    2189 ave 2189 max 2189 min
Histogram: 1 0 0 0 0 0 0 0 0 0
Neighs:    2344 ave 2344 max 2344 min
Histogram: 1 0 0 0 0 0 0 0 0 0

Total # of neighbors = 2344
Ave neighs/atom = 293
Neighbor list builds = 0
Dangerous builds = 0
unfix 1
# ---- define output variables ----
variable natoms equal "count(all)"
variable tot_energy equal "c_eatoms"
variable length_x equal "lx"
variable length_y equal "ly"
variable length_z equal "lz"
variable tilt_xy equal "xy"
variable tilt_xz equal "xz"
variable tilt_yz equal "yz"
variable tot_press equal "press"
variable press_xx equal "pxx"
variable press_yy equal "pyy"
variable press_zz equal "pzz"
variable press_xy equal "pxy"
variable press_xz equal "pxz"
variable press_yz equal "pyz"

# ---- output ----
print "pypospack:output_section:begin"
pypospack:output_section:begin
print "tot_energy = ${tot_energy}"
tot_energy = -109.052033723467
print "num_atoms = ${natoms}"
num_atoms = 8
print "xx = ${length_x}"
xx = 4.30669636930156
print "yy = ${length_y}"
yy = 4.30669636930156
print "zz = ${length_z}"
zz = 4.30669636930156
print "xy = ${tilt_xy}"
xy = 0
print "xz = ${tilt_xz}"
xz = 0
print "yz = ${tilt_yz}"
yz = 0
print "tot_press = ${tot_press}"
tot_press = 0.00342503281246904
print "pxx = ${press_xx}"
pxx = 0.00342503266517326
print "pyy = ${press_yy}"
pyy = 0.00342503296687446
print "pzz = ${press_zz}"
pzz = 0.00342503280535941
print "pxy = ${press_xy}"
pxy = -1.85539817051957e-10
print "pxz = ${press_xz}"
pxz = 4.38238030577261e-11
print "pyz = ${press_yz}"
pyz = -1.45514027090344e-10
print "pypospack:output_section:done"
pypospack:output_section:done
print "pypospack:lammps_sim:done"
pypospack:lammps_sim:done
#------------------------------------------------------------------------------
# RUN THERMOSTAT
# running using an NPT Nose-Hoover style thermostat
#------------------------------------------------------------------------------
variable tempdamp equal 0.1
variable pressdamp equal 1.0
# set initial velocities
velocity all create 2000 8773324 mom yes dist gaussian loop all
# fix for Nose-Hoover style thermostat
fix 20 all npt temp 2000 2000 0.1 aniso 0.0 0.0 1.0 drag 1.0 couple xyz
variable boxx equal lx
variable boxy equal ly
variable boxz equal lz
variable boxp equal press
variable boxt equal temp
# calculate averages every 10000 steps
reset_timestep 0
fix 21 all ave/time 10 10 100 v_boxx v_boxy v_boxz v_boxp v_boxt file lattice.out
thermo_style custom step temp pe ke etotal press lx ly lz press pxx pyy pzz pxy pxz pyz vol
thermo_modify flush yes
thermo 100
run 100000
PPPM initialization ...
  G vector (1/distance) = 0.352152
  grid = 8 8 8
  stencil order = 5
  estimated absolute RMS force accuracy = 3.96483e-05
  estimated relative force accuracy = 2.75342e-06
  using double precision FFTs
  3d grid and FFT values/proc = 3375 512
Memory usage per processor = 3.06549 Mbytes
Step Temp PotEng KinEng TotEng Press Lx Ly Lz Press Pxx Pyy Pzz Pxy Pxz Pyz Volume 
       0         2000   -109.05204     1.809642    -107.2424     24196.52    4.3066964    4.3066964    4.3066964     24196.52     17353.93    24674.783    30560.845    8967.5726   -2115.0293   -5492.5123    79.879026 
     100     469.5619   -107.43688   0.42486948   -107.01201     11788.11    4.3307332    4.3307332    4.3307332     11788.11   -10091.511    48168.435   -2712.5935   -8218.6219     19779.74    12132.501    81.223983 
     200    1603.5171   -107.95388    1.4508959   -106.50299    -18715.72    4.3698972    4.3698972    4.3698972    -18715.72   -53907.937    1704.8017   -3944.0238    4381.9672     1962.957    12847.521    83.447563 
     300    1550.7029   -107.50031    1.4031085    -106.0972    17342.385    4.3735208    4.3735208    4.3735208    17342.385   -6197.2815    24193.685    34030.751    22694.421    1517.1977   -3237.7777    83.655323 
     400    1354.8998   -106.94739    1.2259418   -105.72145    34849.852    4.3611519    4.3611519    4.3611519    34849.852    15104.566    92709.675   -3264.6845   -5515.0164    16133.409    39863.105    82.947562 
     500    2292.8511   -107.55786    2.0746199   -105.48324    39719.395    4.3612975    4.3612975    4.3612975    39719.395    18028.303    66775.089    34354.792    20446.553   -18130.565   -13640.213    82.955873 
     600    1333.0132   -106.58255    1.2061384   -105.37641   -22867.946    4.3672388    4.3672388    4.3672388   -22867.946   -54076.912    47392.217   -61919.143    14407.913    40781.962    16509.135     83.29536 
     700    2583.4423   -107.64187    2.3375529   -105.30431    9760.4432    4.3793557    4.3793557    4.3793557    9760.4432     18254.95    1197.0824    9829.2977   -1122.7044   -23117.578    19947.252    83.990597 
     800    1476.4189     -106.658    1.3358949    -105.3221   -28091.093    4.3784372    4.3784372    4.3784372   -28091.093   -27539.256    -15015.67   -41718.353    24719.524    6333.6494   -22157.596    83.937763 
     900    3100.2142   -108.10623    2.8051389   -105.30109   -11694.717    4.3762581    4.3762581    4.3762581   -11694.717   -11292.285    322.12553    -24113.99   -15873.819    22976.658    11224.114    83.812499 
    1000     1109.943   -106.33405    1.0042998   -105.32975   -45154.873    4.3825969    4.3825969    4.3825969   -45154.873   -71454.848   -9305.6205   -54704.149   -5268.2422   -33256.976   -21737.863    84.177219 
    1100    2767.7042   -107.81039    2.5042769   -105.30611    6245.0894    4.3692451    4.3692451    4.3692451    6245.0894    50563.989     3226.616   -35055.337    7767.8755    12594.322   -15562.249    83.410209 
    1200    1309.8013   -106.51864    1.1851357    -105.3335    14301.201    4.3591927    4.3591927    4.3591927    14301.201   -57177.932    49945.286    50136.249   -18140.577     -18461.6    9733.8071    82.835828 
    1300    2708.5811   -107.78103    2.4507811   -105.33025   -13217.257    4.3644044    4.3644044    4.3644044   -13217.257    5535.0343   -19653.647   -25533.159     9439.406    6730.7726   -27501.259     83.13329 
    1400    1522.2128   -106.73333    1.3773302     -105.356    27667.591    4.3564193    4.3564193    4.3564193    27667.591    26648.756    48278.788    8075.2278    8394.5267   -7712.7259    20745.947    82.677822 
    1500    2044.0019   -107.22569    1.8494559   -105.37623   -9439.9128    4.3702208    4.3702208    4.3702208   -9439.9128   -34294.966   -28455.143    34430.371   -39060.433   -6418.7059    23436.731    83.466104 
    1600    2188.1219   -107.32156    1.9798587    -105.3417   -1216.7956     4.387096     4.387096     4.387096   -1216.7956   -13788.339    42903.295   -32765.342    12485.109    702.89611    246.61479    84.436729 
    1700    1348.8276   -106.54685    1.2204475    -105.3264    1372.3713    4.3833676    4.3833676    4.3833676    1372.3713   -78386.637    96638.603   -14134.852   -12435.217    4516.1626    26763.998    84.221635 
    1800    2107.3956   -107.21294    1.9068158   -105.30612    12415.531    4.3792165    4.3792165    4.3792165    12415.531   -59379.595    128312.29   -31686.099   -10761.868    -17366.77    -14784.68    83.982585 
    1900    1738.1463   -106.90281    1.5727113    -105.3301   -39204.435     4.378461     4.378461     4.378461   -39204.435   -95536.106    13556.063   -35633.263     19007.89    4945.1725   -7380.0809    83.939131 
    2000    2796.0956   -107.83834    2.5299661   -105.30837    676.42687    4.3678699    4.3678699    4.3678699    676.42687   -28264.562    45997.969   -15704.126   -6202.4109   -24055.477    29316.847    83.331477 
    2100    1226.8186   -106.45228    1.1100512   -105.34223   -30661.075    4.3607827    4.3607827    4.3607827   -30661.075   -43049.182    22759.843   -71693.887    20879.934   -3896.4853    -6562.322    82.926502 
    2200    2511.2524   -107.61461    2.2722339   -105.34238    2322.1182    4.3596612    4.3596612    4.3596612    2322.1182   -8221.2974    23296.484   -8108.8322    9097.7421     1282.782   -35432.637    82.862533 
    2300    1893.2745   -107.07447    1.7130746    -105.3614   -12979.908    4.3651451    4.3651451    4.3651451   -12979.908   -65665.351    31835.943   -5110.3161   -2177.0035   -17219.915    9909.2608    83.175619 
    2400    2036.0713   -107.19467    1.8422801   -105.35239   -5043.4871    4.3777489    4.3777489    4.3777489   -5043.4871   -1633.8884     26425.59   -39922.162     3734.877    23542.783    -7402.422    83.898179 
    2500    2025.3523   -107.16437    1.8325813   -105.33179   -14669.926    4.3809018    4.3809018    4.3809018   -14669.926    -45394.72    24306.112   -22921.169   -5410.9402   -2778.0691     6321.118    84.079583 
    2600    1781.2058   -106.95508    1.6116724   -105.34341    -48364.47    4.3667292    4.3667292    4.3667292    -48364.47   -107667.37    30074.293   -67500.329    4209.3935    46009.573    16002.679    83.266209 
    2700    3438.7674   -108.42342     3.111469   -105.31195    2558.9517    4.3609002    4.3609002    4.3609002    2558.9517   -27459.392    581.81292    34554.434    12759.844   -12133.209    5612.2538    82.933205 
    2800    787.71679   -106.05166   0.71274271   -105.33891    -18879.49    4.3776824    4.3776824    4.3776824    -18879.49   -47780.617    43357.914   -52215.766   -266.73117    51924.331    17277.224     83.89436 
    2900    2692.5666   -107.74023    2.4362908   -105.30394   -6409.6041    4.3842252    4.3842252    4.3842252   -6409.6041    13321.045   -24466.838   -8083.0193    10516.621   -21967.909   -21892.622    84.271079 
    3000    1605.8796   -106.76938    1.4530336   -105.31635    10346.544    4.3768901    4.3768901    4.3768901    10346.544   -23734.079    31831.951     22941.76    4052.3755    44805.127    6090.0136    83.848814 
    3100    1971.4491   -107.08906    1.7838086   -105.30525    17632.575    4.3694389    4.3694389    4.3694389    17632.575   -7638.8059    59400.318     1136.213    2258.9874    9140.7553    7447.8692    83.421311 
    3200    1660.0051   -106.81787    1.5020075   -105.31586    5729.5259    4.3709327    4.3709327    4.3709327    5729.5259    4385.6362   -16800.934    29603.875   -6009.8999    20853.952    1946.2856    83.506902 
    3300    1847.7077   -107.00276    1.6718448   -105.33091     9309.753    4.3767387    4.3767387    4.3767387     9309.753   -41039.805    61921.818    7047.2463    17231.096    52140.083    10670.136    83.840115 
    3400    2344.7288   -107.43455    2.1215599   -105.31299    36081.562    4.3790776    4.3790776    4.3790776    36081.562     4353.857     77901.21     25989.62   -25011.951   -13993.261    31636.798    83.974598 
    3500    1351.2779   -106.55549    1.2226646   -105.33283   -17132.108    4.3866545    4.3866545    4.3866545   -17132.108   -40089.356    56976.865   -68283.831    5646.1973    46636.886   -20737.884    84.411242 
    3600    2665.8141   -107.70912    2.4120846   -105.29703    17837.273    4.3882899    4.3882899    4.3882899    17837.273   -3834.9712    32852.829    24493.961   -14888.129   -20574.206    40056.657    84.505688 
    3700    2051.4194   -107.16941    1.8561674   -105.31325   -49616.508    4.3745778    4.3745778    4.3745778   -49616.508   -82642.247   -12810.836    -53396.44   -15709.336    49799.952   -3421.2836    83.715995 
    3800    2446.7676   -107.52713    2.2138868   -105.31324    29834.723    4.3526653    4.3526653    4.3526653    29834.723    11383.536    77655.816    464.81534   -197.72063   -25142.071   -9591.5281    82.464268 
    3900    1180.5804   -106.44542    1.0682139   -105.37721   -76.799957    4.3669077    4.3669077    4.3669077   -76.799957   -17509.878    40420.388    -23140.91    9595.1754    25931.443    32495.244     83.27642 
    4000    3122.9163   -108.16434    2.8256803   -105.33866   -30228.416    4.3853017    4.3853017    4.3853017   -30228.416   -76219.596   -16354.428    1888.7765    7340.8192    14210.598   -25892.381    84.333173 
    4100    1519.7767   -106.71064    1.3751259   -105.33552    11593.908     4.374843     4.374843     4.374843    11593.908    -50585.49    79906.266    5460.9482    1407.6668   -9147.5019    40822.497    83.731221 
    4200     1855.674   -107.00804    1.6790529   -105.32898   -11302.519    4.3748919    4.3748919    4.3748919   -11302.519    -53926.72    52722.818   -32703.657    18139.237    25837.111        -3457    83.734028 
    4300    2322.7353   -107.42703    2.1016597   -105.32537   -16027.627    4.3714399    4.3714399    4.3714399   -16027.627   -35267.871    8655.8784   -21470.888    -1043.184   -17045.711   -36740.707    83.535976 
    4400     2242.364   -107.36357     2.028938   -105.33463   -7152.9094    4.3751592    4.3751592    4.3751592   -7152.9094   -25655.878    50476.708   -46279.558   -3048.3868    19275.487    23768.411    83.749377 
    4500    2033.3656   -107.17378    1.8398319   -105.33395   -51847.585    4.3868374    4.3868374    4.3868374   -51847.585   -11266.732   -83261.938   -61014.085     797.5624   -4375.2871   -75009.748    84.421803 
    4600    2557.0584    -107.6191    2.3136801   -105.30542   -6124.4017    4.3807078    4.3807078    4.3807078   -6124.4017   -15404.131    24524.689   -27493.764    23724.138    9854.5433    20465.559    84.068414 
    4700    1364.2889   -106.55868    1.2344372   -105.32425    7030.4956    4.3623463    4.3623463    4.3623463    7030.4956    89385.907   -44795.801    -23498.62   -16938.074    1868.6136   -67796.471    83.015736 
    4800    2310.3009   -107.42482    2.0904088   -105.33441    23309.212    4.3552388    4.3552388    4.3552388    23309.212    62264.313    10499.018   -2835.6963   -28053.735    1602.8593    6512.7022    82.610626 
    4900    1993.8094   -107.16489    1.8040406   -105.36085    25624.647    4.3682857    4.3682857    4.3682857    25624.647     36139.86    22200.583    18533.497    7519.2925    22142.796   -23884.711    83.355275 
    5000    1883.6849   -107.06508    1.7043977   -105.36068   -32300.762    4.3934101    4.3934101    4.3934101   -32300.762    767.63641   -63580.494   -34089.428   -35546.437   -6741.6281   -45688.685     84.80183 
    5100    2412.6913   -107.50388    2.1830538   -105.32083   -6268.4067    4.3786611    4.3786611    4.3786611   -6268.4067   -5716.1389     -16248.3    3159.2183   -17133.451    4341.4588    3225.0113    83.950635 
    5200    1263.0973   -106.46476     1.142877   -105.32189     42804.72    4.3511493    4.3511493    4.3511493     42804.72    120273.27    13818.424   -5677.5363   -4992.8168     10470.71   -57326.921    82.378134 
    5300    2847.4968   -107.89411    2.5764749   -105.31763   -5590.2713    4.3592679    4.3592679    4.3592679   -5590.2713   -11784.774   -13858.492    8872.4523   -30928.934   -21484.214    7368.9968    82.840113 
    5400     1390.642   -106.60026    1.2582821   -105.34197   -18922.885    4.3687983    4.3687983    4.3687983   -18922.885    46475.539   -42591.852   -60652.341    12177.765    20236.258   -92416.254    83.384624 
    5500    2328.6151   -107.43583    2.1069798   -105.32885    23814.327    4.3744497    4.3744497    4.3744497    23814.327    65823.327    3216.0839    2403.5693   -11520.763    7747.3021    36948.017     83.70864 
    5600    1379.5633   -106.59729    1.2482579   -105.34904   -35450.781    4.3772368    4.3772368    4.3772368   -35450.781     53172.88   -65854.175    -93671.05   -17307.897   -22797.966   -74438.456    83.868742 
    5700    2395.1016   -107.49139    2.1671383   -105.32425    11034.241    4.3587285    4.3587285    4.3587285    11034.241    484.09714    40310.999   -7692.3733    17053.766    14541.186    1379.3105    82.809363 
    5800    1432.6382   -106.64013    1.2962811   -105.34385    8114.3154    4.3582458    4.3582458    4.3582458    8114.3154    79557.256   -10687.832   -44526.477    3016.9049   -3716.5384    -68682.62    82.781855 
    5900    2305.3251   -107.42302    2.0859066   -105.33711    2912.2404     4.371112     4.371112     4.371112    2912.2404    28097.483   -19405.719    44.957776   -334.81004   -12471.357   -21216.265    83.517178 
    6000    1688.8045   -106.86368    1.5280658   -105.33561    -11167.89    4.3804471    4.3804471    4.3804471    -11167.89     17512.09    14848.799   -65864.557    19584.866    1213.2782   -42179.879    84.053408 
    6100    2236.8853   -107.34668    2.0239808    -105.3227   -25658.418    4.3771573    4.3771573    4.3771573   -25658.418    40761.402   -73026.994    -44709.66    3656.4064   -2885.0597   -41130.939    83.864172 
    6200    1750.7485   -106.88796    1.5841141   -105.30385     33857.02    4.3566787    4.3566787    4.3566787     33857.02    17626.061    105025.34   -21080.341   -9621.7664   -9958.1279   -36365.943    82.692588 
    6300    1352.0642    -106.5731    1.2233761   -105.34972    -31773.93    4.3536231    4.3536231    4.3536231    -31773.93   -14638.929   -39664.038   -41018.823    32831.356     17465.09   -73222.624    82.518723 
    6400    2851.1444   -107.93565    2.5797754   -105.35588     18829.59    4.3458626    4.3458626    4.3458626     18829.59   -651.23022    53981.761    3158.2398    3552.3861   -11336.459    8139.7727    82.078229 
    6500    1734.5539   -106.96267    1.5694608   -105.39321   -21554.602    4.3543615    4.3543615    4.3543615   -21554.602     33456.27   -37110.615   -61009.461   -3633.8793   -4064.6221    -90233.47    82.560712 
    6600    2397.7334   -107.53695    2.1695196   -105.36743   -1040.6362    4.3667741    4.3667741    4.3667741   -1040.6362   -53496.456    41612.101    8762.4468    55846.127    8350.0072    11870.459    83.268775 
    6700    1821.4629   -106.99672    1.6480979   -105.34862   -33617.028    4.3731384    4.3731384    4.3731384   -33617.028    18586.493   -29698.336    -89739.24    9066.4384   -8203.7911   -77540.077    83.633386 
    6800    2632.8647   -107.70555    2.3822713   -105.32328   -26559.909    4.3723433    4.3723433    4.3723433   -26559.909   -82774.099   -24033.123    27127.496    30562.302    4543.2067    16276.675    83.587776 
    6900     1220.631   -106.45201    1.1044526   -105.34756   -15539.246    4.3620727    4.3620727    4.3620727   -15539.246   -9699.2886   -1626.0361   -35292.413     25365.95   -2522.7097   -67841.982    83.000116 
    7000    2284.8988    -107.4117    2.0674245   -105.34428    19026.138    4.3404695    4.3404695    4.3404695    19026.138     10186.94     31223.93    15667.545   -16797.515   -26139.347    4283.9878    81.773037 
    7100    2160.2216   -107.31628    1.9546139   -105.36167    10207.775    4.3334943    4.3334943    4.3334943    10207.775    152.40613   -13902.895    44373.815    24887.828    7132.7746   -36419.701    81.379438 
    7200    1639.7396   -106.87431    1.4836708   -105.39063    2537.5869    4.3546225    4.3546225    4.3546225    2537.5869    44681.087   -12436.032   -24632.294   -253.31972   -3065.6036   -63873.888    82.575561 
    7300    2517.4407   -107.64064    2.2778333   -105.36281    14068.681     4.369981     4.369981     4.369981    14068.681    -3676.583    18633.591    27249.035   -20507.238   -11299.497    5045.5873    83.452367 
    7400    738.16596   -106.03895   0.66790807   -105.37104   -5291.6145     4.373924     4.373924     4.373924   -5291.6145    41963.362   -24073.115   -33765.091    10673.654   -3633.0759   -85563.863    83.678463 
    7500    2853.9166   -107.87725    2.5822837   -105.29496    5635.3448    4.3702044    4.3702044    4.3702044    5635.3448   -19136.754    46717.763   -10674.975    -4646.632    811.31454    18529.443    83.465164 
    7600    1403.8503    -106.5881    1.2702333   -105.31786   -405.43963     4.358797     4.358797     4.358797   -405.43963    26180.194    -21077.26    -6319.253   -1360.0566    2690.7632   -106311.38     82.81327 
    7700    2990.3547   -108.01317    2.7057358   -105.30744    11927.854     4.361119     4.361119     4.361119    11927.854     -44768.6     -3611.82    84163.983    16235.071    15831.573     35519.25    82.945687 
    7800    1476.5394   -106.66655    1.3360039   -105.33055   -16498.207    4.3662107    4.3662107    4.3662107   -16498.207     68388.24   -90404.463   -27478.397   -4817.3458   -5536.6343   -106986.71    83.236547 
    7900     2642.668   -107.69086    2.3911415   -105.29972    13630.617    4.3661732    4.3661732    4.3661732    13630.617   -30923.156    5730.4069    66084.599    27324.626    7133.3651    32799.979    83.234404 
    8000    1716.4504   -106.87004    1.5530804   -105.31696    -35789.21    4.3651438    4.3651438    4.3651438    -35789.21    23186.935    -80593.94   -49960.624    5148.9389    14208.831   -95533.316    83.175544 
    8100    2400.1963   -107.47592     2.171748   -105.30418    40454.162    4.3507397    4.3507397    4.3507397    40454.162    55812.443    38722.596    26827.446    3473.8118   -19414.457    7603.2036    82.354872 
    8200    1255.6622   -106.47326    1.1361495   -105.33711   -3078.9993    4.3442478    4.3442478    4.3442478   -3078.9993    60859.503   -42886.901   -27209.599    23861.887    7625.1991     -59576.4    81.986769 
    8300    2216.3123   -107.35481     2.005366   -105.34944   -29884.921    4.3570509    4.3570509    4.3570509   -29884.921   -2407.5341   -14507.383   -72739.846    -11942.77     13154.94   -42906.081    82.713786 
    8400     2337.092   -107.46116      2.11465   -105.34651   -5672.6014    4.3611473    4.3611473    4.3611473   -5672.6014    -16181.25   -35852.397    35015.843     -8654.42   -9300.8376    -11223.46    82.947305 
    8500    1759.4845   -106.94488    1.5920185   -105.35286   -33676.292     4.367697     4.367697     4.367697   -33676.292    8180.6859   -35259.175   -73950.386    16562.171    422.67778   -73955.386    83.321583 
    8600    2278.2649   -107.38859     2.061422   -105.32717   -5315.7896    4.3591866    4.3591866    4.3591866   -5315.7896   -24125.362    402.98549    7775.0076   -37484.882    15221.584    27758.509    82.835479 
    8700    1439.4603   -106.64012    1.3024539   -105.33767     14962.16    4.3437953    4.3437953    4.3437953     14962.16    41102.275   -1105.2972    4889.5012    10185.675    -1635.376   -103234.19    81.961151 
    8800    3109.9352   -108.13948    2.8139347   -105.32555    21423.076    4.3500422    4.3500422    4.3500422    21423.076   -711.42203    23047.006    41933.644   -621.98018     10426.56    28482.979    82.315272 
    8900    889.92825   -106.17035   0.80522579   -105.36512    5357.5942    4.3537931    4.3537931    4.3537931    5357.5942    31606.302    12672.629   -28206.148   -25736.394    4460.1879   -89705.254    82.528389 
    9000    3009.1851   -108.04891     2.722774   -105.32614    11878.532    4.3684029    4.3684029    4.3684029    11878.532   -8826.6854    25573.238    18889.043   -6913.8129   -1056.2383    7960.3304     83.36199 
    9100    1401.9743   -106.62138    1.2685358   -105.35284    -6685.566    4.3602016    4.3602016    4.3602016    -6685.566    33611.144   -7693.0765   -45974.766   -2408.2856    21511.323   -71714.859    82.893352 
    9200    2320.8787   -107.43583    2.0999798   -105.33585    12247.401    4.3417758    4.3417758    4.3417758    12247.401    35473.146   -12175.223     13444.28   -31531.259   -3982.5787   -37503.551    81.846888 
    9300    1890.2139   -107.05772    1.7103052   -105.34742     28951.31    4.3448182    4.3448182    4.3448182     28951.31     54099.58    46021.328   -13266.979     19679.95   -9748.4047   -12889.493    82.019066 
    9400    1602.8002   -106.81893    1.4502473   -105.36868   -18263.016    4.3567873    4.3567873    4.3567873   -18263.016    17171.681   -56323.868   -15636.862   -25142.286    12473.274   -68272.601    82.698777 
    9500    2637.6387   -107.72926    2.3865909   -105.34267    7225.7754    4.3653392    4.3653392    4.3653392    7225.7754   -18436.108    60819.553   -20706.118   -22035.561   -8643.6506    16092.253    83.186715 
    9600    1406.0794   -106.62769    1.2722501   -105.35544   -5222.5434    4.3669147    4.3669147    4.3669147   -5222.5434    43385.784   -53343.942   -5709.4719    780.53889    409.28923   -67912.768    83.276817 
    9700    2884.9998   -107.93227    2.6104084   -105.32186    6012.0048    4.3604844    4.3604844    4.3604844    6012.0048   -35920.931    38551.837    15405.108   -34005.545    5933.7856    23291.771    82.909487 
    9800    825.96082   -106.10132   0.74734671   -105.35398   -178.50407    4.3416761    4.3416761    4.3416761   -178.50407    14145.025   -24657.106     9976.569    7078.5342   -18048.799    -84822.75    81.841253 
    9900    2648.9807   -107.75814    2.3968534   -105.36129    12460.375    4.3450618    4.3450618    4.3450618    12460.375   -10737.189    64846.114   -16727.802     13290.85   -6899.5587    17016.424    82.032863 
   10000    2367.7192    -107.5142    2.1423621   -105.37184    8387.3668    4.3526744    4.3526744    4.3526744    8387.3668    44128.161   -1389.4437   -17576.616   -8994.9058   -6621.6877   -49575.922     82.46479 
   10100    1158.3058   -106.43187    1.0480594   -105.38381     10043.78    4.3538926    4.3538926    4.3538926     10043.78    1101.2858    34026.249   -4996.1949    30599.198   -15188.471   -24248.589    82.534045 
   10200    2809.9389    -107.8871    2.5424918   -105.34461    5156.0402    4.3525993    4.3525993    4.3525993    5156.0402   -19809.616   0.53945183    35277.197    -2936.711    -7600.799    8113.7738    82.460518 
   10300    1337.5068   -106.57322    1.2102043   -105.36301    26912.785    4.3429532    4.3429532    4.3429532    26912.785    38692.732    45735.488   -3689.8641   -3881.4253   -10621.987   -52919.263    81.913491 
   10400    2723.0961   -107.79695    2.4639146   -105.33304     5350.684    4.3539529    4.3539529    4.3539529     5350.684   -29669.877    13134.357    32587.572    30853.299   -18725.674    26757.497    82.537473 
   10500    1408.6787   -106.60334    1.2746021   -105.32874   -34856.095    4.3753231    4.3753231    4.3753231   -34856.095   -13939.861   -25214.536   -65413.889   -22168.586    7764.5571   -52982.744     83.75879 
   10600    2594.8599   -107.63687    2.3478838   -105.28899    3003.2364    4.3762791    4.3762791    4.3762791    3003.2364   -41474.239    56079.336   -5595.3882    7977.8662   -24852.393     31147.15    83.813707 
   10700    2159.5783   -107.26425    1.9540319   -105.31022   -8573.0806    4.3512177    4.3512177    4.3512177   -8573.0806    15623.834   -34837.221   -6505.8546   -21284.837    13547.189   -56413.593    82.382021 
   10800    1451.8426   -106.65366    1.3136577      -105.34    10975.824    4.3211895    4.3211895    4.3211895    10975.824    29147.458    16309.833   -12529.818   -18953.313   -9276.6764   -24395.547    80.688185 
   10900    2223.1232   -107.37901    2.0115286   -105.36748    35899.104    4.3305752    4.3305752    4.3305752    35899.104    52773.775     -1553.85    56477.387    17501.062   -13130.791   -12120.679    81.215094 
   11000    1721.0372   -106.92951    1.5572306   -105.37228   -49137.352    4.3684082    4.3684082    4.3684082   -49137.352    10496.152     -86822.8   -71085.407   -19626.844    2220.1669   -73528.827     83.36229 
   11100    2501.7245    -107.5903    2.2636129   -105.32669    24827.946    4.3665891    4.3665891    4.3665891    24827.946   -26706.067    70830.354    30359.551    2673.6037   -80.305091    7640.2901    83.258191 
   11200    1440.2029   -106.64834    1.3031258   -105.34521    -43120.75    4.3662237    4.3662237    4.3662237    -43120.75    13918.067   -98670.103   -44610.213    21559.717   -13651.254   -71562.419    83.237295 
   11300    2335.9143   -107.44829    2.1135844    -105.3347    18967.357    4.3402905    4.3402905    4.3402905    18967.357   -23684.169    83245.064   -2658.8229    21602.986    31259.242    25193.089     81.76292 
   11400    1666.8269   -106.85869    1.5081801   -105.35051    17087.522    4.3160771    4.3160771    4.3160771    17087.522    77478.557   -31550.905    5334.9151   -8458.8057     7489.517   -70150.413    80.402137 
   11500    2149.2192    -107.3247    1.9446587   -105.38004    -17945.55    4.3413508    4.3413508    4.3413508    -17945.55   -41743.361    -36779.72    24686.432    68897.882   -12199.986    456.90219    81.822858 
   11600    2200.4455   -107.35527    1.9910093   -105.36426   -2738.1291    4.3565379    4.3565379    4.3565379   -2738.1291   -121.83271   -4142.5238   -3950.0307    2546.8183    30827.575   -35398.043    82.684573 
   11700    1682.6764   -106.88489     1.522521   -105.36237   -13494.109    4.3655046    4.3655046    4.3655046   -13494.109    11570.719   -43047.124   -9005.9211     30800.11    6305.9981   -36560.746    83.196176 
   11800    2117.0202   -107.25056    1.9155243   -105.33504   -24267.985    4.3668455    4.3668455    4.3668455   -24267.985   -47007.363   -22610.061   -3186.5299    36755.169     -6555.31    12605.953    83.272858 
   11900    2338.7205   -107.43596    2.1161234   -105.31983    7348.2983    4.3493108    4.3493108    4.3493108    7348.2983    9784.7032    17649.115   -5388.9234    4501.7047    16179.792   -36550.649    82.273754 
   12000    1465.9019   -106.66636    1.3263788   -105.33998   -20900.563    4.3536595    4.3536595    4.3536595   -20900.563   -64483.225   -48276.052    50057.587    76820.751   -9497.3759    5165.0362    82.520789 
   12100    2767.5073   -107.83127    2.5040988   -105.32717    3767.5031    4.3540061    4.3540061    4.3540061    3767.5031   -10312.967    27816.468   -6200.9915   -33207.006   -26242.945     11751.17    82.540502 
   12200     1907.807   -107.08415    1.7262239   -105.35792   -10893.158    4.3514706    4.3514706    4.3514706   -10893.158   -53724.894   -43471.997    64517.419    94650.088    10240.774    953.86429    82.396386 
   12300    1898.0026   -107.07328    1.7173526   -105.35592    -22136.81    4.3573936    4.3573936    4.3573936    -22136.81   -25065.711   -14539.443   -26805.276    -38389.81   -13034.629    1956.8271    82.733302 
   12400    1796.0169   -106.97666    1.6250738   -105.35158   -3531.8635    4.3524278    4.3524278    4.3524278   -3531.8635   -37259.027   -11918.591    38582.027    18791.985     120.7544    34507.119    82.450775 
   12500    2207.7304    -107.3385    1.9976008    -105.3409   -22735.252    4.3613318    4.3613318    4.3613318   -22735.252   -3699.1884   -38131.102   -26375.465      7907.26   -8146.1849   -30954.385    82.957831 
   12600    1736.8196   -106.92809    1.5715109   -105.35658   -48496.441    4.3608574    4.3608574    4.3608574   -48496.441   -63636.017   -48520.041   -33333.265   -41832.955   -10114.666     13650.38    82.930761 
   12700    2880.3972   -107.94737    2.6062439   -105.34113    14848.342    4.3449337    4.3449337    4.3449337    14848.342   -7296.6831   -11626.847    63468.556    22897.311    17171.519    1551.8602    82.025606 
   12800     835.6109   -106.14512    0.7560783   -105.38904   -4495.8571    4.3436766    4.3436766    4.3436766   -4495.8571   -21340.177   -53181.775     61034.38   -35986.279   -8897.6028   -63937.004    81.954433 
   12900    2734.0322   -107.85046    2.4738098   -105.37665    18920.593    4.3596591    4.3596591    4.3596591    18920.593    17726.525    6114.4541    32920.799    13358.781    4929.6861     11541.46    82.862416 
   13000    1896.7885   -107.08087    1.7162541   -105.36462    -47274.86    4.3865169    4.3865169    4.3865169    -47274.86   -8080.5001    -98913.08       -34831   -1220.4783   -3155.8245   -71978.837    84.403299 
   13100    1901.8045    -107.0363    1.7207927   -105.31551   -19609.984    4.3731461    4.3731461    4.3731461   -19609.984   -62116.907   -28496.461    31783.417   -42975.262   -11582.758     1017.428    83.633824 
   13200    2236.8405   -107.31842    2.0239403   -105.29448    11927.276    4.3483765    4.3483765    4.3483765    11927.276    2751.7159     1666.483    31363.629    38531.735    3361.4557   -25824.336    82.220748 
   13300    2306.7488   -107.40731    2.0871948   -105.32012     757.1114     4.349683     4.349683     4.349683     757.1114    5964.4603   -30849.003    27155.877   -31885.544   -15975.919    -45422.94    82.294881 
   13400    1578.7893   -106.78048    1.4285218   -105.35196    13714.275     4.351858     4.351858     4.351858    13714.275   -43020.176    13300.053    70862.948    29372.721   -38318.298    29546.919    82.418394 
   13500    2268.7003    -107.4129    2.0527677   -105.36013    13111.662    4.3640122    4.3640122    4.3640122    13111.662    -38508.06    54225.097    23617.949    4224.5822    11461.579   -21200.738    83.110876 
   13600    1967.6168    -107.1391     1.780341   -105.35876   -10243.825    4.3748569    4.3748569    4.3748569   -10243.825   -73005.869     15992.89    26281.503   -632.20899   -43837.755    -358.7185    83.732017 
   13700    1813.4916   -107.00623    1.6408853   -105.36535    -15603.88    4.3605009    4.3605009    4.3605009    -15603.88   -13295.935   -20866.612   -12649.093    45532.434    19130.689    37060.179    82.910427 
   13800    2457.0768   -107.56198    2.2232147   -105.33877    46164.679    4.3377564    4.3377564    4.3377564    46164.679    12579.217    91291.232    34623.588   -19564.575   -27904.644    -468.8007    81.619793 
   13900    1937.1709   -107.12749    1.7527929   -105.37469   -1600.8727    4.3468374    4.3468374    4.3468374   -1600.8727   -15494.208   -4744.2016    15435.792    37570.131   -16600.816    17692.329    82.133475 
   14000     2062.697   -107.24576    1.8663716   -105.37939   -5403.7016    4.3726404    4.3726404    4.3726404   -5403.7016    3070.3544    19800.272   -39081.731    4998.9138    11758.491    10012.475    83.604817 
   14100    2427.9787   -107.56047    2.1968862   -105.36359   -13229.044    4.3717991    4.3717991    4.3717991   -13229.044   -72610.187    29960.356    2962.6987   -14445.563   -29923.919   -786.15749     83.55657 
   14200    1562.4777    -106.7851    1.4137626   -105.37134    149.70828    4.3545441    4.3545441    4.3545441    149.70828    133.96367    -46832.87    47148.031    51017.923    22396.661    18307.693    82.571105 
   14300    2052.4009   -107.22385    1.8570554   -105.36679    4433.2204    4.3558903    4.3558903    4.3558903    4433.2204    25642.882    -7227.553   -5115.6683   -34329.731   -11578.094    38914.099    82.647703 
   14400    1795.9212    -107.0009    1.6249873   -105.37592   -2147.4494    4.3587694    4.3587694    4.3587694   -2147.4494   -62711.972   -56763.517    113033.14    64802.888     7406.728   -16229.324    82.811697 
   14500    2282.9968   -107.42736    2.0657035   -105.36166   -2757.1239    4.3746131    4.3746131    4.3746131   -2757.1239    27822.297   -9938.3443   -26155.325   -8892.9486   -5855.5067    44980.524    83.718018 
   14600    1268.2722   -106.50114    1.1475594   -105.35359   -34051.591    4.3893057    4.3893057    4.3893057   -34051.591   -64672.087   -84031.337    46548.651    50582.454    7109.4615    6364.9376    84.564384 
   14700    1987.3216   -107.12784    1.7981703   -105.32967   -1525.3081     4.372243     4.372243     4.372243   -1525.3081   -34879.063   -18031.269    48334.408     13837.73   -5719.5099    13001.733     83.58202 
   14800    2454.0699   -107.53703    2.2204941   -105.31654    33302.185    4.3458549    4.3458549    4.3458549    33302.185    16527.021     15714.59    67664.943    34168.886    961.95224    14585.064    82.077789 
   14900    1522.1066   -106.73586     1.377234   -105.35863   -27817.002    4.3550361    4.3550361    4.3550361   -27817.002   -81690.692   -56097.757    54337.442    31704.508   -3615.2601     7349.061    82.599091 
   15000      2374.82   -107.48219     2.148787    -105.3334    7234.2691    4.3741791    4.3741791    4.3741791    7234.2691   -4693.2514   -28392.653    54788.712    -15524.67   -1037.9519     5297.923    83.693104 
   15100    1907.2555    -107.0513    1.7257248   -105.32557   -37233.413    4.3929292    4.3929292    4.3929292   -37233.413   -22776.354   -77167.569   -11756.317    54982.543    781.67459    17452.387    84.773985 
   15200    2286.0579   -107.36322    2.0684732   -105.29474   -22871.358    4.3934506    4.3934506    4.3934506   -22871.358   -20867.398   -56731.671    8984.9961   -43454.441    2832.5471   -6692.4233    84.804178 
   15300    1938.9295   -107.04957    1.7543842   -105.29519   -6223.9628    4.3698283    4.3698283    4.3698283   -6223.9628    3816.2847    -30873.51    8385.3367    42604.548    168.48506    8898.3417    83.443615 
   15400    2013.1208   -107.13413     1.821514   -105.31262    11124.601    4.3451089    4.3451089    4.3451089    11124.601     4713.177   -14284.456    42945.081   -39071.956   -24270.749    4725.7571    82.035531 
   15500    2544.9711   -107.65038    2.3027434   -105.34764     20239.26     4.351987     4.351987     4.351987     20239.26     47309.83   -37760.952    51168.901     13167.81    19828.868    1588.0365    82.425723 
   15600    1386.5518   -106.63813    1.2545812   -105.38355   -45004.744    4.3923625    4.3923625    4.3923625   -45004.744   -106111.65   -59627.169    30724.582   -13183.945   -10553.334    7675.3685    84.741186 
   15700    2577.8302   -107.61695    2.3324749   -105.28447   -14907.795    4.4079784    4.4079784    4.4079784   -14907.795   -36462.024   -16411.382    8150.0212   -9345.2944   -27086.782    -12254.88    85.648225 
   15800    1127.4788   -106.30093    1.0201666   -105.28077   -1452.7068    4.3817414    4.3817414    4.3817414   -1452.7068   -65106.229   -7098.3502    67846.459    1420.9562    13765.986    23172.726    84.127932 
   15900     2714.905   -107.71563    2.4565031   -105.25913    4707.7552    4.3664067    4.3664067    4.3664067    4707.7552    28312.924   -7380.4505    -6809.208   -14757.564   -9560.6651   -22723.213     83.24776 
   16000    1811.3117   -106.95329    1.6389129   -105.31438   -9970.8484    4.3542526    4.3542526    4.3542526   -9970.8484   -19255.741   -3915.9418   -6740.8627    5657.7193    33065.157   -18535.259     82.55452 
   16100    2335.8194   -107.45478    2.1134985   -105.34129   -5911.5694     4.351639     4.351639     4.351639   -5911.5694    -34327.29   -28464.204    45056.786   -5712.6106   -11707.824   -4480.7229     82.40595 
   16200    1816.5728   -107.00535    1.6436732   -105.36168   -33673.112    4.3783879    4.3783879    4.3783879   -33673.112    16192.444   -26958.806   -90252.973    -2008.158    21860.613   -56863.133    83.934924 
   16300    1913.2941   -107.06838    1.7311887   -105.33719   -20943.603    4.3807373    4.3807373    4.3807373   -20943.603   -58836.526   -192.12889   -3802.1524    460.26785   -5260.3947    13293.744    84.070115 
   16400    2638.9719   -107.70147    2.3877972   -105.31367   -12298.798     4.376841     4.376841     4.376841   -12298.798    3896.4104   -56760.449    15967.645   -523.48233     11431.84   -29587.259     83.84599 
   16500    1415.4375   -106.61469    1.2807176   -105.33397   -31501.779    4.3662911    4.3662911    4.3662911   -31501.779   -57604.312    6825.2432   -43726.268    560.37828    42859.808   -10229.051    83.241146 
   16600    2678.4939   -107.73642    2.4235576   -105.31287    10559.162    4.3511613    4.3511613    4.3511613    10559.162    26868.347    2010.6854     2798.454   -2762.5318   -18045.937    25956.419    82.378814 
   16700    1702.1159   -106.88892    1.5401102   -105.34881   -22259.688    4.3705403    4.3705403    4.3705403   -22259.688   -3030.4027    14295.621   -78044.281   -3274.7942    65543.683    -1712.038     83.48441 
   16800    1934.0802   -107.07585    1.7499964   -105.32585   -27117.454    4.3905056    4.3905056    4.3905056   -27117.454   -33074.874   -8923.4397   -39354.049    6826.7331    2473.5137    22395.088    84.633754 
   16900    2350.9498   -107.42076    2.1271888   -105.29357   -14788.243    4.3867019    4.3867019    4.3867019   -14788.243    -32304.68   -31792.479    19732.429   -18688.545    29525.263    20273.272    84.413978 
   17000    2056.9362   -107.16957    1.8611591   -105.30841    -17203.21    4.3659377    4.3659377    4.3659377    -17203.21   -33616.544    16274.336   -34267.422   -7523.5688    26499.217   -1087.0316    83.220935 
   17100    2312.8399    -107.4089    2.0927062   -105.31619    15908.741     4.349424     4.349424     4.349424    15908.741    94343.385   -32697.767   -13919.395    4067.5134   -1213.6515    40932.929    82.280184 
   17200    2147.0579   -107.28652    1.9427031   -105.34382   -22727.122    4.3721911    4.3721911    4.3721911   -22727.122    -29332.44    6837.0332    -45685.96   -20704.838    25061.848   -33355.951    83.579044 
   17300    1715.0759   -106.87566    1.5518367   -105.32382   -26353.614    4.3921641    4.3921641    4.3921641   -26353.614    38654.589   -47915.421   -69800.008    8627.1173   -3406.2643    49111.011    84.729699 
   17400    2334.3298   -107.43044    2.1121506   -105.31829   -22801.883    4.3730461    4.3730461    4.3730461   -22801.883    -10560.15   -58376.923    531.42354    5222.4434    14042.635   -58237.174    83.628085 
   17500    2238.7567   -107.35125    2.0256741   -105.32557   -6168.3822    4.3504565    4.3504565    4.3504565   -6168.3822     4680.463    7409.8286   -30595.438   -7502.4861   -38990.225    39237.234    82.338791 
   17600    1564.0859   -106.76731    1.4152178   -105.35209    5621.2388    4.3506587    4.3506587    4.3506587    5621.2388    90995.005   -60176.373   -13954.915    3689.8731    17890.729   -54344.116    82.350275 
   17700    2697.9077   -107.79375    2.4411236   -105.35263    -23599.09    4.3726591    4.3726591    4.3726591    -23599.09   -17277.382   -37754.436   -15765.453   -14189.484   -45699.305   -8175.9646     83.60589 
   17800    1510.5757   -106.70868    1.3668007   -105.34188   -39755.462    4.3964352    4.3964352    4.3964352   -39755.462    12270.809   -73552.188   -57985.006     5110.206   -9778.1795   -21630.595    84.977125 
   17900    1877.6781   -107.01596    1.6989626     -105.317   -22077.264    4.3909028    4.3909028    4.3909028   -22077.264    43576.613   -82159.985   -27648.418    2495.2269    5508.4249   -34613.344    84.656727 
   18000    2859.1155   -107.88023    2.5869878   -105.29325    34447.514    4.3578689    4.3578689    4.3578689    34447.514    41020.222    8232.3065    54090.014   -16393.363   -95.741115    4397.9849     82.76038 
   18100    1410.5501   -106.62652    1.2762954   -105.35022   -12913.019    4.3551593    4.3551593    4.3551593   -12913.019    89641.047   -76205.336   -52174.768    9974.5864   -2698.4138   -17099.173    82.606104 
   18200    2026.0738    -107.1942    1.8332341   -105.36096   -6659.4579    4.3736196    4.3736196    4.3736196   -6659.4579   -37471.823    1845.8241    15647.625   -4272.0394    32907.833    23129.988    83.660994 
   18300    2396.7894   -107.51791    2.1686654   -105.34924    10678.338    4.3837701    4.3837701    4.3837701    10678.338   -11808.364    27468.375    16375.004   -24570.684    -10686.08   -17621.572    84.244839 
   18400    1671.7453   -106.86027    1.5126302   -105.34764   -25392.923    4.3797414    4.3797414    4.3797414   -25392.923   -37594.009   -6746.3989   -31838.362    30799.165   -2610.6387     7673.141    84.012792 
   18500    1956.3586   -107.11399    1.7701544   -105.34384   -12724.362    4.3574665    4.3574665    4.3574665   -12724.362    -42133.95   -43547.585    47508.448   -38980.784    32272.523    38017.655    82.737459 
   18600    2793.1327   -107.87022    2.5272852   -105.34294    38194.251    4.3442527    4.3442527    4.3442527    38194.251    27903.577    63050.739    23628.438    13305.375   -24633.734   -14410.252    81.987048 
   18700    1001.4513    -106.3141   0.90613419   -105.40796   -5333.7733    4.3622687    4.3622687    4.3622687   -5333.7733   -9657.9321   -17886.378     11542.99    3927.6392    23885.327    15499.099    83.011306 
   18800    2057.3624   -107.24899    1.8615448   -105.38745   -13199.092    4.3807011    4.3807011    4.3807011   -13199.092    24310.324   -84494.261    20586.662   -38833.188   -4523.0366     10337.59    84.068026 
   18900    2615.4426    -107.7141    2.3665075   -105.34759   -23614.919    4.3886231    4.3886231    4.3886231   -23614.919   -36182.481   -72278.897     37616.62    24022.775   -3662.9554   -76.842839    84.524934 
   19000    1646.2363    -106.8414    1.4895492   -105.35185   -33901.537    4.3697365    4.3697365    4.3697365   -33901.537   -28689.704   -66036.599   -6978.3088   -12152.035    31666.189    35191.373    83.438357 
   19100    1868.2603   -107.04696    1.6904412   -105.35652    16376.476    4.3421661    4.3421661    4.3421661    16376.476    51527.226   -84761.235    82363.438   -8124.4701   -2795.3304   -32673.202    81.868967 
   19200    2979.8884   -108.05134    2.6962657   -105.35508    21495.103     4.346394     4.346394     4.346394    21495.103   -2819.6153   -22215.339    89520.262   -2109.9093   -15002.152    7215.9112    82.108343 
   19300    1320.3089   -106.59585    1.1946432   -105.40121   -25659.168    4.3654651    4.3654651    4.3654651   -25659.168   -20348.256   -93975.234    37345.987   -31639.231    15686.035   -27506.061    83.193913 
   19400    1963.1905   -107.16917     1.776336   -105.39284   -36417.747    4.3765064    4.3765064    4.3765064   -36417.747    8568.4149   -89634.988   -28186.668    17603.159   -2199.3726   -37890.878    83.826765 
   19500    2542.3971   -107.66193    2.3004143   -105.36152    -3391.991    4.3714955    4.3714955    4.3714955    -3391.991   -54333.553   -21491.668    65649.249   -5962.1352    -2774.759   -12192.968    83.539158 
   19600    1355.7903   -106.58414    1.2267475   -105.35739     3341.014    4.3719489    4.3719489    4.3719489     3341.014     34943.07   -42768.509    17848.481   -5430.8671    2104.8735   -37368.741    83.565157 
   19700    1744.6915   -106.93096    1.5786335   -105.35233     4094.044    4.3688218    4.3688218    4.3688218     4094.044    12948.912   -28961.259    28294.478    33800.565   -19783.006    25206.706     83.38597 
   19800    2536.4907   -107.62725    2.2950701   -105.33218    13560.806    4.3716807    4.3716807    4.3716807    13560.806    102355.12   -37105.419   -24567.282   -934.22808   -1968.1618   -26709.916     83.54978 
   19900    1402.6894   -106.62557    1.2691829   -105.35639    12046.567    4.3658986    4.3658986    4.3658986    12046.567    83609.818    -55781.79    8311.6721    30477.095   -8951.1338    28374.996    83.218704 
   20000    1990.3215   -107.15766    1.8008847   -105.35678    4404.8847    4.3690768    4.3690768    4.3690768    4404.8847   -5246.0474   -41591.808     60052.51    18218.386   -53481.314   -8923.2929    83.400573 
   20100     2937.419   -108.00473    2.6578385   -105.34689    27439.401    4.3686674    4.3686674    4.3686674    27439.401    58362.441   -4289.3471    28245.108   -2854.8065    21714.143    13515.555     83.37713 
   20200    1203.3556   -106.47606    1.0888214   -105.38724   -8238.2143    4.3616035    4.3616035    4.3616035   -8238.2143   -67560.748   -3354.6782    46200.783    50472.916   -34705.676    20489.902    82.973335 
   20300    2324.0286    -107.4678    2.1028299   -105.36497    -291.7955    4.3679695    4.3679695    4.3679695    -291.7955    61802.981   -44436.972   -18241.395   -7793.1353   -7259.1173   -41573.408     83.33718 
   20400    2199.5038   -107.34357    1.9901573   -105.35341   -1076.2322    4.3775598    4.3775598    4.3775598   -1076.2322    48169.303   -46219.618   -5178.3814    34849.736    18859.967    14765.499    83.887311 
   20500    1027.7559   -106.29357   0.92993511   -105.36364   -15797.502    4.3861286    4.3861286    4.3861286   -15797.502    4442.8298    -20478.65   -31356.685    26966.085   -37702.462   -34813.749    84.380888 
   20600    2387.1141   -107.47416     2.159911   -105.31425    27063.319    4.3753201    4.3753201    4.3753201    27063.319    68649.619    11063.436    1476.9016    19453.113    6819.6444   -12597.125    83.758619 
   20700    1916.0947   -107.06416    1.7337228   -105.33043   -608.47764    4.3736578    4.3736578    4.3736578   -608.47764    14811.486    10356.804   -26993.723    36275.688   -24293.068   -10523.962    83.663185 
   20800    1717.0885   -106.89423    1.5536578   -105.34058   -33873.173    4.3776461    4.3776461    4.3776461   -33873.173    33386.494   -44229.389   -90776.623   -2446.4669   -21344.788   -42506.494     83.89227 
   20900    2594.1215   -107.64612    2.3472157   -105.29891    35361.766    4.3714665    4.3714665    4.3714665    35361.766     34904.63    57935.777    13244.891    24751.685   -2174.2173    35213.861      83.5375 
   21000    1452.9236   -106.63023    1.3146358    -105.3156   -33295.518     4.395144     4.395144     4.395144   -33295.518    33091.595   -45693.426   -87284.723     12167.66   -27899.131   -66089.002    84.902273 
   21100    2537.0208   -107.57244    2.2955497   -105.27689   -28409.765    4.3909246    4.3909246    4.3909246   -28409.765   -2827.2549   -28313.188   -54088.852   -9568.3219    590.82148    51848.573    84.657988 
   21200    1651.5319   -106.77814    1.4943407    -105.2838    30051.776    4.3484853    4.3484853    4.3484853    30051.776    38609.414    36377.023    15168.891    3797.4253   -13894.792   -49095.742    82.226917 
   21300    2124.9753    -107.2387    1.9227223   -105.31598    4204.0233    4.3413695    4.3413695    4.3413695    4204.0233    25884.284    30784.219   -44056.433    3947.4414   -36840.571    1123.5195    81.823912 
   21400    2801.4652   -107.88053    2.5348246    -105.3457    1111.2752    4.3533384    4.3533384    4.3533384    1111.2752   -8705.0295     33508.93   -21470.075   -2580.2837    32482.869    14472.309    82.502531 
   21500    1268.7164   -106.54511    1.1479613   -105.39715    1979.1189    4.3712581    4.3712581    4.3712581    1979.1189   -5662.1848    34742.306   -23142.764     8604.209   -33096.059   -39550.338    83.525553 
   21600    2412.9509    -107.5092    2.1832887   -105.32591   -32886.387    4.3999024    4.3999024    4.3999024   -32886.387   -38128.707    15622.006   -76152.459   -13125.285   -2996.0744    12881.993    85.178331 
   21700    1409.8288   -106.57855    1.2756427    -105.3029   -48637.757    4.3838956    4.3838956    4.3838956   -48637.757   -23248.614   -59532.858   -63131.798    2778.5566    26582.947   -67571.022    84.252077 
   21800    3091.0118   -108.06999    2.7968124   -105.27317    11774.492    4.3424136    4.3424136    4.3424136    11774.492   -20088.835    6579.2874    48833.023   -3135.4022   -17227.144    21365.261    81.882963 
   21900    1163.1363   -106.39217    1.0524302   -105.33974     23335.07    4.3302153    4.3302153    4.3302153     23335.07    94194.308    10349.411    -34538.51     3688.168    41969.857   -46226.216    81.194848 
   22000    1972.2601   -107.17329    1.7845424   -105.38875    6564.2927    4.3576498    4.3576498    4.3576498    6564.2927     16974.93   -15766.101    18484.049    665.24344   -6437.8149   -29201.783    82.747899 
   22100    2354.2496   -107.47495    2.1301745   -105.34477   -52124.617    4.3947464    4.3947464    4.3947464   -52124.617    -80606.46   -31982.531   -43784.858   -3405.0458    5518.4392   -7064.4263    84.879235 
   22200    1531.5238    -106.6968    1.3857549   -105.31104    -19313.66    4.3875699    4.3875699    4.3875699    -19313.66    217.61904   -49309.253   -8849.3479     2180.466    33018.852   -45482.052    84.464096 
   22300    2885.5058   -107.90096    2.6108663   -105.29009     4654.636    4.3529001    4.3529001    4.3529001     4654.636   -21379.382    32008.541    3334.7492    2597.7287   -55273.286    22978.269    82.477614 
   22400    1188.7955    -106.4158    1.0756472   -105.34015    7495.6052     4.325978     4.325978     4.325978    7495.6052    18422.548    22285.279   -18221.011    3832.8502    28776.055   -71995.987    80.956724 
   22500    2366.6951   -107.51698    2.1414355   -105.37554     48414.91    4.3288914    4.3288914    4.3288914     48414.91    16961.532    54399.637    73883.561    26354.284    7681.6935   -8237.5077    81.120398 
   22600    2231.3481   -107.40634    2.0189707   -105.38737   -31667.223    4.3688265    4.3688265    4.3688265   -31667.223   -1167.4957   -33629.684    -60204.49   -6883.3164   -25188.552   -36170.821    83.386241 
   22700    1254.5374   -106.52506    1.1351318   -105.38993   -33238.055    4.3704575    4.3704575    4.3704575   -33238.055   -41755.735     1402.387   -59360.817    11291.583    57265.715   -43701.877    83.479668 
   22800    2447.7637   -107.57513     2.214788   -105.36034    13927.582    4.3517997    4.3517997    4.3517997    13927.582        20380    24438.363    -3035.617     37286.77   -7196.4993    28908.821    82.415082 
   22900    1664.7457   -106.86992    1.5062969   -105.36362    35248.619    4.3456826    4.3456826    4.3456826    35248.619    59494.623    61861.776   -15610.541    3091.2918    19836.061   -71343.337     82.06803 
   23000    1918.6018   -107.09814    1.7359912   -105.36215    4341.3348    4.3578096    4.3578096    4.3578096    4341.3348     80328.88   -36488.992   -30815.884    40389.703    26866.792    19218.355    82.757005 
   23100     1964.414   -107.13322    1.7774431   -105.35578   -10580.399    4.3712684    4.3712684    4.3712684   -10580.399    53204.698   -53713.477   -31232.418    28639.572   -17160.581   -24043.696    83.526142 
   23200    1881.1352   -107.02483    1.7020907   -105.32274    34780.701    4.3660068    4.3660068    4.3660068    34780.701    46147.139    18779.478    39415.486    5233.7693    33071.535   -16375.803    83.224887 
   23300    1973.2424   -107.11336    1.7854312   -105.32793   -5913.2296    4.3645572    4.3645572    4.3645572   -5913.2296    2728.9628   -53838.968    33370.317    57243.562   -3786.4714    6079.6728    83.142019 
   23400    2549.7604   -107.63248    2.3070768    -105.3254    10947.536    4.3566357    4.3566357    4.3566357    10947.536    30667.457   -17589.897    19765.047   -15564.165    15723.734   -29877.981     82.69014 
   23500    1717.0499   -106.89502    1.5536229    -105.3414    19555.477    4.3572658    4.3572658    4.3572658    19555.477    17512.882   -23945.268    65098.818    50361.752    22902.146     11673.48    82.726026 
   23600    1871.5853    -107.0226    1.6934497   -105.32915   -29764.021    4.3792175    4.3792175    4.3792175   -29764.021    27663.729   -29289.594   -87666.197   -12408.793   -20369.867   -49166.107    83.982642 
   23700    1976.4561   -107.09896     1.788339   -105.31062   -32388.198    4.3740524    4.3740524    4.3740524   -32388.198    -65141.94   -33317.067    1294.4139    82329.753     5203.549    1079.5767    83.685832 
   23800    2385.3892   -107.46309    2.1583503   -105.30474    -3295.243    4.3536677    4.3536677    4.3536677    -3295.243   -6068.6787   -871.26737   -2945.7831    22553.946   -23617.074   -6293.7411    82.521259 
   23900    1251.3715   -106.46724    1.1322672   -105.33497   -20092.314     4.349823     4.349823     4.349823   -20092.314    9566.2044   -19750.564   -50092.583    44820.921   -14347.403    -45272.16    82.302829 
   24000    2366.8693   -107.50526    2.1415931   -105.36367   -21694.796    4.3541967    4.3541967    4.3541967   -21694.796   -32128.168   -54084.325    21128.105    71344.557   -838.47735    20220.866    82.551339 
   24100    2205.1181   -107.36529    1.9952372   -105.37006    4351.4052    4.3680862    4.3680862    4.3680862    4351.4052    19725.014    3434.2011       -10105   -3926.8336    -2010.334   -25873.811    83.343857 
   24200    1472.7355   -106.67632     1.332562   -105.34375   -15715.952    4.3782344    4.3782344    4.3782344   -15715.952   -22171.429   -16218.616    -8757.811    84643.886   -15809.223   -5073.8156    83.926095 
   24300     2360.272   -107.44402    2.1356237    -105.3084    21592.958    4.3758256    4.3758256    4.3758256    21592.958    58759.584   -3266.4851     9285.776   -19841.733     23239.04   -5004.1518    83.787648 
   24400    1575.7353   -106.75138    1.4257584   -105.32562   -31114.219    4.3584089    4.3584089    4.3584089   -31114.219   -62001.161   -93226.198    61884.701    102591.52   -19942.212   -20932.408    82.791153 
   24500    2550.7177   -107.62161     2.307943   -105.31367    44562.869    4.3483192    4.3483192    4.3483192    44562.869    56851.604    61226.645    15610.358   -40777.288    8698.2775    9994.5904    82.217496 
   24600    779.11056   -106.07363   0.70495561   -105.36867   -31125.277    4.3645332    4.3645332    4.3645332   -31125.277   -114475.05    -74650.35    95749.574     109996.5     12819.93    1206.6737    83.140647 
   24700    3265.6981   -108.26739    2.9548722   -105.31252    914.10684     4.374446     4.374446     4.374446    914.10684   -27307.597    20651.081    9398.8362   -25298.864   -11209.356    -3556.232    83.708426 
   24800    1448.8034   -106.62517    1.3109077   -105.31426   -64303.816     4.395836     4.395836     4.395836   -64303.816   -120046.39    -61062.73   -11802.329    82579.916    25156.039     3806.956    84.942384 
   24900    2838.1994   -107.82631    2.5680624   -105.25825   -24231.059    4.3860561    4.3860561    4.3860561   -24231.059   -20971.011   -25268.147   -26454.018   -38072.929   -11589.488    9461.7945    84.376704 
   25000    1673.8677   -106.77925    1.5145507    -105.2647   -7706.2914    4.3597987    4.3597987    4.3597987   -7706.2914   -43089.412    4443.9236    15526.615    59943.553   -27337.966    143.71015    82.870379 
   25100    1916.1314   -107.02791    1.7337559   -105.29415    8458.4635    4.3496503    4.3496503    4.3496503    8458.4635    14315.714   -3969.9403    15029.617    12613.829    50850.377   -26974.518    82.293027 
   25200    2111.8891   -107.23863    1.9108817   -105.32775    321.29211    4.3498189    4.3498189    4.3498189    321.29211   -29704.863   -24774.294    55443.033      26511.1   -23533.461     9597.455    82.302596 
   25300    1479.6233   -106.71227    1.3387943   -105.37347   -8222.9597    4.3596446    4.3596446    4.3596446   -8222.9597   -51509.912   -31662.908    58503.941    49933.938   -17897.578   -4027.6284    82.861589 
   25400    2904.7185    -107.9813    2.6282503   -105.35305    -26598.07    4.3669142    4.3669142    4.3669142    -26598.07   -43368.475   -34278.072   -2147.6631    16767.406    17972.463    2274.5957    83.276791 
   25500    1104.5913   -106.36272   0.99945744   -105.36327   -1253.9256    4.3612478    4.3612478    4.3612478   -1253.9256   -83465.996   -17728.447    97432.667     51463.29    -63916.53    17238.598    82.953039 
   25600    2810.5456   -107.87632    2.5430407   -105.33328    23056.927    4.3540006    4.3540006    4.3540006    23056.927    4671.9884    12742.367    51756.426   -16960.125   -4252.3581     11890.43    82.540189 
   25700    1626.7463   -106.82072    1.4719142    -105.3488    14028.212    4.3563819    4.3563819    4.3563819    14028.212   -32689.264    20348.906    54424.994    69608.772   -27860.962    1369.1364     82.67569 
   25800    2572.4241   -107.66796    2.3275833   -105.34038   -25883.972    4.3702844    4.3702844    4.3702844   -25883.972    -56187.29     9437.269   -30901.896   -32122.089   -43500.936    5180.3823    83.469748 
   25900    1984.7891   -107.12264    1.7958789   -105.32676   -9674.1363    4.3782496    4.3782496    4.3782496   -9674.1363   -2715.7831   -54090.778    27784.152    40111.158     31642.23   -8487.0062    83.926969 
   26000    1664.2896   -106.84259    1.5058842    -105.3367    -26139.99    4.3682318    4.3682318    4.3682318    -26139.99    -67123.62    38776.483   -50072.833    8968.7832   -117439.56    10615.759     83.35219 
   26100    3243.1275    -108.2467    2.9344499   -105.31225   -6783.7179    4.3548117    4.3548117    4.3548117   -6783.7179    6648.4643   -25230.756   -1768.8621   -8511.6594    44511.845    -10387.12    82.586327 
   26200    1107.1207   -106.35993    1.0017461   -105.35819    -13619.33    4.3535498    4.3535498    4.3535498    -13619.33   -62944.684    24296.031   -2209.3374    29679.589    -76246.82   -11977.015    82.514552 
   26300    2043.4027   -107.22379    1.8489137   -105.37488    6280.7076    4.3566049    4.3566049    4.3566049    6280.7076   -7665.6403    6770.8368    19736.926   -13146.713   -31650.094   -959.27181    82.688385 
   26400    2131.0618   -107.29819    1.9282295   -105.36996   -2290.5825    4.3703185    4.3703185    4.3703185   -2290.5825   -31351.594    4434.8513    20044.996   -9841.9699   -27006.385   -1736.5627    83.471702 
   26500     1493.766   -106.71096    1.3515908   -105.35937    -26842.26    4.3730596    4.3730596    4.3730596    -26842.26   -56263.295    14862.907   -39126.391     14493.89   -68867.614    3009.9928    83.628863 
   26600    2341.6995   -107.43818    2.1188189   -105.31937    12182.381    4.3586318    4.3586318    4.3586318    12182.381    16754.895   -6555.5878    26347.834   -25089.492    5591.1295     -17863.5    82.803853 
   26700     1953.812   -107.09572    1.7678502   -105.32787    4746.3564    4.3521993    4.3521993    4.3521993    4746.3564   -10599.323    84128.183    -59289.79     8139.659   -91920.151    21888.868    82.437789 
   26800    2008.9919   -107.13946    1.8177781   -105.32168    17945.115    4.3599033    4.3599033    4.3599033    17945.115    16269.373     4564.084    33001.888   -7793.5553    25468.535   -12214.077    82.876344 
   26900    1590.1962   -106.78084     1.438843     -105.342   -3032.0037    4.3720764    4.3720764    4.3720764   -3032.0037   -3153.1098    6699.8093   -12642.711   -23658.954   -52056.077   -7171.8659    83.572467 
   27000    2175.3468   -107.28541    1.9682995   -105.31711    14122.889    4.3738772    4.3738772    4.3738772    14122.889    8128.5312    36085.722   -1845.5858    34784.689    18966.629    18696.926    83.675777 
   27100    1474.3648   -106.65918    1.3340362   -105.32515    -8423.338    4.3706374    4.3706374    4.3706374    -8423.338   -44414.809    10471.203    8673.5922   -32130.275   -31262.447    323.65449    83.489977 
   27200    2718.6191   -107.75919    2.4598637   -105.29932   -14540.249    4.3767238    4.3767238    4.3767238   -14540.249    17552.043   -11361.502   -49811.288    20401.116    5365.6988    18573.696    83.839256 
   27300    1430.1529   -106.60867    1.2940324   -105.31464   -17355.117    4.3768969    4.3768969    4.3768969   -17355.117    -64350.57   -2434.2701     14719.49   -108.35945   -6089.3298    10221.637    83.849204 
   27400    2851.6777   -107.88302    2.5802579   -105.30277   -13450.686    4.3695638    4.3695638    4.3695638   -13450.686   -10575.373   -3843.4149   -25933.271   -28920.587    3715.4686     5915.431    83.428464 
   27500    1877.7499   -107.04073    1.6990276    -105.3417   -37249.295    4.3638181    4.3638181    4.3638181   -37249.295   -52021.714   -6113.0735   -53613.097    10451.748    51700.587    27676.938    83.099786 
   27600    2261.6841   -107.38991    2.0464193    -105.3435   -8034.9276     4.358887     4.358887     4.358887   -8034.9276   -15486.085   -39048.921    30430.223   -20944.859   -20685.931   -6775.3803    82.818402 
   27700    1906.4301   -107.08015     1.724978   -105.35517   -24390.842    4.3648028    4.3648028    4.3648028   -24390.842   -48321.753    31774.116   -56624.888   -4280.3249    70536.018   -13528.263    83.156053 
   27800    2347.4068   -107.46657     2.123983   -105.34259    15121.344    4.3582721    4.3582721    4.3582721    15121.344    17402.923   -6021.9419    33983.052    37924.142   -28088.837    2260.3509    82.783356 
   27900    1676.9786   -106.86523    1.5173655   -105.34787    24378.552    4.3587297    4.3587297    4.3587297    24378.552   -689.97321    47916.555    25909.075   -26160.154    40345.959    -4853.773    82.809431 
   28000    2072.1141   -107.20207    1.8748924   -105.32717    -28383.35    4.3759421    4.3759421    4.3759421    -28383.35   -30861.297   -33903.129   -20385.623    50309.946    10215.287   -3494.2621    83.794343 
   28100    2129.6097   -107.23521    1.9269156   -105.30829   -11473.653    4.3711797    4.3711797    4.3711797   -11473.653   -52877.931    43733.987   -25277.016    27237.929    5391.8243   -5461.9359    83.521054 
   28200    1719.7664   -106.87427    1.5560808   -105.31819    1133.3952    4.3530247    4.3530247    4.3530247    1133.3952   -35624.186     51326.65   -12302.279   -8820.2417    42761.156   -3130.9345    82.484697 
   28300    2582.6162   -107.65687    2.3368054   -105.32006    24188.978    4.3439189    4.3439189    4.3439189    24188.978    6881.6827    43779.205    21906.045    46954.339    -19942.42   -715.91073     81.96815 
   28400    1512.5241   -106.73089    1.3685636   -105.36233    19905.497    4.3558356    4.3558356    4.3558356    19905.497   -4694.9684    102803.15   -38391.693   -4833.9307    40341.137   -13429.177    82.644592 
   28500    2271.4947   -107.40392    2.0552961   -105.34862   -31772.808    4.3725664    4.3725664    4.3725664   -31772.808   -51604.808   -61049.192    17335.575    8502.7167   -21369.431    6516.5869    83.600568 
   28600     1687.473   -106.86187    1.5268611   -105.33501   -25742.033    4.3712745    4.3712745    4.3712745   -25742.033   -27266.062   -17497.953   -32462.084    17099.822    36516.393    12009.106    83.526494 
   28700    2326.7875   -107.42833    2.1053263   -105.32301    1968.5808    4.3568318    4.3568318    4.3568318    1968.5808    -41861.86    49937.641   -2170.0389   -17727.179    19134.614    4037.0977    82.701307 
   28800     1740.898   -106.91227    1.5752011   -105.33707   -16506.619    4.3420378    4.3420378    4.3420378   -16506.619   -12616.389   -36287.653   -615.81396    1896.2595   -625.55637   -519.69105    81.861709 
   28900    2174.7945   -107.32029    1.9677997   -105.35249    12552.688    4.3442095    4.3442095    4.3442095    12552.688   -26965.492    79125.328   -14501.774    11991.708    38963.731    10573.488    81.984601 
   29000    1704.9086   -106.91528    1.5426372   -105.37264   -26610.933    4.3623529    4.3623529    4.3623529   -26610.933   -37865.024   -57379.766     15411.99   -52884.742   -18313.342   -5069.8879    83.016114 
   29100    1729.4433   -106.93183    1.5648366   -105.36699   -8336.1067    4.3648515    4.3648515    4.3648515   -8336.1067   -74882.749     67905.52   -18031.091    25939.781    35341.664   -5130.8427    83.158841 
   29200    2492.1356   -107.60343    2.2549367   -105.34849    35941.355     4.349682     4.349682     4.349682    35941.355    24646.449    31003.069    52174.548   -40580.712   -20213.115    14190.347    82.294826 
   29300    1443.8756   -106.67738     1.306449   -105.37093   -16797.616    4.3571641    4.3571641    4.3571641   -16797.616   -45993.873    -8295.149    3896.1738   -8878.6392    5246.6732   -24290.646    82.720235 
   29400    2801.0751   -107.85957    2.5344716    -105.3251    32007.141    4.3589618    4.3589618    4.3589618    32007.141    34170.363     16493.88    45357.178   -3064.7054    3626.4973    37318.536    82.822664 
   29500    1203.7302    -106.4391    1.0891604   -105.34994    25661.724    4.3611786    4.3611786    4.3611786    25661.724    56937.956    26348.144   -6300.9282    -33211.91   -20546.952   -5513.3425    82.949086 
   29600    2670.0884   -107.71784    2.4159521   -105.30188   -1767.0403    4.3726996    4.3726996    4.3726996   -1767.0403    1685.8528   -4073.9761   -2912.9976    2892.7279     34787.31    9654.8366    83.608209 
   29700    1517.5334   -106.69594    1.3730961   -105.32285    1338.7639    4.3599672    4.3599672    4.3599672    1338.7639   -31607.339    47183.305   -11559.675   -14626.029   -18222.388    32615.177    82.879984 
   29800     2703.238   -107.75738    2.4459466   -105.31144   -20266.037    4.3677483    4.3677483    4.3677483   -20266.037   -16394.232   -20674.637   -23729.241   -30356.996    2049.0824   -8290.2558    83.324517 
   29900    1402.4803   -106.59472    1.2689936   -105.32573   -12547.098    4.3694668    4.3694668    4.3694668   -12547.098    10241.942    14847.992   -62731.228    8012.5129    46903.945    42789.869    83.422909 
   30000    2526.7563   -107.59662    2.2862622   -105.31036     12308.59    4.3563954    4.3563954    4.3563954     12308.59   -15128.721   -16521.805    68576.296   -51940.296    -23360.03    227.45997    82.676459 
   30100    1648.6564    -106.8279     1.491739   -105.33616   -9899.4587     4.355343     4.355343     4.355343   -9899.4587    29451.224   -49310.255   -9839.3457    28526.065    15457.643    37498.062    82.616559 
   30200    2159.7843    -107.3015    1.9542182   -105.34728   -8357.4691    4.3567161    4.3567161    4.3567161   -8357.4691   -9579.3281   -44506.553    29013.473   -35285.606    23195.271    7146.4172    82.694721 
   30300    2065.7109   -107.21242    1.8690986   -105.34333    7775.2353    4.3642906    4.3642906    4.3642906    7775.2353    46173.724   -57315.489     34467.47    10055.768   -14028.267    22011.995    83.126787 
   30400    1349.0133   -106.57115    1.2206155   -105.35053   -20010.025    4.3728303    4.3728303    4.3728303   -20010.025    54467.817   -72052.886   -42445.007    30044.299    17357.822    31250.228    83.615706 
   30500     2606.327   -107.66248    2.3582594   -105.30423     10937.47    4.3726185    4.3726185    4.3726185     10937.47   -22147.753   -1074.7882    56034.953   -11482.372   -7665.4189   -1022.7125     83.60356 
   30600     1403.053   -106.59127    1.2695118   -105.32176    6310.0027    4.3611907    4.3611907    4.3611907    6310.0027    71395.464   -64380.321    11914.865    29409.638    21296.459      38303.6    82.949777 
   30700    2798.9983   -107.83012    2.5325925   -105.29752   -5590.6346    4.3666539    4.3666539    4.3666539   -5590.6346   -24999.956     -31317.2    39545.252   -31047.255   -3256.4027   -20520.604    83.261896 
   30800    1594.2789   -106.77307    1.4425371   -105.33053   -22814.894    4.3537758    4.3537758    4.3537758   -22814.894     1796.996   -18469.758   -51771.921   -8093.5779    -21666.12    39016.676    82.527403 
   30900    2448.5432   -107.54017    2.2154934   -105.32468    58778.382    4.3380862    4.3380862    4.3380862    58778.382    92521.551   -14072.162    97885.756   -5327.5181    11014.625    4953.4588    81.638408 
   31000    1516.1932    -106.7449    1.3718834   -105.37301   -18653.185    4.3642622    4.3642622    4.3642622   -18653.185   -32576.934    -26313.76    2931.1385   -48279.035    -9202.634    19486.722     83.12516 
   31100    2132.9976    -107.2755    1.9299811   -105.34552    754.13797    4.3725949    4.3725949    4.3725949    754.13797    42945.185   -29178.126   -11504.645    25475.916   -17476.228    34416.397    83.602208 
   31200    2131.5898   -107.26809    1.9287073   -105.33939    13432.902    4.3606269    4.3606269    4.3606269    13432.902     6647.774   -76803.688    110454.62   -74644.362    11187.452   -9978.0588    82.917614 
   31300    1833.4792   -107.01027    1.6589705    -105.3513   -16681.326    4.3516237    4.3516237    4.3516237   -16681.326    6573.3948   -5399.0485   -51218.325    21717.701   -28793.379    36514.415    82.405086 
   31400    2076.4092   -107.24032    1.8787787   -105.36155     18596.84    4.3485138    4.3485138    4.3485138     18596.84   -5221.0796   -7377.9575    68389.559   -26470.405    7238.1827    3322.7374    82.228534 
   31500    1642.5837   -106.85828    1.4862442   -105.37203   -3863.5933    4.3592444    4.3592444    4.3592444   -3863.5933    35397.798    -42847.02   -4141.5575   -4118.9103   -10598.526    -17621.21     82.83877 
   31600     1805.518   -106.99713    1.6336706   -105.36346   -30709.386    4.3766974    4.3766974    4.3766974   -30709.386   -7585.3698   -56960.343   -27582.446    25308.966   -6430.1051    30194.991    83.837741 
   31700    2847.8483    -107.8933     2.576793    -105.3165    -32550.79    4.3851357    4.3851357    4.3851357    -32550.79    450.43734   -53747.829   -44354.977   -20786.712   -1234.5648   -21286.343    84.323595 
   31800    1190.1809   -106.42556    1.0769007   -105.34866   -5513.2143    4.3499115    4.3499115    4.3499115   -5513.2143    63246.194   -21844.934   -57940.903    24571.878   -24489.792    20782.517    82.307849 
   31900    2839.9199    -107.8579    2.5696192   -105.28828     60763.22    4.3264197    4.3264197    4.3264197     60763.22    75665.892     30248.52    76375.249   -4328.0855    8984.8086   -12669.899    80.981523 
   32000    931.80501   -106.19062   0.84311676    -105.3475   -52843.189    4.3553455    4.3553455    4.3553455   -52843.189   -9851.7973   -71637.623   -77040.147   -34042.306   -12017.386     6864.787    82.616698 
   32100    3159.5003   -108.16867    2.8587823   -105.30988   -4766.9273    4.3675322    4.3675322    4.3675322   -4766.9273    20861.611   -35858.438      696.045    13956.812   -18995.574    17389.928     83.31215 
   32200    1065.0115   -106.30405   0.96364481    -105.3404   -72802.029     4.386423     4.386423     4.386423   -72802.029   -34032.279   -87905.091   -96468.718   -34306.274    32380.012   -25892.954    84.397878 
   32300    2667.6859   -107.75039    2.4137782   -105.33661   -14842.308    4.3528207    4.3528207    4.3528207   -14842.308   -20398.731   -38841.936    14713.744    19049.372   -19467.306     6491.414    82.473104 
   32400    1752.8852   -106.91797    1.5860474   -105.33192     27719.78    4.3100752    4.3100752    4.3100752     27719.78    43659.739   -6484.2483    45983.851    64146.597    27821.668   -18696.879    80.067181 
   32500    2000.5196   -107.15925    1.8101122   -105.34914    26403.523    4.3207111    4.3207111    4.3207111    26403.523    86223.718   -15239.363    8226.2128   -10639.571    14591.035   -7546.0355    80.661387 
   32600    1789.0258   -107.00649    1.6187481   -105.38775   -29139.733    4.3551127    4.3551127    4.3551127   -29139.733   -39551.831   -92476.823    44609.455    112613.28    8438.1054    9058.3881    82.603453 
   32700    2722.8299     -107.803    2.4636737   -105.33933   -9601.6886    4.3825046    4.3825046    4.3825046   -9601.6886    57140.265   -26637.299   -59308.033   -26583.996    14377.572   -7488.6593    84.171903 
   32800     1206.684   -106.42775     1.091833   -105.33592   -41828.587    4.3715623    4.3715623    4.3715623   -41828.587   -17110.118    -107573.3   -802.34011     114519.7    8690.6887   -3206.6913    83.542989 
   32900     3098.107   -108.09933    2.8032324    -105.2961    40376.113    4.3340017    4.3340017    4.3340017    40376.113    63617.982    36328.951    21181.405   -54245.738   -7804.7407    22233.529    81.408025 
   33000    848.55876   -106.11663    0.7677938   -105.34883    10309.363      4.32274      4.32274      4.32274    10309.363   -17088.536    -14381.83    62398.456    90532.896    40396.661   -14538.972    80.775071 
   33100    2680.4553   -107.79609    2.4253323   -105.37076   -4570.3774     4.342181     4.342181     4.342181   -4570.3774   -34388.438    33961.218   -13283.912    6536.7345   -9445.2243   -3239.7876     81.86981 
   33200    1972.6026   -107.16202    1.7848523   -105.37717    -26071.27    4.3667283    4.3667283    4.3667283    -26071.27   -23962.283   -48669.614   -5581.9127    27894.518    3567.6545    8698.1671    83.266155 
   33300    1703.1588   -106.90589    1.5410539   -105.36483   -13149.081    4.3656874    4.3656874    4.3656874   -13149.081   -37039.211   -25689.936    23281.904    49149.077    27602.356   -9981.5154    83.206622 
   33400    2241.2246   -107.34673    2.0279071   -105.31882    32306.518    4.3518599    4.3518599    4.3518599    32306.518    24737.461    22433.386    49748.708    18205.494   -53883.965    4436.8866    82.418499 
   33500    1411.9749   -106.60892    1.2775845   -105.33133   -12703.524    4.3552685    4.3552685    4.3552685   -12703.524    -42749.33    1046.8273    3591.9318    81961.782    28018.926   -7847.0037    82.612315 
   33600    2695.1473   -107.74724    2.4386259   -105.30861   -6914.4051    4.3505866    4.3505866    4.3505866   -6914.4051    13017.381    7553.6028     -41314.2   -18590.663    4806.2226   -7549.5507    82.346179 
   33700    1083.7312   -106.32626   0.98058279   -105.34568   -2779.7771    4.3434029    4.3434029    4.3434029   -2779.7771   -80346.666     20604.28    51403.055    106048.22   -22593.093   -1085.5537    81.938941 
   33800    3119.2269   -108.14462    2.8223421   -105.32228     10423.89    4.3497337    4.3497337    4.3497337     10423.89   -12531.095    37949.692    5853.0738   -38726.117    13960.703    185.04713    82.297758 
   33900    883.15565   -106.16565   0.79909779   -105.36655   -3695.6909    4.3492787    4.3492787    4.3492787   -3695.6909   -93372.127    16293.516    65991.538    122786.07    -6180.258    4873.9861    82.271938 
   34000    2947.1849   -107.99689    2.6666748   -105.33022   -9144.6637    4.3532796    4.3532796    4.3532796   -9144.6637   -15242.514    7362.8122   -19554.289   -51095.679   -11962.472    2728.1314    82.499192 
   34100    1251.2849   -106.48043    1.1321888   -105.34824   -31238.158    4.3573776    4.3573776    4.3573776   -31238.158   -99230.295   -28979.216    34495.038    109290.71    18152.165    15340.096    82.732391 
   34200     3002.604   -108.03318    2.7168192   -105.31636   -12629.642    4.3579685    4.3579685    4.3579685   -12629.642    9551.5151    -22300.11   -25140.331    -15109.23   -10748.536   -12297.637    82.766058 
   34300    1184.7183   -106.39942     1.071958   -105.32746   -15538.855    4.3686511    4.3686511    4.3686511   -15538.855   -55822.123   -33161.981    42367.538    61707.602     5531.388     4000.883    83.376198 
   34400    2491.9821   -107.55743    2.2547978   -105.30263   -6926.1312    4.3653147    4.3653147    4.3653147   -6926.1312    10483.014   -16549.746   -14711.661    2341.2396    13966.904   -5610.9104    83.185314 
   34500    1541.3971   -106.71876    1.3946885   -105.32407    17682.966    4.3480946    4.3480946    4.3480946    17682.966    31716.562   -37204.805    58537.141    27092.465    2304.4889   -30475.597    82.204755 
   34600    2060.9325   -107.18187    1.8647751   -105.31709    16152.631    4.3449488    4.3449488    4.3449488    16152.631   -38730.197    27316.842    59871.249    4204.2335    18446.236    26773.292    82.026462 
   34700    1994.1751    -107.1356    1.8043716   -105.33123   -19323.744    4.3549254    4.3549254    4.3549254   -19323.744    18586.321   -29189.584   -47367.968   -4644.0006    15932.449   -32103.452    82.592793 
   34800    1248.0428   -106.49672    1.1292554   -105.36746    2909.7391    4.3615829    4.3615829    4.3615829    2909.7391   -3300.0166    2722.7881    9306.4458    51305.937    -15364.05   -16110.432    82.972162 
   34900    3252.0761   -108.28029    2.9425468   -105.33775    11745.346    4.3599916    4.3599916    4.3599916    11745.346    3840.5161    58896.276   -27500.753   -20449.237    4140.3637    20594.879     82.88138 
   35000    1212.0456   -106.47616    1.0966843   -105.37948   -6520.2628     4.346362     4.346362     4.346362   -6520.2628   -11529.746    4963.1567   -12994.199    67762.561   -4196.2177   -49664.634    82.106526 
   35100    2119.6298   -107.29302    1.9178856   -105.37513    28009.284    4.3437601    4.3437601    4.3437601    28009.284    53203.042    30284.741    540.06979    10580.973   -29154.522    16677.953    81.959158 
   35200    2469.3951   -107.59611    2.2343606   -105.36175     23111.73    4.3487344    4.3487344    4.3487344     23111.73    45581.486   -14531.776     38285.48    17778.894    7599.8153   -20024.966     82.24105 
   35300    1329.5784   -106.58707    1.2030305   -105.38404    13044.701    4.3546217    4.3546217    4.3546217    13044.701    21399.919    -10649.99    28384.172    51964.467   -8421.0001   -17646.043    82.575516 
   35400    3004.4222   -108.05298    2.7184644   -105.33452    12335.074    4.3602825    4.3602825    4.3602825    12335.074    46485.427    9748.4399   -19228.646   -12660.957    15266.011    10065.378     82.89797 
   35500    723.04565   -106.02252    0.6542269   -105.36829    -22586.36    4.3518552    4.3518552    4.3518552    -22586.36   -4405.4617     -75376.5    12022.881    64967.994    12440.401   -41122.316    82.418235 
   35600    3273.6443   -108.29578    2.9620622   -105.33371    23083.165     4.343419     4.343419     4.343419    23083.165    40404.402    7125.1698    21719.923   -11109.871    16056.416   -7187.8769    81.939852 
   35700    1516.8502   -106.74754     1.372478   -105.37506    20554.409    4.3428474    4.3428474    4.3428474    20554.409    21932.084   -28279.392    68010.535    59447.972    9840.2611    5480.5614    81.907508 
   35800    2528.8012   -107.63976    2.2881125   -105.35165   -3197.3326    4.3671752    4.3671752    4.3671752   -3197.3326   -23882.037   -12833.401     27123.44    9403.8509    17168.015   -30067.456    83.291724 
   35900    1600.3793   -106.77216    1.4480568   -105.32411   -33115.878    4.3804717    4.3804717    4.3804717   -33115.878   -70325.228   -76407.695    47385.288    30864.093   -19781.887    28828.392     84.05482 
   36000    2464.4116   -107.52875    2.2298514    -105.2989   -15752.316    4.3558271    4.3558271    4.3558271   -15752.316   -14423.249   -43637.917    10804.219    46740.682    25906.813   -9960.5308    82.644105 
   36100    2119.0175   -107.21988    1.9173316   -105.30255   -2173.8228    4.3340777    4.3340777    4.3340777   -2173.8228   -14027.495   -17339.707    24845.734   -15734.047   -41534.652    17357.405    81.412313 
   36200    1472.2371   -106.68264    1.3321111   -105.35053   -5429.6044    4.3358496    4.3358496    4.3358496   -5429.6044    6580.4869   -77540.989    54671.689    76764.314     1379.554    24563.779    81.512202 
   36300    2334.7948   -107.45626    2.1125714   -105.34369    12189.324    4.3623525    4.3623525    4.3623525    12189.324    49704.809   -11153.246   -1983.5924   -26635.185     873.5271   -1402.1811    83.016088 
   36400    1396.5951   -106.59056    1.2636686   -105.32689   -47058.742    4.3854381    4.3854381    4.3854381   -47058.742    -64462.67   -84777.613    8064.0572    49574.516   -37818.109    22121.444    84.341038 
   36500    2620.1944   -107.65698     2.370807   -105.28617   -2629.4249    4.3602419    4.3602419    4.3602419   -2629.4249    43787.582   -5830.0413   -45845.815   -4322.6143    40627.006   -29340.134     82.89565 
   36600    1712.0918   -106.84985    1.5491366   -105.30071   -8262.6469    4.3381703    4.3381703    4.3381703   -8262.6469   -52191.413    7441.1733    19962.299    21684.034    2345.1865    5727.0448    81.643157 
   36700    2155.3578   -107.26288     1.950213   -105.31266    41549.051    4.3306523    4.3306523    4.3306523    41549.051     111424.6    2422.2269    10800.325    21026.923    12834.611   -27663.339     81.21943 
   36800    1488.1117   -106.71181    1.3464747   -105.36534    3416.7532       4.3448       4.3448       4.3448    3416.7532    21152.304    25462.442   -36364.486   -8566.9214    61830.452   -7239.0511    82.018036 
   36900    2594.1388   -107.69331    2.3472313   -105.34608   -1589.5158    4.3648259    4.3648259    4.3648259   -1589.5158    34903.732   -56859.772    17187.492    16697.213   -24739.888   -9372.8144    83.157377 
   37000    1592.9893    -106.7969    1.4413702   -105.35553    -57493.94    4.3675873    4.3675873    4.3675873    -57493.94   -33748.618   -26428.628   -112304.57    12246.633    74518.494   -26155.723    83.315304 
   37100    2455.5693    -107.5499    2.2218507   -105.32805    9660.8739    4.3328193    4.3328193    4.3328193    9660.8739    8878.1398    275.90905    19828.573    -39048.77    18603.031    9544.2581    81.341418 
   37200    1670.6808   -106.85117    1.5116671    -105.3395   -3794.2125    4.3233081    4.3233081    4.3233081   -3794.2125    60961.987   -41549.281   -30795.343    18216.127   -315.55521   -32783.795     80.80692 
   37300    2340.3338   -107.45705    2.1175832   -105.33946        15038    4.3333175    4.3333175    4.3333175        15038    29128.952    24934.065    -8949.016   -26667.773    23666.274    26.834308    81.369478 
   37400     1455.734    -106.6895    1.3171787   -105.37232    20956.917    4.3435975    4.3435975    4.3435975    20956.917    58751.894   -12554.406    16673.265   -42488.513    6570.1655    3596.2039    81.949954 
   37500     2788.962   -107.85254    2.5235115   -105.32903   -18153.947    4.3741234    4.3741234    4.3741234   -18153.947   -35012.671    15750.981   -35200.151    7153.7616   -19199.511    -621.8424    83.689907 
   37600    1386.5626   -106.57246     1.254591   -105.31787    -22917.89    4.3650959    4.3650959    4.3650959    -22917.89   -23879.358   -44678.452   -195.85984   -71745.203    17235.199     7600.079    83.172809 
   37700    2348.2722   -107.41769     2.124766   -105.29292    34876.661    4.3340782    4.3340782    4.3340782    34876.661    32974.345    91315.597   -19659.958    19555.649   -43119.646    1810.8117    81.412336 
   37800    1875.4127   -107.00988    1.6969129   -105.31296    4325.5819    4.3271296    4.3271296    4.3271296    4325.5819   -33695.477   -30889.305    77561.528   -71943.005   -9621.6402   -9589.9783    81.021395 
   37900    1983.1297   -107.13678    1.7943774    -105.3424    17285.167    4.3394797    4.3394797    4.3394797    17285.167    24710.838    46882.404   -19737.742    6075.5972   -5102.7398    14522.659    81.717107 
   38000    2228.2807   -107.34911    2.0161952   -105.33292   -44236.252    4.3691609    4.3691609    4.3691609   -44236.252   -51850.586   -61425.958   -19432.211   -51617.498   -18836.414   -8690.9068    83.405391 
   38100     1412.215   -106.59644    1.2778018   -105.31864    -12490.57    4.3721452    4.3721452    4.3721452    -12490.57   -9764.6363   -15032.244   -12674.829   -30540.441    7539.3411   -4066.7477    83.576412 
   38200    2647.3697   -107.68857    2.3953958   -105.29318    1125.6431    4.3504496    4.3504496    4.3504496    1125.6431   -2975.0466    3810.2368    2541.7391   -25212.455    14195.078   -2665.6127    82.338403 
   38300    1814.8799   -106.94287    1.6421415   -105.30073    26281.442    4.3302276    4.3302276    4.3302276    26281.442    27387.717   -11604.031    63060.641   -55992.721   -7288.3466   -6128.8323    81.195538 
   38400    1825.7373   -106.96977    1.6519655   -105.31781    37367.141    4.3352536    4.3352536    4.3352536    37367.141   -17078.502     28132.63     101047.3   -6795.1732    22694.834    3666.9967    81.478591 
   38500    1987.7575   -107.12203    1.7985647   -105.32346   -5021.6991    4.3645814    4.3645814    4.3645814   -5021.6991    -39024.88   -23973.228     47933.01   -57235.869    6049.7717   -2036.6892      83.1434 
   38600    2585.8694   -107.63082     2.339749   -105.29107    3071.1254    4.3684375    4.3684375    4.3684375    3071.1254    -21049.52    44498.145   -14235.249   -10183.303   -11368.093    -13969.84    83.363969 
   38700    1236.4457   -106.44174     1.118762   -105.32298   -32649.427    4.3557226    4.3557226    4.3557226   -32649.427   -62903.367    -54088.74    19043.826   -82904.506     25975.28    3002.3005    82.638158 
   38800     2579.618    -107.6464    2.3340926    -105.3123    45668.559    4.3286607    4.3286607    4.3286607    45668.559    74227.658    47553.011    15225.008    14905.575   -20879.073   -3944.6991    81.107429 
   38900    1558.4837   -106.77191    1.4101488   -105.36177    1851.9921    4.3239196    4.3239196    4.3239196    1851.9921   -48962.807    11900.503    42618.281   -104794.44    12161.614    897.54773    80.841217 
   39000    2620.5628   -107.72284    2.3711403    -105.3517     9239.886    4.3417806    4.3417806    4.3417806     9239.886    56771.198    28218.009   -57269.549    39582.214    35551.164   -780.63381    81.847164 
   39100    1397.8435   -106.63351    1.2647981   -105.36871    254.91013    4.3471507    4.3471507    4.3471507    254.91013    -38640.66    27100.324    12305.067   -90664.549   -22992.883      -1744.6    82.151234 
   39200    2257.2732   -107.39525    2.0424282   -105.35282   -17622.496    4.3574905    4.3574905    4.3574905   -17622.496   -25746.088    26065.184   -53186.583    24989.854    48150.112    2511.3118    82.738823 
   39300    2019.8904   -107.18314    1.8276393    -105.3555   -21245.251    4.3418183    4.3418183    4.3418183   -21245.251   -44022.244   -24812.622    5099.1126   -45908.715     4281.947    9699.4096    81.849292 
   39400    1934.4167   -107.10203    1.7503009   -105.35173    35091.326      4.31984      4.31984      4.31984    35091.326    45183.082     32173.95    27916.944   -54992.645    6792.0129     7940.264    80.612608 
   39500    2129.5907   -107.28458    1.9268984   -105.35768   -9955.7927    4.3323814    4.3323814    4.3323814   -9955.7927   -32786.627   -20429.824    23349.073   -3485.6212    48637.627   -361.95169    81.316756 
   39600    1622.6846   -106.83153    1.4682391   -105.36329   -13633.379    4.3503817    4.3503817    4.3503817   -13633.379     4871.229   -87097.011    41325.645   -81329.015   -18824.028    6948.3057    82.334547 
   39700    2650.6258   -107.73857     2.398342   -105.34023   -11060.689    4.3482236    4.3482236    4.3482236   -11060.689   -4073.2781    7293.3084   -36402.098    14458.382    20479.562     3139.508    82.212073 
   39800    1298.3629   -106.53444     1.174786   -105.35965    6010.3802    4.3315606    4.3315606    4.3315606    6010.3802    12892.703   -87436.137    92574.575   -88993.805    3221.5906     1417.495    81.270548 
   39900    2867.7221   -107.93238    2.5947752    -105.3376    18200.105    4.3302825    4.3302825    4.3302825    18200.105    20781.245    8682.7297    25136.339    26686.348   -26025.182    -3499.606    81.198628 
   40000    951.69718   -106.23594   0.86111561   -105.37483   -20537.327    4.3456272    4.3456272    4.3456272   -20537.327   -63257.682   -46231.439     47877.14   -83862.547   -218.52239     274.7831    82.064892 
   40100    2791.7665   -107.85962     2.526049   -105.33357   -6302.1245      4.35988      4.35988      4.35988   -6302.1245   -18090.321   -48582.258    47766.206   -10180.576    10093.984   -10854.736    82.875011 
   40200     1283.614   -106.50091    1.1614409   -105.33947    3860.1496    4.3542543    4.3542543    4.3542543    3860.1496   -23718.267   -2269.3117    37568.027   -59221.998   -28497.232    -3208.712    82.554616 
   40300    2227.2624    -107.3518    2.0152738   -105.33652    -14797.25    4.3467915    4.3467915    4.3467915    -14797.25   -36246.816   -13228.525    5083.5917   -53390.754   -1567.8997    -5127.937    82.130871 
   40400    2141.5406   -107.28683     1.937711   -105.34912    23341.391    4.3315728    4.3315728    4.3315728    23341.391     36748.59   -38446.558    71722.139    17567.671     18146.82    2707.3373    81.271235 
   40500    1357.8989   -106.61165    1.2286554   -105.38299   -1230.6675    4.3245493    4.3245493    4.3245493   -1230.6675   -29778.764   -42618.491    68705.253   -92484.639   -41401.425   -2054.4136    80.876541 
   40600    3157.7203   -108.20853    2.8571717   -105.35136    27412.145     4.341429     4.341429     4.341429    27412.145    87590.637   -19879.877    14525.674    15581.549    14933.975    6983.6408    81.827281 
   40700      798.391    -106.0905   0.72240095    -105.3681   -35608.222    4.3550107    4.3550107    4.3550107   -35608.222   -66421.761   -133158.03    92755.127   -88082.605   -8533.6513   -1105.5943    82.597645 
   40800     3070.996   -108.08998    2.7787017   -105.31128    25081.138    4.3478561    4.3478561    4.3478561    25081.138    78401.753   -13682.754    10524.416    35247.618    3090.8365    5806.9802    82.191231 
   40900    907.67292    -106.1727   0.82128153   -105.35141   -25761.152     4.348176     4.348176     4.348176   -25761.152    -89442.61   -81137.584    93296.738   -99972.256    19832.662    5164.2784    82.209377 
   41000    2837.6372   -107.87606    2.5675538   -105.30851    18895.289    4.3463795    4.3463795    4.3463795    18895.289   -17260.068   -18664.901    92610.836    59419.334    9044.0416    6978.2392    82.107522 
   41100     1376.669   -106.57799     1.245639   -105.33235   -27640.296    4.3501576    4.3501576    4.3501576   -27640.296   -73679.813   -53764.062    44522.986   -108302.81   -12281.619    1765.6584    82.321823 
   41200     2292.761   -107.39246    2.0745384   -105.31792    -5814.226    4.3506391    4.3506391    4.3506391    -5814.226   -35454.602    16505.792     1506.131    38260.185    59182.482     463.7872    82.349159 
   41300     1742.085   -106.90922    1.5762751   -105.33294    15685.317    4.3325851    4.3325851    4.3325851    15685.317    1683.8665   -63757.722    109129.81   -90917.672   -12526.829       -10774    81.328227 
   41400    2001.8769   -107.15128    1.8113403   -105.33994   -10005.642    4.3304321    4.3304321    4.3304321   -10005.642   -35646.886    14825.651   -9195.6918   -12548.533    20405.194    103.06011    81.207043 
   41500    1925.8899   -107.08438    1.7425857    -105.3418    -13099.96    4.3454007    4.3454007    4.3454007    -13099.96   -56274.769   -43796.661    60771.549   -70438.556    18386.394    1109.9447    82.052059 
   41600    2290.6554   -107.39347    2.0726331   -105.32084    3795.1188    4.3505983    4.3505983    4.3505983    3795.1188   -32934.867   -37368.563    81688.786   -42858.742     4725.961    8009.0483    82.346844 
   41700    1498.3334    -106.6871    1.3557235   -105.33138   -3807.5472    4.3468767    4.3468767    4.3468767   -3807.5472    -30144.83    10648.586    8073.6021   -32011.706    20120.028    4376.2427    82.135703 
   41800    2498.6371   -107.58184    2.2608194   -105.32103    2564.2369    4.3428878    4.3428878    4.3428878    2564.2369   -1315.3416   -48023.513    57031.565   -60655.747   -10737.906    109.62578    81.909794 
   41900     1792.808   -106.95972    1.6221703   -105.33755    21003.678    4.3301099    4.3301099    4.3301099    21003.678   -6706.9946    11927.044    57790.984    38159.017    34457.752    2041.2095    81.188918 
   42000    2366.8421   -107.48896    2.1415685   -105.34739    4797.7631    4.3342167    4.3342167    4.3342167    4797.7631   -31648.008    9287.0031    36754.294   -63225.593    23086.209   -4128.3642    81.420143 
   42100    2115.2106   -107.26496     1.913887   -105.35108   -13427.445    4.3483996    4.3483996    4.3483996   -13427.445   -40050.165   -30579.377    30347.208    68847.353    -1238.434   -2824.2337    82.222057 
   42200    2206.3498   -107.33617    1.9963517   -105.33981    12375.023    4.3597152    4.3597152    4.3597152    12375.023   -5672.6296    23219.567    19578.132   -24909.456     23845.25    6929.9712    82.865613 
   42300    1790.6871   -106.93796    1.6202513    -105.3177   -50265.925    4.3694775    4.3694775    4.3694775   -50265.925   -55055.821   -76064.918   -19677.036    64399.963    835.38008    -14245.51    83.423522 
   42400    1894.9788   -107.03407    1.7146166   -105.31945   -9849.3752    4.3441559    4.3441559    4.3441559   -9849.3752     29234.06    -29880.41   -28901.775    27922.043    3615.0972    8892.7225    81.981567 
   42500    2410.7369   -107.48478    2.1812854    -105.3035    13140.079    4.3256107    4.3256107    4.3256107    13140.079    17109.598   -24922.465    47233.103   -14590.305    13200.034    -15814.82    80.936102 
   42600    1601.6808   -106.79716    1.4492344   -105.34793   -8812.4519    4.3307886    4.3307886    4.3307886   -8812.4519    32103.976   -68164.359    9623.0281    57568.118   -4283.3481   -11341.474      81.2271 
   42700    2169.6878   -107.30642    1.9631792   -105.34324   -9731.8392    4.3427005    4.3427005    4.3427005   -9731.8392   -20286.627    9097.6371   -18006.528   -46404.969   -6382.1519     2318.062    81.899195 
   42800    1420.4989   -106.64271    1.2852973   -105.35741   -23387.579    4.3465515    4.3465515    4.3465515   -23387.579   -37002.205   -71504.274    38343.742    5178.0672   -6250.7723    -18601.57    82.117267 
   42900    2775.1555   -107.83805     2.511019   -105.32703   -326.08911    4.3460166    4.3460166    4.3460166   -326.08911   -13853.713    23310.002   -10434.556    4220.0275   -5756.7862    4487.6095    82.086952 
   43000    1285.3828     -106.509    1.1630414   -105.34596   -23350.322    4.3449475    4.3449475    4.3449475   -23350.322   -87042.561    -21572.05    38563.643   -70170.001   -13249.468    7278.0758    82.026389 
   43100    3157.5712   -108.15929    2.8570367   -105.30225     25905.89    4.3433176    4.3433176    4.3433176     25905.89   -20194.552    23443.744     74468.48    29395.309    1430.9805   -16969.455    81.934114 
   43200    829.32451   -106.09183   0.75039024   -105.34144   -52979.911     4.358341     4.358341     4.358341   -52979.911   -116426.91   -45274.602    2761.7791   -90091.158    -10514.09    1643.6178    82.787279 
   43300       2571.3   -107.64983    2.3265663   -105.32326    20333.753    4.3381255    4.3381255    4.3381255    20333.753    2725.8153    -10101.43    68376.873    49326.881   -3966.7976    1705.6613    81.640626 
   43400    1637.2044   -106.81689    1.4813769   -105.33552    32835.017    4.3175629    4.3175629    4.3175629    32835.017   -7757.7245    9944.1847    96318.591   -16800.214    6918.9129   -18145.336    80.485201 
   43500    2243.4841   -107.36694    2.0299515   -105.33699    -7246.825    4.3315659    4.3315659    4.3315659    -7246.825   -36543.294    -34266.05    49068.869    169.83654   -10478.826    1722.5292    81.270846 
   43600    1780.3042    -106.9698    1.6108567   -105.35894    2601.0169    4.3398721    4.3398721    4.3398721    2601.0169   -41135.905    13313.015    35625.941    96667.605    3039.6903    -4114.332    81.739277 
   43700    2808.4219   -107.87817    2.5411191   -105.33705    3287.2159    4.3501423    4.3501423    4.3501423    3287.2159   -46417.423    32485.648    23793.422   -22047.031    2836.4386   -8590.6274    82.320953 
   43800    985.71156   -106.24239   0.89189253   -105.35049    12389.353    4.3508697    4.3508697    4.3508697    12389.353   -104698.98     45464.49    96402.547    103088.55    -5844.397   -1885.1182    82.362254 
   43900    2762.9797   -107.79471    2.5000021    -105.2947   -2953.1282    4.3508426    4.3508426    4.3508426   -2953.1282   -12399.123     15886.63   -12346.892   -1096.8106      1056.67   -5510.4192    82.360715 
   44000    1423.9824   -106.61182    1.2884492   -105.32337    -19294.44    4.3404765    4.3404765    4.3404765    -19294.44     -75344.5   -15771.937    33233.119    115461.56   -1577.4269   -11434.298     81.77343 
   44100    2521.4043   -107.59581    2.2814196   -105.31439     30781.03    4.3286343    4.3286343    4.3286343     30781.03   -4090.4909    46434.145    49999.437   -79971.467   -2390.2179   -556.67299    81.105944 
   44200    1948.5197   -107.10319    1.7630616   -105.34012    11414.331    4.3378885    4.3378885    4.3378885    11414.331   -25980.561   -21307.813    81531.368    98202.279   -14123.162    258.08899    81.627247 
   44300    1944.3835   -107.09598     1.759319   -105.33666    8654.4607    4.3530964    4.3530964    4.3530964    8654.4607   -13807.101    36859.933    2910.5501   -57658.443    24269.707   -2368.0518    82.488777 
   44400    1658.1942   -106.84559     1.500369   -105.34523   -31294.641    4.3584191    4.3584191    4.3584191   -31294.641   -37555.199   -65935.971    9607.2476    8481.7386    -12905.08   -7822.1679    82.791734 
   44500    2641.2965   -107.71558    2.3899006   -105.32568    32853.641    4.3354502    4.3354502    4.3354502    32853.641    8614.2516    40899.098    49047.574     571.8354    21726.979    8.9854364     81.48968 
   44600    871.41941   -106.15111    0.7884786   -105.36264    6488.3156    4.3274791    4.3274791    4.3274791    6488.3156   -51591.212    27178.084    43878.074   -71750.308    8180.5691    -4801.019    81.041027 
   44700    3346.3386   -108.34366    3.0278375   -105.31582    25390.946    4.3450474    4.3450474    4.3450474    25390.946    884.89756   -6949.3503    82237.291    17253.818   -27072.966   -5393.4412    82.032048 
   44800    1019.8733   -106.28061   0.92280277   -105.35781   -25943.452    4.3640786    4.3640786    4.3640786   -25943.452   -46084.535   -56213.714    24467.893   -72027.056     46505.66     1328.056     83.11467 
   44900    3221.1414   -108.24241    2.9145564   -105.32786    -8252.362    4.3621558    4.3621558    4.3621558    -8252.362    30311.609   -25242.327   -29826.368    17510.328   -8665.4472   -7.3977496    83.004858 
   45000    1306.6193   -106.55047    1.1822566   -105.36822    10832.968     4.321479     4.321479     4.321479    10832.968     23965.68   -65124.876      73658.1   -22369.603    9189.0988    3185.1697    80.704399 
   45100    1879.7691   -107.04782    1.7008546   -105.34697    26901.155    4.3115691    4.3115691    4.3115691    26901.155    2263.3229     4454.216    73985.927    -26819.44    44400.941   -2014.7766    80.150463 
   45200    2198.7753   -107.34119    1.9894981   -105.35169   -14503.503    4.3332358    4.3332358    4.3332358   -14503.503    12367.024   -33583.519   -22294.014   -1023.3417   -60693.508    4307.7709    81.364874 
   45300    1943.8205    -107.1346    1.7588097   -105.37579   -8213.0537    4.3513194    4.3513194    4.3513194   -8213.0537   -10975.145   -71318.592    57654.575   -53103.457    23519.367    6278.3684    82.387798 
   45400    2338.9187   -107.46338    2.1163028   -105.34708   -21439.474    4.3591812    4.3591812    4.3591812   -21439.474   -3969.8349    9446.6261   -69795.214    26771.163    -63138.43   -6353.0874    82.835167 
   45500    1306.8087   -106.53668    1.1824279   -105.35425   -32944.586    4.3385194    4.3385194    4.3385194   -32944.586   -53899.615   -45439.876    505.73219   -63893.543   -28506.765    414.31061    81.662868 
   45600    2739.7104   -107.79897    2.4789475   -105.32002    20293.252     4.323301     4.323301     4.323301    20293.252    7172.5524    21153.053     32554.15    18211.951   -1665.2394   -1152.4904    80.806522 
   45700    1198.3966   -106.43553    1.0843344    -105.3512   -28652.146    4.3408993    4.3408993    4.3408993   -28652.146   -55202.299    14367.473   -45121.612   -46809.729   -66555.741   -30950.101     81.79733 
   45800    2642.1839   -107.73503    2.3907035   -105.34433   -9595.3255    4.3498056    4.3498056    4.3498056   -9595.3255   -48457.978   -32756.631    52428.632   -51991.564    23860.438    4206.5259    82.301842 
   45900    1963.9379   -107.13542    1.7770123   -105.35841    12899.763    4.3419051    4.3419051    4.3419051    12899.763   -9790.1698    33385.728     15103.73    9279.4239   -36777.759   -17011.469    81.854201 
   46000    1460.5131   -106.69525     1.321503   -105.37375   -5183.0137    4.3392644    4.3392644    4.3392644   -5183.0137   -44076.208   -17406.337    45933.505   -72294.382    8380.7033   -19166.272    81.704945 
   46100    2596.7039   -107.67106    2.3495523   -105.32151   -3751.4293    4.3530931    4.3530931    4.3530931   -3751.4293    28239.041    3305.2685   -42798.598     23072.13   -27773.783    14423.429    82.488586 
   46200    1160.5972   -106.36282    1.0501328   -105.31268   -38255.202    4.3726263    4.3726263    4.3726263   -38255.202    -22863.19   -78603.781   -13298.635   -66596.511   -30103.262   -39630.353    83.604006 
   46300    2999.9582   -107.98352    2.7144252   -105.26909   -29446.912    4.3685225    4.3685225    4.3685225   -29446.912   -28687.063   -5913.1754   -53740.498    35497.365    2679.4137     17705.45    83.368834 
   46400    1336.7263   -106.54099     1.209498   -105.33149   -24973.664    4.3319097    4.3319097    4.3319097   -24973.664   -40964.225   -8208.0047   -25748.762   -28652.219   -72089.118   -27897.616    81.290197 
   46500    2824.2486   -107.86006    2.5554395   -105.30462    49736.968    4.3055932    4.3055932    4.3055932    49736.968    39852.589    54132.304    55226.011   -14149.599     45582.75    6131.7958    79.817656 
   46600    1322.6513   -106.55627    1.1967627   -105.35951    -18160.06    4.3364259    4.3364259    4.3364259    -18160.06   -38483.875    38786.429   -54782.732     8158.438   -53185.948     4295.373    81.544712 
   46700    2936.2017    -107.9738     2.656737   -105.31706   -11107.874    4.3684002    4.3684002    4.3684002   -11107.874   -26501.314   -17873.039     11050.73   -7200.1358   -12477.778    6270.3944    83.361835 
   46800    1026.0081    -106.2739   0.92835366   -105.34555   -30889.929    4.3628266    4.3628266    4.3628266   -30889.929   -97771.949    76824.404   -71722.243    8614.4623    20356.348    16728.985    83.043159 
   46900     2584.703   -107.65335    2.3386936   -105.31466    18002.667    4.3296747    4.3296747    4.3296747    18002.667   -33339.409    70060.473    17286.936    13652.348   -55478.505    4442.3489    81.164439 
   47000    1904.6704   -107.04517    1.7233858   -105.32179    33119.842    4.3147976    4.3147976    4.3147976    33119.842     36274.75    29002.685    34082.091   -3802.3302    27555.218   -15704.625    80.330652 
   47100     1825.621   -107.00513    1.6518603   -105.35327    9057.2086    4.3311221    4.3311221    4.3311221    9057.2086   -45738.415    96784.483   -23874.442    3844.5376   -42461.768    26648.621    81.245867 
   47200    2320.2403   -107.42809    2.0994022   -105.32869   -14615.136    4.3580469    4.3580469    4.3580469   -14615.136    5560.1619   -39180.364   -10225.205   -101.34707    14054.172   -65075.064    82.770521 
   47300     1898.983   -107.03998    1.7182397   -105.32174   -13939.943    4.3601519    4.3601519    4.3601519   -13939.943   -65774.353    56667.457   -32712.933   -16362.719   -2535.4923    25950.861    82.890518 
   47400    1766.2972   -106.90736    1.5981828   -105.30917   -20421.108    4.3451023    4.3451023    4.3451023   -20421.108    50391.039   -45268.335   -66386.029   -4086.8865   -2796.6865   -99772.594    82.035158 
   47500    2706.5522   -107.74349    2.4489453   -105.29454    12167.086    4.3205298    4.3205298    4.3205298    12167.086    28426.581   -2748.8466    10823.523    3023.0107     3985.682    -13564.97    80.651231 
   47600    1123.6303   -106.36395    1.0166843   -105.34727   -18702.386    4.3274196    4.3274196    4.3274196   -18702.386    53203.615   -38374.064    -70936.71   -16460.613   -8130.2201   -82354.068    81.037685 
   47700    1730.2669   -106.92139    1.5655819   -105.35581   -21917.013     4.345014     4.345014     4.345014   -21917.013    14574.599   -41341.176   -38984.461   -7222.2576    2639.3219   -31807.855    82.030154 
   47800     2175.169   -107.31235    1.9681386   -105.34421    -9428.341    4.3520925    4.3520925    4.3520925    -9428.341    16239.911   -53914.525    9389.5909    467.68389    130.84865   -51647.145    82.431721 
   47900     2393.328   -107.50274    2.1655334   -105.33721   -13046.388    4.3496438    4.3496438    4.3496438   -13046.388    25485.243   -44469.789   -20154.617    1236.6187   -1306.2296   -48609.672    82.292654 
   48000    1534.3809   -106.72655    1.3883401   -105.33821     24330.73    4.3274058    4.3274058    4.3274058     24330.73   -2175.6797     56359.08    18808.791   -9624.3764   -71.648722    12846.676    81.036909 
   48100    2626.8209   -107.70675    2.3768028   -105.32995    13494.719    4.3314857    4.3314857    4.3314857    13494.719    31224.561    2508.5868    6751.0082    4100.4915    -1305.383    -49332.01    81.266332 
   48200    1355.1266   -106.57205    1.2261471    -105.3459   -18736.314    4.3442621    4.3442621    4.3442621   -18736.314   -32939.515    21617.387   -44886.814   -1166.5808   -8861.5077    48705.797     81.98758 
   48300    2494.2405   -107.58835    2.2568412   -105.33151    20460.004     4.349948     4.349948     4.349948    20460.004    353.64979    18373.553     42652.81    5490.1253    912.88317   -28441.686    82.309924 
   48400    1684.8034   -106.85664    1.5244455    -105.3322   -28121.919    4.3639305    4.3639305    4.3639305   -28121.919    11762.166   -39927.334   -56200.588    4749.3613   -4116.2806    44948.069    83.106212 
   48500    1929.9297   -107.05871    1.7462409   -105.31246   -4917.9371    4.3522168    4.3522168    4.3522168   -4917.9371   -53276.502    40386.003   -1863.3129    6591.5431   -15944.113   -8071.0235     82.43878 
   48600    2161.4504   -107.26686    1.9557257   -105.31114    3262.4035    4.3335049    4.3335049    4.3335049    3262.4035    33365.601   -17613.239   -5965.1513   -15643.983    4407.1279    31363.415    81.380036 
   48700    1311.5426   -106.53572    1.1867113   -105.34901    3683.1904    4.3281192    4.3281192    4.3281192    3683.1904    23588.151    24219.849   -36758.429    14413.424   -6628.6319    11199.284    81.076995 
   48800    2994.0253   -108.04246     2.709057    -105.3334    14781.771    4.3361899    4.3361899    4.3361899    14781.771    3428.5857    52918.548    -12001.82    9516.7034   -7636.6559    10961.601    81.531399 
   48900    1072.1597   -106.34994   0.97011266   -105.37983    -45270.68    4.3488595    4.3488595    4.3488595    -45270.68    45387.753   -56966.353   -124233.44   -8050.5335    9364.2006    25607.207     82.24815 
   49000    3245.0709   -108.26764    2.9362083   -105.33143    4859.5722    4.3463328    4.3463328    4.3463328    4859.5722   -4679.7605     34145.77   -14887.292    19266.993    2168.6816   -14811.112    82.104873 
   49100     1030.513   -106.29298   0.93242981   -105.36055   -47103.353    4.3417377    4.3417377    4.3417377   -47103.353    38869.754   -59872.255   -120307.56    11543.133   -771.68738    77919.293    81.844736 
   49200    2478.4209   -107.58152    2.2425273     -105.339   -8380.3923    4.3323389    4.3323389    4.3323389   -8380.3923    4815.0188     4542.628   -34498.824   -6665.9783    8115.1065   -63643.293    81.314365 
   49300    1637.8847   -106.83456    1.4819925   -105.35257   -33817.796    4.3364255    4.3364255    4.3364255   -33817.796   -25086.645   -35879.855   -40486.889   -29368.922   -10674.573    85114.841    81.544685 
   49400    1978.3771   -107.14292    1.7900772   -105.35284   -22935.679     4.341876     4.341876     4.341876   -22935.679    39481.665   -50839.828   -57448.874    19756.035    3366.5602    15858.904    81.852554 
   49500    2030.5593   -107.18268    1.8372928   -105.34539    6080.6943    4.3417353    4.3417353    4.3417353    6080.6943    12374.471   -12333.959    18201.572   -52705.542   -1787.5544   -7257.9744      81.8446 
   49600    1384.6492   -106.60412    1.2528597   -105.35126   -31170.644    4.3564752    4.3564752    4.3564752   -31170.644   -1081.0789   -52872.663    -39558.19   -6101.4467   -9921.3387    82622.514    82.681002 
   49700    3159.3034   -108.17986    2.8586041   -105.32126     26982.84    4.3438204    4.3438204    4.3438204     26982.84   -9440.8812    23397.531    66991.868   -6866.6242   -6673.2484   -32420.782    81.962572 
   49800    1000.1445   -106.26741   0.90495177   -105.36246    -7075.153    4.3320007    4.3320007    4.3320007    -7075.153    18136.809   -30385.631   -8976.6366   -42102.651   -9220.3148    80254.817    81.295321 
   49900    2746.1475   -107.82786    2.4847719   -105.34309    13218.995     4.334318     4.334318     4.334318    13218.995    14927.866    30803.868   -6074.7485    21459.617   -14268.461   -24270.109    81.425851 
   50000    1390.8077   -106.62506     1.258432   -105.36663    8618.6082    4.3427692    4.3427692    4.3427692    8618.6082    58128.988   -50169.542    17896.378   -29332.326    3559.8877    9203.7714    81.903084 
   50100    2526.0552   -107.62254    2.2856279   -105.33691   -19384.474    4.3606805    4.3606805    4.3606805   -19384.474   -6657.9176   -21451.916   -30043.588    8018.2068   -8288.2308    25653.089     82.92067 
   50200    1319.7275   -106.55586    1.1941172   -105.36174   -43193.068    4.3462039    4.3462039    4.3462039   -43193.068   -19925.674    -81375.56   -28277.969    18625.471   -14618.171   -80832.338    82.097566 
   50300    2973.6154   -108.01046    2.6905897   -105.31987    48859.146    4.3212598    4.3212598    4.3212598    48859.146    60069.147    7981.0849    78527.207    -38824.76    5091.4427     27484.49    80.692123 
   50400    1091.6228   -106.34675   0.98772323   -105.35903   -26885.685    4.3367802    4.3367802    4.3367802   -26885.685    9388.8851   -41585.053   -48460.888    38346.821    29853.125   -55625.229    81.564697 
   50500    2688.0486   -107.76563    2.4322029   -105.33343   -23582.813    4.3505681    4.3505681    4.3505681   -23582.813   -33218.875   -37834.771     305.2072    9700.1137   -22202.969    -1369.787    82.345127 
   50600    1668.0862   -106.86362    1.5093195    -105.3543   -32306.901    4.3557709    4.3557709    4.3557709   -32306.901    4164.2835   -12947.066    -88137.92   -11385.526    49694.661    13136.533    82.640909 
   50700    1911.0598    -107.0816    1.7291671   -105.35244    3461.3516    4.3396624    4.3396624    4.3396624    3461.3516    8034.7556   -30421.982    32771.281    46757.752    14989.394   -36226.877    81.727431 
   50800    2350.8489   -107.45306    2.1270975   -105.32597    935.21175    4.3335813    4.3335813    4.3335813    935.21175    10708.851    31086.328   -38989.544   -9425.0918     14781.28    31968.142    81.384342 
   50900    1577.0258   -106.76404    1.4269261   -105.33712   -34605.045    4.3544913    4.3544913    4.3544913   -34605.045   -24288.315   -15005.373   -64521.449    11828.409    54582.905   -29979.128      82.5681 
   51000    2534.4417    -107.6079    2.2932161   -105.31469   -8804.7251    4.3537646    4.3537646    4.3537646   -8804.7251   -52620.206    12060.744    14145.287    19042.557   -35200.064    23362.299    82.526765 
   51100     1308.558   -106.53473    1.1840108   -105.35072   -34553.916    4.3404395    4.3404395    4.3404395   -34553.916   -58723.915    11655.494   -56593.328   -14853.981    51173.268   -6744.8003    81.771342 
   51200    3017.9627   -108.07201    2.7307161   -105.34129    10313.636    4.3280591    4.3280591    4.3280591    10313.636   -26371.456    27268.927    30043.438   -26934.474   -17669.102    5856.1357    81.073615 
   51300    1587.1039   -106.80712     1.436045   -105.37107   -7878.1875     4.332372     4.332372     4.332372   -7878.1875   -48956.543    55603.611   -30281.631    15130.669   -13087.535    10183.017     81.31623 
   51400    2372.5381   -107.51337    2.1467223   -105.36665   -1601.4386    4.3445173    4.3445173    4.3445173   -1601.4386   -30754.202   -6472.7024    32422.589    -25987.49    48222.217    4187.6407    82.002025 
   51500    1876.5281   -107.06269    1.6979221   -105.36476   -15008.547    4.3486002    4.3486002    4.3486002   -15008.547   -65159.935     18574.14    1560.1558    -33968.71   -45766.976   -10773.138    82.233435 
   51600     1722.296   -106.92213    1.5583696   -105.36376    5277.7103    4.3398204    4.3398204    4.3398204    5277.7103   -31638.447    59470.549   -11998.971    19096.469     36305.58    23762.222    81.736354 
   51700    2690.8469   -107.77631    2.4347348   -105.34157    11123.497    4.3364831    4.3364831    4.3364831    11123.497    29658.536   -25534.649    29246.603   -29823.197   -8925.1154   -28978.239    81.547935 
   51800     1439.253   -106.67182    1.3022663   -105.36955    891.57242     4.336637     4.336637     4.336637    891.57242   -21411.428    29158.972   -5072.8264   -7602.6179   -16403.452   -6833.5753    81.556618 
   51900    2210.4957    -107.3656     2.000103    -105.3655    12992.315    4.3385323    4.3385323    4.3385323    12992.315   -6258.9644    27210.662    18025.247    41222.546    20470.766    -11043.96      81.6636 
   52000    1887.0693   -107.07948    1.7074599   -105.37202    7569.4895    4.3416407    4.3416407    4.3416407    7569.4895     52943.48   -11576.172   -18658.839   -3822.8977   -23413.307   -45043.376     81.83925 
   52100    2103.4136   -107.26514    1.9032128   -105.36193   -749.41249    4.3388119    4.3388119    4.3388119   -749.41249   -61585.318     50126.22    9210.8606    9675.4407   -9507.5941    19583.041    81.679388 
   52200    1704.9786   -106.91383    1.5427005   -105.37113   -7090.0714    4.3341651    4.3341651    4.3341651   -7090.0714    24521.586   -26552.109   -19239.691    33403.041    13232.967   -73283.542    81.417236 
   52300    2432.7705   -107.57176    2.2012219   -105.37054     15311.23    4.3312819    4.3312819    4.3312819     15311.23   -10081.461   -5689.2282     61704.38   -38183.932   -23844.093   -2022.2833    81.254858 
   52400     1690.705   -106.92196    1.5297854   -105.39217   -19703.691     4.333093     4.333093     4.333093   -19703.691    -6693.941     -10880.2    -41536.93    4714.3441   -10631.415   -35317.972    81.356832 
   52500    1517.1623   -106.78367    1.3727603   -105.41091   -2083.6208    4.3343736    4.3343736    4.3343736   -2083.6208    46635.373   -67417.494    14531.259    12259.798    7382.7906   -53677.994    81.428983 
   52600    2680.2524   -107.78955    2.4251487    -105.3644   -22112.132    4.3584223    4.3584223    4.3584223   -22112.132   -23072.542   -45871.723    2607.8687   -24594.536    -10161.47   -13734.073    82.791917 
   52700    1414.2645   -106.61952    1.2796562   -105.33987   -33935.638    4.3618099    4.3618099    4.3618099   -33935.638    18339.183   -80781.155   -39364.941    28437.704    15527.479       -93530    82.985114 
   52800    2412.6466   -107.48694    2.1830133   -105.30393    8858.6363    4.3398136    4.3398136    4.3398136    8858.6363   -1446.9883    11340.045    16682.852   -7568.3139    2544.5981    58288.477    81.735973 
   52900    1664.8521   -106.84664    1.5063932   -105.34025   -20878.609    4.3276017    4.3276017    4.3276017   -20878.609    46830.985   -34596.173   -74870.639    -4472.713   -10062.326   -113382.63    81.047914 
   53000    2557.2611   -107.65676    2.3138635   -105.34289    25650.229    4.3229373    4.3229373    4.3229373    25650.229    -26206.43    80894.983    22262.133     17019.93    71577.951    28262.985     80.78613 
   53100    1778.3856   -106.97957    1.6091207   -105.37045   -27576.679    4.3483702    4.3483702    4.3483702   -27576.679     49590.54   -65361.025   -66959.551   -8069.9726   -30352.274   -56613.152    82.220391 
   53200    1464.6409   -106.67566    1.3252379   -105.35042   -56460.444    4.3636449    4.3636449    4.3636449   -56460.444   -84330.359    2162.4606   -87213.434    4655.5764    91909.212   -14906.376    83.089893 
   53300    2630.9781   -107.71429    2.3805643   -105.33372   -4177.6381    4.3420854    4.3420854    4.3420854   -4177.6381   -15380.944    47258.059   -44410.029    9235.3141    28941.971   -8722.7578    81.864402 
   53400    1657.3595   -106.85024    1.4996137   -105.35063   -22127.691    4.3250287    4.3250287    4.3250287   -22127.691    19231.729   -9003.4745   -76611.327    3128.2437    59677.396   -60912.488    80.903441 
   53500    1823.5838   -107.02416     1.650017   -105.37415   -6664.4332    4.3265349    4.3265349    4.3265349   -6664.4332    -25474.43    52538.695   -47057.565   -3102.0577    67337.339    21825.903    80.987991 
   53600    2431.1708    -107.5562    2.1997744   -105.35642   -752.97612    4.3483179    4.3483179    4.3483179   -752.97612   -23850.582    24875.054   -3283.4009   -2702.4261    15435.065     2202.685    82.217423 
   53700    1269.0013   -106.51048     1.148219   -105.36226   -47095.351    4.3628709    4.3628709    4.3628709   -47095.351   -70275.559    9171.0218   -80181.515    1831.9514    88789.515   -40897.763    83.045688 
   53800    2747.0763   -107.80602    2.4856124    -105.3204   -9672.3006     4.345709     4.345709     4.345709   -9672.3006   -26501.276    -29721.76    27206.133   -8600.2462   -3114.8445    2831.2035    82.069528 
   53900    1529.2368   -106.72054    1.3836856   -105.33686   -37718.405    4.3309927    4.3309927    4.3309927   -37718.405    -62960.81    27616.585   -77810.989    4869.2925    116624.64    15164.803    81.238584 
   54000    2044.9291   -107.19289    1.8502948   -105.34259     7642.158    4.3207251    4.3207251    4.3207251     7642.158     72564.32   -44261.205   -5376.6414   -15988.696   -43387.993   -43022.516    80.662169 
   54100    2213.2147   -107.37028    2.0025632   -105.36772    7158.7778    4.3335631    4.3335631    4.3335631    7158.7778   -16851.154    49381.816   -11054.329    2752.6496    55251.829    1416.2556    81.383317 
   54200    2061.1456   -107.23676    1.8649679   -105.37179   -27908.519    4.3476012    4.3476012    4.3476012   -27908.519    23532.626   -78242.407   -29015.776    181.94865    5529.3135   -6859.4558    82.176776 
   54300    1409.3881   -106.66454    1.2752439    -105.3893     4324.025    4.3380012    4.3380012    4.3380012     4324.025    44388.564   -27182.413    -4234.076   -4913.7024   -35763.824   -23083.514    81.633612 
   54400    2800.0928   -107.87385    2.5335828   -105.34026    15343.635    4.3431832    4.3431832    4.3431832    15343.635   -7376.2799   -9340.3753    62747.562    514.27926    26631.009   -11005.545    81.926508 
   54500    1289.5468   -106.52164     1.166809   -105.35483   -29692.598    4.3513701    4.3513701    4.3513701   -29692.598    1390.6429   -68702.658    -21765.78    13468.783   -27291.638   -20848.224    82.390677 
   54600     2632.527   -107.71553    2.3819657   -105.33357    15448.143    4.3390971    4.3390971    4.3390971    15448.143   -29328.715    44781.432    30891.711   -16180.954    28089.846     19434.85    81.695493 
   54700    1184.3332   -106.43803    1.0716095   -105.36642   -1208.4281     4.328814     4.328814     4.328814   -1208.4281   -25596.205    -2844.658    24815.579    1554.9266    34766.217   -31790.471    81.116048 
   54800    2606.1103   -107.71802    2.3580634   -105.35995    25163.915    4.3290221    4.3290221    4.3290221    25163.915     34932.88    29315.106    11243.758    11748.473   -9860.8272   -12996.879    81.127743 
   54900    2014.7395   -107.20091    1.8229787   -105.37794    5383.5582    4.3362241    4.3362241    4.3362241    5383.5582   -15953.238    10123.835    21980.078   -30909.947    38113.375    3802.7444    81.533328 
   55000    1769.6606   -106.97524    1.6012261   -105.37401   -9599.0543     4.350678     4.350678     4.350678   -9599.0543    16943.474   -48848.271    3107.6347   -25018.131   -916.90902   -53816.964     82.35137 
   55100    2132.8176   -107.27711    1.9298182   -105.34729   -2218.0408    4.3482985    4.3482985    4.3482985   -2218.0408    -24016.43    58832.472   -41470.164    9537.9355   -42398.048    17560.405    82.216323 
   55200    1861.5942   -107.03028    1.6844095   -105.34587    1046.1759    4.3374129    4.3374129    4.3374129    1046.1759    30557.027   -26425.935   -992.56442   -43869.445    47623.999   -26293.227    81.600403 
   55300    2073.1144   -107.22835    1.8757975   -105.35255   -6289.7055    4.3303337    4.3303337    4.3303337   -6289.7055   -964.54947     26854.16   -44758.727    7644.4809   -71306.139   -14571.826     81.20151 
   55400    1981.1369   -107.15548    1.7925743    -105.3629     17844.97     4.329036     4.329036     4.329036     17844.97    3925.5315    49223.155    386.22363   -18693.339   -14946.141    4698.4511    81.128527 
   55500    2256.9421    -107.4038    2.0421286   -105.36167   -14672.361    4.3426125    4.3426125    4.3426125   -14672.361   -28301.935   -5234.8669    -10480.28   -26637.434   -7881.8607   -22664.054    81.894216 
   55600    1581.5802   -106.79754     1.431047   -105.36649    1201.2351    4.3461446    4.3461446    4.3461446    1201.2351   -6134.1705    30262.799   -20524.923    19953.706   -78152.825    4224.2941    82.094209 
   55700    2699.9368   -107.77098    2.4429596   -105.32802    3531.2207    4.3574254    4.3574254    4.3574254    3531.2207   -39247.538   -14955.312    64796.511   -43066.827    15351.632    2961.4573    82.735119 
   55800    1340.7784   -106.56699    1.2131645   -105.35383   -27580.607    4.3471862    4.3471862    4.3471862   -27580.607   -53872.265    15226.173    -44095.73    24146.339    -88898.94   -17524.322    82.153247 
   55900    2490.0236   -107.58121    2.2530256   -105.32818     35607.05    4.3223991    4.3223991    4.3223991     35607.05    23767.183    3096.0372    79957.931    10157.251    22241.172    9810.8013    80.755962 
   56000     1881.542   -107.04649    1.7024588   -105.34403    8426.3228    4.3305181    4.3305181    4.3305181    8426.3228   -18208.986     62709.13   -19221.176   -13738.253     -82151.7    2274.5357     81.21188 
   56100    1710.5213    -106.9006    1.5477156   -105.35288   -11292.235    4.3491198    4.3491198    4.3491198   -11292.235    43441.481   -70108.674   -7209.5131     47696.42   -8197.6373   -28153.969    82.262919 
   56200    1996.8375   -107.13531    1.8067806   -105.32853    12068.455    4.3607918    4.3607918    4.3607918    12068.455    26739.424    19264.742   -9798.8008    7985.8938   -47939.185     11052.15     82.92702 
   56300    1794.4139   -106.94174    1.6236234   -105.31812   -11773.306    4.3552109    4.3552109    4.3552109   -11773.306    1506.3701    16194.385   -53020.672    17199.077   -42838.801    -1250.339    82.609041 
   56400    2141.5374   -107.23436    1.9377081   -105.29665    16795.763    4.3410954    4.3410954    4.3410954    16795.763     46271.07   -27020.534    31136.753    41395.041   -19925.132   -20694.138    81.808419 
   56500    1742.8686   -106.89248    1.5769841    -105.3155    11118.907    4.3354024    4.3354024    4.3354024    11118.907   -13821.627    43310.273    3868.0759    -12639.25   -75532.845    8768.4657    81.486986 
   56600    2469.8307   -107.55927    2.2347547   -105.32451    10090.373    4.3391768    4.3391768    4.3391768    10090.373    15115.294    23821.581   -8665.7573    10986.136    43554.597   -16683.855    81.699996 
   56700    1299.6278   -106.54074    1.1759306   -105.36481   -6364.2034    4.3418569    4.3418569    4.3418569   -6364.2034   -78865.448    81382.901   -21610.064    14142.518   -121273.72   -12149.887    81.851475 
   56800    3370.2101   -108.36628    3.0494369   -105.31684     1433.352    4.3492196    4.3492196    4.3492196     1433.352    -34257.27   -18211.249    56768.574   -16874.837    46624.194   -12000.079    82.268581 
   56900    995.98661   -106.27156   0.90118962   -105.37037   -48710.809    4.3484072    4.3484072    4.3484072   -48710.809   -111856.08    58078.224   -92354.575    3921.7224   -115548.35    47.985646    82.222487 
   57000    2378.7149    -107.5112    2.1523113   -105.35889     25759.82    4.3300444    4.3300444    4.3300444     25759.82    12928.602   -12681.016    77031.875    20280.374    48002.143   -14708.235    81.185232 
   57100    2205.9982   -107.35973    1.9960335    -105.3637    14892.604    4.3233133    4.3233133    4.3233133    14892.604    -10215.14    34123.513     20769.44   -7955.7183    -76396.81    5690.4256    80.807215 
   57200    1789.0975   -106.99618     1.618813   -105.37737    12154.704    4.3320907    4.3320907    4.3320907    12154.704    -43344.54    23209.905    56598.748    18327.375    2436.7967   -1467.8314    81.300389 
   57300     1425.487   -106.68691    1.2898106    -105.3971   -27736.805    4.3474131    4.3474131    4.3474131   -27736.805    -45480.24   -22547.387   -15182.787    15866.611    39211.054   -22772.615    82.166113 
   57400    3431.4103   -108.45219    3.1048122   -105.34738     22588.38    4.3518444    4.3518444    4.3518444     22588.38   -15436.078    19658.583    63542.635   -5759.6966    -19958.63    18370.049    82.417623 
   57500    738.17132    -106.0379   0.66791292   -105.36999   -34303.232    4.3593555    4.3593555    4.3593555   -34303.232   -56178.837   -12515.777   -34215.082    17334.914    69876.412   -23784.498    82.845105 
   57600    2803.7573   -107.86084    2.5368986   -105.32394    1082.4521     4.342422     4.342422     4.342422    1082.4521   -9599.8835     22055.97   -9208.7307   -24111.691   -47599.936    12060.447    81.883442 
   57700    1985.4666   -107.13826    1.7964919   -105.34176    4094.3071    4.3280495    4.3280495    4.3280495    4094.3071   -30935.305     18545.93    24672.296    38919.781   -11304.273    -6553.469    81.073077 
   57800    1876.3948   -107.06683    1.6978014   -105.36903    8769.1979    4.3229061    4.3229061    4.3229061    8769.1979   -7724.5307    25314.317    8717.8076    8009.2179    37811.032   -26934.519    80.784383 
   57900    1868.9451    -107.0819    1.6910608   -105.39084    25048.298    4.3284193    4.3284193    4.3284193    25048.298    1480.2046    54857.455    18807.234    -2002.708   -93877.071    549.95552    81.093858 
   58000    2532.7711   -107.66329    2.2917045   -105.37158   -5186.4652    4.3530093    4.3530093    4.3530093   -5186.4652   -1497.0693   -29987.399    15925.073     25091.12    36754.321    14216.087    82.483824 
   58100    1475.1653   -106.71171    1.3347606   -105.37695   -9145.4175    4.3476171    4.3476171    4.3476171   -9145.4175    -62735.08    40862.372   -5563.5446   -568.05391   -44388.704   -26195.904    82.177675 
   58200     1841.735   -107.03926    1.6664405   -105.37282    9568.6485    4.3270674    4.3270674    4.3270674    9568.6485    4377.1753   -15015.612    39344.382   -28396.919    -13377.78    35749.035    81.017902 
   58300    2611.3506   -107.73999    2.3628049   -105.37718    21183.884    4.3155662    4.3155662    4.3155662    21183.884    31188.837     16243.69    16119.126    9238.7892    3813.6257    49672.991    80.373586 
   58400    2128.5456   -107.32745    1.9259528    -105.4015    20855.464    4.3199862    4.3199862    4.3199862    20855.464   -38790.005     73134.45    28221.946    -13403.87   -50714.141   -19437.229    80.620796 
   58500    950.51949   -106.29213   0.86005001   -105.43208   -40203.784    4.3446724    4.3446724    4.3446724   -40203.784   -14317.236   -75601.246   -30692.869   -39366.611    22114.239    88425.062    82.010808 
   58600    3215.8463   -108.28837    2.9097653   -105.37861   -7177.3107    4.3532602    4.3532602    4.3532602   -7177.3107    -32650.68    659.51644    10459.231    13205.453   -6879.0665   -20102.382    82.498088 
   58700    1387.0418   -106.64831    1.2550245   -105.39328   -41455.583     4.351657     4.351657     4.351657   -41455.583   -21634.251   -62661.655   -40070.843   -42686.656   -24858.547    63935.811    82.406974 
   58800    1474.4416   -106.72417    1.3341058   -105.39007    3416.3218    4.3325376    4.3325376    4.3325376    3416.3218    16507.899    21018.189   -27277.122       -12840     8999.481    34713.397     81.32555 
   58900    2693.6795   -107.79631    2.4372978   -105.35901      15442.4    4.3279311    4.3279311    4.3279311      15442.4   -12562.734    3917.7586    54972.175     9388.833   -5698.4325    2237.3055    81.066425 
   59000    1618.3866   -106.83875    1.4643502    -105.3744    492.84744    4.3415395    4.3415395    4.3415395    492.84744    14275.677   -36357.716    23560.581    -43700.63    449.16213    78316.719    81.833529 
   59100    1883.9233   -107.06551    1.7046134   -105.36089   -4178.7299     4.352728     4.352728     4.352728   -4178.7299   -88910.674    50486.803    25887.681     42100.69   -6284.4663   -27789.117    82.467832 
   59200    1733.8973   -106.92131    1.5688667   -105.35244   -18004.743    4.3494353    4.3494353    4.3494353   -18004.743   -17335.732   -2803.3652   -33875.134   -2731.5882    8457.2098    74494.679    82.280822 
   59300    2421.1587   -107.52554    2.1907152   -105.33482     22894.08    4.3272044    4.3272044    4.3272044     22894.08   -4919.2023    50808.505    22792.936    3237.4085   -1803.0123   -4556.1778    81.025597 
   59400    1353.4805   -106.59483    1.2246576   -105.37017   -26170.592    4.3273072    4.3273072    4.3273072   -26170.592   -82552.765     44484.05   -40443.061    39605.725    10195.226   -8108.9519    81.031369 
   59500    2940.3411   -108.00844    2.6604824   -105.34796    19601.677    4.3318667    4.3318667    4.3318667    19601.677    15057.224   -19285.393    63033.201    -41529.92   -2668.6236    12674.068     81.28778 
   59600    1166.8348   -106.44251    1.0557766   -105.38673   -18238.103    4.3451626    4.3451626    4.3451626   -18238.103    4686.6053    6424.6786   -65825.592    4760.8291   -4874.1962   -36128.393    82.038574 
   59700    2544.0124   -107.64899    2.3018759   -105.34711   -12451.163    4.3505827    4.3505827    4.3505827   -12451.163   -13938.127   -10905.878   -12509.482   -20884.546    11562.661    11129.527    82.345956 
   59800    1460.1824   -106.68349    1.3212037   -105.36229    1500.9154    4.3330502    4.3330502    4.3330502    1500.9154    32293.786   -73808.777    46017.737   -62507.964   -7651.3799    12398.414    81.354419 
   59900    2836.2971   -107.89713    2.5663412   -105.33079    15962.727    4.3315326    4.3315326    4.3315326    15962.727     11411.45    62621.541    -26144.81    23112.358    -8929.517   -18954.877    81.268974 
   60000    1041.5401   -106.31505   0.94240734   -105.37264   -29706.571    4.3312747    4.3312747    4.3312747   -29706.571    3365.0951   -94442.618    1957.8103    -103540.6    13834.296    55068.577    81.254454 
   60100    2594.0515   -107.70534    2.3471523   -105.35819    37762.392    4.3377486    4.3377486    4.3377486    37762.392    39940.751    81611.237   -8264.8123    29539.091   -15246.979    1595.1088    81.619349 
   60200    1822.6291   -107.01865    1.6491531    -105.3695   -42700.596    4.3478766    4.3478766    4.3478766   -42700.596   -73833.625   -68972.564      14704.4   -94627.596     9686.518    2953.4276    82.192391 
   60300    1786.7332   -106.97598    1.6166738   -105.35931    13374.887     4.331885     4.331885     4.331885    13374.887    36206.447    28428.389   -24510.174   -7604.2905   -9338.6894    64494.798    81.288809 
   60400    2428.9046   -107.53504    2.1977239   -105.33731   -8583.4442    4.3398192    4.3398192    4.3398192   -8583.4442   -27848.332   -1706.4708    3804.4703   -50171.979    10051.832   -20506.266    81.736288 
   60500    1212.8077   -106.45743    1.0973739   -105.36006   -15035.272    4.3391172    4.3391172    4.3391172   -15035.272     8479.134   -42746.233   -10838.718   -65184.581    2639.2062    58181.703    81.696631 
   60600    2929.0156    -107.9809    2.6502349   -105.33067     11680.89    4.3401394    4.3401394    4.3401394     11680.89    19345.626   -4979.2066     20676.25     22213.54    6118.0189    7668.5165    81.754383 
   60700     1202.082   -106.44994     1.087669   -105.36228   -22174.221    4.3434931    4.3434931    4.3434931   -22174.221   -25324.885   -64494.398    23296.619   -65646.613    7627.6991    23184.891    81.944044 
   60800    2761.4142   -107.83194    2.4985856   -105.33336    3182.4655    4.3319015    4.3319015    4.3319015    3182.4655    42368.779   -35723.221    2901.8379    3334.6751   -2727.1432    49544.176     81.28974 
   60900    1299.5278   -106.53538    1.1758401   -105.35954   -10695.897    4.3372441    4.3372441    4.3372441   -10695.897   -47056.838   -35083.162    50052.308   -7128.9477    4839.8293   -16960.262    81.590878 
   61000    3151.2567   -108.17717    2.8513233   -105.32584   -8943.4048    4.3464478    4.3464478    4.3464478   -8943.4048    6092.7105    -52148.32    19225.395   -33587.173   -3954.5758    14249.643    82.111389 
   61100    1244.9864   -106.48119    1.1264898    -105.3547   -13222.815    4.3464719    4.3464719    4.3464719   -13222.815   -68922.862   -27526.467    56780.885    44469.933   -13220.038    4065.6171    82.112758 
   61200    2397.2084   -107.50587    2.1690445   -105.33682    2693.3118    4.3425467    4.3425467    4.3425467    2693.3118   -9866.4425   -32918.456    50864.834   -19090.997    27683.515   -25507.676    81.890492 
   61300    1605.7034   -106.79731    1.4528741   -105.34443    11754.409    4.3361367    4.3361367    4.3361367    11754.409   -10745.595    17086.754    28922.069    24168.012   -41582.557    8290.3178    81.528395 
   61400    1874.5635   -107.05547    1.6961444   -105.35933    140.43071    4.3439255    4.3439255    4.3439255    140.43071   -55931.432   -2805.1152    59157.839    17076.656    13228.774    3797.7279    81.968523 
   61500    2281.2067   -107.40066    2.0640837   -105.33658    17686.819    4.3539383    4.3539383    4.3539383    17686.819   -15356.466    50906.947    17509.976    8102.4814   -15396.883    1714.5102    82.536644 
   61600    1176.3876   -106.40037    1.0644202   -105.33595   -8200.8877    4.3569101    4.3569101    4.3569101   -8200.8877   -50446.002    1641.7376    24201.601    37822.825   -22328.603    18254.543    82.705768 
   61700    2646.7577   -107.68353     2.394842   -105.28869   -688.15855     4.356037     4.356037     4.356037   -688.15855    24764.407   -11252.785   -15576.097   -8646.5825    3704.5372   -30845.054    82.656055 
   61800    884.92499   -106.13316   0.80069873   -105.33247   -36098.718    4.3418281    4.3418281    4.3418281   -36098.718    -89031.58   -8783.2359   -10481.336    38046.921   -76572.405    633.06494     81.84985 
   61900    3194.3525   -108.19961    2.8903173   -105.30929     34964.61     4.318596     4.318596     4.318596     34964.61    42008.983    31060.604    31824.243   -8089.8515    41738.496   -337.95537     80.54299 
   62000    1281.6288   -106.51949    1.1596447   -105.35985    -18119.02    4.3248899    4.3248899    4.3248899    -18119.02   -71202.951    33813.615   -16967.724     22787.16   -30325.555   -11302.352    80.895648 
   62100    2654.2239   -107.73982    2.4015975   -105.33823   -2673.0349    4.3444364    4.3444364    4.3444364   -2673.0349    4243.2887   -5491.6236   -6770.7697      8942.61   -9551.4134    26930.319    81.997447 
   62200     1408.956   -106.62349     1.274853   -105.34864   -35638.799    4.3528914    4.3528914    4.3528914   -35638.799   -36825.544    -10474.85   -59616.003   -14148.746     34580.31    12643.648    82.477122 
   62300    2732.8282   -107.78026    2.4727204   -105.30754    2068.1929     4.350216     4.350216     4.350216    2068.1929   -13396.778    39975.326    -20373.97    7653.8366   -29513.828   -1318.6975    82.325137 
   62400    1044.8968   -106.28175   0.94544463    -105.3363   -36249.859    4.3455543    4.3455543    4.3455543   -36249.859    27273.797   -46713.449   -89309.926   -13386.333    40984.644    93381.339    82.060763 
   62500    2830.5889   -107.87225    2.5611763   -105.31107     4920.509    4.3319426    4.3319426    4.3319426     4920.509   -17712.566    22368.832    10105.261    -18161.37    16297.576   -49624.805    81.292049 
   62600    1771.4092   -106.94553    1.6028083   -105.34272   -12653.307    4.3327868    4.3327868    4.3327868   -12653.307     72681.39   -71104.084   -39537.227    7128.3306   -9843.1715    113832.26    81.339587 
   62700    2287.8184   -107.40447    2.0700662   -105.33441    11089.353    4.3391704    4.3391704    4.3391704    11089.353   -19132.579     25872.28    26528.358   -34054.425    49577.786   -23722.691    81.699637 
   62800    1634.4074   -106.81951    1.4788462   -105.34067   -10971.517    4.3548489    4.3548489    4.3548489   -10971.517    53129.405   -56556.223   -29487.733    413.03656       -11358    85462.528    82.588441 
   62900    2799.3705   -107.82932    2.5329292   -105.29639   -21842.738    4.3618003    4.3618003    4.3618003   -21842.738   -22217.818   -31752.602   -11557.793   -6576.0139    13454.969    -17847.31    82.984569 
   63000    1171.5809   -106.39211     1.060071   -105.33204   -2957.4035    4.3314319    4.3314319    4.3314319   -2957.4035    55937.093   -23523.709   -41285.595   -26342.509    33687.192     90229.32    81.263305 
   63100    2764.7837   -107.81193    2.5016344   -105.31029    51438.321    4.3175945    4.3175945    4.3175945    51438.321    63917.211    21275.392    69122.359    15210.585   -16862.475   -1868.2795    80.486964 
   63200     1245.744   -106.48064    1.1271753   -105.35347   -22608.011    4.3379354    4.3379354    4.3379354   -22608.011     67017.32   -50897.932   -83943.421    5094.4204    1832.9989    86386.118    81.629893 
   63300    2381.0726   -107.48892    2.1544446   -105.33448   -10105.893    4.3574823    4.3574823    4.3574823   -10105.893   -2931.6167   -17406.215   -9979.8478    -7941.476    17768.302    13931.231    82.738356 
   63400    1706.1377   -106.86931    1.5437493   -105.32557   -54572.105    4.3697339    4.3697339    4.3697339   -54572.105    27900.755   -97254.874   -94362.195     15493.85   -8597.9242    66592.468    83.438208 
   63500    1980.6524   -107.13461     1.792136   -105.34247   -25294.449    4.3393537    4.3393537    4.3393537   -25294.449    16151.838   -61508.622   -30526.564    14641.929   -14583.896    72320.985    81.709987 
   63600    2412.0385   -107.50305    2.1824631   -105.32059    38707.976    4.3063868    4.3063868    4.3063868    38707.976    108428.64   -11906.493    19601.775   -18575.148    12633.441      18136.1    79.861802 
   63700    1027.6465   -106.29303   0.92983618   -105.36319   -8056.9704    4.3220707    4.3220707    4.3220707   -8056.9704    76369.324   -66976.122   -33564.113    20984.316   -25906.289    68452.871    80.737558 
   63800    2804.3795   -107.87047    2.5374615   -105.33301    8074.9857    4.3480344    4.3480344    4.3480344    8074.9857   -5021.4668    724.41013    28522.014   -4321.8659   -6100.0079      13015.1    82.201345 
   63900    1380.5884   -106.59077    1.2491854   -105.34159   -9163.5108    4.3630641    4.3630641    4.3630641   -9163.5108    69373.478   -73031.839   -23832.171   -6234.6305   -3139.0204    67577.402    83.056724 
   64000    2501.9553     -107.559    2.2638218   -105.29517   -5316.2239    4.3571957    4.3571957    4.3571957   -5316.2239    9826.0633   -15113.357   -10661.378   -2017.9933   -1311.4197   -45002.047    82.722032 
   64100    1640.8498   -106.78821    1.4846754   -105.30354    7883.3052    4.3319766    4.3319766    4.3319766    7883.3052    62173.364   -11498.343   -27025.106    1044.7549   -9064.6945    126350.84    81.293965 
   64200    2483.9317   -107.54164    2.2475136   -105.29412    25547.041    4.3228959    4.3228959    4.3228959    25547.041     67462.24    2257.5814    6921.3012   -6537.9157    9485.6498   -88573.283     80.78381 
   64300    1350.0656   -106.55433    1.2215678   -105.33277    11536.392    4.3395397    4.3395397    4.3395397    11536.392    105706.75    541.78502   -71639.358    3469.4868   -3958.6993    120519.72    81.720495 
   64400    2948.9662   -107.96968    2.6682866   -105.30139   -1833.6437    4.3594233    4.3594233    4.3594233   -1833.6437    9102.3238    8307.3552    -22910.61   -158.40649   -7230.2387   -48020.714     82.84897 
   64500    1168.2363   -106.39149    1.0570448   -105.33444   -23994.206    4.3603924    4.3603924    4.3603924   -23994.206    108567.73   -43775.368   -136774.98    10703.634   -2866.7705    85419.666    82.904236 
   64600    3236.6961   -108.21892    2.9286306   -105.29029    10753.398    4.3473994    4.3473994    4.3473994    10753.398    19837.489    27413.022   -14990.318    8491.9304   -6178.9057   -12867.258    82.165331 
   64700    892.80467    -106.1353   0.80782843   -105.32747    1988.6857    4.3269886    4.3269886    4.3269886    1988.6857    41617.299    5942.7398   -41593.982    20922.234   -505.77833     77573.05    81.013474 
   64800    2967.0701   -108.00178    2.6846673   -105.31711    34203.088    4.3322798    4.3322798    4.3322798    34203.088     76801.94    57043.101   -31235.776   -12865.072     10516.07   -21507.574    81.311034 
   64900     1044.971   -106.29574   0.94551168   -105.35023   -21381.357    4.3440351    4.3440351    4.3440351   -21381.357    41303.631   -61972.581    -43475.12    1721.2798   -407.96807    80949.178    81.974727 
   65000    2881.6416   -107.93662    2.6073699   -105.32925    27167.026     4.356098     4.356098     4.356098    27167.026    68544.155     24987.06   -12030.138    6493.3183     1948.371   -2584.5768    82.659527 
   65100    1440.0071   -106.63387    1.3029487   -105.33092   -46051.113    4.3652555    4.3652555    4.3652555   -46051.113    15963.594   -92518.396   -61598.537   -3639.2871     7987.403    58182.135    83.181934 
   65200    2277.4342    -107.3728    2.0606703   -105.31213    6890.5061    4.3426427    4.3426427    4.3426427    6890.5061    25316.037     5402.878   -10047.397    7955.6877   -276.58563    28279.619    81.895928 
   65300    1846.5892   -106.98302    1.6708327   -105.31219   -479.07701    4.3329536    4.3329536    4.3329536   -479.07701    59153.551    5259.0671   -65849.849    4071.8506    285.70256    18502.899     81.34898 
   65400    1548.6519   -106.75161    1.4012528   -105.35036   -9270.5326    4.3333911    4.3333911    4.3333911   -9270.5326    21221.269   -9315.8985   -39716.968    17825.448   -2361.1146    43709.072    81.373622 
   65500    2713.6352   -107.78363    2.4553542   -105.32827    17305.041    4.3439016    4.3439016    4.3439016    17305.041    31458.807    60584.376   -40128.061   -19773.769   -2901.8776    31280.061    81.967167 
   65600     1042.436   -106.29521   0.94321797   -105.35199   -21918.723    4.3527003    4.3527003    4.3527003   -21918.723     52401.43   -9622.7556   -108534.84    12200.776   -7474.5098    44070.564    82.466258 
   65700    3021.1855    -108.0408    2.7336321   -105.30716    13187.897     4.355465     4.355465     4.355465    13187.897    22067.784     49322.77   -31826.862   -10475.846   -2223.9437   -16469.123      82.6235 
   65800    914.98472   -106.16939    0.8278974    -105.3415   -27121.347    4.3469596    4.3469596    4.3469596   -27121.347    67992.553   -97256.305    -52100.29   -26452.938   -5775.1718    82890.468    82.140402 
   65900    3258.2238   -108.24796    2.9481093   -105.29985    46797.378    4.3345107    4.3345107    4.3345107    46797.378    53061.623    56245.044    31085.468   -530.15554    630.64715   -31516.946    81.436715 
   66000    849.57504   -106.13473   0.76871335   -105.36602   -25168.168    4.3446952    4.3446952    4.3446952   -25168.168    48398.029   -100817.37   -23085.163    -31500.52   -5429.3119    91868.369    82.012103 
   66100    2709.2028   -107.78732    2.4513436   -105.33597    3335.3263    4.3564928    4.3564928    4.3564928    3335.3263    3311.8916   -5961.8767    12655.964   -2713.0325    10500.591    1321.0345    82.682007 
   66200    1412.0728   -106.62436    1.2776731   -105.34668    9358.4946    4.3521087    4.3521087    4.3521087    9358.4946    67203.684   -35644.995   -3483.2054   -20442.871    -6885.894     41180.12    82.432638 
   66300    2204.1462   -107.31675    1.9943578    -105.3224    13159.531    4.3582161    4.3582161    4.3582161    13159.531    28166.788    -28594.79    39906.595   -17397.594    3174.8309    31125.199    82.780166 
   66400    2069.8477   -107.19189    1.8728417   -105.31905   -21084.462    4.3549484    4.3549484    4.3549484   -21084.462    2789.3476   -16411.807   -49630.927    9595.9033   -8414.4632    7207.8765    82.594104 
   66500    1527.7499   -106.71309    1.3823402   -105.33075   -9665.8038    4.3450973    4.3450973    4.3450973   -9665.8038    25870.939   -28321.917   -26546.434   -34312.044    2305.0284    59559.431    82.034877 
   66600     2150.772   -107.25837    1.9460637   -105.31231    20875.991    4.3348794    4.3348794    4.3348794    20875.991   -16192.149    52170.832     26649.29     42721.32   -13428.818   -21070.207    81.457496 
   66700    1390.9394   -106.61299    1.2585512   -105.35444   -29783.497    4.3432518    4.3432518    4.3432518   -29783.497     28109.17   -75487.697   -41971.964    -18765.81    11991.201    71102.725     81.93039 
   66800    3014.8787   -108.05533    2.7279256   -105.32741    23927.567    4.3436556    4.3436556    4.3436556    23927.567    5977.5414    34173.517    31631.642    33456.297   -9223.4888   -10685.701    81.953247 
   66900    971.97588   -106.24554    0.8794642   -105.36607   -20504.699    4.3576002    4.3576002    4.3576002   -20504.699    22421.711   -83919.123   -16.683491    22219.193    3255.8199    40654.985    82.745072 
   67000    3023.4273   -108.04362    2.7356606   -105.30796   -2484.4178    4.3596273    4.3596273    4.3596273   -2484.4178    17102.273   -17620.825   -6934.7017    3872.9336    -2621.055    4932.5102    82.860601 
   67100    682.78032   -105.95599   0.61779399   -105.33819    26713.265    4.3398722    4.3398722    4.3398722    26713.265    19056.975   -26637.235    87720.055    26165.759    4708.9612   -3095.6549    81.739285 
   67200    3134.0481    -108.1323    2.8357526   -105.29655     28026.93     4.343273     4.343273     4.343273     28026.93    42620.129    11590.682    29869.979   -8433.6343    10803.998    13486.384    81.931588 
   67300     757.6831   -106.03221    0.6855676   -105.34664     9016.013     4.345852     4.345852     4.345852     9016.013   -11361.353   -32175.394    70584.787    57071.168    7869.8219   -41424.383    82.077631 
   67400     2746.578   -107.80169    2.4851615   -105.31653    25143.506    4.3575135    4.3575135    4.3575135    25143.506    34711.858   -3833.5641    44552.223    -33860.94    1476.3124   -11440.273    82.740133 
   67500    1517.9616   -106.70495    1.3734835   -105.33146      8544.04    4.3578439    4.3578439    4.3578439      8544.04    20445.496   -17422.776    22609.401    75698.022    14862.331   -11971.763    82.758955 
   67600    2288.0951   -107.36846    2.0703165   -105.29815    23734.017     4.354758     4.354758     4.354758    23734.017    33495.883   -11018.613    48724.781   -50458.814   -5726.6455   -28682.306    82.583268 
   67700    1712.3575   -106.85204     1.549377   -105.30267   -24711.445    4.3554794    4.3554794    4.3554794   -24711.445   -43079.757   -44177.354    13122.777    68585.316     12279.28    29656.058    82.624319 
   67800    2042.3487   -107.16573      1.84796   -105.31777   -9285.7382    4.3484472    4.3484472    4.3484472   -9285.7382    16838.718   -27537.566   -17158.367    6909.3437    11690.238   -32497.875    82.224757 
   67900    2474.8071   -107.56728    2.2392575   -105.32802    9247.2631    4.3353188    4.3353188    4.3353188    9247.2631   -8379.0491    36063.163    57.675751    19424.529   -29113.637    18409.629    81.482271 
   68000    1165.2066   -106.43024    1.0543034   -105.37593   -23661.007    4.3309581    4.3309581    4.3309581   -23661.007   -35056.754    -53409.46    17483.194    66739.814    6919.9205    23724.937    81.236641 
   68100    2792.0177   -107.87277    2.5262763    -105.3465    19406.105    4.3451642    4.3451642    4.3451642    19406.105     24282.83    34861.705   -926.22132   -24149.826   -9545.8184   -22833.457    82.038664 
   68200    920.93369   -106.18606   0.83328016   -105.35278    -32546.37     4.369711     4.369711     4.369711    -32546.37   -28361.908   -60028.622   -9248.5785    63334.545   -31430.464    37904.537    83.436897 
   68300    3436.6246   -108.37942    3.1095301   -105.26989   -20106.606    4.3721625    4.3721625    4.3721625   -20106.606    2613.5338   -27396.868   -35536.485   -14087.875     3472.454    -13297.34    83.577403 
   68400    911.32382   -106.12762   0.82458494   -105.30303    -41855.56    4.3536732    4.3536732    4.3536732    -41855.56   -66117.491   -14640.964   -44808.226    55784.297   -65303.877    29389.516    82.521571 
   68500    2775.0306    -107.7987     2.510906   -105.28779    32354.038    4.3235724    4.3235724    4.3235724    32354.038    56650.274   -1307.3446    41719.183    6113.3728    23376.249   -673.20399    80.821742 
   68600    1582.2632   -106.77135     1.431665   -105.33969   -2120.6569    4.3206337    4.3206337    4.3206337   -2120.6569   -40946.617    41679.349   -7094.7034    13637.029   -56696.006   -14740.535    80.657054 
   68700    1888.6927   -107.08195    1.7089289   -105.37302   -20011.618    4.3448717    4.3448717    4.3448717   -20011.618   -45818.802   -33578.562    19362.508    74520.373     -10544.7     7284.445    82.022095 
   68800    2417.2138   -107.54056    2.1871458   -105.35341    14113.171    4.3525612    4.3525612    4.3525612    14113.171    5636.3448    2208.8672    34494.301   -41214.167    -16306.72   -12549.863    82.458354 
   68900    1346.4864   -106.58993    1.2183292    -105.3716   -33715.581    4.3503058    4.3503058    4.3503058   -33715.581   -84423.757    -39772.64    23049.654    84034.549   -43515.497   -2405.3073    82.330235 
   69000    2642.9504   -107.74004    2.3913971   -105.34864   -10846.451    4.3390391    4.3390391    4.3390391   -10846.451   -40977.849   -49674.131    58112.629   -54542.757    11632.764    4385.6969    81.692216 
   69100    2020.5055   -107.18207    1.8281959   -105.35387    1587.9874    4.3261756    4.3261756    4.3261756    1587.9874    -45295.13    16206.879    33852.212   -9939.3197   -36894.121   -11138.168    80.967815 
   69200    1623.1004   -106.83927    1.4686153   -105.37065   -5355.3934     4.329887     4.329887     4.329887   -5355.3934   -56401.165   -18081.931    58416.915    29239.226   -19191.933   -4492.4011    81.176383 
   69300    2459.4574   -107.58071    2.2253687   -105.35534    -7992.195    4.3449709    4.3449709    4.3449709    -7992.195   -31784.527   -24384.919    32192.861   -83711.388   -4546.1756    9267.8599    82.027715 
   69400    1258.7259   -106.51301    1.1389217   -105.37409   -20015.069    4.3488933    4.3488933    4.3488933   -20015.069   -35700.234    11144.457    -35489.43    56550.777    -46052.02    9846.9965    82.250067 
   69500     2607.227   -107.71852    2.3590738   -105.35945    3148.4848    4.3467234    4.3467234    4.3467234    3148.4848    22086.739   -40267.573    27626.289    21798.945    12866.939   -22869.783    82.127009 
   69600    2617.8554   -107.72324    2.3686906   -105.35455   -356.33796      4.33809      4.33809      4.33809   -356.33796    20440.187    18085.584   -39594.785   -4751.4631   -37138.373    6417.3561    81.638622 
   69700    1281.2178   -106.53879    1.1592728   -105.37952   -4719.9042    4.3361199    4.3361199    4.3361199   -4719.9042   -38526.395   -1109.7751    25476.458    68560.673   -2543.5346   -7468.6179    81.527447 
   69800    2640.9657   -107.72003    2.3896012   -105.33042   -23866.347       4.3638       4.3638       4.3638   -23866.347   -42494.104   -33252.833    4147.8938   -57579.533   -9015.4153   -9515.6423    83.098757 
   69900    1191.6184   -106.37241    1.0782014   -105.29421    -38132.35    4.3797083    4.3797083    4.3797083    -38132.35   -93452.498   -31982.483    11037.929    69990.561   -41358.365    19541.302    84.010883 
   70000    3231.9696    -108.1783     2.924354   -105.25395   -1019.7184    4.3637026    4.3637026    4.3637026   -1019.7184   -10403.061    19814.269   -12470.363   -35133.074    16120.483   -8838.3657    83.093188 
   70100    1342.9847   -106.54459    1.2151607   -105.32943    -21120.33    4.3304042    4.3304042    4.3304042    -21120.33   -69126.881    10678.845   -4912.9528     50163.29   -69800.843    26747.022    81.205473 
   70200    2460.1735   -107.55616    2.2260167   -105.33014    56327.202     4.301384     4.301384     4.301384    56327.202    33116.922    70786.618    65078.067    10668.862    39346.119   -8287.3535    79.583794 
   70300    2049.1096   -107.22205    1.8540774   -105.36797     8872.293    4.3293562    4.3293562    4.3293562     8872.293   -21417.504    75715.522   -27681.139    4426.6562   -1896.3885   -5759.3216    81.146534 
   70400     1717.411   -106.91621    1.5539496   -105.36226   -34946.911    4.3581496    4.3581496    4.3581496   -34946.911   -51469.566   -36603.789   -16767.379    55491.235   -44282.514     16452.37    82.776377 
   70500    2517.6624   -107.62386    2.2780339   -105.34583    4050.7829    4.3518635    4.3518635    4.3518635    4050.7829    32149.003    -15842.35   -4154.3048   -22665.431    56959.962    -24355.13    82.418704 
   70600    1139.8595   -106.40229    1.0313688   -105.37092   -2399.5711    4.3353372    4.3353372    4.3353372   -2399.5711   -22520.539   -1091.1761    16413.002    45942.837   -64796.025    19351.847    81.483307 
   70700    2464.0245   -107.58211    2.2295011   -105.35261    24701.543    4.3253016    4.3253016    4.3253016    24701.543    24983.101   -13833.839    62955.367   -16700.343    4508.2184   -11343.371    80.918756 
   70800     2348.198   -107.47557    2.1246989   -105.35087    4661.2979    4.3382076    4.3382076    4.3382076    4661.2979    20764.957    11713.354   -18494.417     8861.726   -46421.644    2194.8608     81.64526 
   70900    1451.0801   -106.67183    1.3129678   -105.35887    -14317.66    4.3548143    4.3548143    4.3548143    -14317.66    -36833.43   -9424.8336    3305.2848    36144.634   -17958.992    6192.6331    82.586475 
   71000    2492.5393   -107.59452    2.2553019   -105.33922   -10205.368     4.348398     4.348398     4.348398   -10205.368   -21136.794   -4466.8136   -5012.4961   -51534.474   -13262.934    -10388.42    82.221966 
   71100    1501.9242   -106.71996    1.3589726   -105.36099   -11106.981      4.32559      4.32559      4.32559   -11106.981   -50290.677    41912.902   -24943.168    43367.755   -81018.577    2645.3144     80.93494 
   71200    2472.3138    -107.5873    2.2370015    -105.3503    17095.011    4.3191328    4.3191328    4.3191328    17095.011   -12009.465    14684.322    48610.177    27155.576    33128.057   -2895.2569    80.573028 
   71300    1668.7758   -106.88944    1.5099435    -105.3795   -4661.7353    4.3307637    4.3307637    4.3307637   -4661.7353   -46985.745    65903.086   -32902.548   -26717.417   -105626.72   -2869.6086    81.225702 
   71400    2833.8984   -107.92271    2.5641708   -105.35854    7334.9313    4.3483966    4.3483966    4.3483966    7334.9313    7743.4169   -266.97874    14528.356    25414.627    26417.637    -2554.996    82.221888 
   71500    1435.5267   -106.67356    1.2988947   -105.37466   -33313.395    4.3501346    4.3501346    4.3501346   -33313.395   -52884.118    42056.959   -89113.027    11552.594   -81204.189    10732.696    82.320514 
   71600    1861.8127   -107.04705    1.6846072   -105.36245   -2076.0524    4.3298774    4.3298774    4.3298774   -2076.0524   -4385.3067   -14912.596    13069.745   -64597.026    9391.7307    -12069.48    81.175841 
   71700    2208.6856   -107.34985    1.9984652   -105.35138   -7073.8644    4.3209655    4.3209655    4.3209655   -7073.8644   -3704.8236    14972.376   -32489.146   -10491.965   -49584.518     13385.58    80.675635 
   71800    1917.8698   -107.10099    1.7353289   -105.36566    5971.3867    4.3254599    4.3254599    4.3254599    5971.3867    19318.344    15416.338   -16820.522   -14500.033   -53554.594    4642.4045    80.927642 
   71900    1852.7817   -107.04735    1.6764358   -105.37091   -24176.953    4.3462655    4.3462655    4.3462655   -24176.953   -42401.122   -55525.924    25396.186   -70147.998    35585.085   -5963.0785    82.101056 
   72000    2606.2639   -107.70392    2.3582023   -105.34572   -9928.1671    4.3479852    4.3479852    4.3479852   -9928.1671   -3499.3688    2717.9856   -29003.118    24522.826   -54744.543    3990.0865     82.19855 
   72100    1314.3696   -106.55275    1.1892693   -105.36348   -13111.657     4.332544     4.332544     4.332544   -13111.657   -24011.207   -73341.518    58017.753   -98367.919    4293.9818   -3931.6966    81.325915 
   72200     2119.302   -107.27454     1.917589   -105.35695   -7289.6735    4.3245912    4.3245912    4.3245912   -7289.6735   -14284.964   -10665.125    3081.0685    62546.214    34830.029   -2395.6256    80.878892 
   72300    2167.3055   -107.32622    1.9610236    -105.3652    11169.713     4.325379     4.325379     4.325379    11169.713   -291.36057   -35965.587    69766.088   -83522.517   -6679.9018   -2408.2277    80.923096 
   72400     2349.903   -107.49251    2.1262417   -105.36627   -8561.8559     4.334824     4.334824     4.334824   -8561.8559   -35516.818   -13833.456    23664.706   -1843.3648    9173.7809   -415.38797    81.454375 
   72500    1365.1782   -106.61877    1.2352419   -105.38352   -17085.286    4.3394039    4.3394039    4.3394039   -17085.286   -32453.021    456.28504   -19259.121    41922.551    46265.774   -7216.0697    81.712826 
   72600    3332.2539   -108.35964    3.0150934   -105.34455    14387.577    4.3371808    4.3371808    4.3371808    14387.577    39728.486   -9984.6073    13418.853   -41942.392   -10139.287    6789.2714    81.587302 
   72700    702.96153   -106.04034   0.63605437   -105.40429   -16020.379    4.3299734    4.3299734    4.3299734   -16020.379   -35448.403    20835.029   -33447.762    66522.447    18816.899   -4577.7058    81.181239 
   72800    2292.5397   -107.46022    2.0743381   -105.38588     64.51759    4.3304162    4.3304162    4.3304162     64.51759   -9347.0698    44217.446   -34676.824    -8394.808    37826.016    1405.2727    81.206147 
   72900    2047.3259   -107.22354    1.8524635   -105.37108   -8240.9731    4.3371343    4.3371343    4.3371343   -8240.9731    -11863.21   -54871.645    42011.936   -23036.429   -11725.502    999.11673    81.584679 
   73000    2204.5287   -107.34805    1.9947039   -105.35335    4750.9487    4.3397449    4.3397449    4.3397449    4750.9487    -9807.921    27035.023   -2974.2561    57010.401    41144.405    1928.8513    81.732091 
   73100    1478.4439   -106.69887    1.3377271   -105.36115   -23814.638    4.3416725    4.3416725    4.3416725   -23814.638   -34332.104   -77612.327    40500.516   -105597.58   -7686.1462   -5134.7378    81.841046 
   73200     2424.869   -107.54474    2.1940725   -105.35066   -1061.9613    4.3297424    4.3297424    4.3297424   -1061.9613    28229.311   -16621.686   -14793.509    12924.907    16045.919    15913.313    81.168251 
   73300    1598.6678   -106.81408    1.4465082   -105.36757    4833.0202    4.3216839    4.3216839    4.3216839    4833.0202   -19283.723   -15170.979    48953.763   -73839.412    26463.702   -788.36591    80.715881 
   73400     2191.131   -107.34293    1.9825814   -105.36035   -5331.5374     4.336271     4.336271     4.336271   -5331.5374     3067.879   -63425.509    44363.017   -42606.818   -8111.6631    2081.6982     81.53597 
   73500    1864.0893   -107.03108    1.6866672   -105.34441    11452.058    4.3444247    4.3444247    4.3444247    11452.058    645.38451    29408.587     4302.202   -41795.919     7706.332   -6098.6413    81.996787 
   73600    1737.1813    -106.9189    1.5718382   -105.34706   -27461.375    4.3505779    4.3505779    4.3505779   -27461.375   -63700.652   -18782.759    99.284789   -69015.618    27292.224    6384.4172    82.345688 
   73700    2587.1383   -107.66603    2.3408971   -105.32514    11885.894    4.3393973    4.3393973    4.3393973    11885.894    44416.987   -33851.442    25092.136   -4021.2454   -10495.349    6614.5679    81.712451 
   73800    1311.1974    -106.5239     1.186399    -105.3375   -1276.4826    4.3312456    4.3312456    4.3312456   -1276.4826   -19008.689   -10800.785    25980.026   -89924.927    26712.492   -5027.2637    81.252815 
   73900    2534.5751   -107.61915    2.2933368   -105.32581    3649.9372    4.3349729    4.3349729    4.3349729    3649.9372    259.18062   -5208.9304    15899.561    35394.844    20632.857    15836.155    81.462766 
   74000    1459.7667   -106.68365    1.3208275   -105.36282   -9255.2104    4.3367329    4.3367329    4.3367329   -9255.2104   -25887.436   -46704.013    44825.817   -104948.38   -14646.222    8311.4416    81.562027 
   74100    2890.5032     -107.965     2.615388   -105.34961     1431.501    4.3397472    4.3397472    4.3397472     1431.501    -21431.01    41867.305   -16141.791    37018.179    38837.622    1741.5827    81.732221 
   74200    985.65675   -106.27689   0.89184294   -105.38505   -5749.6538    4.3358494    4.3358494    4.3358494   -5749.6538   -12932.014   -57430.696    53113.748    -36060.83    11098.692     6986.316    81.512189 
   74300    2487.3175   -107.60427    2.2505772   -105.35369    2004.7198    4.3401654    4.3401654    4.3401654    2004.7198   -18832.207    39751.719   -14905.353   -43562.465   -14668.914    3647.1081    81.755852 
   74400    1856.1057   -107.03896    1.6794435   -105.35952    -25117.27     4.345875     4.345875     4.345875    -25117.27   -33412.359   -11048.114   -30891.337    26105.996    8753.6567    -16399.78    82.078932 
   74500    2278.7732   -107.40755    2.0618818   -105.34567    9600.7124    4.3332059    4.3332059    4.3332059    9600.7124   -38019.601    26418.087    40403.651   -31713.381   -7803.4592    9046.0018    81.363192 
   74600    1662.8263   -106.86589    1.5045602   -105.36133   -15033.099    4.3316205    4.3316205    4.3316205   -15033.099   -20446.696    31902.166   -56554.766    145.00991   -53291.759   -30241.647    81.273921 
   74700    2126.9333     -107.286    1.9244939   -105.36151    16177.019    4.3303725    4.3303725    4.3303725    16177.019    9127.2522    -37881.76    77285.566     41369.38    20737.329    -14759.97     81.20369 
   74800    1981.6685   -107.16255    1.7930553    -105.3695     -4634.09    4.3429874    4.3429874    4.3429874     -4634.09   -31485.939    42235.732   -24652.063   -16758.649   -40345.685    10387.968    81.915429 
   74900    1935.4639   -107.10559    1.7512484   -105.35434   -10148.432    4.3511677    4.3511677    4.3511677   -10148.432     12572.27   -42070.919   -946.64841    45150.517   -3464.3825   -9103.5887    82.379181 
   75000    2089.7166   -107.24098    1.8908195   -105.35016   -10181.573    4.3399429    4.3399429    4.3399429   -10181.573   -19962.067   -26400.364    15817.714    40061.018    9064.6011   -1923.4492    81.743276 
   75100    2172.9371   -107.31878    1.9661191   -105.35266    6497.9814    4.3267884    4.3267884    4.3267884    6497.9814     10097.84    22432.552   -13036.448   -5639.5322   -34094.164    10708.311    81.002227 
   75200    1381.5433   -106.63749    1.2500494   -105.38744   -22812.675    4.3248905    4.3248905    4.3248905   -22812.675   -16936.434   -90953.687    39452.096    113031.78     5653.743   -6771.2275    80.895682 
   75300    2902.8969   -107.99055    2.6266021   -105.36395    23629.104    4.3357004    4.3357004    4.3357004    23629.104    48168.832    29239.627   -6521.1486   -31363.798    16035.994   -2499.2032    81.503789 
   75400    1138.3601   -106.42431    1.0300121   -105.39429   -42510.459    4.3541257    4.3541257    4.3541257   -42510.459    -75805.02   -79032.674    27306.317    116958.74   -26068.748    13388.782    82.547303 
   75500    2701.7333   -107.79423    2.4445851   -105.34964   -19938.466    4.3520163    4.3520163    4.3520163   -19938.466   -13915.377   -27212.578   -18687.441   -39525.789    25671.811   -2339.6684     82.42739 
   75600    1493.2921   -106.70302    1.3511621   -105.35186    10887.383     4.325946     4.325946     4.325946    10887.383   -32065.614    9844.6753    54883.087    57266.963   -3740.9086   -3800.4631    80.954929 
   75700    2194.4503   -107.33014    1.9855848   -105.34455    6625.6027    4.3270089    4.3270089    4.3270089    6625.6027    13890.995    12166.597   -6180.7838    21366.649   -14516.103    38924.173    81.014614 
   75800    1869.5025    -107.0515    1.6915652   -105.35993     3650.311    4.3324759    4.3324759    4.3324759     3650.311   -25171.443    37980.647   -1858.2712   -11654.668    25868.573    12981.498    81.322081 
   75900    1838.3961   -107.04208    1.6634194   -105.37866    1614.3047    4.3436519    4.3436519    4.3436519    1614.3047   -35425.955    15988.195    24280.674    65021.236   -7697.1771    6247.0806    81.953034 
   76000    2363.4836    -107.4904    2.1385296   -105.35187   -27363.099    4.3559081    4.3559081    4.3559081   -27363.099   -651.60633   -16180.727   -65256.962   -22138.452     14861.89    68258.685    82.648719 
   76100    1780.5605   -106.96945    1.6110886   -105.35836    12906.101    4.3317125    4.3317125    4.3317125    12906.101   -69534.083    39744.501    68507.887    65697.673    26986.385   -21966.748    81.279098 
   76200    2610.1223   -107.70663    2.3616935   -105.34494    11280.494    4.3248729    4.3248729    4.3248729    11280.494    30676.435   -490.30674    3655.3545   -14204.697   -9671.7648    61047.787    80.894696 
   76300    1436.3126   -106.67038    1.2996059   -105.37077   -11303.735    4.3312778    4.3312778    4.3312778   -11303.735   -40801.768    9103.0942   -2212.5318    41733.718    19059.769    10848.067    81.254632 
   76400    1539.8617    -106.7866    1.3932992    -105.3933    14151.079    4.3400549    4.3400549    4.3400549    14151.079   -9015.8178    17155.235    34313.819     23879.37    22220.635   -29023.278    81.749607 
   76500    2968.6572   -108.04623    2.6861034   -105.36013   -11114.129    4.3537413    4.3537413    4.3537413   -11114.129   -32269.162    7227.2683   -8300.4935    1647.2224   -16770.901    7786.4736    82.525442 
   76600    1015.4408    -106.3003   0.91879222    -105.3815    17335.207    4.3410897    4.3410897    4.3410897    17335.207   -24349.953    18689.078    57666.496    66815.774    25596.574   -12171.883    81.808094 
   76700    2859.7204      -107.91    2.5875351   -105.32247    20891.232    4.3458751    4.3458751    4.3458751    20891.232     33051.94    16159.375     13462.38   -23936.013   -10628.753   -15983.239    82.078938 
   76800    1077.7377   -106.32428    0.9751597   -105.34912   -34808.388     4.346333     4.346333     4.346333   -34808.388    -77234.85   -38650.709    11460.394    83336.257    13772.575    13168.487    82.104885 
   76900    2809.7525   -107.86921    2.5423231   -105.32689    42576.378     4.331697     4.331697     4.331697    42576.378    24907.227    90303.479    12518.429   -25200.552   -4354.2319   -12222.375    81.278224 
   77000    1565.7109   -106.78762    1.4166881   -105.37093   -13985.878    4.3375988    4.3375988    4.3375988   -13985.878   -75631.027   -4389.8139    38063.207    71670.356   -4827.4798    -17878.49    81.610892 
   77100    1733.9308   -106.95365    1.5688971   -105.38475   -15748.353    4.3392501    4.3392501    4.3392501   -15748.353   -42304.907    14978.054   -19918.206   -9922.4325    17910.133    31451.601    81.704138 
   77200    2411.3143   -107.54709    2.1818079   -105.36528   -21162.523    4.3487995    4.3487995    4.3487995   -21162.523   -25055.295   -21116.761   -17315.514     29193.76   -8122.6216   -29306.512    82.244745 
   77300    1735.6899    -106.9449    1.5704887   -105.37441   -23810.653    4.3392066    4.3392066    4.3392066   -23810.653   -84008.683    2590.5544    9986.1689    25150.005   -1459.5601    -2014.053     81.70168 
   77400    2439.7344   -107.56178     2.207523   -105.35426    17397.893    4.3276397    4.3276397    4.3276397    17397.893    25799.036    61223.332    -34828.69   -34201.293     7328.906   -13257.177    81.050052 
   77500    1392.1201   -106.64461    1.2596195   -105.38499    -32224.26    4.3293935    4.3293935    4.3293935    -32224.26   -47281.801   -1373.4686    -48017.51    46730.859     -25001.8   -51527.476    81.148626 
   77600    2226.7805   -107.40587    2.0148378   -105.39103    23140.438    4.3319208    4.3319208    4.3319208    23140.438   -22920.293    47382.863    44958.743   -21104.956    10463.595    24718.951    81.290825 
   77700    2203.3249   -107.37291    1.9936146   -105.37929   -21182.769    4.3556136    4.3556136    4.3556136   -21182.769   -5284.9373   -16717.968   -41545.403    6990.4908   -11309.893   -10661.541    82.631955 
   77800    1576.3119   -106.78237    1.4262802   -105.35609   -21882.574     4.360666     4.360666     4.360666   -21882.574   -68705.496   -4583.4599    7641.2351    59878.605   -29395.905   -11110.783    82.919842 
   77900    2711.7326   -107.77841    2.4536326   -105.32477    14323.247    4.3411176    4.3411176    4.3411176    14323.247    91729.037   -19729.114   -29030.183    -30932.95     19579.59    37204.165    81.809673 
   78000    1435.0697    -106.6543    1.2984813   -105.35581   -32619.972      4.32613      4.32613      4.32613   -32619.972   -44208.153   -49278.011   -4373.7507    81905.524   -18991.845   -18468.923    80.965257 
   78100    1940.3147    -107.1266    1.7556375   -105.37096    5885.0724      4.31125      4.31125      4.31125    5885.0724   -10884.972   -3678.2522    32218.441   -16406.939    -9884.914    20323.867     80.13267 
   78200    2157.7792   -107.34977     1.952404   -105.39737    4699.4043    4.3288482    4.3288482    4.3288482    4699.4043    54323.317   -59221.573    18996.468   -27819.714    2601.0483    23715.191    81.117969 
   78300    2647.1501   -107.77077    2.3951971   -105.37558    -14946.81    4.3489393    4.3489393    4.3489393    -14946.81   -15324.276   -24453.908   -5062.2473    40302.944   -11597.355   -32926.724    82.252678 
   78400    713.80977    -106.0472   0.64587008   -105.40133   -9009.8304    4.3418619    4.3418619    4.3418619   -9009.8304   -5311.5188   -53579.805    31861.833   -67429.919   -9883.6089    48403.946    81.851761 
   78500    2744.5719   -107.86641    2.4833464   -105.38306    21172.803    4.3344398    4.3344398    4.3344398    21172.803    31419.392    10388.782    21710.235    1568.5643    17251.604   -15046.365    81.432719 
   78600    2123.8757   -107.31022    1.9217274    -105.3885    28415.864    4.3298227    4.3298227    4.3298227    28415.864    51681.911    2812.9133    30752.768   -22674.359   -20440.136    8508.1691    81.172765 
   78700    1063.2417   -106.36416   0.96204339   -105.40212   -17459.589    4.3441882    4.3441882    4.3441882   -17459.589   -48508.861    9541.9707   -13411.876   -53349.059   -20566.894    43382.853    81.983397 
   78800    2914.8273    -107.9936     2.637397    -105.3562     3522.972     4.349936     4.349936     4.349936     3522.972    -24417.44    35527.413   -541.05649    51109.972   -47.675727   -31002.453    82.309244 
   78900    1564.8367     -106.798    1.4158971    -105.3821    2063.4419    4.3316816    4.3316816    4.3316816    2063.4419    5306.9256   -36657.833    37541.233   -34845.959   -8942.8053    45062.435    81.277361 
   79000    2049.6752   -107.23273    1.8545892   -105.37814   -7522.8761    4.3230232    4.3230232    4.3230232   -7522.8761   -14996.369    10405.963   -17978.222   -9003.3115    -29101.48   -17354.959    80.790945 
   79100    2136.4702   -107.31846    1.9331231   -105.38533    6907.5068    4.3258841    4.3258841    4.3258841    6907.5068   -12426.865    9292.8599    23856.525    24364.931    4341.6556   -28157.493    80.951452 
   79200    1804.9252    -107.0255    1.6331343   -105.39237   -8118.5178    4.3389334    4.3389334    4.3389334   -8118.5178   -35416.254   -29350.204    40410.904   -38448.986   -12534.415    32175.476    81.686246 
   79300    2020.9733   -107.20541    1.8286191    -105.3768    -26114.62    4.3490809    4.3490809    4.3490809    -26114.62   -21613.535    4131.7616   -60862.088    15604.277   -48317.888   -55537.054    82.260709 
   79400    2514.8416     -107.639    2.2754816   -105.36352    9622.4781    4.3339374    4.3339374    4.3339374    9622.4781   -18016.097    18580.315    28303.217   -12973.532    47943.567    19487.429    81.404407 
   79500    1120.9258    -106.4006    1.0142372   -105.38636    2149.2171    4.3207032    4.3207032    4.3207032    2149.2171    -12789.02    3190.8119    16045.859   -27319.188    -69023.64   -8925.4911    80.660944 
   79600    2702.8751   -107.82766    2.4456182   -105.38204    10570.233    4.3207912    4.3207912    4.3207912    10570.233    25637.318   -5465.4767    11538.859    41548.611    8616.9306   -14411.281    80.665874 
   79700    2058.3343   -107.25438    1.8624241   -105.39196    10603.211    4.3324094    4.3324094    4.3324094    10603.211   -29578.293    32314.038    29073.888     312.8549    2988.6574    7245.1452    81.318335 
   79800    1778.1048   -106.99029    1.6088666   -105.38142   -16555.037    4.3477351    4.3477351    4.3477351   -16555.037   -30117.273   -32330.935    12783.098    11784.261   -37188.246    5361.8835    82.184372 
   79900    1827.7641    -107.0328    1.6537994     -105.379   -4183.2236    4.3365043    4.3365043    4.3365043   -4183.2236   -31128.106   -36700.563    55278.998    71601.347    14244.776   -655.82618    81.549131 
   80000    2197.9493   -107.35601    1.9887507   -105.36726    14900.545    4.3199865    4.3199865    4.3199865    14900.545   -42992.833    82088.092    5606.3767   -24613.125    -33051.95   -8344.6238    80.620814 
   80100    2031.0617   -107.21738    1.8377473   -105.37963   -3349.6242    4.3247283    4.3247283    4.3247283   -3349.6242   -38391.253   -31405.659    59748.039    79243.695   -5289.9197     12756.67    80.886584 
   80200    2260.5792    -107.4261    2.0454195   -105.38068   -1542.9451    4.3321591    4.3321591    4.3321591   -1542.9451   -31504.587   -7864.1174    34739.869   -31710.505   -18483.783     4266.556     81.30424 
   80300    1178.4442   -106.46851    1.0662811   -105.40222   -15540.183    4.3414916    4.3414916    4.3414916   -15540.183   -76053.506    6585.2285    22847.729   -11242.133   -22831.971   -2969.8684    81.830818 
   80400    2917.0808   -108.01081     2.639436   -105.37137    5840.4783    4.3403666    4.3403666    4.3403666    5840.4783    17473.009   -43399.336    43447.762    810.78024    32530.064    23184.835    81.767222 
   80500    1184.9863   -106.47204    1.0722005   -105.39984    286.36894    4.3266261    4.3266261    4.3266261    286.36894   -66489.248     7903.235     59445.12   -65692.002   -56454.614   -1068.9038    80.993112 
   80600     2613.654   -107.74388    2.3648891   -105.37899    21111.454    4.3274601    4.3274601    4.3274601    21111.454   -9363.4999    57808.634    14889.229    8060.6173    13012.973    4798.3335    81.039957 
   80700    2101.8617   -107.28521    1.9018086    -105.3834   -11603.153    4.3369265    4.3369265    4.3369265   -11603.153   -48660.347   -34430.902     48281.79    -25835.49   -9270.3619    1762.4698    81.572951 
   80800     1119.564   -106.41627    1.0130051   -105.40326    11523.303    4.3356948    4.3356948    4.3356948    11523.303   -12903.719    18832.593    28641.036   -14102.139   -64143.862    5720.0193    81.503469 
   80900    3169.4055    -108.2154    2.8677447   -105.34766    1839.5521    4.3481881    4.3481881    4.3481881    1839.5521    55649.856   -50856.359    725.15941   -8671.8265    28589.688   -25706.518    82.210063 
   81000    1214.5108   -106.48651    1.0989149   -105.38759   -19191.908    4.3409548    4.3409548    4.3409548   -19191.908   -50202.325    9945.1312   -17318.529   -34269.692   -85052.072    8473.1121    81.800467 
   81100    2755.6323    -107.8525     2.493354   -105.35914    21253.173    4.3252989    4.3252989    4.3252989    21253.173    29649.761    25093.295     9016.462    5143.1982    15152.672   -25024.175    80.918604 
   81200    1673.9818   -106.90079    1.5146539   -105.38614   -11532.472    4.3255631    4.3255631    4.3255631   -11532.472   -49344.392    48316.731   -33569.754   -10630.737    1011.1037   -13393.595    80.933433 
   81300    1987.1874   -107.18813    1.7980489   -105.39008    10589.931    4.3278472    4.3278472    4.3278472    10589.931   -40137.453    43674.919    28232.327   -34284.461   -63408.872   -5661.0045    81.061707 
   81400    2211.2716   -107.37659     2.000805   -105.37578    4621.6116    4.3445931    4.3445931    4.3445931    4621.6116   -11144.036    29787.029   -4778.1582    15478.085    34168.492    14706.475    82.006318 
   81500    1877.8451   -107.06668    1.6991137   -105.36757   -17030.085    4.3472174    4.3472174    4.3472174   -17030.085   -68942.046    42310.888   -24459.096   -6228.0135   -42378.321   -30743.712    82.155014 
   81600    2129.6873   -107.27638    1.9269858   -105.34939    25526.534    4.3306472    4.3306472    4.3306472    25526.534    29292.214    33312.608     13974.78   -7779.3397    1993.0242    84823.922    81.219146 
   81700    2185.7372   -107.32915     1.977701   -105.35145   -3215.1266    4.3283716    4.3283716    4.3283716   -3215.1266   -28146.955    -6988.138    25489.713    33560.672   -15383.257   -20046.049    81.091177 
   81800    1525.6047   -106.74745    1.3803992   -105.36705    5648.7079    4.3248528    4.3248528    4.3248528    5648.7079    38808.235    -13066.27   -8795.8415    2277.0623     -4693.42     40481.56    80.893567 
   81900    2352.1583   -107.50513    2.1282823   -105.37685    3826.6267    4.3311411    4.3311411    4.3311411    3826.6267    35457.749   -37961.747    13983.878    10807.648   -4820.4652    63268.563    81.246934 
   82000    2375.1592   -107.51793    2.1490939   -105.36884   -9610.7903    4.3461376    4.3461376    4.3461376   -9610.7903   -24387.611   -45681.015    41236.255     38026.41    -8726.253    9280.9074    82.093808 
   82100    1333.9716   -106.58093    1.2070055   -105.37393   -5751.7218    4.3425383    4.3425383    4.3425383   -5751.7218    50678.523   -24249.486   -43684.203   -6598.4609   -5537.2024    72245.464    81.890019 
   82200    2548.7024   -107.64584    2.3061195   -105.33972    6535.5482    4.3376857    4.3376857    4.3376857    6535.5482    4434.4947    18024.898   -2852.7482    34376.125   -2978.8123   -21403.245      81.6158 
   82300    1468.7085   -106.69504    1.3289183   -105.36612   -20445.696    4.3327708    4.3327708    4.3327708   -20445.696    59122.326   -68283.733    -52175.68    11986.824   -1206.3402    95849.088    81.338683 
   82400    2733.9625   -107.81051    2.4737467   -105.33677    16530.098    4.3348485    4.3348485    4.3348485    16530.098   -777.05766    30136.065    20231.288   -20747.749   -17716.758   -31678.363    81.455755 
   82500    1198.8856   -106.44845    1.0847769   -105.36367   -28627.754    4.3507644    4.3507644    4.3507644   -28627.754    53376.649   -67181.265   -72078.645    18719.171    11163.249    97476.498    82.356278 
   82600    2670.5894   -107.73244    2.4164054   -105.31603   -9572.3156    4.3554513    4.3554513    4.3554513   -9572.3156   -36907.042   -29470.046    37660.141       -21906   -5850.6806   -38912.148    82.622718 
   82700    1614.7379   -106.78407    1.4610488   -105.32302   -9330.8922    4.3483023    4.3483023    4.3483023   -9330.8922    11219.455   -18379.031     -20833.1   -13758.798   -2447.0001     98714.35    82.216536 
   82800    2585.8235   -107.66119    2.3397074   -105.32149     13685.11    4.3417668    4.3417668    4.3417668     13685.11   -5531.4221     36737.91    9848.8404   -1950.2633    8320.5073    4668.6451    81.846383 
   82900    1445.6074   -106.65511     1.308016   -105.34709    17441.757    4.3314203    4.3314203    4.3314203    17441.757    50482.488    122.26044    1720.5226   -24406.999    5835.0564    54163.091     81.26265 
   83000    1844.9043   -107.01855    1.6693082   -105.34925    27276.409    4.3360952    4.3360952    4.3360952    27276.409     20703.08    49802.601    11323.546    8248.1421    7837.3087    37345.129    81.526054 
   83100    2046.4366   -107.18879    1.8516588   -105.33713   -3740.5963    4.3451356    4.3451356    4.3451356   -3740.5963   -24837.684     17589.13   -3973.2346    24478.365    12314.793    31172.822    82.037044 
   83200    1706.9368   -106.88574    1.5444723   -105.34127    19721.953    4.3406202    4.3406202    4.3406202    19721.953    28781.341    23169.377    7215.1428   -19541.044   -4681.6619    84718.536    81.781557 
   83300    1986.7606   -107.13629    1.7976627   -105.33863   -8148.5964    4.3470204    4.3470204    4.3470204   -8148.5964   -78881.273   -5912.5453    60348.029    54670.456   -6508.8789   -18312.425    82.143844 
   83400    1321.0176   -106.55735    1.1952845   -105.36207   -23606.659    4.3344095    4.3344095    4.3344095   -23606.659    25333.575   -53296.353   -42857.199    3765.0061    1935.8493    131704.28    81.431008 
   83500    3050.2104   -108.09292    2.7598945   -105.33303    46190.725    4.3298448    4.3298448    4.3298448    46190.725   -9453.9766    56167.578    91858.573    22508.591   -319.46297   -30494.147     81.17401 
   83600     957.5207    -106.2239   0.86638485   -105.35751   -37218.029    4.3593222    4.3593222    4.3593222   -37218.029    49582.186   -99731.842   -61504.431    35526.382   -11365.288    117984.12     82.84321 
   83700    2884.9798   -107.88421    2.6103904   -105.27382    1133.6822    4.3683933    4.3683933    4.3683933    1133.6822     -8757.85    22227.046   -10068.149    -8883.154     26907.02   -23423.477    83.361436 
   83800    834.72883   -106.04743   0.75528019   -105.29215   -50810.587    4.3726045    4.3726045    4.3726045   -50810.587   -22816.296   -75819.728   -53795.737    62219.323   -15748.886    97071.334    83.602753 
   83900    3147.9879   -108.13137    2.8483656     -105.283   -957.75971    4.3473941    4.3473941    4.3473941   -957.75971   -15273.367    15073.736   -2673.6484    9676.6518     3476.335   -27520.488    82.165031 
   84000      1871.21   -107.00326    1.6931101   -105.31015   -2318.1054    4.3175735    4.3175735    4.3175735   -2318.1054    69107.375   -36987.351    -39074.34   -2192.8818    11584.922    115441.79    80.485792 
   84100    2087.2697   -107.23302    1.8886055   -105.34442     10178.64    4.3246848    4.3246848    4.3246848     10178.64    15221.914   -21808.839    37122.846    64832.128   -7597.8372   -14361.573    80.884142 
   84200    1740.6515   -106.93601     1.574978   -105.36103   -10435.304    4.3527003    4.3527003    4.3527003   -10435.304    90143.468    -47047.89    -74401.49   -16600.599   -13051.858    85160.727     82.46626 
   84300    2211.7638   -107.32242    2.0012504   -105.32117   -21913.097    4.3819262    4.3819262    4.3819262   -21913.097    16797.106   -49942.465    -32593.93    23541.742    10486.623   -4378.5538    84.138577 
   84400    1342.2463   -106.53043    1.2144927   -105.31594   -45444.961    4.3696436    4.3696436    4.3696436   -45444.961   -10349.276   -76492.394   -49493.214    18685.658     3162.906    79468.722    83.433039 
   84500    2901.5626   -107.88263    2.6253948   -105.25723    31459.404    4.3385671    4.3385671    4.3385671    31459.404    33245.387    64738.731   -3605.9074   -12668.778   -7703.0583   -653.01505    81.665561 
   84600    1219.3538   -106.39766    1.1032969   -105.29437   -40907.956    4.3461693    4.3461693    4.3461693   -40907.956     10519.38   -96835.347   -36407.902    37717.283    12081.817    92775.549    82.095608 
   84700    2826.6546   -107.84506    2.5576165   -105.28744    1660.6254    4.3560356    4.3560356    4.3560356    1660.6254   -11114.924    2789.6612    13307.139   -1993.1597   -14205.473    13594.876    82.655976 
   84800    1632.8756   -106.79746    1.4774602      -105.32   -18163.987    4.3620689    4.3620689    4.3620689   -18163.987    17284.563   -55640.666    -16135.86    13672.551   -7617.2359    59822.974      82.9999 
   84900    2056.8626   -107.17988    1.8610925   -105.31879    -5440.056    4.3561847    4.3561847    4.3561847    -5440.056    25706.725   -31847.714   -10179.179    19032.142    6673.5831    51206.847    82.664465 
   85000    1842.8223    -106.9727    1.6674244   -105.30527    15041.289    4.3591955    4.3591955    4.3591955    15041.289    2211.1743    34457.257    8455.4346   -12773.019    10908.091    39068.464    82.835985 
   85100    1958.6134   -107.07301    1.7721945   -105.30082   -37359.572    4.3797578    4.3797578    4.3797578   -37359.572   -41748.041    -55297.16   -15033.515    42666.791    -11226.09    37011.517    84.013735 
   85200    2266.6268   -107.32318    2.0508915   -105.27229    23701.175    4.3650253    4.3650253    4.3650253    23701.175    22649.586     21757.46    26696.478    3384.7774   -10316.629    44864.536    83.168771 
   85300    1798.3772   -106.89827    1.6272095   -105.27106     15350.32     4.346072     4.346072     4.346072     15350.32    20640.562   -17184.755    42595.153    14898.667    8103.0088    31974.423    82.090095 
   85400    2046.1609   -107.12369    1.8514094   -105.27228    21053.061    4.3423244    4.3423244    4.3423244    21053.061   -4213.6037    27275.842    40096.944    17697.638    1293.4118    41687.062    81.877919 
   85500    1870.0094   -107.00537    1.6920238   -105.31334    19097.592    4.3402393    4.3402393    4.3402393    19097.592    15137.785    -16099.16    58254.152   -11241.627    10839.436    75031.991    81.760027 
   85600    2356.2999   -107.45785    2.1320297   -105.32582   -20564.596    4.3541009    4.3541009    4.3541009   -20564.596   -30292.144   -44195.351    12793.706    23409.487     1358.851    5916.9978     82.54589 
   85700    1240.3628   -106.48769    1.1223063   -105.36538   -21900.449    4.3484215    4.3484215    4.3484215   -21900.449    26515.202   -71922.544   -20294.003   -2371.2723    11193.223    94525.623      82.2233 
   85800    2967.7803   -108.01532      2.68531   -105.33001    7116.2309    4.3547744    4.3547744    4.3547744    7116.2309     27048.26    33248.839   -38948.406   -19019.308    3598.3776     6824.826    82.584206 
   85900    1206.4338   -106.42227    1.0916066   -105.33066   -34998.953    4.3616933    4.3616933    4.3616933   -34998.953    77113.085   -83321.476   -98788.466    13401.923   -1322.0145    97408.316    82.978462 
   86000    2489.1258   -107.52755    2.2522134   -105.27534   -9233.7912    4.3542689    4.3542689    4.3542689   -9233.7912   -8593.5135   -12879.643   -6228.2167    359.46374    4709.2247   -12770.322    82.555449 
   86100     1679.339   -106.81214    1.5195012   -105.29264   -35903.714    4.3635885    4.3635885    4.3635885   -35903.714     64658.42   -96801.625   -75567.936   -9790.3299   -21727.422    115630.47    83.086674 
   86200    2356.5568   -107.40201    2.1322621   -105.26975      16021.5    4.3530088    4.3530088    4.3530088      16021.5   -8314.4164   -1019.9898    57398.907    33379.828   -12305.005   -36299.418    82.483794 
   86300     1559.683   -106.70817     1.411234   -105.29694    11123.251    4.3508955    4.3508955    4.3508955    11123.251    35761.253   -38845.417    36453.917   -18014.223    3457.7574    98265.141    82.363723 
   86400    2787.5026   -107.80282    2.5221909   -105.28063    20595.974    4.3529034    4.3529034    4.3529034    20595.974    26175.359   -17695.567    53308.132    33642.246   -22923.877   -34112.338    82.477802 
   86500    1247.9971   -106.43262     1.129214   -105.30341    18192.759    4.3564554    4.3564554    4.3564554    18192.759    68865.093   -26790.692    12503.875    3938.3555    3192.1273    88029.869    82.679873 
   86600    2596.8936   -107.61871    2.3497239   -105.26899   -4952.4762    4.3678553    4.3678553    4.3678553   -4952.4762    -25989.32    7583.2174    3548.6737     10218.17   -14427.673   -17050.328    83.330643 
   86700    1293.1618   -106.46529      1.17008   -105.29521   -30749.117    4.3512085    4.3512085    4.3512085   -30749.117    44607.769   -80737.528   -56117.592    25730.472    4955.7862    100430.49    82.381498 
   86800    3015.5124   -107.98901     2.728499   -105.26051    17734.236    4.3436637    4.3436637    4.3436637    17734.236   -32693.861    75505.684    10390.886   -13356.921   -18279.862   -26677.054    81.953701 
   86900    762.21948   -106.01062    0.6896722   -105.32094   -25808.379    4.3554906    4.3554906    4.3554906   -25808.379   -4238.6362   -30307.901     -42878.6    20590.753   -13590.918     102954.7    82.624958 
   87000    3035.5579   -108.04037    2.7466366   -105.29373    8151.4791    4.3673244    4.3673244    4.3673244    8151.4791   -18741.899    31257.707    11938.629   -19381.752     11541.59   -31269.696    83.300262 
   87100    1316.3562    -106.5256    1.1910668   -105.33453   -46998.638    4.3620641    4.3620641    4.3620641   -46998.638    19406.411   -83661.798   -76740.527   -1213.6355   -5913.9827    66487.758    82.999624 
   87200     2555.446   -107.61342    2.3122213    -105.3012    37423.302    4.3418115    4.3418115    4.3418115    37423.302    149.03689    35457.886    76662.984   -1162.2871    19848.233    4135.9222    81.848908 
   87300    1412.4661   -106.61713     1.278029    -105.3391    -38381.19    4.3425269    4.3425269    4.3425269    -38381.19   -338.00212   -32095.455   -82710.113    -10143.83    19241.193    -7943.095    81.889373 
   87400    2631.3829   -107.70226    2.3809306   -105.32133    15808.781    4.3440362    4.3440362    4.3440362    15808.781    37598.006   -15229.901    25058.239   -11446.816   -11038.468    50071.889    81.974789 
   87500    1347.5627   -106.56518    1.2193031   -105.34588   -25067.551    4.3602012    4.3602012    4.3602012   -25067.551   -10976.189    311.04196   -64537.506    6792.5627    59268.349   -41259.879    82.893328 
   87600    2836.2963   -107.86949    2.5663405   -105.30315   -350.26994     4.367614     4.367614     4.367614   -350.26994    22406.868   -42003.216    18545.538    12192.109    -26559.73    1840.5855     83.31683 
   87700    1560.3856   -106.72846    1.4118697   -105.31659   -14994.543    4.3574696    4.3574696    4.3574696   -14994.543   -42609.945    61863.422   -64237.108   -8564.3594    99552.005   -6181.4938    82.737633 
   87800    2108.5948   -107.20812    1.9079009   -105.30021    53129.078    4.3448752    4.3448752    4.3448752    53129.078    80089.695    36701.384    42596.156    1914.8392   -52823.873   -43728.038    82.022294 
   87900    2014.7038   -107.14393    1.8229463   -105.32098   -11046.559    4.3484292    4.3484292    4.3484292   -11046.559   -59898.163    74799.332   -48040.846   -5471.4054     106007.6    11508.798    82.223736 
   88000     2063.264   -107.18645    1.8668846   -105.31957    36456.349    4.3485888    4.3485888    4.3485888    36456.349    47444.647    51009.446    10914.955    -2958.813   -28523.743   -27790.871    82.232793 
   88100    1383.7727    -106.5941    1.2520666   -105.34204   -25425.355    4.3581849    4.3581849    4.3581849   -25425.355   -74655.221    82236.944   -83857.789    1101.8724    62884.884   -1927.0893    82.778386 
   88200     2689.216   -107.73563    2.4332592   -105.30237    15139.404    4.3566571    4.3566571    4.3566571    15139.404   -1050.8123    34007.672    12461.353   -1942.8739    20658.118    3425.6674    82.691363 
   88300    1304.1349   -106.50726    1.1800087   -105.32725   -8865.9227    4.3464368    4.3464368    4.3464368   -8865.9227   -39098.359    79400.775   -66900.184   -5720.1479    16757.792   -27657.078    82.110766 
   88400    2562.9873   -107.64233    2.3190448   -105.32329    14872.555    4.3439682    4.3439682    4.3439682    14872.555   -24791.433    81188.429    -11779.33   -4297.8657    44807.177   -3521.6743    81.970942 
   88500    1568.2947   -106.76755     1.419026   -105.34852   -5341.6667     4.346615     4.346615     4.346615   -5341.6667    395.59984    27.408613   -16448.009    3667.1675   -8079.1612    11770.537    82.120866 
   88600    2182.9904   -107.31477    1.9752156   -105.33955    3288.4741    4.3475692    4.3475692    4.3475692    3288.4741   -64578.259    87978.854   -13535.173   -15128.412    54886.955   -33176.018     82.17496 
   88700    1871.3127   -107.03096     1.693203   -105.33775   -11072.264    4.3636029    4.3636029    4.3636029   -11072.264   -9079.0162    2238.1242     -26375.9   -440.70001   -31175.608    34790.659    83.087492 
   88800    1749.8838   -106.90856    1.5833316   -105.32523   -37200.319    4.3651542    4.3651542    4.3651542   -37200.319   -20398.157   -2569.3294   -88633.471   -458.25748    46546.082    -16747.79    83.176143 
   88900    2450.9299   -107.52178    2.2176529   -105.30413    2234.1869    4.3517967    4.3517967    4.3517967    2234.1869   -32337.467     42574.44   -3534.4115   -12517.907   -44991.703    22101.196    82.414912 
   89000      1257.43   -106.47893    1.1377491   -105.34118   -32070.854     4.349187     4.349187     4.349187   -32070.854    21018.591    -25798.07   -91433.083    11087.288    16667.673    31810.936    82.266732 
   89100    2997.5987   -108.02439    2.7122903    -105.3121    -3782.299     4.352537     4.352537     4.352537    -3782.299    -52885.18     68132.14   -26593.858   -5340.2614   -31455.826   -3854.8704    82.456979 
   89200    1403.6167   -106.59965    1.2700219   -105.32963   -35995.336    4.3734604    4.3734604    4.3734604   -35995.336   -42675.509    49862.448   -115172.95    9849.3711   -24677.588    46315.459    83.651861 
   89300    2438.9242    -107.4831    2.2067899   -105.27631   -18243.745    4.3778904    4.3778904    4.3778904   -18243.745     -16326.4   -6763.7053   -31641.131     15987.03   -24691.637    13024.229    83.906318 
   89400    1670.6351   -106.79039    1.5116258   -105.27876   -11438.004    4.3647248    4.3647248    4.3647248   -11438.004   -4392.7453    54482.767   -84404.034    9132.3267   -59061.271    23166.385      83.1516 
   89500    2166.9563   -107.23725    1.9607076   -105.27655   -16823.805    4.3525001    4.3525001    4.3525001   -16823.805   -1275.3219   -6400.5543   -42795.539    18991.677   -10686.715    66965.222    82.454881 
   89600    1812.5416   -106.95758    1.6400257   -105.31755    7894.6271    4.3487003    4.3487003    4.3487003    7894.6271   -18411.376    92009.773   -49914.516    7392.9439   -78595.632   -28895.891    82.239119 
   89700     2354.499   -107.45039    2.1304002   -105.31999    -2916.801    4.3570972    4.3570972    4.3570972    -2916.801    58497.385   -36835.793   -30411.994    22367.493    6608.2194     54181.16    82.716423 
   89800    1480.4044   -106.68643     1.339501   -105.34693   -11771.818    4.3637652    4.3637652    4.3637652   -11771.818   -24846.397    60450.708   -70919.767   -590.19308   -94579.048    4756.5372    83.096766 
   89900    2958.6788   -107.98396    2.6770748   -105.30688    7740.5544    4.3689229    4.3689229    4.3689229    7740.5544    35329.875   -37295.881     25187.67     8482.471    31818.145   -2389.2491     83.39176 
   90000    773.41789   -106.05116   0.69980476   -105.35135   -34801.957    4.3589736    4.3589736    4.3589736   -34801.957   -31577.386    2793.0828   -75621.568    912.26706   -108899.51    38091.226    82.823337 
   90100    3586.2757   -108.54695    3.2449376   -105.30201    4001.3931     4.358534     4.358534     4.358534    4001.3931    20337.686   -13444.997    5111.4898    1678.1977    22372.871    2261.2587    82.798281 
   90200    1237.0913   -106.43515    1.1193462   -105.31581    -67410.26    4.3801766    4.3801766    4.3801766    -67410.26   -81910.013   -570.50591   -119750.26   -1184.8349   -103276.77    26267.648    84.037834 
   90300    2346.7928   -107.39446    2.1234274   -105.27103   -3995.2527    4.3774131    4.3774131    4.3774131   -3995.2527    47844.526    -13898.59   -45931.695    4237.9272    19890.829    30980.845    83.878873 
   90400    1842.6311   -106.95463    1.6672514   -105.28738   -43430.885    4.3635639    4.3635639    4.3635639   -43430.885   -67966.909    31370.786   -93696.534   -5026.9981   -97662.479   -11137.685    83.085264 
   90500    2481.0395   -107.53268    2.2448967   -105.28778    4470.9732    4.3425458    4.3425458    4.3425458    4470.9732    78966.936   -32947.277   -32606.739     13864.09    20291.187    64609.897    81.890443 
   90600      1313.76   -106.51314    1.1887176   -105.32442    13844.471    4.3449237    4.3449237    4.3449237    13844.471   -17799.592    95611.955   -36278.949   -7210.8496   -90379.898   -23284.943    82.025044 
   90700    3216.9102   -108.21486     2.910728   -105.30413   -11027.552    4.3691236    4.3691236    4.3691236   -11027.552    32705.533   -39811.195   -25976.994    4184.4168    35423.102    29678.513    83.403253 
   90800    1039.7033   -106.26114   0.94074544    -105.3204   -34863.471    4.3802437    4.3802437    4.3802437   -34863.471   -40214.007    39151.839   -103528.24     9162.987   -97506.374    31043.859    84.041701 
   90900    2981.2141   -107.97109    2.6974652   -105.27363    9088.4195    4.3751857    4.3751857    4.3751857    9088.4195    30524.694   -5604.4731    2345.0379    9578.4378    36458.142   -15694.866    83.750899 
   91000    820.70917   -106.05215    0.7425949   -105.30955   -24397.208    4.3666903    4.3666903    4.3666903   -24397.208   -39850.884    59164.486   -92505.226    7689.0788   -115945.44    32183.279    83.263982 
   91100    3072.1004   -108.05849     2.779701   -105.27879    20896.085    4.3566197    4.3566197    4.3566197    20896.085    54798.512    25722.327   -17832.582    7688.7019    28418.278     2946.749     82.68923 
   91200    1507.2553   -106.68463    1.3637963   -105.32083   -20030.325    4.3549982    4.3549982    4.3549982   -20030.325   -39508.033     32575.78   -53158.723    10387.664   -114172.25    2554.4149    82.596934 
   91300    2404.9673   -107.48328    2.1760649   -105.30722    11938.382    4.3584097    4.3584097    4.3584097    11938.382   -10038.191    48342.089   -2488.7524   -505.77112    11530.376    30824.362    82.791197 
   91400    1453.7602   -106.63816    1.3153927   -105.32277    1476.5212    4.3627342    4.3627342    4.3627342    1476.5212   -73553.139    47750.665    30232.038    10418.833   -70699.329    10602.399    83.037881 
   91500    2206.9739   -107.32152    1.9969164    -105.3246   -11979.034    4.3635158    4.3635158    4.3635158   -11979.034   -24843.257   -12418.124    1324.2787    -18979.45   -20779.106    4399.7295    83.082517 
   91600    1745.5479   -106.90633    1.5794084   -105.32692   -2255.7115    4.3556531    4.3556531    4.3556531   -2255.7115   -63366.117    59032.453   -2433.4708    2438.1621   -64617.759    12502.863    82.634204 
   91700    1865.5454   -107.02443    1.6879847   -105.33645   -24305.195    4.3530519    4.3530519    4.3530519   -24305.195   -75160.879    19921.965   -17676.671   -11006.623   -46162.074   -18025.273    82.486247 
   91800    2075.9745   -107.20284    1.8783854   -105.32445    14440.409    4.3562855    4.3562855    4.3562855    14440.409    -24530.36     44588.16    23263.426    2385.6248   -25050.404   -8599.0258      82.6702 
   91900    1964.1993   -107.10546    1.7772488   -105.32821   -28463.021    4.3649346    4.3649346    4.3649346   -28463.021   -33567.595    23365.362   -75186.832   -12162.107   -86774.746    2958.7044    83.163587 
   92000    1756.4408   -106.90549    1.5892645   -105.31622    15382.976    4.3558193    4.3558193    4.3558193    15382.976    67648.138    37991.262   -59490.473     8750.569    10542.997   -17977.238    82.643663 
   92100    1828.0374   -106.96836    1.6540467   -105.31432     21296.84    4.3528415    4.3528415    4.3528415     21296.84    26709.436    43924.681    -6743.597    -15919.85   -69272.746   -68.567372    82.474283 
   92200    2052.7297   -107.15856    1.8573529   -105.30121   -3896.7161    4.3711006    4.3711006    4.3711006   -3896.7161    23774.132    34263.099   -69727.379    3277.9156   -7726.8718    13960.446    83.516522 
   92300    1628.4173   -106.74616    1.4734262   -105.27274   -14667.057    4.3743472    4.3743472    4.3743472   -14667.057   -31686.859     85012.68   -97326.991    7130.3865   -64493.006     -6605.58    83.702757 
   92400    2177.8966   -107.22258    1.9706066   -105.25197   -3014.3664    4.3637173    4.3637173    4.3637173   -3014.3664    72395.272   -23114.455   -58323.916    6522.2365   -1836.3568    55445.746     83.09403 
   92500      1770.12   -106.89457    1.6016418   -105.29293   -17543.487    4.3603368    4.3603368    4.3603368   -17543.487   -30709.291    58380.067   -80301.238   -2276.6018   -74659.982   -11866.434    82.901063 
   92600    2512.0428   -107.55778    2.2729491   -105.28483    26593.599      4.35802      4.35802      4.35802    26593.599    114907.75   -27677.937    -7449.017    13978.436    18930.388    16959.992    82.768991 
   92700    1192.3259   -106.41918    1.0788415   -105.34034   -40379.087    4.3579259    4.3579259    4.3579259   -40379.087   -48670.253    16435.664   -88902.672   -6240.0791   -93802.635    17614.229    82.763629 
   92800    3018.9612   -108.05479    2.7316195   -105.32317     20280.52     4.349328     4.349328     4.349328     20280.52    91981.958   -36010.043    4869.6463   -134.66599    42358.542   -20492.983    82.274731 
   92900    1045.6985   -106.31027   0.94616999    -105.3641   -27983.516    4.3517731    4.3517731    4.3517731   -27983.516   -25704.085    13545.743   -71792.205    14608.267   -111576.15    34269.907    82.413571 
   93000    2774.3454    -107.8407     2.510286   -105.33042    8135.0338    4.3533136    4.3533136    4.3533136    8135.0338    56430.494    -12789.34   -19236.053   -13879.941   -427.99715   -26713.485    82.501125 
   93100     1135.078   -106.36946    1.0270425   -105.34242     10535.19    4.3569986    4.3569986    4.3569986     10535.19   -22612.259    73756.002   -19538.173    8553.9303   -77780.674    14854.949    82.710806 
   93200    2211.0626   -107.31372    2.0006159   -105.31311   -9181.7722    4.3727232    4.3727232    4.3727232   -9181.7722   -4995.1573    11166.977   -33717.136   -8769.3563    8054.5586    12254.366    83.609563 
   93300    1994.2614   -107.12017    1.8044496   -105.31572    38084.502    4.3485134    4.3485134    4.3485134    38084.502   -16862.931    79053.134    52063.304    -3249.929   -58857.958   -23915.535    82.228515 
   93400    1740.7961   -106.90512    1.5751089   -105.33001    5075.7737     4.336045     4.336045     4.336045    5075.7737    21123.789    26519.255   -32415.723    3198.6429   -40630.159    38495.397    81.523223 
   93500    2309.7822   -107.41485    2.0899394   -105.32491    27337.263    4.3431417    4.3431417    4.3431417    27337.263   -4920.4763    59561.526     27370.74   -9652.7018   -26790.543    13923.056    81.924158 
   93600    1874.4919   -107.03039    1.6960797   -105.33431   -12427.942    4.3611552    4.3611552    4.3611552   -12427.942    -15360.37    38686.421   -60609.877    3980.9852    -61433.69    4736.5093    82.947752 
   93700     1911.416   -107.04528    1.7294894    -105.3158    7533.9931    4.3718745    4.3718745    4.3718745    7533.9931      57419.3   -4215.0698   -30602.251    2045.4804   -466.19424    55624.703    83.560893 
   93800    1876.2202    -106.9957    1.6976435   -105.29806    10236.557    4.3696723    4.3696723    4.3696723    10236.557    32494.367    46166.532   -47951.228   -11150.394   -65603.675   -17288.616     83.43468 
   93900    2161.8329   -107.25556    1.9560718   -105.29949    1077.9703    4.3613866    4.3613866    4.3613866    1077.9703    72407.481   -41308.352   -27865.218   -7186.4622    25161.693    44331.466    82.960957 
   94000    1321.8936   -106.51237    1.1960771   -105.31629    12560.554    4.3473833    4.3473833    4.3473833    12560.554   -13007.847    88680.117   -37990.608    787.67186   -86276.868    14886.424    82.164422 
   94100    2670.0351   -107.71851    2.4159038   -105.30261    18483.078    4.3470076    4.3470076    4.3470076    18483.078    72245.153   -21250.589    4454.6699    -30579.67    30358.306   -16309.072    82.143118 
   94200    902.74504   -106.15286   0.81682269   -105.33603   -34127.028      4.36421      4.36421      4.36421   -34127.028   -52822.369    22892.043   -72450.757    11754.467   -100177.75    35676.467     83.12218 
   94300    3192.6702   -108.19124    2.8887951   -105.30245   -11713.135    4.3584624    4.3584624    4.3584624   -11713.135   -7944.3448   -13375.671   -13819.389   -12362.801    26266.513   -28748.601    82.794202 
   94400    1371.5158    -106.5751    1.2409763   -105.33413   -33153.638    4.3476488    4.3476488    4.3476488   -33153.638   -33095.502    13680.212   -80045.624    1176.4029   -86420.569    18931.177    82.179473 
   94500    2172.4094   -107.29516    1.9656417   -105.32952    5772.4872    4.3422094    4.3422094    4.3422094    5772.4872   -22035.944    62519.137   -23165.731   -8059.7234   -5356.5316    15379.459    81.871413 
   94600    1700.7371   -106.87717    1.5388626   -105.33831   -31104.548    4.3560411    4.3560411    4.3560411   -31104.548   -85830.137    18665.669   -26149.175   -6072.0242   -31840.279   -10009.776    82.656291 
   94700    2132.0947   -107.25803    1.9291641   -105.32886   -21220.731    4.3689832    4.3689832    4.3689832   -21220.731   -16079.976    36602.448   -84184.666    2919.2565   -59163.066     20144.95    83.395212 
   94800    1933.5495   -107.07008    1.7495163   -105.32056    11476.998    4.3567061    4.3567061    4.3567061    11476.998    -15915.54    61878.581   -11532.048   -15367.527    16462.404   -8116.1618     82.69415 
   94900    1605.3061   -106.77735    1.4525147   -105.32484    1651.5217    4.3466131    4.3466131    4.3466131    1651.5217    1226.0438    61352.952   -57624.431    3195.8741   -60975.141    8318.9449     82.12076 
   95000     2878.922   -107.91489    2.6049091   -105.30998    8873.5158    4.3473592    4.3473592    4.3473592    8873.5158    59118.838   -265.65644   -32232.635    6866.8981   -4116.9223   -2083.1631    82.163053 
   95100    859.83367   -106.13891   0.77799557   -105.36091     -906.052    4.3550893    4.3550893    4.3550893     -906.052   -35550.866    80760.029   -47927.319    4014.4968   -43059.397   -6573.7376    82.602119 
   95200    2865.5658   -107.91621    2.5928241   -105.32339    12206.949    4.3617066    4.3617066    4.3617066    12206.949    23276.892     46150.41   -32806.454   -10308.718    35667.564   -5459.0188    82.979217 
   95300    1143.6901   -106.37893    1.0348348    -105.3441    22034.862    4.3503915    4.3503915    4.3503915    22034.862   -18248.425    152289.21   -67936.197    3695.0544   -103022.19   -7122.4693    82.335101 
   95400     3062.503   -108.08166    2.7710171   -105.31064    5985.7226    4.3535009    4.3535009    4.3535009    5985.7226    -2472.965    18187.932    2242.2005   -4715.0915    53804.504    -14465.28    82.511771 
   95500    977.23616   -106.23332   0.88422381   -105.34909   -22399.654    4.3531824    4.3531824    4.3531824   -22399.654   -102143.46    54392.896   -19448.394   -16510.246   -111912.77   -3842.1322    82.493666 
   95600    2712.3858   -107.77829    2.4542237   -105.32407    38257.721    4.3534195    4.3534195    4.3534195    38257.721    10608.592    77317.028    26847.545    20434.966     21180.57   -2462.6794    82.507145 
   95700     1217.703   -106.43805    1.1018033   -105.33624    2853.0283    4.3736947    4.3736947    4.3736947    2853.0283   -81936.252    94980.868   -4485.5315   -807.79261    -80507.49   -11682.976    83.665306 
   95800    2208.0919   -107.27428     1.997928   -105.27635   -24231.197    4.3787485    4.3787485    4.3787485   -24231.197   -69627.163   -33594.454    30528.026    22032.035    20335.525   -5903.8286    83.955663 
   95900    1623.0076   -106.74748    1.4685314   -105.27895    8774.2515    4.3497728    4.3497728    4.3497728    8774.2515   -32680.309    101642.16   -42639.099    6093.4717   -67822.302   -17945.108     82.29998 
   96000    2338.9084   -107.40309    2.1162934    -105.2868    23369.196    4.3345807    4.3345807    4.3345807    23369.196   -11448.556     21498.01    60058.135   -7058.0635   -970.36627   -4172.6074    81.440658 
   96100    1485.6355   -106.68116    1.3442342   -105.33692   -16873.112    4.3450914    4.3450914    4.3450914   -16873.112   -62625.832     18824.62    -6818.125    6951.4531   -26399.992    1483.7511     82.03454 
   96200    2949.3716   -107.99738    2.6686534   -105.32873   -13325.027    4.3589441    4.3589441    4.3589441   -13325.027   -47156.539    40650.441   -33468.982   -17305.663    -33920.51    5596.1821    82.821652 
   96300    1105.2875   -106.33916    1.0000873   -105.33908   -39613.429    4.3734024    4.3734024    4.3734024   -39613.429   -112000.16   -65708.496    58868.371   -2452.5991   -485.65472    5590.3906    83.648529 
   96400    2965.7854   -107.97313     2.683505   -105.28962   -3485.7959     4.363607     4.363607     4.363607   -3485.7959   -43531.493    54894.301   -21820.196    1551.9293   -42535.329   -4427.5338    83.087727 
   96500    1494.5548   -106.67217    1.3523046   -105.31987   -9763.4938    4.3480134    4.3480134    4.3480134   -9763.4938   -72625.759    37895.727      5439.55   -9480.2973    39012.237    1147.3675    82.200154 
   96600     1868.244   -107.04204    1.6904264   -105.35162    4768.5715    4.3419008    4.3419008    4.3419008    4768.5715   -28660.214    18577.202    24388.727    -908.5904   -20269.842    8937.5531    81.853961 
   96700    2038.2714   -107.19721    1.8442708   -105.35294    32765.896    4.3468374    4.3468374    4.3468374    32765.896     46922.16    99333.955   -47958.428    20440.897    50268.352   -6952.4693    82.133475 
   96800    1282.5963   -106.53062      1.16052    -105.3701   -15037.717    4.3659423    4.3659423    4.3659423   -15037.717   -47772.316   -15452.495    18111.662     3302.731    3622.2206    13212.199    83.221199 
   96900     2442.338   -107.53439    2.2098787   -105.32452    1196.7262    4.3668459    4.3668459    4.3668459    1196.7262    25679.438    19484.964   -41574.223   -2035.3212    26618.251   -28036.318    83.272881 
   97000    1834.2655   -106.98028     1.659682    -105.3206    2585.6609    4.3536086    4.3536086    4.3536086    2585.6609   -50724.651    101982.68   -43501.049    17400.564    32206.556   -6066.0068    82.517894 
   97100    2304.0636   -107.39618    2.0847651   -105.31142   -7166.5075    4.3556722    4.3556722    4.3556722   -7166.5075   -19808.086    20957.197   -22648.634   -11510.321    1779.0291   -2481.0826     82.63529 
   97200    1850.8436   -106.99867    1.6746822   -105.32399   -23681.218    4.3524843    4.3524843    4.3524843   -23681.218   -61699.398    72295.573    -81639.83   -18656.615    66641.332    -21632.62    82.453984 
   97300    2130.5212    -107.2579    1.9277404   -105.33016    18165.076    4.3438403    4.3438403    4.3438403    18165.076    11161.343     12996.73    30337.154    60631.233   -26918.791    16096.265    81.963701 
   97400    2153.7593   -107.29422    1.9487667   -105.34545    -27397.43    4.3566811    4.3566811    4.3566811    -27397.43   -35473.501    23658.336   -70377.124   -26535.091    80728.597    5276.6513    82.692728 
   97500     2453.879   -107.56033    2.2203213   -105.34001    20897.621    4.3568277    4.3568277    4.3568277    20897.621    5159.6332    34275.651     23257.58    41957.063   -14941.777   -2542.3261    82.701076 
   97600    1303.8425   -106.54279    1.1797441   -105.36305    7948.8092    4.3571072    4.3571072    4.3571072    7948.8092   -39880.242     69097.26   -5370.5897    38962.887    63447.006     19246.18    82.716995 
   97700    2530.3248   -107.62324    2.2894911   -105.33375    29787.399      4.36686      4.36686      4.36686    29787.399    5782.5477     91213.16   -7633.5112   -38113.001   -8698.5577    12446.252    83.273688 
   97800    1436.7888   -106.64454    1.3000367    -105.3445   -29211.836    4.3670769    4.3670769    4.3670769   -29211.836   -73462.069    15561.825   -29735.265    57001.077    59203.135   -7265.1213    83.286101 
   97900    1842.6458   -107.00205    1.6672647   -105.33479    13013.192    4.3630039    4.3630039    4.3630039    13013.192    32051.115    14614.471   -7626.0094   -2483.2023    10472.436    36929.558    83.053282 
   98000    2246.4871   -107.35168    2.0326687   -105.31901     -16055.9    4.3586827    4.3586827    4.3586827     -16055.9   -34393.325    29051.139   -42825.513    7767.2036    37734.789    5182.9587    82.806757 
   98100    1666.7297   -106.84114    1.5080921   -105.33304   -4995.0726    4.3501218    4.3501218    4.3501218   -4995.0726   -56104.186    57149.316   -16030.348    54844.986    39309.717   -632.88484     82.31979 
   98200    2331.4338     -107.436    2.1095303   -105.32647   -10971.896    4.3601403    4.3601403    4.3601403   -10971.896   -11036.087    16247.341    -38126.94   -12214.316   -5889.0269    2274.1691    82.889856 
   98300     1674.082   -106.85489    1.5147445   -105.34015    7486.7226    4.3536702    4.3536702    4.3536702    7486.7226   -28534.705    59302.047   -8307.1746    24546.895    62985.002   -2129.2082    82.521398 
   98400    2268.3442   -107.38241    2.0524455   -105.32997    12691.171    4.3477565    4.3477565    4.3477565    12691.171    6255.2389    9806.3025     22011.97    29884.667   -23587.416    2797.8381    82.185584 
   98500    1508.3424   -106.71295    1.3647799   -105.34818   -16793.669    4.3538504    4.3538504    4.3538504   -16793.669   -57833.877    24532.913   -17080.043   -13396.604    44169.408    14660.369    82.531646 
   98600    2618.1848   -107.70095    2.3689887   -105.33196    13187.149     4.350805     4.350805     4.350805    13187.149   -50148.808    51075.115     38635.14    4156.9811   -12361.606   -2296.9964     82.35858 
   98700    1134.1012   -106.38985    1.0261586   -105.36369   -28804.756    4.3528465    4.3528465    4.3528465   -28804.756   -17246.973     26531.23   -95698.524     12593.55   -27949.839    24742.758    82.474571 
   98800     2506.925   -107.61218    2.2683184   -105.34386    3138.8416    4.3456132    4.3456132    4.3456132    3138.8416   -13633.451    17006.615    6043.3608   -37074.064     27852.82   -14958.354    82.064096 
   98900      1431.42   -106.66078    1.2951789   -105.36561   -15367.341    4.3488948    4.3488948    4.3488948   -15367.341   -30388.828    70679.447   -86392.643    13999.549   -73616.147     22645.82    82.250152 
   99000     2405.504   -107.52405    2.1765506    -105.3475   -16920.289    4.3484937    4.3484937    4.3484937   -16920.289    16296.845   -19007.803   -48049.909   -17035.245    22702.552   -2841.8299    82.227394 
   99100    1753.2638   -106.93981      1.58639   -105.35342    1298.9579    4.3454898    4.3454898    4.3454898    1298.9579   -52387.913    101763.21   -45478.421   -10179.006   -78178.306   -4676.0823    82.057107 
   99200    2136.7957   -107.27335    1.9334176   -105.33993   -19904.323    4.3585993    4.3585993    4.3585993   -19904.323    44891.178   -43690.583   -60913.564   -2932.1817    1298.9934    20833.333    82.801999 
   99300    2112.0054   -107.24788    1.9109869    -105.3369   -14924.776    4.3494961    4.3494961    4.3494961   -14924.776   -48761.896     40964.13   -36976.561    1077.1049   -67461.246   -3984.0863    82.284274 
   99400    2141.2063   -107.27374    1.9374085   -105.33633    23404.771     4.334639     4.334639     4.334639    23404.771    6579.7712    49506.576    14127.965   -13854.692    -32912.17    17725.721    81.443944 
   99500    1935.1592    -107.1081    1.7509728   -105.35713   -10539.925    4.3428855    4.3428855    4.3428855   -10539.925    32637.315   -11115.448   -53141.643    3536.2247   -32342.565    10196.027    81.909665 
   99600    1424.5437   -106.66542    1.2889571   -105.37647   -14755.706    4.3454078    4.3454078    4.3454078   -14755.706   -16917.216    25951.038   -53300.941    4940.8862   -65205.355   -23119.232    82.052465 
   99700    2710.6609   -107.81071     2.452663   -105.35804    13481.145     4.343086     4.343086     4.343086    13481.145    47480.572    13909.295   -20946.433   -14069.616    38753.616     14773.52    81.921005 
   99800    1295.0923   -106.55311    1.1718268   -105.38128   -23441.255    4.3469182    4.3469182    4.3469182   -23441.255    -55535.59    53836.591   -68624.767   -14982.368   -115089.19   -15362.767    82.138053 
   99900    2559.7835   -107.66742    2.3161459   -105.35128    8736.7073    4.3503363    4.3503363    4.3503363    8736.7073   -19560.653     25565.76    20205.015    24125.095    45262.688    3001.4912    82.331965 
  100000     1831.299   -107.00802    1.6569978   -105.35102   -13851.146    4.3588402    4.3588402    4.3588402   -13851.146   -32580.128    48372.715   -57346.026    -40075.96   -54652.539    7077.5364    82.815733 
Loop time of 22.9217 on 1 procs for 100000 steps with 8 atoms

Pair  time (%) = 7.1797 (31.3227)
Kspce time (%) = 5.48329 (23.9218)
Neigh time (%) = 0.280158 (1.22224)
Comm  time (%) = 1.10547 (4.82278)
Outpt time (%) = 0.0226903 (0.0989903)
Other time (%) = 8.85043 (38.6115)

Nlocal:    8 ave 8 max 8 min
Histogram: 1 0 0 0 0 0 0 0 0 0
Nghost:    1828 ave 1828 max 1828 min
Histogram: 1 0 0 0 0 0 0 0 0 0
Neighs:    2139 ave 2139 max 2139 min
Histogram: 1 0 0 0 0 0 0 0 0 0

Total # of neighbors = 2139
Ave neighs/atom = 267.375
Neighbor list builds = 3340
Dangerous builds = 0
unfix 20
unfix 21
print "seeds:8773324"
seeds:8773324
