LAMMPS (10 Feb 2015)
# ---- initialize simulations
clear
units metal
dimension 3
boundary p p p
atom_style charge
atom_modify map array
# ---- create atoms
read_data /Users/eugeneragasa/pyflamestk_git/pypospack/tests/tests_integration/workflow/WorkflowLammpsThermalExpansion/param_2632/MgO_NaCl_unit.npt.T1200/lammps.structure
  triclinic box = (0 0 0) to (4.2565 4.2565 4.2565) with tilt (0 0 0)
  1 by 1 by 1 MPI processor grid
  reading atoms ...
  8 atoms
# ---- define interatomic potential
include potential.mod
mass 1 24.305
mass 2 15.999

group Mg type 1
4 atoms in group Mg
group O type 2
4 atoms in group O

set group Mg charge 1.63285961235
  4 settings made for charge
set group O charge -1.63285961235
  4 settings made for charge

variable R_cut equal 10.0

pair_style buck/coul/long ${R_cut}
pair_style buck/coul/long 10
pair_coeff 1 1 0.0 0.5 0.0 ${R_cut}
pair_coeff 1 1 0.0 0.5 0.0 10
pair_coeff 1 2 1437.07173936 0.281984725072 0.0 ${R_cut}
pair_coeff 1 2 1437.07173936 0.281984725072 0.0 10
pair_coeff 2 2 17907.6681412 0.158842179647 12.0518239093 ${R_cut}
pair_coeff 2 2 17907.6681412 0.158842179647 12.0518239093 10

kspace_style pppm 1.0e-5

neighbor 1.0 bin
neigh_modify every 1 delay 0 check yes
# ---- define settings
compute eng all pe/atom
compute eatoms all reduce sum c_eng
# ---- run minimization
reset_timestep 0
fix 1 all box/relax iso 0.0 vmax 0.001
thermo 10
thermo_style custom step pe lx ly lz xy xz yz press pxx pyy pzz pxy pxz pyz c_eatoms
min_style cg
minimize 1e-25 1e-25 5000 10000
PPPM initialization ...
  G vector (1/distance) = 0.352629
  grid = 8 8 8
  stencil order = 5
  estimated absolute RMS force accuracy = 3.86465e-05
  estimated relative force accuracy = 2.68385e-06
  using double precision FFTs
  3d grid and FFT values/proc = 3375 512
Neighbor list info ...
  1 neighbor list requests
  update every 1 steps, delay 0 steps, check yes
  master list distance cutoff = 11
Memory usage per processor = 4.06549 Mbytes
Step PotEng Lx Ly Lz Xy Xz Yz Press Pxx Pyy Pzz Pxy Pxz Pyz eatoms 
       0   -108.26668       4.2565       4.2565       4.2565            0            0            0     68174.25     68174.25     68174.25     68174.25 -1.8708973e-11 1.9918278e-11 -1.4539535e-10   -108.26668 
      10   -108.32672     4.299065     4.299065     4.299065            0            0            0    15974.818    15974.818    15974.818    15974.818 2.7247293e-10 7.4247233e-11 1.7340321e-10   -108.32672 
      14   -108.33064    4.3118345    4.3118345    4.3118345            0            0            0    1605.1095    1605.1095    1605.1095    1605.1095 -5.9694499e-11 -6.7982128e-11 4.9253128e-12   -108.33064 
Loop time of 0.0154679 on 1 procs for 14 steps with 8 atoms

Minimization stats:
  Stopping criterion = linesearch alpha is zero
  Energy initial, next-to-last, final = 
        -108.266678614      -108.33063925      -108.33063925
  Force two-norm initial, final = 9.8444 0.23785
  Force max component initial, final = 9.8444 0.237844
  Final line search alpha, max atom move = 1.28309e-07 3.05176e-08
  Iterations, force evaluations = 14 44

Pair  time (%) = 0.00420141 (27.1622)
Kspce time (%) = 0.00243974 (15.7729)
Neigh time (%) = 0 (0)
Comm  time (%) = 0.000491142 (3.17524)
Outpt time (%) = 1.88351e-05 (0.121769)
Other time (%) = 0.00831676 (53.7679)

Nlocal:    8 ave 8 max 8 min
Histogram: 1 0 0 0 0 0 0 0 0 0
Nghost:    2189 ave 2189 max 2189 min
Histogram: 1 0 0 0 0 0 0 0 0 0
Neighs:    2344 ave 2344 max 2344 min
Histogram: 1 0 0 0 0 0 0 0 0 0

Total # of neighbors = 2344
Ave neighs/atom = 293
Neighbor list builds = 0
Dangerous builds = 0
unfix 1
# ---- define output variables ----
variable natoms equal "count(all)"
variable tot_energy equal "c_eatoms"
variable length_x equal "lx"
variable length_y equal "ly"
variable length_z equal "lz"
variable tilt_xy equal "xy"
variable tilt_xz equal "xz"
variable tilt_yz equal "yz"
variable tot_press equal "press"
variable press_xx equal "pxx"
variable press_yy equal "pyy"
variable press_zz equal "pzz"
variable press_xy equal "pxy"
variable press_xz equal "pxz"
variable press_yz equal "pyz"

# ---- output ----
print "pypospack:output_section:begin"
pypospack:output_section:begin
print "tot_energy = ${tot_energy}"
tot_energy = -108.330639250266
print "num_atoms = ${natoms}"
num_atoms = 8
print "xx = ${length_x}"
xx = 4.3118345
print "yy = ${length_y}"
yy = 4.3118345
print "zz = ${length_z}"
zz = 4.3118345
print "xy = ${tilt_xy}"
xy = 0
print "xz = ${tilt_xz}"
xz = 0
print "yz = ${tilt_yz}"
yz = 0
print "tot_press = ${tot_press}"
tot_press = 1605.10951764203
print "pxx = ${press_xx}"
pxx = 1605.10951764176
print "pyy = ${press_yy}"
pyy = 1605.10951764198
print "pzz = ${press_zz}"
pzz = 1605.10951764233
print "pxy = ${press_xy}"
pxy = -5.96944985898881e-11
print "pxz = ${press_xz}"
pxz = -6.79821282837662e-11
print "pyz = ${press_yz}"
pyz = 4.92531279854496e-12
print "pypospack:output_section:done"
pypospack:output_section:done
print "pypospack:lammps_sim:done"
pypospack:lammps_sim:done
#------------------------------------------------------------------------------
# RUN THERMOSTAT
# running using an NPT Nose-Hoover style thermostat
#------------------------------------------------------------------------------
variable tempdamp equal 0.1
variable pressdamp equal 1.0
# set initial velocities
velocity all create 1200 163699 mom yes dist gaussian loop all
# fix for Nose-Hoover style thermostat
fix 20 all npt temp 1200 1200 0.1 aniso 0.0 0.0 1.0 drag 1.0 couple xyz
variable boxx equal lx
variable boxy equal ly
variable boxz equal lz
variable boxp equal press
variable boxt equal temp
# calculate averages every 10000 steps
reset_timestep 0
fix 21 all ave/time 10 10 100 v_boxx v_boxy v_boxz v_boxp v_boxt file lattice.out
thermo_style custom step temp pe ke etotal press lx ly lz press pxx pyy pzz pxy pxz pyz vol
thermo_modify flush yes
thermo 100
run 100000
PPPM initialization ...
  G vector (1/distance) = 0.352078
  grid = 8 8 8
  stencil order = 5
  estimated absolute RMS force accuracy = 3.96373e-05
  estimated relative force accuracy = 2.75266e-06
  using double precision FFTs
  3d grid and FFT values/proc = 3375 512
Memory usage per processor = 3.06549 Mbytes
Step Temp PotEng KinEng TotEng Press Lx Ly Lz Press Pxx Pyy Pzz Pxy Pxz Pyz Volume 
       0         1200   -108.33065    1.0857852   -107.24486    16070.499    4.3118345    4.3118345    4.3118345    16070.499    12498.303     22038.56    13674.633   -7727.9527    6513.2043    76.787118    80.165268 
     100    378.60313   -107.45284   0.34256807   -107.11028      18353.9    4.3491362    4.3491362    4.3491362      18353.9    16436.494    36258.233    2366.9732    5844.5771   -2386.0644    2369.5981    82.263846 
     200    697.81203   -107.44136   0.63139498   -106.80997   -26320.716     4.390483     4.390483     4.390483   -26320.716   -50363.856    24195.468    -52793.76   -2195.6264    226.36564   -498.82238     84.63245 
     300    1018.6987   -107.47866   0.92174004   -106.55692    4808.5782    4.3691496    4.3691496    4.3691496    4808.5782   -1930.2211     53030.96   -36675.004    3038.1838    4749.5411   -5065.6478    83.404745 
     400    1203.1917    -107.4316    1.0886732   -106.34292    15064.123    4.3457831    4.3457831    4.3457831    15064.123    19244.241    17109.724    8838.4041    3070.3781   -1115.0396    9270.1247    82.073727 
     500     1205.251    -107.3194    1.0905364   -106.22887    3598.7367     4.383246     4.383246     4.383246    3598.7367   -13804.177    54006.524   -29406.137   -8758.0539    5963.3106    5959.8519    84.214627 
     600    1024.7992   -107.07276   0.92725981    -106.1455   -29205.317    4.4069737    4.4069737    4.4069737   -29205.317   -4497.3212   -995.38024    -82123.25   -6605.5792    1089.1004    7384.2731    85.589674 
     700     1023.377   -107.02039   0.92597302   -106.09441    24706.586     4.371671     4.371671     4.371671    24706.586    10942.373    94072.614   -30895.228   -812.49544    8092.8584    14116.017     83.54922 
     800    1532.9097   -107.49367    1.3870089   -106.10667    7911.5519    4.3685206    4.3685206    4.3685206    7911.5519     30283.57    862.44129   -7411.3557   -4992.7053   -6296.0954   -2439.8703    83.368723 
     900    1377.9137   -107.38405    1.2467653   -106.13729   -27389.403    4.3883428    4.3883428    4.3883428   -27389.403     -28400.1    15865.566   -69633.674    8524.3552   -1927.5938    22713.842     84.50874 
    1000    978.97851   -107.01819   0.88580033   -106.13239   -4801.2894     4.391934     4.391934     4.391934   -4801.2894    8422.1216    35532.635   -58358.625    7480.6433    1561.4187    2874.6731    84.716384 
    1100    1718.9584   -107.68215    1.5553497    -106.1268   -20559.732    4.3710919    4.3710919    4.3710919   -20559.732   -10566.574   -9396.1412   -41716.482    -5179.757    -4228.945    9835.7238    83.516026 
    1200    844.31874   -106.90955   0.76395734   -106.14559    28159.502    4.3603672    4.3603672    4.3603672    28159.502    46049.555    74147.743   -35718.793    2071.1277   -1755.0728    6612.2749    82.902801 
    1300     1061.252   -107.12278    0.9602431   -106.16253    5891.1619    4.3829905    4.3829905    4.3829905    5891.1619   -11599.695     79763.26   -50490.079    18242.802   -4483.7569    1343.9433    84.199903 
    1400    1310.1215   -107.33482    1.1854255    -106.1494   -14050.141    4.3904399    4.3904399    4.3904399   -14050.141    4713.1675    6091.5095   -52955.101    6129.3345   -9632.5232     16656.49    84.629956 
    1500    997.04276   -107.02953   0.90214524   -106.12738    2899.5438    4.3805252    4.3805252    4.3805252    2899.5438     40666.39    804.26171    -32772.02    14856.385   -5415.7295    2872.5412    84.057902 
    1600    1509.6934   -107.48412    1.3660023   -106.11812   -19704.108    4.3771657    4.3771657    4.3771657   -19704.108    22047.386    -33849.62   -47310.089   -17754.503    1212.5265    7953.1631    83.864654 
    1700    1312.9102   -107.30847    1.1879487   -106.12052   -5726.3331    4.3849989    4.3849989    4.3849989   -5726.3331    18492.706     6376.017   -42047.722    9.7881891   -14375.788    21247.582    84.315705 
    1800    1427.0524   -107.40115     1.291227   -106.10992   -5305.1056    4.3902494    4.3902494    4.3902494   -5305.1056    19782.697   -17328.084   -18369.929    11318.998    -7109.162    11986.607    84.618939 
    1900    918.89554   -106.93374   0.83143599    -106.1023    5022.8515    4.3848824    4.3848824    4.3848824    5022.8515    16763.103    12379.026   -14073.575    4282.7485   -6100.0515    17652.976    84.308985 
    2000    1033.4095   -107.03815   0.93505067    -106.1031    21849.095    4.3724933    4.3724933    4.3724933    21849.095    4484.5403    56479.773    4582.9726    13902.063    -20226.85   -9950.5981    83.596378 
    2100    1416.8717   -107.40672    1.2820153    -106.1247    11288.507    4.3756986    4.3756986    4.3756986    11288.507    27300.632    -2549.321    9114.2113    3706.2101   -9744.2012    18307.546    83.780353 
    2200    1048.7445   -107.09242   0.94892608   -106.14349   -395.35871    4.3882302    4.3882302    4.3882302   -395.35871    -17680.35   -283.34717    16777.621    8131.3113   -11642.679    13520.836    84.502235 
    2300    857.31775   -106.91184   0.77571911   -106.13612    27441.633    4.3840508    4.3840508    4.3840508    27441.633    45232.569    -6126.819    43219.148    5594.2105   -6967.9168    2708.3364    84.261024 
    2400    857.83882    -106.9016    0.7761906   -106.12541    18978.261    4.3794491    4.3794491    4.3794491    18978.261    35651.394    25739.846   -4456.4582   -20399.272   -8949.8836    7953.6993    83.995971 
    2500     1531.547   -107.49825    1.3857759   -106.11247   -6073.1576    4.3791842    4.3791842    4.3791842   -6073.1576   -17753.429   -15820.391    15354.348    3153.9777   -9505.6039    7084.7636    83.980727 
    2600    1139.7742    -107.1401    1.0312917   -106.10881   -54.348822    4.3928376    4.3928376    4.3928376   -54.348822    4482.0192    22936.073   -27581.138    4430.5925    2154.8426    12032.519    84.768687 
    2700    1037.6174   -107.03953   0.93885803   -106.10068   -18086.535    4.3872323    4.3872323    4.3872323   -18086.535    10516.682   -30632.267    -34144.02   -3928.7482   -10776.414    4444.6983    84.444599 
    2800    1232.2563   -107.22066    1.1149714   -106.10569    1018.7671    4.3682108    4.3682108    4.3682108    1018.7671   -3239.3333    31347.774   -25052.139    8421.3116    11034.377    2363.9043    83.350993 
    2900    1261.5065    -107.2685    1.1414376   -106.12706    1264.1365    4.3679919    4.3679919    4.3679919    1264.1365    1169.0906   -10915.157    13538.475    -26512.82    3334.8369    6409.1961    83.338459 
    3000    929.03455   -106.98137   0.84060998   -106.14076   -4482.9828    4.3802621    4.3802621    4.3802621   -4482.9828   -17918.403   -23225.281    27694.735   -12871.325   -8957.2762   -6619.6579    84.042759 
    3100    1466.1822    -107.4526    1.3266324   -106.12597   -23755.699    4.3812695    4.3812695    4.3812695   -23755.699   -35693.146   -37443.345     1869.395    7016.3089    11519.769    142.87068    84.100758 
    3200    950.08357    -106.9891   0.85965558   -106.12944    15272.165    4.3785402    4.3785402    4.3785402    15272.165    21691.831   -15477.971    39602.636   -2510.2613    1842.5241     394.0569    83.943682 
    3300    1475.6827   -107.46083    1.3352288   -106.12561   -3371.5553    4.3699289    4.3699289    4.3699289   -3371.5553    12651.579    -4829.365    -17936.88   -5119.6016   -10282.885    843.39815     83.44938 
    3400     1050.673   -107.08491   0.95067099   -106.13424    26234.113    4.3744989    4.3744989    4.3744989    26234.113    14821.844   -8829.1485    72709.644    1419.5656    861.68096    7993.3169    83.711462 
    3500    1149.0408   -107.17671    1.0396762   -106.13703   -19294.347    4.3859428    4.3859428    4.3859428   -19294.347   -26012.268   -38578.924    6708.1503     4280.939   -7732.8853   -6049.3487    84.370165 
    3600    1513.0922   -107.49145    1.3690776   -106.12237    10695.395    4.3624454    4.3624454    4.3624454    10695.395    2969.5762    1361.7527    27754.855   -8611.7307    -1541.212    9210.1415    83.021394 
    3700    995.24756    -107.0392   0.90052091   -106.13868    17845.465    4.3790648    4.3790648    4.3790648    17845.465    7.8559777   -4993.5478    58522.087    8060.5699   -9943.4143    13081.245    83.973861 
    3800    1154.0311   -107.16674    1.0441916   -106.12255   -26081.352    4.3863333    4.3863333    4.3863333   -26081.352   -59872.248   -10821.398   -7550.4103    14520.695   -20011.249   -5031.3087      84.3927 
    3900     1422.122    -107.3872    1.2867658   -106.10044    26995.785    4.3520197    4.3520197    4.3520197    26995.785    39268.498    10698.634    31020.222   -9152.4664    17391.831   -4702.9176    82.427583 
    4000    1186.1724    -107.2117    1.0732738   -106.13842    -20326.64    4.3811244    4.3811244    4.3811244    -20326.64   -52456.558    16743.804   -25267.165    13856.548   -22851.749    875.39805    84.092399 
    4100    1022.6928   -107.05419   0.92535397   -106.12883    -18351.37    4.3874405    4.3874405    4.3874405    -18351.37   -36041.629   -50351.357    31338.876    3936.0199   -8171.6111    2044.3092    84.456622 
    4200    1255.6363   -107.25594    1.1361261   -106.11981    14572.811    4.3614686    4.3614686    4.3614686    14572.811   -9772.4885    2218.8329    51272.088   -1619.9801     9470.921    16057.666    82.965634 
    4300    1263.8778   -107.28395    1.1435832   -106.14037    -4938.011    4.3678842    4.3678842    4.3678842    -4938.011   -23419.505   -17108.439    25713.911    14760.552   -18915.207   -21321.023    83.332294 
    4400    1231.9856   -107.24824    1.1147265   -106.13351   -10358.874    4.3755392    4.3755392    4.3755392   -10358.874   -26048.828   -13587.538    8559.7433     2403.119    1711.8598    936.04402    83.771199 
    4500    1208.6858   -107.22611    1.0936443   -106.13247   -27934.249    4.3871161    4.3871161    4.3871161   -27934.249   -32467.247   -42998.868   -8336.6309    9869.2739   -5555.7226    7189.9215    84.437889 
    4600    833.61047   -106.88414   0.75426827   -106.12987     4733.545    4.3786009    4.3786009    4.3786009     4733.545   -34753.194    4362.6889     44591.14    13318.668    -17306.48   -10019.942    83.947174 
    4700    1691.9864   -107.65109    1.5309448   -106.12014     252.1688    4.3579748    4.3579748    4.3579748     252.1688   -12787.957   -8590.4604    22134.924     67.74048    2051.8088    28023.482    82.766413 
    4800     859.9191   -106.93331   0.77807288   -106.15523     8973.711    4.3775308    4.3775308    4.3775308     8973.711   -18910.669    29268.679    16563.123     10859.12   -3384.7724   -10972.152    83.885644 
    4900    1373.3798   -107.38354    1.2426629   -106.14088   -39405.628    4.3887764    4.3887764    4.3887764   -39405.628   -35447.731   -54278.795   -28490.357   -2797.7279   -4806.6812    12509.276    84.533792 
    5000    1176.0688   -107.18753    1.0641317   -106.12339    17058.651    4.3734192    4.3734192    4.3734192    17058.651    6598.5005    2104.6441    42472.807   -8275.1989    798.17991   -5789.5422    83.649496 
    5100    1452.1244   -107.43509    1.3139127   -106.12118   -13321.576    4.3770556    4.3770556    4.3770556   -13321.576   -32244.766   -15734.026    8014.0631    1472.5117   -10859.972    3891.5712    83.858327 
    5200    738.23812   -106.79875   0.66797336   -106.13077    2948.8946    4.3786988    4.3786988    4.3786988    2948.8946    10408.206   -41187.823    39626.301   -1808.6095   -14237.034    5173.9963    83.952804 
    5300     1179.429   -107.20577    1.0671722    -106.1386   -902.18582    4.3817223    4.3817223    4.3817223   -902.18582   -22472.098   -2295.1232    22060.664   -5179.3056   -526.07796    5999.6446    84.126834 
    5400    1288.2785   -107.30385    1.1656615   -106.13819    -9446.287    4.3803766    4.3803766    4.3803766    -9446.287    932.46888   -21651.639   -7619.6908    10485.317   -18205.303   -7546.1382     84.04935 
    5500    1294.8835   -107.29952    1.1716378   -106.12788    24018.524    4.3649958    4.3649958    4.3649958    24018.524    52963.329   -6312.5525    25404.796    -8518.964    16043.512    178.65286    83.167087 
    5600    903.33576   -106.95909   0.81735718   -106.14173   -27414.167    4.3920927    4.3920927    4.3920927   -27414.167   -36393.415   -5804.2542   -40044.833   -3601.7454   -8247.0995   -8781.5558     84.72557 
    5700    1224.7959   -107.22667     1.108221   -106.11845   -24772.196    4.3810294    4.3810294    4.3810294   -24772.196   -6720.1361   -44726.782    -22869.67    9348.9301   -15704.216   -8423.8187    84.086932 
    5800    1508.5051   -107.47663    1.3649271   -106.11171    18947.482    4.3555039    4.3555039    4.3555039    18947.482    -19168.86    62705.194    13306.112   -13954.613    12072.643   -3701.8712    82.625713 
    5900    912.96391   -106.97275   0.82606893   -106.14668   -11811.833    4.3842721    4.3842721    4.3842721   -11811.833    9658.5037   -24574.451   -20519.551    4253.1939   -23511.065     -7385.58    84.273785 
    6000    1267.2069   -107.27281    1.1465955   -106.12622    -29639.18    4.3895496    4.3895496    4.3895496    -29639.18    6625.7975   -40486.603   -55056.734    -1981.883    10098.381    5553.4591    84.578483 
    6100    1040.8963    -107.0586   0.94182481   -106.11677   -2512.3646    4.3809962    4.3809962    4.3809962   -2512.3646    -17698.89    42806.423   -32644.626   -4477.3959    3693.8265   -8277.3803    84.085018 
    6200    1257.0318   -107.25867    1.1373888   -106.12128    11120.781    4.3677087    4.3677087    4.3677087    11120.781    60760.137      1406.89   -28804.686    4262.2106   -29241.665    213.56141    83.322253 
    6300    1423.6028   -107.42879    1.2881057   -106.14069    3898.5974    4.3711639    4.3711639    4.3711639    3898.5974   -21113.317    15566.773    17242.336   -5786.4821    11011.674    8237.5518    83.520152 
    6400    960.16526   -107.02271   0.86877771   -106.15393   -26545.099    4.3993309    4.3993309    4.3993309   -26545.099    18802.355   -46221.765   -52215.888   -7715.7516   -2696.9279   -14133.169    85.145147 
    6500    1418.8441   -107.41431    1.2837999   -106.13051   -3618.7603    4.3817052    4.3817052    4.3817052   -3618.7603    13288.024   -34860.123    10715.818    58.918953   -117.56311     5573.312    84.125851 
    6600    1068.0999   -107.08657   0.96643924   -106.12014    18758.762    4.3677785    4.3677785    4.3677785    18758.762    67977.511    3091.0038   -14792.228   -6655.8401    4902.0457   -297.05896    83.326244 
    6700    1186.6279   -107.19882    1.0736859   -106.12513   -18227.664    4.3871298    4.3871298    4.3871298   -18227.664   -2640.7578   -51168.823   -873.41268   -96.339282   -10931.539   -17296.149    84.438683 
    6800    1322.4085   -107.31772     1.196543   -106.12118    -20496.96    4.3878291    4.3878291    4.3878291    -20496.96   -7508.3828   -43959.247   -10023.249   -17523.925    2729.2488    15454.543    84.479065 
    6900     946.9019   -106.98725   0.85677674   -106.13047    3321.1671     4.373267     4.373267     4.373267    3321.1671    2245.9108    30469.872   -22752.281   -2845.4364    2163.0444    -15071.36    83.640761 
    7000    1531.0946    -107.5129    1.3853666   -106.12754   -6407.4249    4.3643455    4.3643455    4.3643455   -6407.4249    8213.2362   -20527.668   -6907.8428   -4514.3082    6793.4481   -4750.2693    83.129919 
    7100    768.74867   -106.84389   0.69557995   -106.14831   -4914.6882    4.3898463    4.3898463    4.3898463   -4914.6882    49245.736    -53179.38   -10810.421   -6603.1867   -2558.9806   -2169.7297    84.595633 
    7200    1268.3729   -107.27459    1.1476505   -106.12694   -36828.758    4.3981494    4.3981494    4.3981494   -36828.758    -16042.34   -16887.972   -77555.962   -105.43801    6331.4593   -9834.7755    85.076563 
    7300    1309.3567   -107.28913    1.1847334    -106.1044    40447.098    4.3534116    4.3534116    4.3534116    40447.098    44660.117    53655.504    23025.673    11369.171    4324.5693    239.98536    82.506697 
    7400    1062.2309   -107.10765   0.96112886   -106.14652    1296.8476    4.3673028    4.3673028    4.3673028    1296.8476    42745.841   -32210.107   -6645.1913   -4359.2923    5492.4667   -9765.9433    83.299022 
    7500    1419.2933   -107.41081    1.2842064   -106.12661   -43433.136    4.4036459    4.4036459    4.4036459   -43433.136   -30077.998    -40892.05    -59329.36   -1759.0461   -271.09025   -3217.0948    85.395928 
    7600     924.1528   -106.94772   0.83619288   -106.11153    35193.916    4.3733538    4.3733538    4.3733538    35193.916    96324.945    8401.7163    855.08571   -2753.0053    2383.3075   -543.55197    83.645744 
    7700    1301.7434   -107.29521    1.1778448   -106.11736     16635.12    4.3596867    4.3596867    4.3596867     16635.12     10585.09     16896.92    22423.349    4689.3839   -3609.0228    1827.0973     82.86399 
    7800     1322.662   -107.33401    1.1967723   -106.13724   -10566.179    4.3871373    4.3871373    4.3871373   -10566.179    47902.212   -64032.331   -15568.417   -1691.5276    3220.1128   -1128.1717    84.439114 
    7900      895.895   -106.94987   0.81062462   -106.13924    8996.4464    4.3807452    4.3807452    4.3807452    8996.4464    37889.482    23849.435   -34749.578   -15070.595    12339.464    4766.5166    84.070567 
    8000    1152.6097   -107.17554    1.0429055   -106.13263    29051.312    4.3660594    4.3660594    4.3660594    29051.312   -5008.0406    16150.294    76011.681   -12914.175    -11849.59    15501.112    83.227899 
    8100    1400.5066   -107.40627    1.2672078   -106.13906   -10398.196    4.3759623    4.3759623    4.3759623   -10398.196    253.02144   -3873.7609   -27573.848   -5322.8498    8417.8724   -19573.468    83.795503 
    8200    971.53671   -107.01084   0.87906683   -106.13177   -3867.7436    4.3816952    4.3816952    4.3816952   -3867.7436   -26119.417   -22436.058    36952.244   -1446.0229   -8788.9975    375.74822    84.125272 
    8300    1519.4537   -107.49875    1.3748336   -106.12391   -6052.1553    4.3838103    4.3838103    4.3838103   -6052.1553   -7510.2459     8752.226   -19398.446    6323.8395   -9489.6542   -335.74865     84.24716 
    8400    1274.3322    -107.2738    1.1530426   -106.12076   -10423.429    4.3770773    4.3770773    4.3770773   -10423.429    1376.3744    14682.163   -47328.825    13661.659    1413.6322   -21327.014    83.859572 
    8500    1346.6984   -107.33963    1.2185211   -106.12111   -9636.0692    4.3780789    4.3780789    4.3780789   -9636.0692    8936.7953    -557.0222   -37287.981    5031.9269    -10160.95   -3256.8735    83.917156 
    8600    1306.9035   -107.29566    1.1825137   -106.11315   -19537.526    4.3920677    4.3920677    4.3920677   -19537.526   -800.61449   -25314.125   -32497.839   -4799.6343    2154.0575    6790.6185    84.724124 
    8700    1016.1059   -107.02743   0.91939399   -106.10804   -3261.7135     4.373376     4.373376     4.373376   -3261.7135     12607.02    24116.107   -46508.268    1741.3986      11966.9   -14860.603    83.647015 
    8800    1597.6088   -107.55503      1.44555   -106.10948   -1970.1099    4.3696459    4.3696459    4.3696459   -1970.1099   -15349.881    17879.133   -8439.5816   -3785.2722    4502.1684    16913.304    83.433167 
    8900    699.74588   -106.76039   0.63314478   -106.12724    6037.2686    4.3970376    4.3970376    4.3970376    6037.2686    -11452.54    13073.011    16491.335   -12960.585    8871.9832    26691.659    85.012057 
    9000    1269.2503   -107.26312    1.1484444   -106.11467   -7136.3954     4.393181     4.393181     4.393181   -7136.3954   -23423.074   -26250.629    28264.517   -3490.0399    15139.057    7997.9626    84.788566 
    9100     954.8378   -106.96993   0.86395731   -106.10598    23647.435     4.374901     4.374901     4.374901    23647.435   -15280.168    7539.7725      78682.7   -9505.7166    11860.663    12646.663     83.73455 
    9200    1031.9275    -107.0511   0.93370971   -106.11739   -5640.3621    4.3717317    4.3717317    4.3717317   -5640.3621    -11443.69    2889.2792   -8366.6754     7990.251    5414.6021    2502.4396      83.5527 
    9300    1280.8809    -107.2852     1.158968   -106.12623    2452.0041    4.3782139    4.3782139    4.3782139    2452.0041     24814.97   -10216.403   -7242.5547   -7689.0294    -13060.22   -12552.866    83.924919 
    9400    1343.7063    -107.3387    1.2158137   -106.12289   -14545.085    4.3925778    4.3925778    4.3925778   -14545.085   -23224.649    16084.616   -36495.223   -19228.029    9810.8398   -8.0912786    84.753645 
    9500    1271.8728   -107.26158    1.1508172   -106.11076   -17799.421    4.3868176    4.3868176    4.3868176   -17799.421   -7798.8164   -2280.4643   -43318.984   -1464.7425   -3710.2807    -7248.766    84.420655 
    9600    1340.3996   -107.31977    1.2128218   -106.10695    4575.6716    4.3701587    4.3701587    4.3701587    4575.6716   -10137.902    23024.992    839.92461   -3732.3066   -6025.9493    1276.0596    83.462544 
    9700    1035.0168   -107.06494   0.93650491   -106.12844   -3913.9307    4.3898006    4.3898006    4.3898006   -3913.9307   -14864.416    9787.0654   -6664.4413   -1540.3335   -7643.0638    11319.887    84.592989 
    9800    1126.2671    -107.1356    1.0190702   -106.11653   -13.103562    4.3907043    4.3907043    4.3907043   -13.103562    14333.591   -24293.739    9920.8379    1259.8684    -8296.453    6480.8069    84.645243 
    9900     1030.453   -107.03858   0.93237549   -106.10621    32893.308     4.375321     4.375321     4.375321    32893.308   -18215.695    37645.287     79250.33   -5191.8312   -11245.672    12843.955    83.758668 
   10000    793.22328   -106.83976   0.71772509   -106.12204    2826.8304     4.393848     4.393848     4.393848    2826.8304    -8790.681   -51626.137     68897.31    4968.1583   -10503.018   -8740.1201    84.827192 
   10100    1438.7644   -107.40899    1.3018243   -106.10716   -7164.5671    4.3867826    4.3867826    4.3867826   -7164.5671   -761.48867   -41991.916    21259.703   -1327.1933   -6428.7167    10116.875    84.418637 
   10200    1519.8793   -107.48271    1.3752187   -106.10749     4053.548    4.3722704    4.3722704    4.3722704     4053.548   -4925.4791     19974.67   -2888.5467    6579.3469   -4577.5399   -1785.0091    83.583592 
   10300    708.30032   -106.77555   0.64088501   -106.13467    24646.639    4.3876837    4.3876837    4.3876837    24646.639    5342.2229   -41567.846    110165.54   -1862.1747    14743.734   -11979.454    84.470671 
   10400    1089.5726   -107.12569   0.98586822   -106.13982   -15410.984    4.3892784    4.3892784    4.3892784   -15410.984   -32903.679   -61445.348    48116.074   -3829.7214    2382.6611    11251.868    84.562803 
   10500    1706.3211    -107.6778    1.5439152   -106.13389   -12311.242    4.3679897    4.3679897    4.3679897   -12311.242   -26162.875   -21684.572    10913.722    5285.6355   -2197.5904    3201.3056    83.338337 
   10600    786.84396   -106.87159   0.71195295   -106.15964    33431.119    4.3767238    4.3767238    4.3767238    33431.119   -11541.795   -36661.725    148496.88     3467.253   -14857.625    3621.4331    83.839257 
   10700    884.87787   -106.96511    0.8006561   -106.16445   -4066.2474    4.3923519    4.3923519    4.3923519   -4066.2474    -35532.29   -64887.626    88221.173     1006.638   -8284.8558    22887.442     84.74057 
   10800     1816.607    -107.7792    1.6437042   -106.13549   -39667.485    4.3835432    4.3835432    4.3835432   -39667.485   -50345.221   -34498.124   -34159.112    1767.7659   -6734.2283   -3325.9661    84.231758 
   10900    617.94551    -106.7057   0.55913008   -106.14657    23341.039     4.372417     4.372417     4.372417    23341.039    -15638.27   -54977.141    140638.53    4954.8921   -7567.3793    15083.768       83.592 
   11000     1132.324   -107.17827    1.0245506   -106.15372    4630.2818     4.383193     4.383193     4.383193    4630.2818   -9067.3566   -42135.168     65093.37   -1807.3262    1125.7137    10781.006    84.211575 
   11100    1796.9154    -107.7718    1.6258868   -106.14591   -33509.598    4.3914174    4.3914174    4.3914174   -33509.598   -51050.845   -24620.965   -24856.984    5465.0127   -7857.4353   -4074.8737    84.686495 
   11200    1007.6681   -107.05494   0.91175926   -106.14318    8715.9373    4.3824645    4.3824645    4.3824645    8715.9373   -8579.7328    -31316.45    66043.994   -4310.1335    6065.1308    116.83618    84.169591 
   11300    928.77754   -106.98035   0.84037743   -106.13997    23555.622    4.3789215    4.3789215    4.3789215    23555.622    7015.2674   -34528.624    98180.224    5728.2776   -1593.7647   -16213.163    83.965618 
   11400    1715.1434   -107.69325    1.5518978   -106.14135   -33583.516    4.3845714    4.3845714    4.3845714   -33583.516   -28612.525   -46896.418   -25241.604    5889.1964   -5491.8289    8287.6164    84.291047 
   11500    1199.6981   -107.23433    1.0855121   -106.14881   -2167.6458    4.3882132    4.3882132    4.3882132   -2167.6458   -6673.7124   -53065.372    53236.147   -1774.5987   -5477.4376    12182.923    84.501255 
   11600    984.53676   -107.03412   0.89082956   -106.14329    19150.636    4.3879638    4.3879638    4.3879638    19150.636   -13750.432   -53248.451    124450.79     1150.821   -6477.1387    5113.2266     84.48685 
   11700    1485.9329   -107.48729    1.3445033   -106.14279   -41832.493    4.3852851    4.3852851    4.3852851   -41832.493   -38674.488   -51110.908   -35712.082    4856.1221   -4344.5347    22678.058    84.332214 
   11800    890.77151   -106.95412   0.80598879   -106.14813    32002.358    4.3761813    4.3761813    4.3761813    32002.358    1655.1815   -33347.656    127699.55   -7265.1408    7205.8666    871.22355    83.808083 
   11900    769.87352   -106.84964   0.69659774   -106.15305    18909.392     4.382206     4.382206     4.382206    18909.392   -12636.701   -43544.592    112909.47    4301.1338    9727.9337    18516.987    84.154698 
   12000    1493.5461   -107.49849    1.3513919   -106.14709   -32147.106    4.3885063    4.3885063    4.3885063   -32147.106    -42117.85   -56215.056    1891.5876   -1964.6638    2599.9963     12411.12    84.518187 
   12100    1672.0042   -107.65833    1.5128645   -106.14546   -14966.122    4.3870765    4.3870765    4.3870765   -14966.122   -28122.044   -55156.636    38380.314    1839.4163   -757.31879    3290.1132    84.435607 
   12200    803.28509   -106.87657   0.72682923   -106.14974     18867.44    4.3774064    4.3774064    4.3774064     18867.44    -9717.777   -56336.993    122657.09    5206.7017   -9181.3709    12922.836    83.878491 
   12300    1535.0344   -107.54778    1.3889314   -106.15885   -17667.056     4.378675     4.378675     4.378675   -17667.056    -36441.05   -31618.149     15058.03   -5452.0141   -2822.2596   -10683.572    83.951434 
   12400    925.09364   -107.00829   0.83704417   -106.17124    6062.5203    4.3938177    4.3938177    4.3938177    6062.5203    -15035.88    -56343.97    89567.411    2030.3932     3145.491   -32.595459    84.825439 
   12500    1251.7445   -107.28165    1.1326047   -106.14904   -8657.6937     4.389537     4.389537     4.389537   -8657.6937   -38480.868   -45814.209    58321.995   -3217.1128   -6887.6682    7467.5378    84.577755 
   12600    1271.9949       -107.3    1.1509277   -106.14907    10776.531    4.3692061    4.3692061    4.3692061    10776.531    -5380.986   -41203.385    78913.963   -6124.8286    15218.535   -1595.9986    83.407978 
   12700    809.49866   -106.90268    0.7324514   -106.17023    23285.285    4.3855783    4.3855783    4.3855783    23285.285    19781.707   -47996.176    98070.324   -1570.8786    12178.366    13163.289    84.349127 
   12800    1418.1935   -107.42915    1.2832113   -106.14594   -36685.969    4.4046666    4.4046666    4.4046666   -36685.969   -42357.953   -62291.883   -5408.0718    3035.1384    6518.3454   -10121.995    85.455326 
   12900    1277.5012   -107.29133    1.1559099   -106.13542   -10202.956    4.3769085    4.3769085    4.3769085   -10202.956   -17072.799   -36180.879    22644.809    4056.8862   -7091.5334    3516.8178    83.849874 
   13000    1100.7875   -107.13343    0.9960157   -106.13741    35876.687     4.363091     4.363091     4.363091    35876.687    17072.286   -42968.209    133525.99   -3514.6889   -11773.014    7126.5956    83.058256 
   13100    1378.3502   -107.41526    1.2471602    -106.1681   -37757.845     4.399555     4.399555     4.399555   -37757.845   -37908.906   -65939.549   -9425.0802   -6067.8871   -11944.045    -10121.49    85.158154 
   13200    1280.2034   -107.30482    1.1583549   -106.14647   -22490.727    4.4051594    4.4051594    4.4051594   -22490.727   -39838.014   -51471.999    23837.832    3920.3496   -238.73431   -1921.5148    85.484008 
   13300    1315.9715    -107.3265    1.1907187   -106.13578    19096.049    4.3682859    4.3682859    4.3682859    19096.049   -3487.2721   -43602.685    104378.11   -5551.9174    6042.2089   -9529.6565    83.355288 
   13400    1103.6167   -107.15184    0.9985756   -106.15326    15512.148    4.3607772    4.3607772    4.3607772    15512.148    46393.476   -28614.059    28757.026    938.79396    9306.1995   -19847.874    82.926186 
   13500    1408.2818   -107.44358    1.2742429   -106.16933   -20211.304    4.3959292    4.3959292    4.3959292   -20211.304   -28061.042   -54379.807    21806.938   -2737.5704   -11673.071    9926.7429    84.947788 
   13600    660.50186    -106.7498   0.59763596   -106.15216     3751.706    4.3964613    4.3964613    4.3964613     3751.706    23543.816   -72538.282    60249.584   -5023.7943    3148.5819   -20229.414    84.978638 
   13700    1608.3999   -107.58586    1.4553141   -106.13054   -4378.7117    4.3662355    4.3662355    4.3662355   -4378.7117   -28619.809   -32922.158    48405.833   -906.70558   -26569.033   -430.67238    83.237967 
   13800    1333.8346    -107.3633    1.2068816   -106.15642    5955.7332    4.3687455    4.3687455    4.3687455    5955.7332    51.316809   -37265.606    55081.489   -1207.3484    1291.5345     1529.747    83.381604 
   13900    802.09523   -106.89661   0.72575262   -106.17086    3617.1829    4.3934345    4.3934345    4.3934345    3617.1829   -40597.647    -77338.89    128788.09   -6574.8581    3143.1098   -12014.884    84.803245 
   14000    1479.1552   -107.48846    1.3383707   -106.15008    -22652.92    4.3898804    4.3898804    4.3898804    -22652.92   -34556.255    -51882.27    18479.764   -825.31383   -12630.146    8149.4917    84.597604 
   14100    1316.4105    -107.3291    1.1911159   -106.13798   -23167.883    4.3750257    4.3750257    4.3750257   -23167.883   -16612.259    -61749.04    8857.6509    6898.0935    16399.792   -19732.618    83.741709 
   14200    853.11305   -106.91654   0.77191462   -106.14462    25669.472    4.3707262    4.3707262    4.3707262    25669.472   -22532.158   -22325.653    121866.23   -4865.7307    -7700.905    6662.3297    83.495066 
   14300    1241.4093   -107.28054    1.1232533   -106.15729    6579.8459    4.3730058    4.3730058    4.3730058    6579.8459   -18910.776    4059.9169    34590.397    3410.9531   -12765.317   -6528.8332    83.625776 
   14400    1491.1966   -107.50411     1.349266   -106.15484   -13088.244    4.3876838    4.3876838    4.3876838   -13088.244    -1523.086   -41106.385    3364.7375     7286.375   -1326.1388   -10127.997    84.470677 
   14500    1299.8324   -107.31051    1.1761157   -106.13439   -27335.918    4.3993892    4.3993892    4.3993892   -27335.918   -47059.218     -68074.2    33125.662    2341.1988   -12791.314    11936.906    85.148528 
   14600    973.09254   -107.00172   0.88047458   -106.12124    14584.233    4.3681899    4.3681899    4.3681899    14584.233   -11545.672   -34226.001    89524.373   -1164.8356   -19446.527   -17709.878    83.349797 
   14700    984.42855   -107.01762   0.89073164   -106.12689    45002.553    4.3625345    4.3625345    4.3625345    45002.553    81404.404    7237.0308    46366.224    3174.7375   -11820.955    18465.972    83.026478 
   14800    1594.9657   -107.58515    1.4431585     -106.142   -46408.925     4.396218     4.396218     4.396218   -46408.925   -38091.771   -67010.067   -34124.937    5616.3543    9820.7278   -5484.7581    84.964532 
   14900    1368.4567   -107.35816    1.2382084   -106.11995   -40707.926    4.3921335    4.3921335    4.3921335   -40707.926   -28889.505   -63932.529   -29301.745    5848.4895    15042.512   -19549.599    84.727932 
   15000    1314.9991    -107.2788    1.1898389   -106.08896    31310.815    4.3571804    4.3571804    4.3571804    31310.815    41260.381    5985.5175    46686.547   -915.98881    4503.0134    13631.207    82.721164 
   15100      1130.02   -107.14851    1.0224658   -106.12605   -5260.4283    4.3776928    4.3776928    4.3776928   -5260.4283    10761.703   -42579.467     16036.48    8279.6489   -11359.119   -18891.553    83.894956 
   15200    1641.1586   -107.59438    1.4849548   -106.10942   -47692.196    4.3995618    4.3995618    4.3995618   -47692.196   -44172.408   -64797.179       -34107    6968.4841    4669.8252   -6743.8053    85.158553 
   15300    940.95077   -106.95829   0.85139203    -106.1069    13434.142    4.3734097    4.3734097    4.3734097    13434.142    19607.309    3002.4663    17692.651    4691.3607   -21696.105    5461.4515    83.648949 
   15400    1082.7508   -107.09253   0.97969565   -106.11283    10774.138    4.3662149    4.3662149    4.3662149    10774.138    40102.457    -9564.601    1784.5595   -2454.3819   -2276.7729    -15923.14    83.236787 
   15500    1625.2916   -107.58621     1.470598   -106.11561   -8519.5365    4.3810689    4.3810689    4.3810689   -8519.5365    30981.357   -32827.252   -23712.715    839.84233    6260.6071    5998.5395    84.089204 
   15600    596.04934   -106.66098   0.53931797   -106.12166    23298.704    4.3839569    4.3839569    4.3839569    23298.704    56493.486   -25905.319    39307.944    886.13452   -14147.589    4107.2833    84.255612 
   15700    1421.3655   -107.40108    1.2860813   -106.11499   -15549.798    4.3752915    4.3752915    4.3752915   -15549.798   -109.52927   -12740.223   -33799.642    9788.8342    11767.058   -8461.6183    83.756976 
   15800    1579.1952   -107.55046     1.428889   -106.12157    124.95762    4.3723088    4.3723088    4.3723088    124.95762   -3278.0061    12460.668   -8807.7894   -9630.4473    3214.9051   -4556.5698    83.585794 
   15900    817.55398   -106.87194   0.73974002    -106.1322    7868.7865    4.3877234    4.3877234    4.3877234    7868.7865    61617.918   -40287.826    2276.2674   -5263.6705    6097.6425    3918.2812    84.472964 
   16000    1393.4663   -107.37088    1.2608376   -106.11004   -16285.197    4.3872225    4.3872225    4.3872225   -16285.197    22320.856   -35019.228   -36157.219    8040.5828    3153.0104    6964.0813    84.444037 
   16100    1179.8016   -107.18378    1.0675093   -106.11627   -12125.089    4.3735722    4.3735722    4.3735722   -12125.089    6436.0939    1629.0879   -44440.449   -8421.1492   -3353.3648   -3548.9868    83.658272 
   16200    1222.0196   -107.22824     1.105709   -106.12253    20138.231    4.3636291    4.3636291    4.3636291    20138.231    47559.303    17907.518   -5052.1292     11109.61    1838.9791    323.93336    83.088991 
   16300    1477.8927   -107.47744    1.3372284   -106.14021   -27236.532    4.3842955    4.3842955    4.3842955   -27236.532    5509.1398   -35598.405   -51620.331    2437.7258   -2012.2761    2179.5999    84.275132 
   16400    1018.1841   -107.05148   0.92127438    -106.1302   -26094.411    4.3880783    4.3880783    4.3880783   -26094.411    3927.9985   -41079.091    -41132.14    5265.1682   -14156.557    1621.2906    84.493465 
   16500    914.21475   -106.93946   0.82720072   -106.11226    24818.645    4.3543542    4.3543542    4.3543542    24818.645    64876.645    10426.458   -847.16713    3922.6748   -2637.0898   -5520.3555    82.560299 
   16600    1161.4545    -107.1894    1.0509085   -106.13849    4077.0922    4.3633013    4.3633013    4.3633013    4077.0922    25954.407    10386.138   -24109.268   -11547.604   -992.31646     3220.065    83.070267 
   16700    1445.3629   -107.43201    1.3077947   -106.12421   -20092.875    4.3932557    4.3932557    4.3932557   -20092.875    17441.067   -36838.796   -40880.896    4700.6509   -8221.1408    4133.3355    84.792893 
   16800    1236.9253   -107.23838     1.119196   -106.11919   -6316.8316    4.3728144    4.3728144    4.3728144   -6316.8316    19056.517   -19194.086   -18812.926    20313.525    7032.0308   -12993.076    83.614795 
   16900    1156.6798   -107.16083    1.0465882   -106.11424    37917.137    4.3479204    4.3479204    4.3479204    37917.137    64640.066    48862.097    249.24769   -9695.7432   -10300.987     805.5428    82.194876 
   17000    1134.4185   -107.17478    1.0264457   -106.14834   -19883.098    4.3761839    4.3761839    4.3761839   -19883.098    533.94187   -29112.895   -31070.339    -4004.568    11715.617   -293.64322    83.808237 
   17100    1303.9972   -107.31546    1.1798841   -106.13558   -6335.6194    4.3869396    4.3869396    4.3869396   -6335.6194    782.91191    -3089.784   -16699.986   -9367.0438    -1595.593   -727.83559    84.427699 
   17200    1517.0077   -107.49484    1.3726205   -106.12222   -9876.5414    4.3719951    4.3719951    4.3719951   -9876.5414   -15743.106    8845.9179   -22732.436   -5137.0095    1933.7704   -6608.8966    83.567807 
   17300    802.43476   -106.85172   0.72605984   -106.12566    23787.591    4.3552094    4.3552094    4.3552094    23787.591    95503.786    14675.527    -38816.54    10721.971    2214.0504   -4966.8621    82.608957 
   17400    1006.2491   -107.04813   0.91047533   -106.13765    19073.203     4.369911     4.369911     4.369911    19073.203      37414.6    31972.078   -12167.069    11766.643    3567.6225    4535.6616    83.448355 
   17500    1014.1539   -107.06039    0.9176278   -106.14276    -21118.42    4.3920546    4.3920546    4.3920546    -21118.42   -922.05293    -11727.27   -50705.937    2931.7751    11813.075   -1243.0256    84.723363 
   17600    1305.0895   -107.30508    1.1808724   -106.12421    1832.9476    4.3699079    4.3699079    4.3699079    1832.9476    16343.408    15033.205    -25877.77    6298.2098    9022.1303    7669.0056    83.448179 
   17700    1274.8739    -107.2679    1.1535327   -106.11436     20851.22    4.3480531    4.3480531    4.3480531     20851.22    13881.664    43086.326    5585.6696   -15831.606   -6090.3251    3867.0014    82.202402 
   17800    888.87025   -106.95385   0.80426848   -106.14958    -5418.605    4.3791429    4.3791429    4.3791429    -5418.605    33598.047   -7905.2752   -41948.586   -13767.878    15875.974    943.19423    83.978351 
   17900     1128.632   -107.14941    1.0212099    -106.1282   -6660.1201    4.3902547    4.3902547    4.3902547   -6660.1201    27737.223   -21572.331   -26145.253   -10364.005    6432.4837    9853.1945    84.619244 
   18000    1330.0092   -107.31777    1.2034203   -106.11435     8594.763    4.3506798    4.3506798    4.3506798     8594.763    40044.151    4506.9967   -18766.859   -2909.9655   -166.69913   -6565.9918    82.351473 
   18100    1394.3615   -107.39414    1.2616476    -106.1325    -191.3077    4.3589235    4.3589235    4.3589235    -191.3077   -12354.291    24320.444   -12540.076    9533.8018    5034.2074    7228.8831     82.82048 
   18200    1072.1708   -107.10268    0.9701227   -106.13255   -20629.812    4.3805435    4.3805435    4.3805435   -20629.812    5167.4589   -28664.608   -38392.288    8032.0671     2970.321   -7322.6698    84.058954 
   18300    1254.3808    -107.2582    1.1349901   -106.12321    4843.8927    4.3694569    4.3694569    4.3694569    4843.8927    6056.7524   -7449.5571    15924.483   -1733.3108    6336.4385   -8409.6407    83.422344 
   18400     1490.696   -107.46574     1.348813   -106.11693    8533.1466    4.3719395    4.3719395    4.3719395    8533.1466    10885.493    32263.674   -17549.727   -14398.925   -6155.7971     -1209.77    83.564619 
   18500    806.59606   -106.84578   0.72982506   -106.11596    8012.1007     4.369958     4.369958     4.369958    8012.1007    9674.8195   -7003.6798    21365.163   -17606.386    2163.1187   -16854.726    83.451045 
   18600    1073.6167   -107.08067   0.97143098   -106.10924    21350.394     4.369936     4.369936     4.369936    21350.394   -22383.469    78029.988    8404.6627   -9503.6135    7598.0099   -1704.0845    83.449784 
   18700    1406.9995   -107.38931    1.2730827   -106.11623    515.97651    4.3714541    4.3714541    4.3714541    515.97651    6885.3669    32956.491   -38293.928   -13524.754   -8991.1195   -1181.5394    83.536787 
   18800    1069.2617   -107.09179   0.96749044    -106.1243    27979.778    4.3686965    4.3686965    4.3686965    27979.778    414.00249    64000.441    19524.891    243.71072    10766.579   -4005.8451    83.378797 
   18900    1408.7362   -107.39494    1.2746541   -106.12029   -34967.694    4.3794953    4.3794953    4.3794953   -34967.694   -59906.395   -23589.714   -21406.974     4119.104   -6632.7595    1190.0803    83.998625 
   19000    1144.7805   -107.14892    1.0358215    -106.1131   -3390.3101     4.361413     4.361413     4.361413   -3390.3101   -20093.928    28965.412   -19042.414   -2812.6895   -104.18648    4015.6622    82.962462 
   19100    1559.6957   -107.52652    1.4112454   -106.11528    1807.1911    4.3638486    4.3638486    4.3638486    1807.1911    4191.7183   -17793.184    19023.039    5677.8056   -10740.041    6102.6958    83.101531 
   19200    1117.4688   -107.13479    1.0111092   -106.12368   -19310.788    4.3856423    4.3856423    4.3856423   -19310.788    -29722.07    7230.6737   -35440.969   -1776.8096   -7904.4677    940.10719    84.352823 
   19300    1035.7307   -107.05783   0.93715088   -106.12068    6859.4284    4.3604636    4.3604636    4.3604636    6859.4284   -698.17105    35338.251   -14061.795    6728.5723    3938.7002   -6322.8537    82.908297 
   19400    1358.5804    -107.3519    1.2292721   -106.12263   -1047.2267    4.3479353    4.3479353    4.3479353   -1047.2267   -43114.244    22944.139    17028.425    -10844.36   -29028.098    8428.1565    82.195724 
   19500    1120.2575   -107.15509    1.0136326   -106.14146   -3208.2111    4.3759365    4.3759365    4.3759365   -3208.2111   -9762.2018    33558.355   -33420.787    7918.1319    6093.5522   -1053.6001    83.794023 
   19600    1151.8041   -107.16883    1.0421766   -106.12665   -19369.211    4.3783201    4.3783201    4.3783201   -19369.211   -11978.708   -25590.472   -20538.453    46.835824   -6990.4485   -2837.8376    83.931025 
   19700    1430.6333    -107.4024    1.2944671   -106.10793   -8175.8968    4.3581517    4.3581517    4.3581517   -8175.8968   -48263.504   -871.81815    24607.631   -5373.1284   -4062.1718     5508.141    82.776494 
   19800    926.36248   -106.96348   0.83819224   -106.12529    3208.8806    4.3675103    4.3675103    4.3675103    3208.8806    17350.936    10485.997   -18210.291    12659.544   -1271.9775   -8863.6052      83.3109 
   19900    1571.5276   -107.54421    1.4219512   -106.12226   -11231.244    4.3676067    4.3676067    4.3676067   -11231.244   -11612.128   -25011.862     2930.257   -5914.8428   -715.71301    1154.5253    83.316416 
   20000    1210.6935   -107.22956    1.0954609    -106.1341   -4442.1523    4.3741137    4.3741137    4.3741137   -4442.1523     16756.13   -33295.697    3213.1096    1853.5352     3468.834   -7208.5136    83.689353 
   20100    918.28131    -106.9626   0.83088023   -106.13172   -14948.679    4.3726496    4.3726496    4.3726496   -14948.679   -20298.178    6821.6389   -31369.498    6089.4123   -3223.3672    -3377.134     83.60534 
   20200    1541.3352   -107.50807    1.3946324   -106.11344    5403.0862    4.3464808    4.3464808    4.3464808    5403.0862   -25466.129     13701.52    27973.868   -10982.503    3798.4331   -2208.4711     82.11326 
   20300    1149.4568   -107.17651    1.0400527   -106.13645    10223.615    4.3701811    4.3701811    4.3701811    10223.615    32707.527   -2154.9985    118.31586    10717.438   -1638.1594     1718.288    83.463827 
   20400    909.81428    -106.9462   0.82321908   -106.12298   -7783.1214    4.3786225    4.3786225    4.3786225   -7783.1214   -47610.092    61205.106   -36944.378    1906.7865   -12474.777    8572.0443    83.948419 
   20500    1313.8861   -107.29579    1.1888318   -106.10696    720.01316    4.3514023    4.3514023    4.3514023    720.01316   -16349.481    4502.8552    14006.666    7799.8977    2206.7262    5865.3889    82.392506 
   20600    998.56539   -107.03129   0.90352295   -106.12776    19251.307    4.3649472    4.3649472    4.3649472    19251.307   -3344.8166    61398.285   -299.54839    8081.2755    -1279.159    3453.3869    83.164307 
   20700    1172.1123   -107.18442    1.0605519   -106.12387   -24567.684    4.3779247    4.3779247    4.3779247   -24567.684    -13223.28   -11865.018   -48614.755    2329.7313   -10272.952   -2449.5353    83.908288 
   20800    1334.7629   -107.32542    1.2077215    -106.1177    17915.456    4.3457386    4.3457386    4.3457386    17915.456    9586.3181    48924.747   -4764.6966    942.12296    4573.9684    10942.125    82.071201 
   20900    761.43688   -106.83062   0.68896409   -106.14166    24380.951    4.3568584    4.3568584    4.3568584    24380.951    28785.792     52503.17   -8146.1089   -23227.395   -14531.051   -3235.0507    82.702823 
   21000    1371.1081   -107.36953    1.2406074   -106.12892     -32359.4    4.3804976    4.3804976    4.3804976     -32359.4   -39247.315   -3857.0397   -53973.845    6691.0881   -1243.9911    4346.3922    84.056316 
   21100    1490.2984    -107.4668    1.3484534   -106.11835     8379.329    4.3615671    4.3615671    4.3615671     8379.329    6249.9146    25418.518   -6530.4451    7041.2921    7435.6217   -7383.9755    82.971256 
   21200       1255.7   -107.26402    1.1361838   -106.12783   -20965.689     4.361819     4.361819     4.361819   -20965.689   -28764.011   -3950.5842   -30182.473   -4019.8017   -4962.5524   -7816.1121    82.985637 
   21300    1367.5644   -107.36719     1.237401   -106.12979   -27460.829    4.3738186    4.3738186    4.3738186   -27460.829   -46929.132    209.63636   -35662.993    5387.0092    7482.9465   -710.79452    83.672413 
   21400    1072.0315   -107.09525   0.96999661   -106.12526    15992.658    4.3609082    4.3609082    4.3609082    15992.658    22005.406    37529.094   -11556.527   -18217.306   -2065.6352   -15425.351    82.933659 
   21500    967.94289   -107.00586   0.87581507   -106.13005    29529.682    4.3578625    4.3578625    4.3578625    29529.682    63268.514    9812.9714     15507.56    760.32566    11142.995   -6202.7312    82.760018 
   21600    1552.9861   -107.52995    1.4051744   -106.12477   -3121.9332    4.3782823    4.3782823    4.3782823   -3121.9332   -20838.821    26673.858   -15200.837    15806.405   -8003.6474     5756.886    83.928853 
   21700    724.36645   -106.77939   0.65542199   -106.12396   -10065.994    4.3726841    4.3726841    4.3726841   -10065.994   -4374.7879      4469.21   -30292.404   -25958.452    49.641126     2001.948    83.607324 
   21800    1646.4346   -107.60307    1.4897286   -106.11334    6596.5507    4.3502912    4.3502912    4.3502912    6596.5507   -13831.258      28676.5     4944.411    11664.182    11631.147   -1861.5292    82.329409 
   21900    1154.4993   -107.18047    1.0446153   -106.13586    21776.439    4.3614501    4.3614501    4.3614501    21776.439    18359.089     50169.28   -3199.0508   -11415.572   -10474.876    5350.9512    82.964582 
   22000      933.038   -106.97377   0.84423239   -106.12953   -42897.521     4.384085     4.384085     4.384085   -42897.521   -61875.229   -44915.071   -21902.263   -18630.648    21737.235   -70.423169    84.262996 
   22100    1271.0969   -107.26096    1.1501152   -106.11085    23206.931    4.3592392    4.3592392    4.3592392    23206.931     12836.31    26137.085    30647.399    16179.695    4863.4974   -6955.1838    82.838475 
   22200    1005.0944   -107.03791    0.9094305   -106.12848    9209.8113    4.3527335    4.3527335    4.3527335    9209.8113    19.373873    31969.637   -4359.5767   -23392.657    9108.9936   -2097.6795    82.468145 
   22300    1433.7118   -107.42957    1.2972525   -106.13232   -19815.095    4.3784175    4.3784175    4.3784175   -19815.095   -36213.076   -22129.953   -1102.2559   -3057.1599    14654.763     4121.231    83.936628 
   22400    1406.0629   -107.39456    1.2722353   -106.12233   -6985.1028    4.3677877    4.3677877    4.3677877   -6985.1028    12516.588    -15124.46   -18347.437   -6607.5628   -10238.931    2997.9283    83.326776 
   22500    786.34319   -106.84101   0.71149984   -106.12951   -10876.244    4.3574893    4.3574893    4.3574893   -10876.244   -31617.984    25213.779   -26224.526   -16769.064    9504.3639    916.72338    82.738757 
   22600    1487.2463   -107.46734    1.3456917   -106.12165    21108.625    4.3558791    4.3558791    4.3558791    21108.625    58379.173   -2270.6379    7217.3415     7590.103    12979.999   -338.96225    82.647065 
   22700    1189.5247   -107.21483    1.0763069   -106.13853   -1677.2718    4.3702642    4.3702642    4.3702642   -1677.2718    844.41877   -6635.7925    759.55837   -19721.371    9606.5096    3497.1912    83.468588 
   22800    1324.2527   -107.32372    1.1982117   -106.12551   -33745.637     4.382345     4.382345     4.382345   -33745.637   -51538.675   -26063.251   -23634.987    5824.8981    10968.204    -6583.698    84.162705 
   22900    1130.0679   -107.13237    1.0225092   -106.10986    17021.939     4.352237     4.352237     4.352237    17021.939   -867.55159    1154.4596    50778.908   -934.41359    8510.6715   -7765.2493    82.439932 
   23000    1104.6266   -107.11853   0.99948933   -106.11904    27516.125    4.3514052    4.3514052    4.3514052    27516.125    5988.1841    6863.3796    69696.811   -23238.169    12967.023    94.096101     82.39267 
   23100    1285.4133   -107.28274     1.163069   -106.11967   -10672.344    4.3831088    4.3831088    4.3831088   -10672.344   -38278.961   -20727.058    26988.987    17734.752   -468.87349   -4335.4518    84.206721 
   23200     1248.358   -107.24023    1.1295405   -106.11069    1020.9339    4.3629693    4.3629693    4.3629693    1020.9339   -6487.9452   -26879.382    36430.129   -14365.152    21524.402   -3651.2332    83.051306 
   23300    1069.5525   -107.09411   0.96775361   -106.12636    3876.5268    4.3503331    4.3503331    4.3503331    3876.5268   -8948.1036    5588.9105    14988.774    8678.5754   -2004.8402   -2350.5302    82.331787 
   23400     1332.611    -107.3484    1.2057745   -106.14263    15382.616    4.3595055    4.3595055    4.3595055    15382.616    12170.256    8184.0789    25793.515    2983.9786    2072.5149   -3071.0965     82.85366 
   23500    1158.7818   -107.19135    1.0484901   -106.14286   -9223.9555    4.3814478    4.3814478    4.3814478   -9223.9555   -7940.6756   -21108.686    1377.4952   -2287.8923    3104.2658    7636.9599    84.111024 
   23600    862.78531    -106.9121   0.78066628   -106.13144   -8409.9875    4.3691272    4.3691272    4.3691272   -8409.9875   -54225.251   -8493.0476    37488.336    20558.345   -6084.0006   -2574.3951     83.40346 
   23700    1341.4771   -107.32698    1.2137966   -106.11318    25132.549    4.3409236    4.3409236    4.3409236    25132.549    14112.642   -3053.7961    64338.802    -10384.87    -628.0081    17942.794    81.798703 
   23800    1276.0891   -107.29568    1.1546323   -106.14105   -10610.459    4.3620543    4.3620543    4.3620543   -10610.459   -24411.599    10962.573    -18382.35    15249.201    18450.718   -419.59037    82.999064 
   23900    1337.6886   -107.34229    1.2103687   -106.13192   -2933.6986    4.3736042    4.3736042    4.3736042   -2933.6986   -29197.488   -14427.512    34823.905    3301.1062   -12411.409    1462.1243    83.660113 
   24000    1133.6767   -107.15449    1.0257745   -106.12871    3888.6723    4.3646301    4.3646301    4.3646301    3888.6723   -22684.801    18053.894    16296.924   -4720.7429    16338.037    11026.847    83.146184 
   24100    1078.5812   -107.09974   0.97592296   -106.12382    25587.499    4.3602252    4.3602252    4.3602252    25587.499   -589.08544    35679.395    41672.188    6050.6048    10282.565   -12524.213    82.894702 
   24200    1478.0931   -107.46177    1.3374097   -106.12436    -15769.67    4.3619982    4.3619982    4.3619982    -15769.67   -22211.562   -27039.075    1941.6263   -6470.0892   -3716.3251    1420.4901    82.995861 
   24300     1164.852   -107.18476    1.0539826   -106.13078    10352.972    4.3568142    4.3568142    4.3568142    10352.972   -7001.5159    17705.209    20355.222    188.52191    17981.252    1187.1748    82.700304 
   24400    1331.2587   -107.33573    1.2045509   -106.13118    1477.2571    4.3635753    4.3635753    4.3635753    1477.2571   -12740.163   -4264.2827    21436.217    -6769.199   -16109.866    -2272.866    83.085918 
   24500    1082.2616   -107.11491   0.97925302   -106.13566   -26734.678    4.3754847    4.3754847    4.3754847   -26734.678   -41235.314   -30022.537   -8946.1838   -10505.499    4003.9104    595.30574    83.768071 
   24600    1318.0744   -107.31472    1.1926214   -106.12209   -1532.8427    4.3667447    4.3667447    4.3667447   -1532.8427   -2340.2553   -11665.572    9407.2994   -4626.6062   -1292.2137    -4253.733    83.267091 
   24700    1168.0725   -107.17193    1.0568966   -106.11503    31683.844    4.3467033    4.3467033    4.3467033    31683.844   -3524.3153      72537.3    26038.546   -9343.9638    -24375.98    266.74103    82.125869 
   24800    1016.5451   -107.05567   0.91979134   -106.13588    12895.297    4.3638779    4.3638779    4.3638779    12895.297   -26316.973     23372.96    41629.903   -2039.1255    12548.458   -2179.9939    83.103205 
   24900    1122.2153   -107.13452     1.015404   -106.11911    -10100.48    4.3856812    4.3856812    4.3856812    -10100.48   -32720.891    16613.229   -14193.778    3064.4269   -20518.893    -6740.512    84.355069 
   25000     1348.298   -107.32857    1.2199684   -106.10861    15424.141    4.3574385    4.3574385    4.3574385    15424.141    761.67347    20945.789     24564.96   -18299.712    1864.1975    5261.5848    82.735861 
   25100    1028.6474   -107.05047   0.93074175   -106.11973    29606.121    4.3496308    4.3496308    4.3496308    29606.121   -3110.6587    66070.263     25858.76    8702.2977   -4770.9847     -2747.77    82.291918 
   25200    1266.4397   -107.26966    1.1459012   -106.12375   -15182.729    4.3800161    4.3800161    4.3800161   -15182.729   -31980.612   -5139.2176   -8428.3568    -15804.75   -16909.462   -9184.1022    84.028601 
   25300    1068.3863   -107.07405   0.96669838   -106.10735    12728.234    4.3722562    4.3722562    4.3722562    12728.234    18257.707    7802.4804    12124.516   -1066.3698    9740.9296    15643.701    83.582781 
   25400     1194.981    -107.1851    1.0812439   -106.10386    9154.8149    4.3573167    4.3573167    4.3573167    9154.8149    789.87061    22012.182    4662.3923    7916.7567   -29489.799   -2594.6076    82.728927 
   25500    1357.9353   -107.34487    1.2286884   -106.11618    9613.2037    4.3726446    4.3726446    4.3726446    9613.2037    10187.935    248.17974    18403.496    5512.8872    16301.352    12538.955    83.605053 
   25600     1160.788   -107.16675    1.0503053   -106.11644    -8224.215    4.3838047    4.3838047    4.3838047    -8224.215   -32047.864    5970.2114     1405.007    13656.645   -4663.3051    6797.2121    84.246834 
   25700    1250.8105   -107.23827    1.1317596   -106.10651    627.91629    4.3760886    4.3760886    4.3760886    627.91629   -13974.036   -9927.7617    25785.546    905.43271    -2038.505   -3744.7942    83.802759 
   25800    1545.1755   -107.50187    1.3981073   -106.10377   -2122.4459     4.350422     4.350422     4.350422   -2122.4459   -6073.6763   -6257.9067    5964.2454    16396.407    15504.848    9756.6488    82.336835 
   25900    975.37075   -107.01192   0.88253595   -106.12939      8701.44    4.3552741    4.3552741    4.3552741      8701.44    -20441.24    20105.685    26439.875    2802.5649   -29236.928   -11140.036    82.612638 
   26000     1600.372   -107.57122    1.4480502   -106.12317   -23318.013    4.3809637    4.3809637    4.3809637   -23318.013   -29423.434   -21512.796    -19017.81   -538.85297    7630.5775    4281.3801     84.08315 
   26100    898.88925   -106.93648   0.81333388   -106.12314   -729.07259     4.365754     4.365754     4.365754   -729.07259    28646.222   -9224.2484   -21609.192    14483.615   -17222.044    2322.8641    83.210433 
   26200     1320.075   -107.30342    1.1944316   -106.10899    10168.318    4.3535504    4.3535504    4.3535504    10168.318   -9518.2457    1381.9553    38641.246    10427.256   -7960.0791   -6576.3735    82.514585 
   26300    992.53298   -107.02213   0.89806469   -106.12407    3310.7925    4.3692672    4.3692672    4.3692672    3310.7925    42119.507    -10061.35   -22125.779    8068.0629    15554.671    16811.734    83.411478 
   26400     1066.565   -107.08769   0.96505041   -106.12264   -7801.6672    4.3703416    4.3703416    4.3703416   -7801.6672   -39531.457    1298.7353    14827.721    12828.851   -20116.732     8485.643    83.473027 
   26500    1434.2676   -107.41309    1.2977555   -106.11534    3466.0284     4.367715     4.367715     4.367715    3466.0284    26750.518   -13400.834   -2951.5984    1559.8003    8264.6526     1817.759    83.322611 
   26600    998.55206   -107.02765   0.90351088   -106.12414    -17071.26    4.3598805    4.3598805    4.3598805    -17071.26    -24196.83    21681.273   -48698.223   -2632.0057   -26972.331    21133.056    82.875041 
   26700     1261.483   -107.26605    1.1414163   -106.12463   -8987.3733    4.3572879    4.3572879    4.3572879   -8987.3733   -35520.923    5349.1974    3209.6063      4833.37   -10490.484    195.26769    82.727284 
   26800    1209.2615   -107.22623    1.0941652   -106.13207   -26878.952    4.3736147    4.3736147    4.3736147   -26878.952    -36279.17    -4460.681   -39897.006   -4527.9144    2258.5309    -8669.179    83.660713 
   26900    1254.6454    -107.2626    1.1352296   -106.12737   -13169.193    4.3689545    4.3689545    4.3689545   -13169.193   -9860.3539    4829.9578   -34477.184    1963.4658   -28974.426    12596.164    83.393567 
   27000    1445.7378    -107.4245    1.3081339   -106.11637    8468.6007    4.3520566    4.3520566    4.3520566    8468.6007    3467.8645    13235.584    8702.3539   -3929.4609    15144.974   -21953.804    82.429679 
   27100    674.85729   -106.74588   0.61062506   -106.13526    17863.808    4.3622454    4.3622454    4.3622454    17863.808    10017.791    45543.214   -1969.5811    9886.5584   -18508.394   -3257.1276    83.009975 
   27200     1267.886   -107.26855    1.1472099   -106.12134   -2973.9455    4.3816048    4.3816048    4.3816048   -2973.9455   -25032.157    1157.9483    14952.372   -7872.4336   -3534.2776   -12415.764    84.120069 
   27300     1081.254   -107.09426   0.97834137   -106.11592    12459.423    4.3639807    4.3639807    4.3639807    12459.423    4251.8275     36172.14   -3045.6983   -6642.1653    11774.129   -3956.6401     83.10908 
   27400    1133.3575   -107.14029    1.0254857    -106.1148    19509.986    4.3552189    4.3552189    4.3552189    19509.986   -3531.9239    19679.901     42381.98    3402.9265   -14043.143   -5647.4136    82.609496 
   27500    1100.3157   -107.12269   0.99558876    -106.1271    2540.7964    4.3753199    4.3753199    4.3753199    2540.7964   -28421.988    13143.049    22901.329   -661.22439     8677.571    -16518.28    83.758603 
   27600    1139.6483   -107.15411    1.0311778   -106.12293   -18876.101    4.3846251    4.3846251    4.3846251   -18876.101   -27597.338    -28119.81    -911.1541   -166.59819   -18769.096     -4393.41    84.294142 
   27700    1393.0303   -107.37616    1.2604431   -106.11572    5523.0336    4.3628791    4.3628791    4.3628791    5523.0336   -20603.899    27843.044     9329.956   -13900.169   -5388.0877    4307.3417    83.046157 
   27800    1175.2925   -107.18576    1.0634294   -106.12233    5723.1196    4.3481584    4.3481584    4.3481584    5723.1196   -1285.7668    7527.1133    10928.012     12741.82   -3170.2462   -6313.4787    82.208374 
   27900    1083.4049   -107.11448   0.98028754   -106.13419   -3843.1808    4.3762993    4.3762993    4.3762993   -3843.1808   -41091.425    38859.243   -9297.3611   -161.32315       -21193    10409.719    83.814863 
   28000     1544.696   -107.51749    1.3976734   -106.11982   -37841.657    4.3784501    4.3784501    4.3784501   -37841.657   -40921.352   -36889.704   -35713.915     9267.288    7128.9192     3405.956    83.938502 
   28100    839.78218   -106.87749   0.75985256   -106.11763    26696.375    4.3507732    4.3507732    4.3507732    26696.375   -511.38677    43921.821    36678.691    3411.1251   -22854.811     9925.136    82.356776 
   28200    1552.4579   -107.52693    1.4046965   -106.12223    -2527.041    4.3519995    4.3519995    4.3519995    -2527.041   -9779.1058   -3485.9687    5683.9516   -6394.2386     3827.621    11891.892    82.426432 
   28300    915.39604   -106.97539   0.82826958   -106.14712   -168.86185    4.3690946    4.3690946    4.3690946   -168.86185   -28052.881    -16138.42    43684.715   -4979.9438     4017.724    245.34249    83.401595 
   28400    1391.4525   -107.38999    1.2590155   -106.13097   -8947.2497    4.3839806    4.3839806    4.3839806   -8947.2497    -13293.86   -18395.828    4847.9386   -1723.1009   -4342.8159    11229.548    84.256979 
   28500    1139.7488   -107.15877    1.0312687    -106.1275    6781.1974    4.3631019    4.3631019    4.3631019    6781.1974   -5793.0573    17758.438    8378.2111   -17660.286    21478.786   -1224.1513    83.058882 
   28600    961.73884   -106.99805   0.87020152   -106.12785    25779.517    4.3562568    4.3562568    4.3562568    25779.517    35891.479   -1163.6844    42610.757     7110.504   -10678.271     10428.38    82.668571 
   28700    1390.0548   -107.38415    1.2577508    -106.1264    -3190.288    4.3751652    4.3751652    4.3751652    -3190.288   -23114.559    30762.383   -17218.688   -9652.2124   -2401.4778   -3433.3858    83.749721 
   28800    1313.1406   -107.30935    1.1881572   -106.12119   -2832.5243    4.3620322    4.3620322    4.3620322   -2832.5243    9821.3914   -26324.144    8005.1798   -7528.1416    5098.4176   -5022.1531    82.997805 
   28900    949.78574   -106.98411    0.8593861   -106.12472    29032.635    4.3619492    4.3619492    4.3619492    29032.635    24742.218    49288.715    13066.973    6977.3581   -5225.6889    9323.2897    82.993065 
   29000    1476.7265    -107.4651    1.3361732   -106.12893   -24307.323     4.371517     4.371517     4.371517   -24307.323   -40624.513   -9870.5023   -22426.955   -5669.0576    1312.3315   -2784.1889    83.540392 
   29100    1395.4323   -107.39674    1.2626165   -106.13413    11422.144    4.3584171    4.3584171    4.3584171    11422.144    7513.5148    8923.7371    17829.179    21610.744   -3794.2143   -4079.4364    82.791617 
   29200    943.42616   -106.99891   0.85363182   -106.14528    10397.036    4.3685247    4.3685247    4.3685247    10397.036   -2459.5292    14909.928    18740.708   -14882.468    1152.5533    8752.6875    83.368961 
   29300    1230.4577   -107.25256     1.113344   -106.13921   -5423.4386    4.3710816    4.3710816    4.3710816   -5423.4386   -41416.352    38601.326    -13455.29    1217.6354    -2089.798   -4921.3455    83.515436 
   29400    1405.4788   -107.40912    1.2717068   -106.13742    1171.3992    4.3545523    4.3545523    4.3545523    1171.3992   -2409.1655   -1220.0114    7143.3744    5138.7849   -7787.5529    9569.5104    82.571567 
   29500    1125.4196   -107.16948    1.0183033   -106.15118   -2279.9032    4.3664196    4.3664196    4.3664196   -2279.9032   -5268.8321    -2558.984    988.10647   -2520.6956    6395.2928    2973.4331    83.248496 
   29600    886.22951   -106.94126   0.80187908   -106.13938   -790.02341     4.377645     4.377645     4.377645   -790.02341   -62136.238    44798.208    14967.959    27263.582   -5694.3504   -7109.8051    83.892206 
   29700    1601.6384   -107.58089    1.4491961    -106.1317   -17765.366     4.352762     4.352762     4.352762   -17765.366   -17138.522   -6896.4837   -29261.093   -8442.4954   -2249.4113   -4355.9112    82.469766 
   29800    1084.6501   -107.12628   0.98141419   -106.14486     8996.521    4.3549874    4.3549874    4.3549874     8996.521   -25271.428    45295.129    6965.8625    16436.167   -2911.6054    6504.2481    82.596324 
   29900    1039.1995   -107.07916   0.94028958   -106.13887   -14373.851    4.3818496    4.3818496    4.3818496   -14373.851    -28069.81    5442.2813   -20494.024    14431.074   -5283.3725    4278.9698    84.134169 
   30000    1262.0472   -107.27672    1.1419268   -106.13479   -24705.099    4.3638137    4.3638137    4.3638137   -24705.099   -4541.0158   -6354.9811   -63219.299    3527.7859     8522.001    6321.7539    83.099537 
   30100    1253.1095    -107.2675    1.1338398   -106.13366    10168.042    4.3399283    4.3399283    4.3399283    10168.042   -18867.954    64651.197   -15279.117    4811.1373   -18499.758   -2229.4597    81.742455 
   30200    1507.0546    -107.5116    1.3636146   -106.14798    5578.6714    4.3604565    4.3604565    4.3604565    5578.6714    -10055.23    31551.464   -4760.2203   -9816.8235    1282.2854    4666.3132    82.907891 
   30300    668.26617   -106.75345   0.60466127   -106.14879   -12019.617    4.3751031    4.3751031    4.3751031   -12019.617   -173.60531    24934.206   -60819.451    3718.1001   -5861.8293   -3177.5775    83.746155 
   30400    1368.6068   -107.37718    1.2383442   -106.13884   -10467.273    4.3511874    4.3511874    4.3511874   -10467.273   -13390.639    11971.437   -29982.616    1832.0583   -15026.578   -5478.4578    82.380302 
   30500    1761.9353   -107.72955    1.5942361   -106.13532    10417.832    4.3474557    4.3474557    4.3474557    10417.832   -11044.639    32221.163    10076.972    2387.7925   -1755.9176    7832.3317    82.168529 
   30600    538.98489   -106.64677   0.48768485   -106.15908    8227.5412    4.3647495    4.3647495    4.3647495    8227.5412   -11398.821    61226.964   -25145.519    2659.6907    -18106.38   -3349.6217    83.153011 
   30700    1430.7086   -107.43349    1.2945352   -106.13895    -15885.98    4.3763167    4.3763167    4.3763167    -15885.98     -11455.3   -23928.547   -12274.093    1498.9433    8285.6868    9625.9301    83.815863 
   30800    1240.0518   -107.25985    1.1220249   -106.13783    10248.688    4.3589145    4.3589145    4.3589145    10248.688   -35650.719    37633.405    28763.379    -2532.078   -5531.8951     8162.097    82.819965 
   30900    911.84777   -106.97162   0.82505902   -106.14656    14916.131    4.3443159    4.3443159    4.3443159    14916.131   -1558.1469    42613.417    3693.1234    6149.0498   -13369.062     3551.646    81.990626 
   31000    1403.0531   -107.42227    1.2695119   -106.15276   -11216.922    4.3712192    4.3712192    4.3712192   -11216.922   -20567.536   -22974.938    9891.7066   -685.89504    8757.6931    -8223.478    83.523324 
   31100    1273.9296   -107.28137    1.1526782   -106.12869   -18289.529    4.3783284    4.3783284    4.3783284   -18289.529     -46145.4    4179.7398   -12902.927    3702.4462   -11632.548   -8188.0252    83.931502 
   31200    750.37997   -106.79481   0.67895957   -106.11585    3555.9886    4.3635847    4.3635847    4.3635847    3555.9886   -11918.528    29403.593   -6817.0991    6966.8672   -169.38576   -4075.5783    83.086453 
   31300    1614.7491   -107.56973    1.4610589   -106.10867    3171.8936    4.3589915    4.3589915    4.3589915    3171.8936   -19821.495   -8519.7332    37856.909   -11731.705    6367.5875    2132.2264    82.824354 
   31400    1280.5606   -107.28025    1.1586781   -106.12157   -4238.2359    4.3640203    4.3640203    4.3640203   -4238.2359    1564.0762    3227.5912   -17506.375    5239.5876   -3963.8233    6740.2626    83.111341 
   31500    719.74486   -106.78239   0.65124028   -106.13115   -5944.0822    4.3686906    4.3686906    4.3686906   -5944.0822   -5972.6167   -4125.9254   -7733.7043    1061.3394    12218.265    1312.2447    83.378457 
   31600    1798.0535   -107.74439    1.6269166   -106.11747   -1107.1657    4.3681738    4.3681738    4.3681738   -1107.1657    6411.2973   -28429.079    18696.284   -15024.001   -4204.0927    5452.7554    83.348874 
   31700    960.32002   -107.00756   0.86891773   -106.13865   -624.89578    4.3590515    4.3590515    4.3590515   -624.89578    20506.482   -973.03753   -21408.132   -2592.7236   -8288.3239   -4374.1977    82.827776 
   31800    941.10228   -106.99472   0.85152912    -106.1432    253.63539     4.359064     4.359064     4.359064    253.63539   -9860.5536   -4947.2077    15568.667    2511.8874    11629.037   -6570.3192    82.828488 
   31900    1720.1798   -107.68436    1.5564548   -106.12791   -5013.2175    4.3698748    4.3698748    4.3698748   -5013.2175   -7080.3353   -5411.2326   -2548.0847   -7143.9165   -11740.711    14902.788    83.446282 
   32000    888.71621   -106.94028    0.8041291   -106.13615    5557.3357    4.3533291    4.3533291    4.3533291    5557.3357    19163.887    7669.2023   -10161.082    11499.286    4396.3428     8187.788    82.502003 
   32100    1412.4716   -107.42105     1.278034   -106.14302   -4981.1795    4.3532721    4.3532721    4.3532721   -4981.1795   -16815.138   -1070.6044    2942.2036    9936.5698   -2832.5815   -9050.4549    82.498765 
   32200    1487.9107    -107.4845    1.3462928   -106.13821   -3591.5416    4.3680327    4.3680327    4.3680327   -3591.5416    7115.5006   -7249.7935   -10640.332    -1742.939   -1468.4596    607.85715    83.340796 
   32300     958.5236   -107.00941   0.86729229   -106.14212   -1162.8426    4.3594362    4.3594362    4.3594362   -1162.8426   -11338.052   -11341.995    19191.519    5555.1833    6016.7537    -4323.844    82.849707 
   32400    1378.3896   -107.38493    1.2471959   -106.13774   -2051.5639    4.3611105    4.3611105    4.3611105   -2051.5639   -8557.0079    3189.9689   -787.65278    1026.8586   -10019.842   -4820.7128    82.945204 
   32500    1384.7463   -107.38378    1.2529476   -106.13083    11667.678    4.3557789    4.3557789    4.3557789    11667.678   -17286.746    7953.6578    44336.121    1380.2479    875.31155     1187.584    82.641366 
   32600    841.72958   -106.90873   0.76161462   -106.14711   -102.01849    4.3583465    4.3583465    4.3583465   -102.01849     2732.417    -9787.965    6749.4925    9561.7723    11697.133    3390.8735    82.787596 
   32700    1368.8788   -107.37056    1.2385903   -106.13197   -14817.343    4.3758583    4.3758583    4.3758583   -14817.343   -25513.809    6608.1783   -25546.397     2631.849   -13955.735   -7.8785579    83.789529 
   32800    1293.8013   -107.29847    1.1706586   -106.12781    21978.098    4.3464525    4.3464525    4.3464525    21978.098    49850.358   -23550.458    39634.393    15985.856     12257.25    7509.4971    82.111658 
   32900    617.96307   -106.70455   0.55914597   -106.14541    18968.223    4.3456945    4.3456945    4.3456945    18968.223    23853.503    21930.421    11120.744     -971.056    2244.3156   -6620.9742    82.068705 
   33000    1340.0999   -107.34554    1.2125506   -106.13299   -25891.743    4.3747944    4.3747944    4.3747944   -25891.743   -23527.969   -16358.834   -37788.426   -4396.2826   -13257.333    9608.5494    83.728426 
   33100     1433.988   -107.42045    1.2975024   -106.12295    1854.5636    4.3616199    4.3616199    4.3616199    1854.5636   -3015.6002   -28726.288    37305.579    14790.634    3837.8412    6054.1402    82.974273 
   33200    1058.9537   -107.08222   0.95816354   -106.12405    3404.9307    4.3584992    4.3584992    4.3584992    3404.9307   -8923.3345     13301.48    5836.6463    -16968.98    -4304.811   -6210.8676    82.796298 
   33300    1344.7609   -107.33579    1.2167679   -106.11902   -20508.119     4.363218     4.363218     4.363218   -20508.119   -45141.093   -6064.4547   -10318.809    21231.731   -7467.8556    4407.9711    83.065508 
   33400    1373.7031   -107.36831    1.2429554   -106.12535    2234.5558    4.3491516    4.3491516    4.3491516    2234.5558   -33233.675   -1414.7544    41352.097   -3063.6285   -433.65088    5857.9884    82.264722 
   33500    1232.0262   -107.25936    1.1147632    -106.1446   -1711.4616    4.3608733    4.3608733    4.3608733   -1711.4616   -22371.822    7777.9883    9459.4487    2295.2807    -17983.38   -8929.1256    82.931668 
   33600     1477.302   -107.46936    1.3366939   -106.13267   -27172.219    4.3713963    4.3713963    4.3713963   -27172.219   -33301.603   -36649.011   -11566.042    16377.008    -3381.703   -414.04719    83.533473 
   33700    1090.3909   -107.11182   0.98660861   -106.12521    685.03135     4.354422     4.354422     4.354422    685.03135   -20389.782    8095.2554    14349.621   -9284.2677   -2640.6695     3880.887    82.564158 
   33800     812.7946   -106.86791   0.73543364   -106.13247    18917.736    4.3574042    4.3574042    4.3574042    18917.736    12888.368    -1044.388    44909.229    7766.0901   -1056.0335   -3862.5232    82.733908 
   33900    1489.9265     -107.471    1.3481168   -106.12288     178.9896    4.3702121    4.3702121    4.3702121     178.9896    13845.708   -22183.782     8875.042    2785.0542    13466.664    629.17609    83.465604 
   34000    802.08878   -106.85144   0.72574679   -106.12569    28492.354    4.3663986    4.3663986    4.3663986    28492.354    6207.1364    28182.853    51087.071     -4150.95   -555.01295    3336.2988    83.247294 
   34100    953.30469   -106.98366   0.86257012   -106.12109    12212.962    4.3617677    4.3617677    4.3617677    12212.962    52669.134   -29444.016    13413.768      8661.18    11636.713   -315.49591    82.982706 
   34200    1085.7936   -107.10891   0.98244887   -106.12646    6912.4418    4.3611965    4.3611965    4.3611965    6912.4418   -6322.7115    1116.3816    25943.655    -14872.42   -2763.9991    4248.3041     82.95011 
   34300    1265.8224   -107.27374    1.1453427   -106.12839    7034.1041    4.3620857    4.3620857    4.3620857    7034.1041   -7078.5052   -8498.1667    36678.984    920.89903   -17609.948     10383.95    83.000856 
   34400    1158.9628   -107.17772    1.0486539   -106.12906    1517.7597    4.3669909    4.3669909    4.3669909    1517.7597   -14715.763   -32070.719     51339.76   -1495.2719    10983.933    935.44107    83.281176 
   34500    1115.1735   -107.13227    1.0090324   -106.12324   -10594.272    4.3714238    4.3714238    4.3714238   -10594.272   -53147.672     11365.19    9999.6656   -10858.486   -24913.613    2166.1294    83.535049 
   34600    1275.6954   -107.26754     1.154276   -106.11326   -12265.344    4.3670361    4.3670361    4.3670361   -12265.344   -33891.607   -15265.645    12361.221    11160.452   -10926.139    2672.2547    83.283766 
   34700    1372.3721   -107.35784    1.2417512   -106.11609   -15498.431    4.3667179    4.3667179    4.3667179   -15498.431   -22599.983   -23460.264    -435.0469    -19381.54   -264.74088   -8707.4955    83.265559 
   34800     1525.313   -107.49325    1.3801353   -106.11311   -10363.331    4.3669863    4.3669863    4.3669863   -10363.331   -33244.992    -7235.592      9390.59    4468.0126   -16433.748   -1377.2736    83.280915 
   34900    1029.6105   -107.05134   0.93161317   -106.11972   -5507.1071    4.3698676    4.3698676    4.3698676   -5507.1071   -13244.876    -9216.006    5939.5609    633.24691    3690.3641   -21309.399    83.445866 
   35000    1315.4306   -107.31174    1.1902293   -106.12151    10330.513    4.3526081    4.3526081    4.3526081    10330.513    4987.2931    1469.7547     24534.49   -12625.169   -924.08222   -6981.4288    82.461018 
   35100    1014.9129   -107.05542    0.9183145   -106.13711    19729.042    4.3578238    4.3578238    4.3578238    19729.042    10109.486    10867.906    38209.736    4794.5538    2680.8907   -880.92325     82.75781 
   35200    1193.9366   -107.21169    1.0802989   -106.13139   -2703.9653      4.37318      4.37318      4.37318   -2703.9653     30693.05   -42443.191    3638.2454   -3891.3094    21784.751   -18732.967    83.635769 
   35300    1176.6576   -107.19269    1.0646646   -106.12803   -804.37446    4.3589065    4.3589065    4.3589065   -804.37446   -24796.873    2393.6364    19990.114    731.51702    6188.3349    5997.6962    82.819509 
   35400    956.27861   -107.00457   0.86526099   -106.13931    11740.638    4.3542979    4.3542979    4.3542979    11740.638    44743.669   -12717.434     3195.678    9438.2504   -24265.546   -9406.0562    82.557095 
   35500    1633.7955   -107.61375    1.4782925   -106.13546   -15595.033    4.3669859    4.3669859    4.3669859   -15595.033   -13173.258   -30782.899   -2828.9414   -1134.6927    6084.2059   -10125.538    83.280892 
   35600    679.73988   -106.75697   0.61504293   -106.14192    12664.672    4.3673634    4.3673634    4.3673634    12664.672     60115.31    16635.022   -38756.316    10246.214    -12068.22    7135.7049    83.302492 
   35700    1795.9824   -107.74874    1.6250426    -106.1237   -20827.783    4.3634508    4.3634508    4.3634508   -20827.783   -24837.182   -27014.049   -10632.118    4532.4432    970.02598   -10328.678    83.078806 
   35800    1043.7071   -107.07627   0.94436811    -106.1319    7958.5693    4.3523371    4.3523371    4.3523371    7958.5693      18958.2    23438.196   -18520.689    9645.1661    6289.7988    13716.207    82.445619 
   35900    1224.2281   -107.25498    1.1077073   -106.14727   -18374.912    4.3602346    4.3602346    4.3602346   -18374.912   -28691.545    2413.5564   -28846.746    2823.2208    2736.8586   -8956.9033    82.895234 
   36000    1499.4586   -107.49004    1.3567417    -106.1333    6577.9452    4.3767578    4.3767578    4.3767578    6577.9452    6976.9711    6740.7942    6016.0703   -10857.175    1430.0932   -13594.446    83.841208 
   36100    750.47873   -106.80328   0.67904892   -106.12424   -6420.3597    4.3772418    4.3772418    4.3772418   -6420.3597    -11912.17   -10016.517    2667.6086    2920.6651   -6742.0677    6973.3096    83.869029 
   36200    1115.0854   -107.12123    1.0089527   -106.11227    9454.7774    4.3666463    4.3666463    4.3666463    9454.7774   -22950.341   -10820.874    62135.548   -5691.6083   -16777.542   -22115.644    83.261466 
   36300    1018.2215   -107.03707   0.92130824   -106.11576     35671.68    4.3618069    4.3618069    4.3618069     35671.68    48440.709   -3050.1114    61624.442    -11183.51   -10280.161   -8025.4507    82.984942 
   36400    861.61498   -106.90675   0.77960734   -106.12714   -15509.877    4.3773791    4.3773791    4.3773791   -15509.877   -26947.338   -16327.429   -3254.8645    6628.3518   -2747.1701   -6708.0971    83.876919 
   36500    1169.2927     -107.165    1.0580006     -106.107    7037.6495    4.3742589    4.3742589    4.3742589    7037.6495    6205.5501   -3968.8639    18876.262   -580.49097    -4250.221   -24916.831    83.697685 
   36600    1006.4688   -107.01269    0.9106741   -106.10202    18505.168    4.3668588    4.3668588    4.3668588    18505.168   -2566.6428    52937.614    5144.5333   -10125.765   -5330.9308   -5259.1257    83.273623 
   36700    864.74075   -106.89369    0.7824356   -106.11125    13488.559    4.3721253    4.3721253    4.3721253    13488.559        18827    52216.035   -30577.359      3685.43   -2360.3254   -23404.166    83.575275 
   36800    1075.4449   -107.07812   0.97308513   -106.10504    21702.656    4.3707097    4.3707097    4.3707097    21702.656    4558.3768    63105.202   -2555.6105    -20230.09    -9046.308   -17360.655    83.494118 
   36900    990.07629   -107.00862   0.89584184   -106.11277     9319.219    4.3650471    4.3650471    4.3650471     9319.219    2299.0907    22910.627    2747.9389   -4802.5516   -13473.427   -15576.884    83.170017 
   37000    1219.7962   -107.22234    1.1036973   -106.11864    476.09074     4.364494     4.364494     4.364494    476.09074    3846.8874   -13418.603    10999.987   -57.008354    -15437.06    -27081.78    83.138409 
   37100    1193.9511   -107.19624     1.080312   -106.11593    28003.752    4.3621307    4.3621307    4.3621307    28003.752    31930.056    10584.766    41496.435   -8668.5788   -7596.0177   -12929.007    83.003426 
   37200    756.37787   -106.81071   0.68438659   -106.12632    4287.1802    4.3728781    4.3728781    4.3728781    4287.1802    8078.4772   -41214.909    45997.972    3595.1032   -4970.0976   -22220.023    83.618451 
   37300    1249.9045   -107.24591    1.1309399   -106.11497   -6157.7648    4.3715907    4.3715907    4.3715907   -6157.7648   -25545.828   -41738.449    48810.983   -7663.9792    39.668995    -6711.655     83.54462 
   37400    1428.8752    -107.4048    1.2928763   -106.11193    27935.546    4.3446269    4.3446269    4.3446269    27935.546    32124.924    319.97555    51361.737    6480.5196     -1966.83   -6092.6474    82.008232 
   37500    1097.3513    -107.1373   0.99290648   -106.14439   -17264.311    4.3531644    4.3531644    4.3531644   -17264.311    10807.011   -36967.991   -25631.953   -1317.9156    3976.3653   -17384.889    82.492641 
   37600    1468.7858   -107.46383    1.3289882   -106.13484   -10544.889    4.3823153    4.3823153    4.3823153   -10544.889    5822.9888   -50001.022    12543.365     21.10666    4304.4934    16501.492    84.160995 
   37700    1023.7674   -107.05251   0.92632629   -106.12619   -10915.467    4.3718497    4.3718497    4.3718497   -10915.467   -20630.741    -41555.38     29439.72   -3598.0267    240.02345   -17631.547    83.559471 
   37800    730.66947   -106.78269   0.66112509   -106.12157    35669.715    4.3408547    4.3408547    4.3408547    35669.715    43680.616    3373.8113    59954.719   -7715.8391   -14314.972    2884.5809     81.79481 
   37900    1232.9454   -107.25939    1.1155949   -106.14379    9919.3041    4.3585285    4.3585285    4.3585285    9919.3041    27886.287    -26974.41    28846.036    19340.691    3959.2974    14398.907    82.797965 
   38000    1423.6407   -107.42355      1.28814   -106.13541   -28368.152    4.3774278    4.3774278    4.3774278   -28368.152   -3707.5946   -60792.493   -20604.369    -2546.286   -10487.974   -9527.6881    83.879718 
   38100    1050.6485     -107.083   0.95064888   -106.13235   -9965.4475    4.3618323    4.3618323    4.3618323   -9965.4475   -3298.3745   -13424.027   -13173.942    8165.6368    9526.9353    18976.507    82.986394 
   38200    1259.8454   -107.25954    1.1399346   -106.11961     2214.592    4.3482875    4.3482875    4.3482875     2214.592   -23050.723   -3179.4944    32873.993    18509.083    362.21107   -4253.3513    82.215701 
   38300    1429.4546   -107.41869    1.2934006   -106.12529   -2838.9684    4.3584931    4.3584931    4.3584931   -2838.9684    4599.9871   -5720.5775   -7396.3148   -8632.4821   -6886.6819   -1301.9221    82.795947 
   38400    1042.5289   -107.07735   0.94330208   -106.13405   -20453.615     4.369284     4.369284     4.369284   -20453.615   -40463.035    -15655.18   -5242.6302    18080.498    13698.344    5103.5556     83.41244 
   38500    1360.6863   -107.35906    1.2311776   -106.12788     1024.566    4.3631398    4.3631398    4.3631398     1024.566    8797.3896   -8863.3088    3139.6171   -3933.0787   -5582.3576   -2574.0736    83.061045 
   38600    1109.3782   -107.12885    1.0037887   -106.12507    17270.649    4.3483816    4.3483816    4.3483816    17270.649    33853.922   -10408.916     28366.94   -17540.806   -4185.0856   -1129.9077    82.221035 
   38700    742.76245   -106.81517   0.67206708   -106.14311    4310.3384    4.3582899    4.3582899    4.3582899    4310.3384    25360.241   -21651.068    9221.8425    10814.138    8135.2388    130.30744    82.784368 
   38800    1499.4662   -107.48302    1.3567485   -106.12627   -8098.9599    4.3780104    4.3780104    4.3780104   -8098.9599    9769.0567   -39004.197    4938.2604   -19418.558   -5311.0986    158.18931    83.913217 
   38900    1341.6918   -107.33235     1.213991   -106.11836   -7018.8422    4.3627971    4.3627971    4.3627971   -7018.8422   -7464.4834   -30666.714    17074.671   -1564.0025    3280.5821   -1875.4189    83.041471 
   39000     1091.018   -107.10631   0.98717598   -106.11914    3752.3111    4.3529042    4.3529042    4.3529042    3752.3111    4172.9081     -15982.1    23066.125   -2579.2255    19631.967   -3040.5576     82.47785 
   39100    1502.9323   -107.48055    1.3598847   -106.12067   -6291.8253    4.3653471    4.3653471    4.3653471   -6291.8253   -4638.2603   -29429.629    15192.414   -15458.532     5114.483   -9901.5282    83.187166 
   39200    1109.4421   -107.13629    1.0038465   -106.13244   -13021.648    4.3684431    4.3684431    4.3684431   -13021.648    8491.1232   -41637.546   -5918.5216    8714.2627    16976.411   -2797.4893    83.364288 
   39300    1500.4256   -107.48319    1.3576166   -106.12557   -1055.6117    4.3551219    4.3551219    4.3551219   -1055.6117    29493.601   -22170.903   -10489.532   -11900.985    3690.2746   -7006.2868    82.603974 
   39400    1333.3334   -107.33593    1.2064281   -106.12951    8049.2345    4.3562662    4.3562662    4.3562662    8049.2345    31749.369   -25261.417    17659.752    2811.6229    -11985.38   -2560.3475    82.669105 
   39500    1117.2048   -107.14399    1.0108704   -106.13312   -43608.608    4.3761966    4.3761966    4.3761966   -43608.608   -54482.219   -47373.156   -28970.449    25567.568    3634.8026     3531.613    83.808962 
   39600    1840.7724    -107.7818    1.6655696   -106.11623   -16311.673    4.3665525    4.3665525    4.3665525   -16311.673   -22035.216   -18607.468   -8292.3347   -7135.0952   -9818.3148   -5185.4686    83.256099 
   39700    1390.4986    -107.3775    1.2581523   -106.11934   -19192.071    4.3688835    4.3688835    4.3688835   -19192.071   -14077.756    -22411.83   -21086.627    22184.804   -1791.1834    3493.5076    83.389502 
   39800    901.83654   -106.94163   0.81600065   -106.12563   -23988.196    4.3667914    4.3667914    4.3667914   -23988.196    9986.0682   -57580.468   -24370.188    11021.447    13470.322   -4460.2536    83.269765 
   39900    1330.7268   -107.32485    1.2040696   -106.12078    23467.447    4.3516479    4.3516479    4.3516479    23467.447    58092.536   -16764.781    29074.586   -23029.911   -13038.455   -829.38021    82.406457 
   40000    1224.5363   -107.24152    1.1079862   -106.13353   -24610.417    4.3741238    4.3741238    4.3741238   -24610.417   -23512.249   -33431.972    -16887.03    7992.9002    35163.932   -3079.4836    83.689933 
   40100    1160.7973   -107.16674    1.0503138   -106.11642   -215.43794    4.3664525    4.3664525    4.3664525   -215.43794    16326.744   -40673.556    23700.498   -4802.3926    21413.845   -1749.1817     83.25038 
   40200    1175.6156   -107.18252    1.0637217    -106.1188    4319.9038    4.3505718    4.3505718    4.3505718    4319.9038   -23869.995   -29570.476    66400.183   -4392.3482   -16929.824   -2260.7365    82.345339 
   40300    1189.1571   -107.21239    1.0759743   -106.13642   -16156.601    4.3609636    4.3609636    4.3609636   -16156.601   -27154.476   -24470.696    3155.3681    6474.8145     15416.54    8284.5599    82.936819 
   40400    1671.4985   -107.63678     1.512407   -106.12437   -13820.944    4.3715534    4.3715534    4.3715534   -13820.944   -11548.211   -21558.021   -8356.6004   -2455.8478   -13975.596   -6492.9224     83.54248 
   40500    1182.5399   -107.18123    1.0699869   -106.11125   -41589.887    4.3849155    4.3849155    4.3849155   -41589.887   -43006.413   -33271.245   -48492.002    11541.777   -15254.549    7506.4684    84.310895 
   40600     1446.679   -107.40478    1.3089856   -106.09579   -15356.432    4.3658292    4.3658292    4.3658292   -15356.432   -34211.688    8235.7602   -20093.367   -8830.6218     11047.41     11026.01    83.214733 
   40700    1165.6251    -107.1506    1.0546821   -106.09591    33506.806    4.3408054    4.3408054    4.3408054    33506.806    49936.703    9882.4974    40701.217   -1145.9752   -11488.148   -4810.6367    81.792026 
   40800    1279.7795   -107.28989    1.1579714   -106.13191   -8378.9165    4.3703211    4.3703211    4.3703211   -8378.9165    -16762.92   -37222.537    28848.708    9476.9663    18713.081    17539.524    83.471848 
   40900    1020.8394   -107.04369   0.92367693   -106.12001   -12581.939    4.3783824    4.3783824    4.3783824   -12581.939   -14465.396   -56788.116    33507.696   -3677.9068    11095.685   -11052.055    83.934611 
   41000    813.77231   -106.85277   0.73631829   -106.11645    14284.787    4.3418108    4.3418108    4.3418108    14284.787     41501.36   -15573.911    16926.913    2486.3114    2685.8787   -6183.8331    81.848872 
   41100    1431.4278   -107.41727     1.295186   -106.12209    21272.637    4.3422927    4.3422927    4.3422927    21272.637    28744.467    7694.6259    27378.818    12961.928    12224.021     7796.492    81.876123 
   41200    1192.9901   -107.21251    1.0794426   -106.13307    -18684.62    4.3733598    4.3733598    4.3733598    -18684.62    24668.575   -24157.699   -56564.735   -1027.7076   -4581.0865   -34671.763    83.646087 
   41300    1303.5152   -107.29778    1.1794479   -106.11834   -8543.1668    4.3704656    4.3704656    4.3704656   -8543.1668    20285.576   -8986.1862    -36928.89    9940.9267    -6097.562    9338.5558    83.480131 
   41400    1173.2811   -107.17824    1.0616094   -106.11664    5789.2717    4.3494677    4.3494677    4.3494677    5789.2717    8076.9614    23801.898   -14511.044    1622.6151   -6322.1345   -22441.723    82.282664 
   41500    1247.1773    -107.2532    1.1284723   -106.12473   -2402.7329    4.3552566    4.3552566    4.3552566   -2402.7329   -15114.684    25562.914   -17656.428    10735.665   -13778.279   -10972.654    82.611638 
   41600    1421.1018   -107.40738    1.2858428   -106.12154   -6674.5624    4.3729322    4.3729322    4.3729322   -6674.5624    -9917.943    5019.7229   -15125.467   -3709.5944   -8553.0543    13340.144    83.621553 
   41700    1189.5335   -107.19367    1.0763149   -106.11735   -39453.741     4.374416     4.374416     4.374416   -39453.741   -5640.0802   -62506.752   -50214.391   -8760.6989   -10297.971   -23976.293    83.706706 
   41800    1730.1107   -107.66748    1.5654406   -106.10204   -6344.1986    4.3431261    4.3431261    4.3431261   -6344.1986   -9620.3262    -8919.717   -492.55265    17911.959   -8017.7148    4045.0564    81.923279 
   41900    1194.6138   -107.20077    1.0809116   -106.11986   -358.97351    4.3460902    4.3460902    4.3460902   -358.97351    6747.1999   -3973.0438   -3851.0767    -17251.32   -4636.8625   -21025.633    82.091128 
   42000     1243.127   -107.24889    1.1248075   -106.12408   -32150.884    4.3768998    4.3768998    4.3768998   -32150.884   -34325.309    -39218.57   -22908.771    15350.815   -5132.3194    7096.6112    83.849374 
   42100    1362.2148   -107.34687    1.2325606   -106.11431   -24253.826    4.3693049    4.3693049    4.3693049   -24253.826    4205.1847    -37322.02   -39644.644    10988.542   -10846.965    -22446.18    83.413634 
   42200    1193.6526   -107.19354     1.080042    -106.1135    26295.377    4.3367789    4.3367789    4.3367789    26295.377    97950.771   -751.67034    -18312.97   -4098.7647   -10472.934   -8076.6539    81.564628 
   42300    1035.8301   -107.06478   0.93724087   -106.12754    26138.201    4.3435534    4.3435534    4.3435534    26138.201    75900.963    3700.9387   -1187.2974    25865.078   -4219.5729     6885.367    81.947457 
   42400    764.15649   -106.82306   0.69142486   -106.13164    -37270.24    4.3756147    4.3756147    4.3756147    -37270.24   -2081.3523   -49715.863   -60013.504    1679.8387   -8258.1108   -41024.981    83.775535 
   42500    1492.0661   -107.46203    1.3500528   -106.11198    -14261.13    4.3572821    4.3572821    4.3572821    -14261.13   -9340.7334   -8031.8796   -25410.776    12046.655   -5691.5103     20044.83    82.726952 
   42600    1353.3464    -107.3371    1.2245362   -106.11256   -4593.4606    4.3370185    4.3370185    4.3370185   -4593.4606    10697.235   -5956.7136   -18520.903     18829.99   -10537.126   -28035.341    81.578145 
   42700    1165.1532   -107.18644    1.0542551   -106.13218   -15408.057    4.3519217    4.3519217    4.3519217   -15408.057    20126.091   -35098.163   -31252.099   -16121.606    -3098.767   -5175.3326    82.422016 
   42800    1230.0984   -107.24011    1.1130189   -106.12709    3550.3303    4.3574094    4.3574094    4.3574094    3550.3303     13399.39   -8274.7468    5526.3477    20771.359    7613.5851    6345.0533    82.734205 
   42900    1079.3037   -107.10707   0.97657664    -106.1305   -12088.537    4.3579078    4.3579078    4.3579078   -12088.537    29190.533   -33266.113   -32190.031   -1786.4049   -144.93377   -25058.619    82.762596 
   43000    1171.9749      -107.19    1.0604275   -106.12957    7392.9045    4.3472997    4.3472997    4.3472997    7392.9045    33418.126   -14570.039    3330.6268   -465.41542    321.42211    28140.252    82.159681 
   43100    1291.0352   -107.30166    1.1681558    -106.1335    20557.842    4.3438854    4.3438854    4.3438854    20557.842     43551.96    2386.2131    15735.352    4254.7444    13876.599   -22502.302     81.96625 
   43200    995.56673   -107.03798    0.9008097   -106.13717     -16551.7    4.3664829    4.3664829    4.3664829     -16551.7    4971.7338   -30669.684   -23957.149    10337.405    7066.9189   -4993.8562    83.252119 
   43300    1199.2615   -107.21512     1.085117      -106.13   -244.11856    4.3497931    4.3497931    4.3497931   -244.11856   -2046.0877   -18014.455    19328.187   -16462.266    9397.4325    17309.488    82.301129 
   43400    1054.5192   -107.08666   0.95415111   -106.13251    17932.007     4.340522     4.340522     4.340522    17932.007    19436.243    23120.806    11238.971    6671.8859    12149.051   -23099.888    81.776006 
   43500    1224.8963   -107.23784    1.1083119   -106.12953   -9550.9185    4.3624569    4.3624569    4.3624569   -9550.9185    -2961.265   -28830.948    3139.4573    5644.5515    191.02483    9824.5288    83.022046 
   43600    1223.3905   -107.23151    1.1069494   -106.12456   -10249.539    4.3553907    4.3553907    4.3553907   -10249.539   -19976.302   -22263.718    11491.402    -20139.72    9229.3339   -628.55949    82.619274 
   43700    1439.8037   -107.42413    1.3027647   -106.12136    -3945.334    4.3463485    4.3463485    4.3463485    -3945.334    4766.7214     -22091.4    5488.6769    16678.582   -3848.3826    -8617.985     82.10576 
   43800    1354.3119   -107.35061    1.2254099    -106.1252    -7510.314    4.3562569    4.3562569    4.3562569    -7510.314    -24525.21   -13866.072     15860.34   -21268.733   -4825.2554    14455.501    82.668576 
   43900    887.64927   -106.93547   0.80316372   -106.13231   -23496.273    4.3494696    4.3494696    4.3494696   -23496.273   -29993.592    -14870.94   -25624.287   -8838.9479    8607.7481   -18169.475    82.282772 
   44000     1571.381   -107.55151    1.4218186   -106.12969   -7928.8868    4.3460475    4.3460475    4.3460475   -7928.8868     6004.425   -15947.273   -13843.813    16204.528   -10247.664    191.58643    82.088706 
   44100    1322.0142   -107.32255    1.1961862   -106.12637   -13648.762    4.3616564    4.3616564    4.3616564   -13648.762   -29507.903    -21176.35    9737.9677   -28283.493    6816.1323    6184.4248    82.976355 
   44200    851.96791   -106.89834   0.77087847   -106.12746   -3803.6999    4.3495191    4.3495191    4.3495191   -3803.6999   -25161.304   -6379.2781    20129.483    7384.6167    12838.164   -20049.136    82.285579 
   44300    1546.9845   -107.51896    1.3997441   -106.11922    10536.122    4.3437241    4.3437241    4.3437241    10536.122    59716.304   -14045.668   -14062.271    6916.2822   -6656.4243    2667.3846    81.957123 
   44400    823.17176   -106.88491   0.74482311   -106.14009   -8562.1708    4.3532211    4.3532211    4.3532211   -8562.1708    556.48499   -20418.558   -5824.4397   -16141.131    18933.271   -3755.5025    82.495867 
   44500    880.06663   -106.94089   0.79630278   -106.14459    14164.255    4.3551332    4.3551332    4.3551332    14164.255    6908.5101   -851.46368     36435.72    8795.6619    10616.564   -8117.3813    82.604619 
   44600    1986.7017   -107.92165    1.7976095   -106.12405    229.46487    4.3551453    4.3551453    4.3551453    229.46487   -1164.3661    -15623.68    17476.441    -3842.643    2351.1983    539.24299    82.605304 
   44700    712.84109   -106.78125    0.6449936   -106.13626    -2725.961     4.349574     4.349574     4.349574    -2725.961    9693.0104   -26757.276    8886.3823   -2281.9008    13507.784   -23262.932    82.288696 
   44800    1229.0004   -107.24327    1.1120254   -106.13125    4619.8847    4.3499081    4.3499081    4.3499081    4619.8847    3441.5059    10264.333    153.81503    8223.3784   -7717.6133    12019.325    82.307657 
   44900    1356.6504   -107.36158    1.2275258   -106.13406    2028.3362    4.3524084    4.3524084    4.3524084    2028.3362    26884.417    -4390.605   -16408.804   -3712.5953    5179.3571   -2580.0302    82.449667 
   45000    1214.9899   -107.23977    1.0993484   -106.14043   -9663.1833    4.3515081    4.3515081    4.3515081   -9663.1833   -12591.399   -19552.649     3154.498    9859.9303     8245.118   -22720.298    82.398516 
   45100    1252.9752   -107.26787    1.1337183   -106.13415   -2528.8698    4.3526084    4.3526084    4.3526084   -2528.8698    17901.742    5429.2386    -30917.59   -828.36951   -7642.7774    28387.644    82.461035 
   45200      1118.88   -107.14154    1.0123861   -106.12915   -7172.3333    4.3515802    4.3515802    4.3515802   -7172.3333    18710.681   -14219.032   -26008.649    4347.1529    7372.5911   -5187.9238    82.402609 
   45300    1066.9141   -107.09751   0.96536634   -106.13214   -11813.605    4.3492437    4.3492437    4.3492437   -11813.605   -3775.1328   -15107.432   -16558.251    6444.4761   -1048.7181    1393.0227    82.269951 
   45400    1160.0462   -107.18321    1.0496342   -106.13357    1314.8087    4.3513117    4.3513117    4.3513117    1314.8087    9154.6746   -12787.055    7576.8066    -4566.916   -415.22497    25121.412     82.38736 
   45500    1546.0017   -107.53166    1.3988548   -106.13281   -8620.0217    4.3514899    4.3514899    4.3514899   -8620.0217   -22168.311     486.0906   -4177.8451    3140.8697    20656.831   -3505.4996    82.397482 
   45600    609.78822   -106.69534    0.5517492    -106.1436    9328.4633     4.351675     4.351675     4.351675    9328.4633     21603.63   -989.83136    7371.5916   -2283.9547   -1802.6342    20965.163    82.407997 
   45700    1498.9659   -107.48954    1.3562959   -106.13324   -10567.887    4.3491228    4.3491228    4.3491228   -10567.887   -19991.238    934.97706     -12647.4    441.85396    5002.4086     8133.883    82.263091 
   45800    1239.5344   -107.25826    1.1215568    -106.1367    10779.985    4.3462642    4.3462642    4.3462642    10779.985     12926.54    3720.5687    15692.845   -5348.7356    13635.397    -5318.338    82.100983 
   45900    888.85786    -106.9493   0.80425727   -106.14504    238.49442    4.3542264    4.3542264    4.3542264    238.49442    18160.718   -3263.7095   -14181.525    5274.4039   -7093.0824    22032.251    82.553033 
   46000    1412.7447   -107.40982    1.2782811   -106.13154   -16777.982    4.3623169    4.3623169    4.3623169   -16777.982   -21121.421    -20221.11   -8991.4152    3386.2719    8995.8801   -10140.488    83.014059 
   46100    1413.0374   -107.40802    1.2785459   -106.12947     2682.124     4.338061     4.338061     4.338061     2682.124     35808.51   -26828.809   -933.32969    -6819.182    1561.2523    23387.112    81.636989 
   46200    924.86511   -106.98414   0.83683739    -106.1473   -6964.1212     4.346472     4.346472     4.346472   -6964.1212   -25578.141   -22973.163     27658.94    8791.5325    774.86241    2487.9273    82.112764 
   46300    1334.3213    -107.3457    1.2073219   -106.13838    -24463.84    4.3590652    4.3590652    4.3590652    -24463.84   -38213.589     -21536.2   -13641.731    2604.3096    18950.843   -8586.8779    82.828558 
   46400     1523.499   -107.50686    1.3784939   -106.12837   -15372.136    4.3565904    4.3565904    4.3565904   -15372.136    3047.2249   -42474.028   -6689.6032   -2458.8675   -1868.5726    33472.129     82.68756 
   46500    961.77411    -107.0021   0.87023343   -106.13186   -25383.208    4.3600536    4.3600536    4.3600536   -25383.208   -23688.729   -23991.339   -28469.556    3060.4323    18499.547   -26473.992    82.884915 
   46600    1427.8515   -107.41624    1.2919501   -106.12429   -9181.7555    4.3436761    4.3436761    4.3436761   -9181.7555   -8382.9414   -5155.5909   -14006.734     6061.296    21319.748    16325.217    81.954406 
   46700    1124.0143   -107.15227    1.0170318   -106.13524     6439.631    4.3504627    4.3504627    4.3504627     6439.631    56242.225   -18886.465   -18036.866   -10737.688   -2624.9174   -3819.9204    82.339142 
   46800    699.82311   -106.77569   0.63321466   -106.14247   -24347.921    4.3660029    4.3660029    4.3660029   -24347.921     4999.627   -18805.778   -59237.612   -242.58519    30558.951   -28250.726    83.224667 
   46900    1715.5088   -107.66931    1.5522284   -106.11708     9740.076    4.3556851    4.3556851    4.3556851     9740.076    53071.718   -185.36123   -23666.129   -6884.3666    3786.1886    18322.336    82.636028 
   47000    715.58879   -106.77967   0.64747977   -106.13219   -19548.619    4.3624677    4.3624677    4.3624677   -19548.619   -3486.0246   -9051.9435   -46107.889   -7402.8663    12643.453   -28619.746    83.022667 
   47100    739.12406   -106.80011   0.66877498   -106.13133   -3059.5515    4.3508499    4.3508499    4.3508499   -3059.5515    -35215.14    42841.125   -16804.639   -2263.1837    15224.714   -3187.5362    82.361133 
   47200    1790.0092   -107.74775     1.619638   -106.12811    52.316831    4.3536912    4.3536912    4.3536912    52.316831    27713.488   -11091.614   -16464.924    3424.6762   -1177.8894     -5104.98    82.522593 
   47300    774.87151   -106.83995   0.70112002   -106.13883   -38710.183    4.3700202    4.3700202    4.3700202   -38710.183   -28796.179   -24573.574   -62760.797    7457.6996    26203.799   -32239.061    83.454611 
   47400    1622.0543   -107.58008    1.4676688   -106.11241    14169.447    4.3418855    4.3418855    4.3418855    14169.447    28895.695    10459.607     3153.038    3726.5551   -7053.8339   -150.29658    81.853095 
   47500    1018.7887   -107.05408   0.92182146   -106.13226   -12049.682    4.3519022    4.3519022    4.3519022   -12049.682    6189.2872   -6869.4914   -35468.841   -2763.2412    8866.9964   -10974.187    82.420904 
   47600    1114.4517   -107.14166    1.0083793   -106.13328   -33229.807    4.3618658    4.3618658    4.3618658   -33229.807   -43211.162   -8030.8366   -48447.421    4748.4729    24722.155   -16800.624    82.988306 
   47700    1490.0572   -107.47331    1.3482351   -106.12507    2723.5052    4.3572623    4.3572623    4.3572623    2723.5052    36285.173   -8932.5669   -19182.091   -7476.2255    -2132.615    13059.564    82.725826 
   47800    832.43977   -106.88361   0.75320899    -106.1304   -19443.981    4.3653724    4.3653724    4.3653724   -19443.981   -18324.034    3377.8966   -43385.806   -16764.377    19225.125   -14661.282    83.188615 
   47900    1245.2879   -107.24313    1.1267627   -106.11637    10637.267     4.347861     4.347861     4.347861    10637.267   -16243.661    41909.813    6245.6475    7197.7332    15108.038    8619.1122    82.191507 
   48000    1116.6493   -107.13173    1.0103677   -106.12136    6440.0079    4.3587032    4.3587032    4.3587032    6440.0079     10074.41    25913.895   -16668.281   -15798.562    5433.6353    16573.747    82.807924 
   48100    1036.5528   -107.05393   0.93789476   -106.11604   -6968.3766    4.3676069    4.3676069    4.3676069   -6968.3766    8289.0488   -12750.803   -16443.376   -18804.229     11065.12   -17887.403    83.316425 
   48200    1317.6495   -107.29745     1.192237   -106.10522    12530.868    4.3502201    4.3502201    4.3502201    12530.868    2692.3594    12398.582    22501.662    5501.8741   -6199.2609     29632.73    82.325371 
   48300    1019.0279   -107.04367   0.92203788   -106.12163   -632.66413    4.3512913    4.3512913    4.3512913   -632.66413   -517.30076   -4644.4063    3263.7146   -13425.569    22725.482   -6186.6097    82.386201 
   48400    991.88267   -107.02468   0.89747629   -106.12721    10114.947    4.3570228    4.3570228    4.3570228    10114.947   -1432.6888   -8450.3605    40227.889   -19754.441    7731.9349    768.32106    82.712184 
   48500    1529.1217   -107.50767    1.3835815   -106.12409   -16956.432    4.3551315    4.3551315    4.3551315   -16956.432   -3557.7532   -18484.204   -28827.338     1654.774   -7387.9314    16149.832    82.604519 
   48600    866.75141   -106.91601   0.78425489   -106.13176     4201.078    4.3527613    4.3527613    4.3527613     4201.078    9540.3725    13953.207   -10890.345   -12114.666    25256.117   -9555.7059    82.469728 
   48700    1558.9186    -107.5386    1.4105423   -106.12805   -6293.4728    4.3532835    4.3532835    4.3532835   -6293.4728   -10424.154   -31665.973    23209.708   -15569.483   -15273.184     22091.44    82.499411 
   48800    1190.7432   -107.21064    1.0774095   -106.13324    3722.5688    4.3555093    4.3555093    4.3555093    3722.5688    11979.848    29574.239   -30386.381   -202.19833    12348.343   -4908.0654     82.62602 
   48900    1185.5927   -107.20558    1.0727492   -106.13283   -12255.731    4.3580093    4.3580093    4.3580093   -12255.731   -23664.244   -20659.991    7557.0437   -25686.801    10082.573    9175.7302    82.768379 
   49000    1309.4298   -107.30954    1.1847996   -106.12474     5685.443    4.3596826    4.3596826    4.3596826     5685.443    11424.505   -6227.0383    11858.863   -5360.4843    -3417.483    24463.813    82.863758 
   49100     1220.538   -107.22641    1.1043684   -106.12204    4461.9407    4.3588846    4.3588846    4.3588846    4461.9407   -2241.3984    24622.906   -8995.6859   -2307.6334    35378.105   -13355.053     82.81826 
   49200    1268.6372   -107.27222    1.1478896   -106.12433    980.05717    4.3510873    4.3510873    4.3510873    980.05717   -6455.7643   -37853.563    47249.499   -21067.873   -1055.4397    17387.033    82.374616 
   49300    1042.5625    -107.0739   0.94333245   -106.13056    17360.309    4.3513746    4.3513746    4.3513746    17360.309      30402.9    24265.399   -2587.3711    6750.0644    25649.482   -2125.4397    82.390933 
   49400    1136.5362   -107.15743    1.0283618   -106.12907    9201.6349    4.3595016    4.3595016    4.3595016    9201.6349    13163.224   -14110.987    28552.668   -19306.973      19929.8    7731.1159    82.853434 
   49500    1129.0538   -107.14248    1.0215916   -106.12089    4437.8289    4.3624016    4.3624016    4.3624016    4437.8289    2780.0906    9736.5795    796.81651   -8755.1693   -2767.0075    17039.726    83.018893 
   49600    1294.7159   -107.28826    1.1714862   -106.11677    11411.694    4.3458769    4.3458769    4.3458769    11411.694    20596.397    3054.2008    10584.485    2453.5387    31373.385   -4356.0161    82.079041 
   49700    994.32986   -107.02984   0.89969055   -106.13015    28250.444    4.3457048    4.3457048    4.3457048    28250.444    33139.202    14536.456    37075.673    7042.0415   -4534.0408    8495.5536    82.069289 
   49800     1249.965    -107.2653    1.1309946   -106.13431   -11722.456    4.3629943    4.3629943    4.3629943   -11722.456   -7868.9804    4711.9651   -32010.351   -3475.6794    10251.466    8392.8262    83.052735 
   49900     1207.291   -107.21985    1.0923822   -106.12747    11054.762    4.3552123    4.3552123    4.3552123    11054.762    10159.673   -4699.7875      27704.4     14718.65    2325.9789    1772.5977    82.609116 
   50000    1259.5705   -107.26189    1.1396859    -106.1222   -3595.4092    4.3490437    4.3490437    4.3490437   -3595.4092    23766.587   -25274.539   -9278.2752     1397.297     3691.578    4097.2338    82.258602 
   50100    1020.4534    -107.0496   0.92332769   -106.12627    -10505.64    4.3528327    4.3528327    4.3528327    -10505.64   -14963.892   -11712.116   -4840.9109    5733.9563   -3419.1905   -5721.1507    82.473787 
   50200    1321.1683   -107.32593    1.1954209   -106.13051   -1675.5555    4.3592147    4.3592147    4.3592147   -1675.5555    24659.114   -25728.527   -3957.2532    15632.086   -1173.7205    15241.222    82.837078 
   50300    1352.5073   -107.34969     1.223777   -106.12592   -19212.384    4.3676618    4.3676618    4.3676618   -19212.384   -23622.778   -7171.4376   -26842.938   -8546.6764    4247.6734    1469.7928    83.319569 
   50400    1374.0486   -107.35785    1.2432681   -106.11459    17911.794    4.3347306    4.3347306    4.3347306    17911.794     7332.505    12778.495    33624.381     22574.02   -4032.3835    3780.6183    81.449108 
   50500    884.60849   -106.93885   0.80041235   -106.13844    24039.261    4.3490345    4.3490345    4.3490345    24039.261    48151.614    22865.462    1100.7056   -6653.5195    2959.4907    13203.244    82.258079 
   50600    1289.9592    -107.2851    1.1671822   -106.11792   -26518.164    4.3748701    4.3748701    4.3748701   -26518.164   -45320.985   -15931.176   -18302.332    2699.7615   -2179.8924   -9791.1887    83.732775 
   50700    1094.2365   -107.09897   0.99008814   -106.10888     22361.09    4.3504776    4.3504776    4.3504776     22361.09    34398.094    24921.058    7764.1164    7405.9683    3949.9553     23426.75    82.339992 
   50800    1270.7895   -107.26794    1.1498371   -106.11811    10058.521    4.3451756    4.3451756    4.3451756    10058.521    21873.974   -5936.1706     14237.76   -17057.112   -5396.1816    439.26745    82.039308 
   50900    950.89588   -106.98918   0.86039058   -106.12879    12484.549    4.3548691    4.3548691    4.3548691    12484.549    15457.521    9842.1066     12154.02    165.27218    3581.7154    8087.0787    82.589589 
   51000    1134.1547   -107.15615     1.026207   -106.12995   -13203.364    4.3732958    4.3732958    4.3732958   -13203.364    23351.974    -48257.03   -14705.037   -5128.5499    3684.4907    17499.808    83.642413 
   51100    1160.8365   -107.17357    1.0503493   -106.12322    2329.2245    4.3583353    4.3583353    4.3583353    2329.2245   -142.14911    25892.029   -18762.207   -17889.515   -3840.4856   -7913.4678    82.786955 
   51200    1238.8777   -107.23274    1.1209626   -106.11178    20337.977    4.3280324    4.3280324    4.3280324    20337.977    55112.389   -23847.537    29749.078   -12035.736     657.6764    28832.685    81.072114 
   51300    1149.9856   -107.18005    1.0405311   -106.13952    949.75871     4.352878     4.352878     4.352878    949.75871   -822.25444    33888.443   -30216.912    4415.2891    2882.9965   -604.48588    82.476361 
   51400    932.68206   -106.98327   0.84391033   -106.13936   -25433.007    4.3722349    4.3722349    4.3722349   -25433.007   -35244.514   -48287.713     7233.205    -29572.66   -1922.2826    9394.0664    83.581556 
   51500    1430.8231   -107.42362    1.2946388   -106.12898   -2480.8013    4.3572104    4.3572104    4.3572104   -2480.8013    25588.241   -5518.9488   -27511.696    5547.0224    5388.3793    15730.955    82.722872 
   51600    1327.2588   -107.32839    1.2009317   -106.12746    1623.8783    4.3366142    4.3366142    4.3366142    1623.8783   -13732.381     5785.501    12818.515   -8184.6226   -4701.8436   -13446.718    81.555332 
   51700    936.27257   -106.99112    0.8471591   -106.14396   -6874.6372    4.3442405    4.3442405    4.3442405   -6874.6372    26137.951   -38596.805   -8165.0576   -3634.7569   -20.668705    28455.104    81.986358 
   51800    1322.7031   -107.33382    1.1968096   -106.13702   -8878.2452    4.3678142    4.3678142    4.3678142   -8878.2452   -14523.838    13845.167   -25956.064    6238.6871   -843.09836       286.33    83.328288 
   51900    1127.4705   -107.15925     1.020159   -106.13909    -5078.324    4.3541312    4.3541312    4.3541312    -5078.324    -11306.86     7309.744   -11237.856    -3032.375   -3372.6626     8049.603    82.547615 
   52000    1427.2279   -107.41768    1.2913858   -106.12629    17971.848    4.3408419    4.3408419    4.3408419    17971.848    33555.071    18825.053      1535.42     4807.123    3211.0347    27554.696    81.794086 
   52100    1035.7086   -107.06527   0.93713094   -106.12814    6675.4646    4.3542334    4.3542334    4.3542334    6675.4646    13658.451    17305.136   -10937.193    3014.4399   -11573.859   -8849.4718    82.553426 
   52200    1068.4942   -107.09154   0.96679605   -106.12475   -18845.808    4.3596514    4.3596514    4.3596514   -18845.808   -8293.5866   -35347.129   -12896.709    4797.0914    1603.3734    24374.355    82.861976 
   52300    1209.5524   -107.21817    1.0944285   -106.12374    2218.3095    4.3515554    4.3515554    4.3515554    2218.3095    13974.353    896.24801   -8215.6723    10450.029   -7807.2727    7152.7007    82.401203 
   52400    1302.2318    -107.3084    1.1782867   -106.13011    2387.8692    4.3414695    4.3414695    4.3414695    2387.8692   -11805.443    3957.6279    15011.423    7211.6389   -15211.448    -1158.391    81.829571 
   52500    1355.1054   -107.36089    1.2261279   -106.13476   -8094.6554    4.3591696    4.3591696    4.3591696   -8094.6554    22746.039   -15401.813   -31628.193    1120.2051    15251.206    11387.425    82.834506 
   52600    991.46328   -107.02624   0.89709681   -106.12914   -28627.872    4.3625299    4.3625299    4.3625299   -28627.872   -55378.274   -30434.686   -70.656096    14115.393   -33279.646   -1826.6354    83.026218 
   52700    1082.7043   -107.10398   0.97965358   -106.12433    26171.177    4.3374723    4.3374723    4.3374723    26171.177    35760.418    42702.729    50.385731   -2376.1371    2671.1746    6299.7606    81.603755 
   52800    1454.3151    -107.4473    1.3158949    -106.1314      3292.79     4.346549     4.346549     4.346549      3292.79    579.81952    -12522.45        21821     8774.368    213.21884   -5312.3597    82.117126 
   52900    1159.1807   -107.18864     1.048851   -106.13979   -16162.802    4.3588743    4.3588743    4.3588743   -16162.802   -10410.971   -4251.9038   -33825.531    9825.6924   -29094.492    3730.2594    82.817676 
   53000    1361.2982   -107.36027    1.2317313   -106.12854    2677.5618    4.3530051    4.3530051    4.3530051    2677.5618     2692.516    12632.358   -7292.1887    276.44576    14672.344    2431.7811    82.483583 
   53100    776.37916   -106.83784   0.70248418   -106.13535   -15984.381    4.3469414    4.3469414    4.3469414   -15984.381   -29715.722   -27554.394    9316.9724    22439.353   -25281.824   -2708.7581    82.139367 
   53200    1356.6621   -107.36022    1.2275363   -106.13269    3737.8722    4.3383839    4.3383839    4.3383839    3737.8722    -6839.819    16216.251    1837.1848   -5201.0901   -14112.933    379.31449    81.655216 
   53300    1278.0598   -107.29756    1.1564153   -106.14115    2310.0012    4.3527294    4.3527294    4.3527294    2310.0012    19363.046   -34208.872     21775.83    21440.024    8968.4292    200.78729    82.467915 
   53400    1225.5599   -107.24773    1.1089123   -106.13882   -27141.234    4.3600222    4.3600222    4.3600222   -27141.234   -48036.252   -16897.617   -16489.832    8426.3294    -26930.34    -6353.831    82.883122 
   53500    1148.9107   -107.16749    1.0395585   -106.12793    22865.217    4.3420265    4.3420265    4.3420265    22865.217     58427.43   -10659.634    20827.855   -2415.0574   -1475.7426    1145.7313    81.861066 
   53600    873.35832   -106.93511   0.79023296   -106.14488   -15355.882    4.3448572    4.3448572    4.3448572   -15355.882   -22052.857   -36414.861    12400.072    42121.988    6446.5387   -523.54163    82.021275 
   53700    1594.8151   -107.58277    1.4430222   -106.13975   -3979.6385    4.3545202    4.3545202    4.3545202   -3979.6385   -3208.2058    13027.772   -21758.481   -9003.2238   -24793.179   -4157.1969    82.569743 
   53800    949.32809   -107.00416   0.85897201   -106.14519   -20265.693    4.3624915    4.3624915    4.3624915   -20265.693   -26406.582   -53670.256    19279.759    31086.927    15100.377   -8559.1564    83.024022 
   53900     1255.437   -107.27318    1.1359458   -106.13723    9121.7888    4.3380205    4.3380205    4.3380205    9121.7888    4523.3789    21043.953    1798.0348    9850.3451     -17814.7     7888.013    81.634701 
   54000    1220.8792   -107.24197    1.1046772    -106.1373    19507.723     4.338424     4.338424     4.338424    19507.723    9023.2463   -8122.3456    57622.269    7719.1691   -3073.1352   -12732.963    81.657481 
   54100    811.62639   -106.88515   0.73437661   -106.15078   -19995.348    4.3542474    4.3542474    4.3542474   -19995.348   -14109.785   -43684.572   -2191.6866    30229.809    909.50678    943.55143    82.554222 
   54200    1661.6392   -107.63209    1.5034861   -106.12861     770.2024    4.3539382    4.3539382    4.3539382     770.2024    7555.3587   -2368.4784   -2876.2732   -5486.8405    -3650.182    1294.9037    82.536641 
   54300    1050.0017   -107.08622   0.95006363   -106.13616    1968.6197    4.3439861    4.3439861    4.3439861    1968.6197   -8667.4532   -41315.238    55888.551    43196.886    1601.4592   -10928.862    81.971952 
   54400    1316.8229   -107.33099     1.191489    -106.1395   -12839.926    4.3450483    4.3450483    4.3450483   -12839.926   -26912.153   -9613.5656   -1994.0587   -6628.5084    13507.393      -1579.5      82.0321 
   54500    1172.0364   -107.20013    1.0604832   -106.13964    17899.195    4.3494714    4.3494714    4.3494714    17899.195    37533.843   -30721.642    46885.384    18997.413    4358.1701   -5835.0172    82.282869 
   54600    1020.7123   -107.06662   0.92356197   -106.14306   -16260.613      4.35822      4.35822      4.35822   -16260.613    -43907.71   -21191.922    16317.795    26581.185    1883.9066   -1393.0191    82.780387 
   54700    1320.7115   -107.32679    1.1950075   -106.13178    5341.3772    4.3447828    4.3447828    4.3447828    5341.3772    14016.469    -6012.065    8019.7274   -24159.394    31886.649     -5286.62    82.017064 
   54800    1230.1144   -107.24788    1.1130334   -106.13485    5411.4687    4.3424443    4.3424443    4.3424443    5411.4687   -10578.547   -15236.159    42049.112    46335.784    -2575.175   -468.58304    81.884699 
   54900    1071.1965   -107.10724   0.96924112     -106.138   -16570.113    4.3501318    4.3501318    4.3501318   -16570.113   -39030.581   -3913.7324   -6766.0255   -17666.876     16827.15    1557.8955    82.320357 
   55000    1140.7082   -107.16868    1.0321368   -106.13655    8511.2227    4.3463293    4.3463293    4.3463293    8511.2227    34675.324   -9539.4155     397.7597    3065.2199    18973.453   -5089.6972    82.104676 
   55100    1483.6614   -107.47629     1.342448   -106.13384   -7105.6005     4.356691     4.356691     4.356691   -7105.6005   -10644.681   -7420.3588   -3251.7619    15429.539   -8373.3819     4377.841    82.693291 
   55200    879.44568   -106.93731   0.79574093   -106.14157    8665.5732    4.3423733    4.3423733    4.3423733    8665.5732    43824.768    1901.5597   -19729.608    -30659.44    33670.604     2119.678    81.880683 
   55300    1288.5808   -107.30828     1.165935   -106.14234    4953.1654    4.3479562    4.3479562    4.3479562    4953.1654    8178.8929   -2178.5418    8859.1451    9571.3885   -12580.175    1504.0192     82.19691 
   55400    1359.3201   -107.36841    1.2299414   -106.13847    -9106.175    4.3552837    4.3552837    4.3552837    -9106.175    14198.678   -18819.121   -22698.082   -10339.617    12144.145    4662.4136    82.613181 
   55500    899.41007   -106.95886   0.81380513   -106.14505   -10465.313    4.3482975    4.3482975    4.3482975   -10465.313   -25967.309    24558.834   -29987.464   -13656.631    18569.344   -364.51762    82.216265 
   55600    1583.5642   -107.56108    1.4328422   -106.12824    -3024.985    4.3500148    4.3500148    4.3500148    -3024.985   -4006.7714   -25.681029   -5042.5026   -2619.9556   -18951.566    14113.224    82.313716 
   55700    924.74533    -106.9768   0.83672901   -106.14007   -6604.8323    4.3482945    4.3482945    4.3482945   -6604.8323    -14092.35    13483.271   -19205.417   -16955.044    37456.246   -3543.1174    82.216099 
   55800    1270.3882   -107.28692     1.149474   -106.13745    4932.3028    4.3426071    4.3426071    4.3426071    4932.3028    2792.6005    24029.243   -12024.935    -12201.01   -7514.1489    7044.7992    81.893909 
   55900    1388.6252   -107.39661    1.2564573   -106.14015    7915.9124    4.3555175    4.3555175    4.3555175    7915.9124    39096.571   -9000.8842   -6347.9497   -2552.8061   -186.51926    1680.8531    82.626489 
   56000    1029.0265   -107.08014   0.93108479   -106.14906   -4128.6601    4.3516349    4.3516349    4.3516349   -4128.6601   -13193.529     26273.43   -25465.882    -12195.33     35625.26   -651.85785    82.405722 
   56100    1591.2843   -107.58774    1.4398275   -106.14791   -2154.4675    4.3499159    4.3499159    4.3499159   -2154.4675   -5856.3096   -5231.4496    4624.3568   -11451.357   -23420.464    6098.4521    82.308103 
   56200     923.7861   -106.99274   0.83586107   -106.15688    11462.379     4.347767     4.347767     4.347767    11462.379    57808.748   -11981.893   -11439.716    11924.185    8021.9952   -7250.3107     82.18618 
   56300    905.93589   -106.98878   0.81970983   -106.16907    3394.2253    4.3511279    4.3511279    4.3511279    3394.2253    17123.947   -11532.828    4591.5566    -20086.14    20729.254    6001.5332    82.376917 
   56400    1851.1895   -107.82449    1.6749951    -106.1495   -16385.177    4.3618475    4.3618475    4.3618475   -16385.177   -21412.582   -17646.911   -10096.037    9272.3526   -7653.1862   -3894.9249    82.987264 
   56500    655.01789   -106.75726   0.59267396   -106.16459    -18226.33    4.3528542    4.3528542    4.3528542    -18226.33   -34268.796   -24765.793    4355.5986   -3171.2603    24087.917   -4769.9006    82.475008 
   56600    1068.0138    -107.1191   0.96636134   -106.15273    32487.474    4.3393202    4.3393202    4.3393202    32487.474    78048.974   -708.11279     20121.56   -26173.184    10446.235    163.93823    81.708095 
   56700    1635.0072   -107.63783    1.4793889   -106.15844   -11825.417    4.3621421    4.3621421    4.3621421   -11825.417   -22010.415    -23353.74    9887.9047    14807.777   -8406.0385   -6808.0005    83.004079 
   56800    945.60221   -107.02164   0.85560075   -106.16604   -25180.639    4.3594148    4.3594148    4.3594148   -25180.639   -43225.194   -21304.864   -11011.857   -15156.026    24873.352    661.43118    82.848488 
   56900    1172.7757   -107.21225    1.0611521    -106.1511    21112.132     4.346082     4.346082     4.346082    21112.132     16691.99    1715.0651     44929.34   -13007.177   -12022.667    1386.6087    82.090658 
   57000    1383.0594   -107.40112    1.2514212    -106.1497    8449.8474    4.3482391    4.3482391    4.3482391    8449.8474    2163.3685    1206.4665    21979.707    8115.3798    15761.222    1639.7365    82.212953 
   57100    1012.5398    -107.0734   0.91616728   -106.15723   -567.53567    4.3525933    4.3525933    4.3525933   -567.53567     -9747.49    3456.3062    4588.5768   -36222.622    11498.845   -2143.9859    82.460177 
   57200    1220.4575   -107.25307    1.1042956   -106.14878    21560.105    4.3561979    4.3561979    4.3561979    21560.105    27498.417    9657.0097    27524.889    4250.7472   -4797.6574     11343.57    82.665216 
   57300    1181.0941    -107.2143    1.0686788   -106.14562   -16217.284    4.3522446    4.3522446    4.3522446   -16217.284   -27128.537   -7113.9817   -14409.333   -20547.734    20257.371   -7978.7257    82.440359 
   57400    932.77425   -106.98131   0.84399374   -106.13731    27132.535    4.3358854    4.3358854    4.3358854    27132.535    26694.397    28386.411    26316.796   -20825.091    4521.0283    8316.1603    81.514222 
   57500    1482.1247   -107.48279    1.3410576   -106.14174    -1113.612    4.3529487    4.3529487    4.3529487    -1113.612   -7873.2185   -6444.8186    10977.201    5520.1088   -6998.5032    1291.6038    82.480379 
   57600    999.62345   -107.04052   0.90448031   -106.13604   -8169.6161    4.3650561    4.3650561    4.3650561   -8169.6161    15087.276   -36024.113   -3572.0118   -30171.394    7494.3501    -10423.64    83.170534 
   57700    1348.7533   -107.34664    1.2203804   -106.12626    5519.3667    4.3464991    4.3464991    4.3464991    5519.3667   -3598.9355    15871.004    4286.0314    6944.3725   -13961.691    13297.459    82.114296 
   57800    1229.7041   -107.24528    1.1126621   -106.13261    13180.297    4.3413847    4.3413847    4.3413847    13180.297     24979.68    -21874.39    36435.601   -20672.915   -7119.6224   -9417.5232    81.824774 
   57900    1219.2207   -107.24571    1.1031765   -106.14254    -4369.069    4.3556776    4.3556776    4.3556776    -4369.069   -13321.225   -13261.618    13475.636   -16552.487   -3551.6641    3957.0344    82.635601 
   58000    1265.6827   -107.28884    1.1452163   -106.14362   -5103.0021    4.3630928    4.3630928    4.3630928   -5103.0021   -26298.743   -13692.146    24681.882    6103.2088    -5008.072   -1696.5541     83.05836 
   58100    696.59966   -106.77638   0.63029801   -106.14608   -20871.987    4.3610307    4.3610307    4.3610307   -20871.987   -14331.756   -53508.592     5224.386   -52458.967   -5128.9041   -6855.6759    82.940651 
   58200    1710.0312   -107.66851    1.5472721   -106.12124    15701.416    4.3285849    4.3285849    4.3285849    15701.416    11901.997    6048.8014    29153.448    13431.886     10312.06    10479.793    81.103169 
   58300     1075.709   -107.12466   0.97332413   -106.15133    -7076.983    4.3464937    4.3464937    4.3464937    -7076.983    7499.6739    -31099.68     2369.057   -27086.356   -14352.162   -9056.5779    82.113993 
   58400    1067.5002   -107.10822   0.96589662   -106.14232   -37016.561     4.369728     4.369728     4.369728   -37016.561   -44839.768   -61436.154   -4773.7605    -41508.36    7994.1897     8013.772    83.437873 
   58500    1392.2285   -107.38504    1.2597176   -106.12532    824.76164    4.3497581    4.3497581    4.3497581    824.76164    7915.6634   -171.17556    -5270.203    27260.586   -19945.628   -6731.6204    82.299145 
   58600    654.14681    -106.7332   0.59188578   -106.14131    1822.2295    4.3473135    4.3473135    4.3473135    1822.2295    16109.509    -42198.71     31555.89   -41007.807    -15252.62    3193.9565    82.160464 
   58700    1482.0684   -107.47678    1.3410067   -106.13577    10155.836    4.3507988    4.3507988    4.3507988    10155.836    1000.1845   -3662.9052    33130.227   -1304.7827   -8788.3699   -378.67819    82.358229 
   58800    1112.8747    -107.1504    1.0069524   -106.14344     6602.818    4.3662596    4.3662596    4.3662596     6602.818    17057.131   -29391.058    32142.381    6820.2139   -20867.061   -1067.8439    83.239344 
   58900    1131.8432   -107.15894    1.0241155   -106.13482   -14796.077    4.3632819    4.3632819    4.3632819   -14796.077   -35701.158   -45240.276    36553.203   -38279.363    7297.9778   -1720.6713    83.069159 
   59000    1107.3917    -107.1252    1.0019912   -106.12321    30933.581     4.340002     4.340002     4.340002    30933.581    39485.582    6746.3132    46568.849    27564.979    4042.1485    147.52037    81.746615 
   59100    1124.5606   -107.15788    1.0175261   -106.14035    461.28495    4.3535509    4.3535509    4.3535509    461.28495    -3173.184   -17134.598    21691.637   -20687.216   -4924.9374    -1899.495    82.514614 
   59200    1296.4783   -107.30853    1.1730808   -106.13545   -17383.316    4.3699164    4.3699164    4.3699164   -17383.316    -24593.23   -37355.966    9799.2476   -4650.0567    9422.4099   -7486.4963    83.448663 
   59300    1310.3511   -107.31406    1.1856332   -106.12843    7378.0451    4.3558188    4.3558188    4.3558188    7378.0451    14900.756   -14914.223    22147.602    4672.2635    10682.652    5558.4878    82.643637 
   59400    1340.0262   -107.34153    1.2124838   -106.12905   -13188.308    4.3573934    4.3573934    4.3573934   -13188.308   -16659.734   -12906.688   -9998.5031   -20884.006   -1272.2229   -5679.2334    82.733294 
   59500       1168.6   -107.18227    1.0573738   -106.12489   -17928.654     4.357675     4.357675     4.357675   -17928.654   -6904.7103   -14381.588   -32499.663    18716.577    13757.714   -3890.9969    82.749334 
   59600     1295.229   -107.29954    1.1719504   -106.12759    13279.398    4.3577532    4.3577532    4.3577532    13279.398    32944.219    6236.0975    657.87898   -20011.715   -2870.0086    2359.9459     82.75379 
   59700    1273.3735    -107.2806    1.1521751   -106.12842     -32916.5    4.3715585    4.3715585    4.3715585     -32916.5    -34882.71    -27209.42   -36657.371    9834.1359    21087.246   -20691.041    83.542772 
   59800    974.76524   -107.01746   0.88198807   -106.13548    15418.895    4.3383909    4.3383909    4.3383909    15418.895    41803.853   -23306.739     27759.57     504.4996    3509.7441    1934.0286    81.655611 
   59900    1344.0871   -107.35668    1.2161582   -106.14052    30715.813     4.337303     4.337303     4.337303    30715.813    22866.024    3650.2996    65631.115   -7772.4293   -1390.7458    1819.0221    81.594197 
   60000    1196.9844   -107.22835    1.0830567   -106.14529   -16327.089     4.368638     4.368638     4.368638   -16327.089   -14584.604   -25666.735   -8729.9266     16320.55    8962.2615    -22745.03    83.375448 
   60100    1039.4091   -107.06516   0.94047924   -106.12468   -11419.604    4.3736813    4.3736813    4.3736813   -11419.604    10836.257   -56847.217    11752.146   -15478.902    13163.903    17246.681    83.664536 
   60200    1502.2781   -107.47808    1.3592928   -106.11879   -2538.0069     4.342435     4.342435     4.342435   -2538.0069    26734.312   -20188.919   -14159.414    10722.121    2563.9626   -19587.828    81.884175 
   60300     1169.655   -107.18587    1.0583284   -106.12754    15802.274    4.3330077    4.3330077    4.3330077    15802.274    40421.254    7776.1807   -790.61417    9295.9511    20360.398    3985.6229    81.352029 
   60400    1318.1743   -107.32918    1.1927118   -106.13647   -7338.8563      4.36964      4.36964      4.36964   -7338.8563    31039.137   -48272.921   -4782.7848   -16593.017    -14018.49    6398.2409    83.432831 
   60500    1130.8981    -107.1534    1.0232603   -106.13014   -27156.827    4.3661834    4.3661834    4.3661834   -27156.827    -34618.59   -39667.263   -7184.6282    17488.052    6693.4164   -15657.987    83.234989 
   60600    1045.8946   -107.06402   0.94634741   -106.11767    36883.599    4.3357559    4.3357559    4.3357559    36883.599    70373.815    10587.483    29689.497   -12036.618    16061.224    17123.746    81.506919 
   60700    1516.5885   -107.49733    1.3722411   -106.12509    5937.9527     4.344434     4.344434     4.344434    5937.9527    30932.653   -28086.142    14967.348   -2029.7872   -2968.3214   -14332.733     81.99731 
   60800    972.62987    -107.0225   0.88005594   -106.14244    4143.4542    4.3569647    4.3569647    4.3569647    4143.4542    43218.269   -4214.4484   -26573.458   -1797.7462    23285.609   -1248.6191    82.708878 
   60900    1248.4151   -107.25981    1.1295922   -106.13022    2111.3399    4.3618581    4.3618581    4.3618581    2111.3399    48705.159   -29012.774   -13358.365   -1049.1091    7772.1299    528.07207    82.987867 
   61000    1221.2873   -107.23815    1.1050464    -106.1331   -15940.857    4.3417724    4.3417724    4.3417724   -15940.857     8201.398    -45631.03    -10392.94    13562.021     1394.838    -23947.15    81.846698 
   61100    1025.8046   -107.07164   0.92816954   -106.14347    14373.578    4.3359154    4.3359154    4.3359154    14373.578    38097.544    11627.401    -6604.211    14215.768    28846.864    13875.881    81.515911 
   61200    1567.9642   -107.55706     1.418727   -106.13834   -11911.395    4.3601961    4.3601961    4.3601961   -11911.395    49503.219   -41502.073   -43735.332    542.63261   -3404.3298   -19029.477    82.893039 
   61300    1075.2848   -107.10977   0.97294026   -106.13683   -23644.966    4.3592691    4.3592691    4.3592691   -23644.966    4420.4486   -41661.285    -33694.06    21368.238    20101.757   -6583.5704    82.840178 
   61400    1126.1682    -107.1474    1.0189807   -106.12842   -2183.6458    4.3454815    4.3454815    4.3454815   -2183.6458     27888.97   -11037.276   -23402.631     3215.649    31763.375    439.19131    82.056638 
   61500    1417.3985   -107.40904    1.2824919   -106.12655   -10145.346    4.3503981    4.3503981    4.3503981   -10145.346    37917.448    -37287.23   -31066.257    11244.788   -7336.9927   -25420.477    82.335478 
   61600    1033.6526   -107.06252   0.93527061   -106.12725   -5660.3233     4.359164     4.359164     4.359164   -5660.3233   -386.54098    3223.1737   -19817.602    6452.4904    25201.144    9653.8998    82.834191 
   61700    1251.9085   -107.25515    1.1327531    -106.1224    -5488.102    4.3534007    4.3534007    4.3534007    -5488.102    40342.921   -14118.997    -42688.23    4465.4589    1226.8827   -22516.674    82.506073 
   61800    1153.2694    -107.1661    1.0435024    -106.1226    2548.5031    4.3498277    4.3498277    4.3498277    2548.5031   -12567.898    14290.869    5922.5383    16346.055    5624.1925   -2382.9988    82.303095 
   61900    1127.1795    -107.1518    1.0198957    -106.1319   -18312.711    4.3565323    4.3565323    4.3565323   -18312.711   -18395.038    1970.9938   -38514.088   -1591.0886     13569.75   -12694.488    82.684255 
   62000    1498.5483   -107.48173     1.355918   -106.12582   -2368.2135    4.3516366    4.3516366    4.3516366   -2368.2135    23217.365    2433.3659   -32755.371    3575.0985   -8258.7208   -17679.697    82.405815 
   62100    877.45815   -106.92117   0.79394258   -106.12723    6528.5103    4.3503868    4.3503868    4.3503868    6528.5103     25680.05   -19940.121    13845.601    -1210.248    10373.515    3334.9817    82.334836 
   62200    781.71185   -106.84133   0.70730931   -106.13402   -4896.0759     4.359679     4.359679     4.359679   -4896.0759    42763.247   -39809.574   -17641.901    1276.0397    164.85567   -33367.509    82.863551 
   62300    1833.0304   -107.77804    1.6585645   -106.11947   -6427.9046     4.353757     4.353757     4.353757   -6427.9046    90.559851    -5857.711   -13516.563   -4569.9499   -5134.3256    13115.526    82.526335 
   62400    868.76183   -106.92132   0.78607396   -106.13525   -10775.348    4.3469306    4.3469306    4.3469306   -10775.348    2969.5332   -20203.382   -15092.195    12772.789    23533.758   -19419.469    82.138756 
   62500     1254.189   -107.27699    1.1348166   -106.14217    7712.1807    4.3478014    4.3478014    4.3478014    7712.1807    40153.103   -19014.657    1998.0957     1815.299   -6843.5525   -12560.209    82.188128 
   62600    1403.5999   -107.40744    1.2700067   -106.13744   -638.55698     4.355704     4.355704     4.355704   -638.55698     -5902.87    6609.8104   -2622.6114    12005.095    11313.247    4908.7633    82.637104 
   62700    774.66869    -106.8452   0.70093651   -106.14426    6418.2226     4.351722     4.351722     4.351722    6418.2226    48976.733   -23033.781   -6688.2839   -2642.4865    5029.4092   -28606.635    82.410665 
   62800    1743.1882   -107.69303    1.5772733   -106.11576    6338.3924    4.3594356    4.3594356    4.3594356    6338.3924    40362.857   -15916.232    -5431.448    5948.3386    1897.0652    15428.911    82.849671 
   62900    779.19008   -106.83498   0.70502756   -106.12995   -25997.834    4.3554035    4.3554035    4.3554035   -25997.834   -5821.2884   -44306.674    -27865.54    16309.518    16074.498   -38625.862    82.620001 
   63000    1265.7055   -107.27237     1.145237   -106.12713    20263.199    4.3357058    4.3357058    4.3357058    20263.199    40215.842   -21.034092     20594.79   -692.09333    19435.112    -367.5398    81.504091 
   63100    1706.9305   -107.68413    1.5444666   -106.13966   -12690.113    4.3516592    4.3516592    4.3516592   -12690.113    7172.8288   -27122.005   -18121.162    1519.5191   -9154.4127   -10038.418    82.407099 
   63200    755.06451    -106.8246   0.68319824    -106.1414   -20475.373    4.3685428    4.3685428    4.3685428   -20475.373    3042.3786   -46678.574   -17789.923    10224.021    22893.324   -24420.766    83.369994 
   63300    1434.3111   -107.41059    1.2977948   -106.11279    2462.4802     4.359324     4.359324     4.359324    2462.4802    16307.671   -4273.4108   -4646.8198   -13962.548   -962.36391    6491.5721    82.843312 
   63400    736.92283   -106.78635   0.66678326   -106.11956   -3948.0172    4.3478141    4.3478141    4.3478141   -3948.0172    57993.949   -39989.305   -29848.695    18418.246    4925.2262   -37879.535    82.188852 
   63500    1450.7423   -107.43128    1.3126621   -106.11861    3049.6431    4.3469125    4.3469125    4.3469125    3049.6431    17048.611    -4853.327   -3046.3542    -3180.259    26309.719    11430.063    82.137727 
   63600    1215.2038    -107.2259     1.099542   -106.12636   -23424.695    4.3619346    4.3619346    4.3619346   -23424.695    14441.523   -62520.497   -22195.111   -413.07363   -2346.7774    -36699.59    82.992232 
   63700    960.33113   -106.99169   0.86892779   -106.12276   -30986.073    4.3641185    4.3641185    4.3641185   -30986.073   -22891.946   -59647.914   -10418.358     23947.25    19000.236   -8353.7562     83.11695 
   63800    1305.0939   -107.29513    1.1808764   -106.11425    4552.1045    4.3470743    4.3470743    4.3470743    4552.1045   -20046.801    3209.3626    30493.752    530.75804    9392.6185   -10796.765    82.146901 
   63900    1286.5427   -107.29171    1.1640908   -106.12762   -12705.916    4.3477505    4.3477505    4.3477505   -12705.916    1647.3339   -24317.627   -15447.456    3906.4774   -8309.1719   -40766.336    82.185245 
   64000    1328.1365   -107.33432    1.2017258   -106.13259   -20425.458    4.3627402    4.3627402    4.3627402   -20425.458   -50371.293   -32409.837    21504.755    15582.413    19019.607    13507.784    83.038223 
   64100    1126.4816   -107.15374    1.0192642   -106.13448    5356.4337    4.3473784    4.3473784    4.3473784    5356.4337   -948.79655   -399.74506    17417.843   -2019.4058   -5311.7902   -33267.018    82.164143 
   64200    1153.0454   -107.18121    1.0432997   -106.13791    16581.858    4.3412507    4.3412507    4.3412507    16581.858   -10158.286   -10959.531    70863.392    12132.507    1391.1754    -7821.789    81.817199 
   64300    1591.9574   -107.57313    1.4404365   -106.13269    -21249.31    4.3621308    4.3621308    4.3621308    -21249.31   -33553.955   -15261.273   -14932.703   -1215.9097    9230.8817    9025.9131     83.00343 
   64400    977.22589   -107.02037   0.88421452   -106.13616    13353.347    4.3495144    4.3495144    4.3495144    13353.347    4790.6707   -48.122642    35317.493    5359.2319     1416.163   -36308.133    82.285313 
   64500    1198.1733   -107.22452    1.0841324   -106.14039    15488.355    4.3417329    4.3417329    4.3417329    15488.355   -13567.847   -6638.8521    66671.765    13850.657    3919.0268    19282.979    81.844464 
   64600    1430.1874   -107.43018    1.2940636   -106.13612     8472.022    4.3524517    4.3524517    4.3524517     8472.022   -7042.3193    14193.483    18264.902   -15182.118    9878.8136   -19183.817    82.452128 
   64700    1043.6178   -107.08191   0.94428728   -106.13763    5975.1215    4.3598506    4.3598506    4.3598506    5975.1215   -25785.948    371.01229      43340.3    27485.576   -6476.6304   -19708.186    82.873336 
   64800    1551.3877   -107.53428    1.4037282   -106.13055    3763.4187    4.3479742    4.3479742    4.3479742    3763.4187   -16666.198     13181.41    14775.044    3970.6063    15613.676    6095.1807    82.197928 
   64900    975.41534   -107.01869    0.8825763   -106.13612    29327.684     4.331532     4.331532     4.331532    29327.684    5744.7287    32758.635    49479.688     1058.376    713.00005   -22588.944    81.268935 
   65000    1262.6779   -107.29046    1.1424975   -106.14796   -16126.498    4.3584207    4.3584207    4.3584207   -16126.498   -49485.746   -25401.726    26507.978    28548.901   -6765.9757    209.06769    82.791822 
   65100    1614.6664   -107.59135    1.4609841   -106.13037   -559.58702    4.3595526    4.3595526    4.3595526   -559.58702   -42328.065    6968.1817    33681.122   -6278.7411    17101.506    8604.5325    82.856343 
   65200    762.53103   -106.82935   0.68995411   -106.13939     4974.312    4.3410986    4.3410986    4.3410986     4974.312   -23036.421    2130.4197    35828.937    36706.363   -5770.9636   -23486.367    81.808595 
   65300    1527.8744   -107.51674    1.3824529   -106.13428   -10401.236    4.3492499    4.3492499    4.3492499   -10401.236   -24152.838   -11104.736    4053.8671    3804.8254    5289.0567    7076.1304    82.270303 
   65400    1233.5189    -107.2526    1.1161138   -106.13649    18345.475    4.3460708    4.3460708    4.3460708    18345.475   -17863.818    64906.005    7994.2378    12086.028     15552.31   -12105.002    82.090025 
   65500    996.09842   -107.04746   0.90129078   -106.14617   -10389.487    4.3573124    4.3573124    4.3573124   -10389.487   -42593.931   -8312.1843    19737.653    35084.896   -4184.6839   -18529.896    82.728682 
   65600    1376.4443     -107.378    1.2454357   -106.13256    3412.2655    4.3554886    4.3554886    4.3554886    3412.2655   -6772.4107    40575.121   -23565.913   -4088.0514    13464.467     10058.89    82.624842 
   65700    965.93979   -107.01013   0.87400262   -106.13613    4420.1021    4.3474333    4.3474333    4.3474333    4420.1021    12803.099   -36371.372    36828.579     28158.48    6628.8026   -6523.5807    82.167257 
   65800    1425.0053   -107.42475    1.2893747   -106.13538   -15233.014    4.3443032    4.3443032    4.3443032   -15233.014   -1880.3476   -30976.923    -12841.77    6800.6532    12313.347   -21967.281    81.989904 
   65900    1231.9178   -107.25311    1.1146651   -106.13844    20931.244    4.3364083    4.3364083    4.3364083    20931.244     18580.72    14441.877    29771.134    3604.9092    7047.3723    20629.228    81.543715 
   66000    929.93414   -106.99061   0.84142395   -106.14918   -23825.926    4.3605926    4.3605926    4.3605926   -23825.926   -3738.1143   -62196.929   -5542.7353    29775.493    6685.3501   -22266.901    82.915657 
   66100    1311.2099   -107.31987    1.1864103   -106.13346    1978.4896    4.3502718    4.3502718    4.3502718    1978.4896    28796.549   -34014.698    11153.618   -14079.529   -794.38566   -11324.041    82.328303 
   66200    1179.1259   -107.19347    1.0668979   -106.12657    27012.701    4.3296289    4.3296289    4.3296289    27012.701    17456.512    29742.566    33839.026      28968.5   -4568.0046    9328.2658    81.161864 
   66300    1132.8327   -107.16727    1.0250108   -106.14226   -22379.391    4.3524424    4.3524424    4.3524424   -22379.391   -7484.6557   -52054.952   -7598.5661    13511.467   -4591.7276   -27721.052    82.451602 
   66400    1343.2591   -107.34509     1.215409   -106.12968    6593.9175    4.3514826    4.3514826    4.3514826    6593.9175    3852.3336     22079.64   -6150.2209   -13584.981   -6506.8747    2348.6094    82.397065 
   66500    1019.6108   -107.05774   0.92256531   -106.13517   -16501.005    4.3452852    4.3452852    4.3452852   -16501.005   -32681.218   -26010.441    9188.6439    43901.039    11124.522   -3879.1145    82.045516 
   66600    1103.3518   -107.13656    0.9983359   -106.13822   -3756.6283      4.34403      4.34403      4.34403   -3756.6283    21524.067   -13152.907   -19641.044   -13957.532   -10604.915   -18927.242     81.97444 
   66700     1729.318   -107.69961    1.5647232   -106.13489   -427.30574    4.3425279    4.3425279    4.3425279   -427.30574    -24633.12    8685.5637    14665.639    7763.2732    18377.359    6968.1959    81.889431 
   66800      772.818   -106.84971   0.69926197   -106.15045    -18402.83    4.3552462    4.3552462    4.3552462    -18402.83    894.63049   -34239.434   -21863.685    29668.218    2399.3403   -23102.751     82.61105 
   66900    1388.9869   -107.39267    1.2567845   -106.13588   -8302.3125    4.3442881    4.3442881    4.3442881   -8302.3125   -5898.0998   -9920.6197    -9088.218   -17950.642    1643.6531   -13448.945     81.98905 
   67000    1066.4393   -107.10106    0.9649367   -106.13612    22613.579    4.3397957    4.3397957    4.3397957    22613.579    14983.291    50216.207    2641.2381    15699.482    5765.1682   -661.11956    81.734962 
   67100    1297.0815    -107.3141    1.1736266   -106.14047   -14261.531       4.3517       4.3517       4.3517   -14261.531    5081.8274    -18058.37    -29808.05    17859.062   -2036.2028   -36136.884    82.409416 
   67200    1373.2449   -107.36908    1.2425408   -106.12654    24217.882    4.3535438    4.3535438    4.3535438    24217.882    13167.058    57571.563    1915.0252   -22077.026   -4329.0598    8439.4535    82.514214 
   67300    900.72279   -106.95286   0.81499291   -106.13787   -29698.069    4.3460953    4.3460953    4.3460953   -29698.069   -9333.5292   -50181.539   -29579.137    31372.208    4772.0923   -34976.961    82.091411 
   67400    1199.1391   -107.22487    1.0850063   -106.13987    22313.314    4.3336485    4.3336485    4.3336485    22313.314    41696.605     34818.61    -9575.274   -5276.8984   -8616.5123   -11788.453    81.388124 
   67500    1607.4849   -107.59827    1.4544861   -106.14379    -5858.381    4.3497957    4.3497957    4.3497957    -5858.381   -7060.0442    7047.2285   -17562.327   -4726.2492   -3035.8515   -7068.8555    82.301279 
   67600    583.13139   -106.67563   0.52762954     -106.148   -29874.606    4.3622957    4.3622957    4.3622957   -29874.606    25384.589   -73660.868   -41347.538    24400.122   -2058.0462   -35704.191    83.012848 
   67700     1721.844    -107.6764    1.5579607   -106.11844    12502.046    4.3434073    4.3434073    4.3434073    12502.046    2161.2732    35545.191   -200.32487   -15715.346   -9612.3895    21378.036    81.939188 
   67800     927.5067   -106.97598   0.83922756   -106.13675   -4302.7659    4.3427555    4.3427555    4.3427555   -4302.7659    28068.475   -13101.734   -27875.038    22382.267   -387.19313   -41691.257    81.902305 
   67900    1309.0171   -107.32606    1.1844262   -106.14163    3339.6192    4.3471669    4.3471669    4.3471669    3339.6192    8095.3409    -5498.702    7422.2187    7991.8739   -5781.5964   -3888.7784     82.15215 
   68000    1398.0993   -107.39723    1.2650296    -106.1322    837.64928    4.3594008    4.3594008    4.3594008    837.64928    3867.4178    20815.275   -22169.745   -6387.3147   -1267.5358    798.22035    82.847688 
   68100    659.80489   -106.73282   0.59700533   -106.13581   -21999.102    4.3557381    4.3557381    4.3557381   -21999.102    3864.2214   -61726.446   -8135.0801    23574.808   -8240.5247   -47871.029    82.639045 
   68200    1741.8317   -107.69227    1.5760459   -106.11622    23342.128    4.3360262    4.3360262    4.3360262    23342.128    19312.282     29902.37    20811.732   -1422.3754    5451.5899    9424.2286    81.522162 
   68300    1037.2971   -107.08118    0.9385682   -106.14261   -9921.0027    4.3515107    4.3515107    4.3515107   -9921.0027   -14543.713   -30648.959    15429.664    14630.564   -11610.427    -27509.56    82.398661 
   68400    1003.9289   -107.04691     0.908376   -106.13854   -26438.906    4.3597126    4.3597126    4.3597126   -26438.906   -28414.799   -57401.909    6499.9891    21943.448   -1021.5274   -19371.154    82.865465 
   68500    1588.1492    -107.5576    1.4369908   -106.12061    8981.6493    4.3522544    4.3522544    4.3522544    8981.6493    14890.962    6548.3515    5505.6343   -6156.0975    376.57974    -1187.281     82.44092 
   68600    838.05077   -106.89804   0.75828595   -106.13976   -25593.733    4.3461182    4.3461182    4.3461182   -25593.733   -24448.571   -46608.736   -5723.8914    30293.445   -6081.6871   -32563.437    82.092711 
   68700    1488.3981    -107.4821    1.3467339   -106.13537    20707.937    4.3409408    4.3409408    4.3409408    20707.937   -12858.731    47217.417    27765.126    11489.319   -1561.1826    650.59189    81.799679 
   68800    1477.5329   -107.47604    1.3369029   -106.13914   -29118.449    4.3562928    4.3562928    4.3562928   -29118.449   -763.46494   -45100.054   -41491.828    1681.1363   -5009.7183   -23843.892    82.670616 
   68900    577.19101   -106.66912   0.52225455   -106.14686   -7704.9315    4.3491634    4.3491634    4.3491634   -7704.9315   -23422.607   -14025.232    14333.044    31802.163    803.57412   -16084.433    82.265393 
   69000    1744.2434   -107.70587    1.5782281   -106.12765    19069.512    4.3420989    4.3420989    4.3420989    19069.512    27681.153      13409.8    16117.582   -3871.0524   -6139.9836    6035.7332    81.865165 
   69100    979.39295    -107.0242   0.88617533   -106.13803   -6209.6157    4.3524175    4.3524175    4.3524175   -6209.6157    15755.007   -2214.0919   -32169.762    15134.483   -2128.7542   -33460.086    82.450187 
   69200    1092.5337   -107.11872   0.98854743   -106.13017   -898.88887    4.3593698    4.3593698    4.3593698   -898.88887   -13378.315    8464.2385    2217.4098    23651.873   -2681.9124    5786.4781    82.845919 
   69300     1332.803   -107.32076    1.2059482   -106.11481    26251.195    4.3498365    4.3498365    4.3498365    26251.195    47927.189    18680.071    12146.324   -3958.9882   -6522.4899   -1572.0662    82.303593 
   69400    746.58519   -106.80695   0.67552597   -106.13142    1456.5099    4.3470455    4.3470455    4.3470455    1456.5099    2495.0426   -16413.548    18288.035    37387.233   -6666.3188   -24654.346    82.145268 
   69500    1719.4491   -107.67817    1.5557937   -106.12238    11892.607    4.3567507    4.3567507    4.3567507    11892.607    7204.7513    25550.065    2923.0043   -7474.6724   -6575.9588    3784.6622    82.696691 
   69600    827.62732   -106.88751   0.74885459   -106.13866    1720.0925     4.351903     4.351903     4.351903    1720.0925   -7421.5454   -26596.615    39178.438    24101.159   -10118.371   -20188.401    82.420954 
   69700    1016.3496   -107.05795   0.91961444   -106.13834    1903.5389    4.3477024    4.3477024    4.3477024    1903.5389   -7076.7893    -12144.54    24931.946    25609.359   -5027.6282   -10690.137    82.182512 
   69800      1668.92   -107.63538    1.5100739    -106.1253    8404.2627    4.3531211    4.3531211    4.3531211    8404.2627   -11318.502    5492.2935    31038.996   -10054.215   -856.70183    9542.1981    82.490177 
   69900    709.64341    -106.7826   0.64210027    -106.1405     1348.904    4.3457925    4.3457925    4.3457925     1348.904   -10506.109   -10626.793    25179.614    37785.144   -11805.807   -15017.024    82.074254 
   70000    1493.5256   -107.48767    1.3513734   -106.13629    2359.7047    4.3460913    4.3460913    4.3460913    2359.7047    19001.729     7567.136   -19489.751   -10715.748    1462.9343   -877.88284     82.09119 
   70100    1188.2376   -107.21407    1.0751424   -106.13893    3195.7969    4.3478638    4.3478638    4.3478638    3195.7969    -19084.14    7556.2437    21115.287     22369.61    5363.5442    4527.4143    82.191668 
   70200    1019.4178   -107.06095   0.92239064   -106.13856   -15131.232    4.3546798    4.3546798    4.3546798   -15131.232     24745.66   -38584.817   -31554.541    15792.732   -11301.837   -14597.021    82.578819 
   70300    1486.1828   -107.46878    1.3447294   -106.12405    1118.8457     4.350861     4.350861     4.350861    1118.8457    1473.6272     14577.74    -12694.83   -8497.3344    4538.3937    10566.613    82.361759 
   70400    1124.0735   -107.14892    1.0170853   -106.13184   -4117.3908    4.3377384    4.3377384    4.3377384   -4117.3908    4989.3511    -37358.22    20016.696    43001.185    3638.8764   -11406.616    81.618775 
   70500    1151.0308   -107.18273    1.0414769   -106.14125    3248.3403     4.346651     4.346651     4.346651    3248.3403    35815.311   -24300.549   -1769.7411   -11625.921   -22770.871   -12321.917    82.122909 
   70600     1398.737   -107.39977    1.2656066   -106.13417   -13879.534    4.3603364    4.3603364    4.3603364   -13879.534   -29937.988   -26379.207    14678.594    19857.023    2734.7251    6826.2062    82.901043 
   70700    929.93497   -106.97141    0.8414247   -106.12998    2889.7056    4.3516601    4.3516601    4.3516601    2889.7056    20704.102   -16531.746    4496.7607    21479.264   -17261.182   -18183.793    82.407153 
   70800    1296.0561   -107.28856    1.1726988   -106.11586    3515.1461    4.3486399    4.3486399    4.3486399    3515.1461   -350.67323   -13570.377    24466.489   -16006.635   -13273.165   -3341.4434    82.235687 
   70900    1233.1476   -107.23061    1.1157779   -106.11483   -1878.3875    4.3601107    4.3601107    4.3601107   -1878.3875   -37637.899   -8908.2756    40911.012    28768.947      7857.45   -5223.0449    82.888169 
   71000    1080.8709   -107.09351   0.97799473   -106.11552   -1103.3234    4.3571203    4.3571203    4.3571203   -1103.3234   -547.30517   -29279.183    26516.518   -7657.5612   -22992.324   -21264.695    82.717738 
   71100    1226.1331   -107.22376     1.109431   -106.11433    6569.4651    4.3458563    4.3458563    4.3458563    6569.4651    2725.1257    6311.8201     10671.45    7001.0232    10235.906   -2803.6521    82.077874 
   71200    1291.2313   -107.28782    1.1683332   -106.11949    9561.5092    4.3396666    4.3396666    4.3396666    9561.5092   -7404.0133    11726.874    24361.667    8330.8519    6694.2594   -12307.102    81.727667 
   71300    1193.5592   -107.21414    1.0799574   -106.13418   -12247.126    4.3551605    4.3551605    4.3551605   -12247.126    9116.0915   -22670.148   -23187.322   -11346.529   -22149.369   -9957.5499     82.60617 
   71400    1552.1588   -107.52595    1.4044259   -106.12152   -10589.117    4.3622079    4.3622079    4.3622079   -10589.117   -9647.3884    -21444.83    -675.1314    19155.943    8451.8232   -2880.6809    83.007834 
   71500     1127.172   -107.14284    1.0198889   -106.12295    1619.2491     4.343222     4.343222     4.343222    1619.2491   -3217.6311     12490.47   -4415.0912   -13334.461   -22444.184   -17031.712    81.928703 
   71600    911.45217   -106.95694   0.82470107   -106.13224    3743.8976    4.3479347    4.3479347    4.3479347    3743.8976   -11828.922    3063.4181    19997.197    -8054.085   -15914.308    4036.6827    82.195691 
   71700    1592.1296   -107.56044    1.4405923   -106.11985    4008.0004    4.3602372    4.3602372    4.3602372    4008.0004   -10172.774   -8869.5206    31066.296    10626.878    42.731443   -9173.3119    82.895382 
   71800    665.59643   -106.72859   0.60224564   -106.12635    6793.6449    4.3610286    4.3610286    4.3610286    6793.6449   -40465.652    55311.175    5535.4119   -12582.031   -39013.885   -5379.1117    82.940532 
   71900    1474.5081   -107.44709    1.3341659   -106.11292    3716.3045    4.3498915    4.3498915    4.3498915    3716.3045    -37600.26   -7103.5287    55852.702    3227.1754    5975.1488   -1075.5014    82.306714 
   72000    958.53429   -106.99365   0.86730197   -106.12635    11625.876    4.3376818    4.3376818    4.3376818    11625.876   -16789.922    45633.805    6033.7437    915.64077   -16501.009   -7040.7305    81.615577 
   72100    1218.8398   -107.24796    1.1028318   -106.14512   -11383.828    4.3479683    4.3479683    4.3479683   -11383.828   -28237.374    14524.219   -20438.329   -13382.137   -20257.944   -12567.595    82.197595 
   72200    1742.5048   -107.70888    1.5766549   -106.13223   -1913.8842    4.3631148    4.3631148    4.3631148   -1913.8842   -25449.474    19774.531   -66.709135    5005.6437    13300.453    4769.8514    83.059618 
   72300    834.77698   -106.89361   0.75532375   -106.13828   -30048.073    4.3552172    4.3552172    4.3552172   -30048.073   -57022.646   -2700.3946   -30421.179   -10927.823   -21089.015   -10941.732    82.609399 
   72400    1152.2097   -107.17001    1.0425435   -106.12747    30333.708     4.341857     4.341857     4.341857    30333.708     7270.405    50681.317    33049.402   -7850.9094   -1859.5076   -5727.8598    81.851481 
   72500    1263.4366   -107.27634     1.143184   -106.13316    10085.021    4.3471026    4.3471026    4.3471026    10085.021    -22665.99    25288.555    27632.498     10202.48    10363.161    1074.9138    82.148506 
   72600    937.92599   -106.99279   0.84865515   -106.14413   -4830.3098    4.3617637    4.3617637    4.3617637   -4830.3098   -25114.607    3522.3258     7101.352   -18572.384   -25460.294   -8706.9575    82.982477 
   72700    1647.6715   -107.61558    1.4908478   -106.12473   -5648.2538    4.3606059    4.3606059    4.3606059   -5648.2538    -33627.69    7401.3316    9281.5972     20320.85    14485.757    7179.6601    82.916413 
   72800    950.10417   -106.99354   0.85967422   -106.13386   -16494.935    4.3438421    4.3438421    4.3438421   -16494.935   -27834.827    18252.947   -39902.926   -11342.863   -16836.371   -10791.762    81.963799 
   72900    1254.5574    -107.2724    1.1351499   -106.13725    3087.1768    4.3389172    4.3389172    4.3389172    3087.1768   -12965.597    13453.151    8773.9759   -3735.4388   -2361.8184   -3970.3155    81.685333 
   73000    1407.8154   -107.41047    1.2738209   -106.13665   -985.04069    4.3491199    4.3491199    4.3491199   -985.04069   -22527.737    13311.517    6261.0979    5773.9505    11231.103    -3876.397    82.262925 
   73100    828.62486   -106.88724   0.74975719   -106.13748   -9706.9955    4.3650637    4.3650637    4.3650637   -9706.9955    -18167.32    4036.6557   -14990.322   -13711.966   -21279.066    -2074.653     83.17097 
   73200    1428.2125   -107.41434    1.2922767   -106.12206    26.980852    4.3508157    4.3508157    4.3508157    26.980852   -20927.641   -11146.646     32155.23    8345.0949    17111.955   -9440.0239    82.359187 
   73300    928.50195   -106.96995   0.84012808   -106.12982    17591.754    4.3378029    4.3378029    4.3378029    17591.754    -19734.45    57231.904    15277.807   -754.36826   -24501.282     7603.097    81.622415 
   73400    1156.1849   -107.18642    1.0461404   -106.14028    15349.563    4.3498154    4.3498154    4.3498154    15349.563   -6041.0969    28706.777     23383.01    2557.4635    2176.9121   -25330.909    82.302396 
   73500    1249.5583   -107.26766    1.1306266   -106.13704   -23336.184    4.3653178    4.3653178    4.3653178   -23336.184   -43040.979   -18282.396   -8685.1757    24588.807   -7407.0412   -2534.7539    83.185492 
   73600    1068.6698    -107.1001   0.96695488   -106.13314   -11716.675    4.3503745    4.3503745    4.3503745   -11716.675   -36880.123    33917.052   -32186.952   -7671.5253   -35604.553   -4821.4708    82.334135 
   73700    1444.1247   -107.42744    1.3066744   -106.12076    25606.142    4.3359558    4.3359558    4.3359558    25606.142    5336.6918    35715.735    35765.997    20651.823    7215.7364   -6852.6559    81.518192 
   73800    763.62858   -106.83431   0.69094719   -106.14336   -8886.1811    4.3652401    4.3652401    4.3652401   -8886.1811   -58170.262    12814.288    18697.431    9601.3124   -46946.487    12641.369    83.181053 
   73900    1257.9801    -107.2469    1.1382468   -106.10865    3706.6937    4.3723742    4.3723742    4.3723742    3706.6937   -43035.023    4368.8691    49786.235      6262.82    8035.3468    8738.4435    83.589548 
   74000    1037.9813   -107.04703   0.93918727   -106.10784   -3453.3238    4.3537066    4.3537066    4.3537066   -3453.3238   -44881.783    -10194.41    44716.221    16943.139   -30797.145     13953.24    82.523468 
   74100    1096.2693   -107.10652   0.99192746   -106.11459    15345.889    4.3395261    4.3395261    4.3395261    15345.889   -16757.551    55840.156     6955.063   -6110.9792   -28279.826    4600.6232     81.71973 
   74200    1630.8758   -107.60154    1.4756507   -106.12589    4514.5201    4.3484698    4.3484698    4.3484698    4514.5201    4372.2159    4791.0392    4380.3052    19330.165    5313.2686    13702.986    82.226039 
   74300    851.44766   -106.90543   0.77040774   -106.13503   -25015.852    4.3718977    4.3718977    4.3718977   -25015.852   -37058.364    13290.862   -51280.055    1726.9574   -41985.801    4335.0964    83.562224 
   74400    1596.7389   -107.56484    1.4447629   -106.12008    2003.3649    4.3456444    4.3456444    4.3456444    2003.3649   -5283.5492    14562.342    -3268.698    4223.0933    11432.943    11293.722    82.065864 
   74500    1084.5559   -107.10258   0.98132896   -106.12126    37465.071    4.3315718    4.3315718    4.3315718    37465.071    35357.783    29931.071    47106.359    22191.772   -4637.6602    2573.7075    81.271178 
   74600    1080.8464    -107.1078   0.97797255   -106.12983    2333.1089    4.3569531    4.3569531    4.3569531    2333.1089   -23587.784    14883.763    15703.347   -2035.4705   -16467.664   -931.47179    82.708217 
   74700    1217.1608   -107.22549    1.1013126   -106.12417   -5085.1451    4.3605147    4.3605147    4.3605147   -5085.1451   -29562.254   -24713.958    39020.777    21205.257    25023.637    4846.5534    82.911213 
   74800    1048.2584   -107.07206   0.94848627   -106.12358    21851.754    4.3450485    4.3450485    4.3450485    21851.754    27948.391    24769.612     12837.26     13796.79   -15520.651   -419.15094    82.032109 
   74900    1475.7496   -107.46115    1.3352892   -106.12586   -259.26961    4.3388453    4.3388453    4.3388453   -259.26961   -4347.6002    5994.1234    -2424.332    3664.2757    2584.1275    6481.2878    81.681273 
   75000     1046.354   -107.08501   0.94676313   -106.13824    3904.4556    4.3495213    4.3495213    4.3495213    3904.4556   -11542.675    21072.811    2183.2315    26410.391    12649.261   -2592.6264    82.285704 
   75100     1534.301   -107.51628    1.3882678   -106.12801   -21161.632    4.3654072    4.3654072    4.3654072   -21161.632   -25873.692   -19689.949   -17921.256   -1215.5826   -16202.406   -1082.7486    83.190603 
   75200    1095.8165   -107.12162   0.99151778   -106.13011   -2503.3056    4.3482999    4.3482999    4.3482999   -2503.3056   -40896.314    29131.411    4254.9856    13650.428    8813.9045    5664.5628    82.216404 
   75300    1500.9146   -107.48481    1.3580591   -106.12675      6880.39    4.3400711    4.3400711    4.3400711      6880.39    3896.7428    14886.526    1857.9017     17907.33    4581.0733   -11404.916    81.750523 
   75400    1602.7073   -107.57892    1.4501633   -106.12875    3727.4904    4.3522446    4.3522446    4.3522446    3727.4904    -10511.93    33612.835   -11918.434   -7427.8679   -4608.1921    12278.637    82.440362 
   75500    754.79357   -106.82111   0.68295308   -106.13816    4814.6086    4.3543811    4.3543811    4.3543811    4814.6086   -16723.467    9447.4336    21719.859    25801.706    13896.505   -1188.1901    82.561832 
   75600    1399.9347   -107.39346    1.2666904   -106.12677   -11475.634    4.3576102    4.3576102    4.3576102   -11475.634    -159.1343   -14685.218   -19582.551    1343.7238   -3559.3479    3693.1377    82.745644 
   75700    1510.8478   -107.49146    1.3670469   -106.12441   -891.17062    4.3418984    4.3418984    4.3418984   -891.17062   -6187.9166    1001.5412    2512.8635    7427.7039    9857.1876    15763.553    81.853824 
   75800    903.64932   -106.95826    0.8176409   -106.14062    11265.683    4.3465758    4.3465758    4.3465758    11265.683    -6369.834    25151.252    15015.631    24466.104    18299.921   -4400.0127    82.118647 
   75900     1391.259    -107.3894    1.2588404   -106.13056    -22077.73    4.3606332    4.3606332    4.3606332    -22077.73   -8460.1639   -28916.451   -28856.576   -18966.877   -7861.7685    28741.484    82.917973 
   76000    987.27993   -107.02537   0.89331163   -106.13205    19375.784    4.3370154    4.3370154    4.3370154    19375.784   -3560.2268    25644.352    36043.226    25976.309    15082.636     4297.277     81.57797 
   76100    1169.1694   -107.19976     1.057889   -106.14187     6812.241    4.3559998    4.3559998    4.3559998     6812.241    1860.6681    14293.365    4282.6899   -1398.6502    10759.442    4682.4566    82.653937 
   76200    1393.3013   -107.39106    1.2606883   -106.13037   -18050.733    4.3583182    4.3583182    4.3583182   -18050.733   -19743.247   -28762.207   -5646.7445    -343.6082   -10274.284    21035.662    82.785982 
   76300    877.63697   -106.92293   0.79410437   -106.12882    22634.255    4.3309013    4.3309013    4.3309013    22634.255    22822.191    16117.189    28963.383     34823.83    14280.726   -1467.6302    81.233444 
   76400    1359.6983   -107.36659    1.2302836    -106.1363   -9908.1821    4.3519988    4.3519988    4.3519988   -9908.1821   -4758.0816   -3198.4244    -21768.04   -9924.3434    11409.173      7511.74    82.426391 
   76500    1016.5769   -107.05555   0.91982013   -106.13573   -2997.0862    4.3540659    4.3540659    4.3540659   -2997.0862    27914.739   -29567.014   -7338.9838    24785.331   -5948.5769    15625.793      82.5439 
   76600    1423.9624    -107.4246    1.2884311   -106.13617   -13273.597    4.3529218    4.3529218    4.3529218   -13273.597   -9772.2464   -505.70495   -29542.839    12429.721    31508.517   -6351.1076     82.47885 
   76700    1451.1863   -107.44325    1.3130638   -106.13018    3332.2551    4.3529308    4.3529308    4.3529308    3332.2551    14876.418    10959.171   -15838.824   -4086.6604    2764.3805    378.87314    82.479359 
   76800    731.53544   -106.80114   0.66190864   -106.13923    11407.336    4.3458003    4.3458003    4.3458003    11407.336    11037.509    8540.3861    14644.114    31173.279    5268.1515   -5481.0426    82.074699 
   76900    1577.8771   -107.55407    1.4276964   -106.12638    -23050.71    4.3698107    4.3698107    4.3698107    -23050.71   -33982.154   -7844.5771     -27325.4   -9694.6959    10879.476   -10303.158    83.442609 
   77000    1333.7194   -107.32631    1.2067773   -106.11953    5653.4425    4.3528849    4.3528849    4.3528849    5653.4425    26228.558   -15065.313    5797.0826     16116.84   -9223.7721    3793.0222    82.476754 
   77100    1046.6098   -107.06542   0.94699456   -106.11843    20380.805    4.3366858    4.3366858    4.3366858    20380.805    4354.3026    13147.934    43640.178    28025.373    18856.354   -5386.1653    81.559373 
   77200    1583.9734   -107.55322    1.4332124   -106.12001   -29217.344     4.365029     4.365029     4.365029   -29217.344   -31016.382   -37086.842   -19548.808   -14898.963   -8683.6538   -3124.8659    83.168985 
   77300     1135.499   -107.15762    1.0274233    -106.1302    1342.5575    4.3454114    4.3454114    4.3454114    1342.5575    18233.206   -30638.005    16432.471    27201.575    14992.866    7010.5343    82.052666 
   77400    1156.4732   -107.18686    1.0464012   -106.14046    17360.856    4.3438183    4.3438183    4.3438183    17360.856   -12191.264    34966.536    29307.297    7195.0148     25031.23   -5979.1214    81.962454 
   77500    1654.1734   -107.62848    1.4967309   -106.13175   -1380.6008    4.3550456    4.3550456    4.3550456   -1380.6008    14102.596   -19380.216     1135.818   -8496.7416   -12290.484    769.13797    82.599632 
   77600    478.92085   -106.57736   0.43333765   -106.14402    28820.315    4.3443251    4.3443251    4.3443251    28820.315   -9237.7611    37587.105    58111.601    16569.725    34739.315    11339.096    81.991147 
   77700    1528.9152   -107.51606    1.3833946   -106.13267   -6263.4769    4.3607919    4.3607919    4.3607919   -6263.4769    -18558.24     -50.7688    -181.4213   -12152.629    828.53928    3173.5052    82.927026 
   77800    1450.7383   -107.45178    1.3126585   -106.13912    23822.226     4.337622     4.337622     4.337622    23822.226    15394.077    21328.395    34744.205    3294.6276    9312.1689    2548.4933    81.612203 
   77900    655.17258   -106.75705   0.59281392   -106.16424    5961.2467    4.3359738    4.3359738    4.3359738    5961.2467   -38234.108    45872.684    10245.164    19862.259    35941.623    5290.6878    81.519206 
   78000    1861.2598   -107.82354     1.684107   -106.13943   -9191.6183    4.3570121    4.3570121    4.3570121   -9191.6183    -5633.024   -20531.791   -1410.0402   -4949.9577   -12763.419    4029.3631    82.711575 
   78100     997.4609   -107.04802   0.90252359    -106.1455    21579.388    4.3395819    4.3395819    4.3395819    21579.388   -19906.982     44904.13    39741.014    13714.629    27925.743   -1409.4915    81.722883 
   78200     1060.626   -107.11093   0.95967671   -106.15125   -17542.426    4.3506213    4.3506213    4.3506213   -17542.426   -21214.299   -15950.615   -15462.364    22276.357    7752.2157    9769.9426     82.34815 
   78300    1602.2017   -107.58486    1.4497058   -106.13516    9389.5006     4.345794     4.345794     4.345794    9389.5006    4786.9076    15558.509    7823.0855   -4470.1306   -6506.2354   -10165.821     82.07434 
   78400    1020.7785   -107.07105   0.92362182   -106.14743   -4592.7351    4.3466156    4.3466156    4.3466156   -4592.7351   -16469.734    16283.438   -13591.909    19907.142    29221.459   -3874.8666    82.120901 
   78500    1301.2213   -107.31275    1.1773724   -106.13538   -29983.884    4.3646018    4.3646018    4.3646018   -29983.884   -9791.3325    -49969.12   -30191.198    14943.031   -3326.5609    9045.7809     83.14457 
   78600    1328.9237   -107.32349    1.2024381   -106.12105    30158.166     4.335495     4.335495     4.335495    30158.166    32219.311    42137.707     16117.48    -5776.711    8736.8132   -1405.1308    81.492204 
   78700    1049.8018   -107.08961   0.94988273   -106.13972   -17600.466    4.3473119    4.3473119    4.3473119   -17600.466   -22633.289   -22652.963   -7515.1446     32629.51    14907.696    9652.1576    82.160372 
   78800    1336.2389   -107.33486    1.2090571    -106.1258   -19193.025    4.3599954    4.3599954    4.3599954   -19193.025   -3797.9815   -23918.557   -29862.537    3509.0835   -1300.5853    10683.429    82.881594 
   78900    1065.1113   -107.08529   0.96373507   -106.12155    26146.115    4.3369057    4.3369057    4.3369057    26146.115    50343.446    11970.155    16124.743    7722.3139    20291.954   -379.50593    81.571782 
   79000    1289.1774    -107.3013    1.1664748   -106.13483   -32531.669    4.3595312    4.3595312    4.3595312   -32531.669   -25526.228    -54761.08     -17307.7    23409.853   -4032.1716    22373.848    82.855121 
   79100    1610.0883   -107.57603    1.4568417   -106.11919    11964.047    4.3512213    4.3512213    4.3512213    11964.047    54871.761   -11938.918   -7040.7003    -6191.579   -519.30032     6808.048    82.382225 
   79200    681.96138   -106.74293   0.61705299   -106.12587    25822.959     4.340509     4.340509     4.340509    25822.959    26467.822    27577.881    23423.174    29445.416    18249.432    1091.3681    81.775269 
   79300    1367.3491   -107.36056    1.2372062   -106.12335   -32200.343    4.3616553    4.3616553    4.3616553   -32200.343   -12194.333   -42814.243   -41592.452   -4999.1802   -8975.0731    30835.144    82.976289 
   79400    1523.7406   -107.50196    1.3787125   -106.12325    22452.103    4.3377486    4.3377486    4.3377486    22452.103    36269.414    1549.1106    29537.784     4348.718    7309.3219    1639.1808    81.619348 
   79500    773.98122   -106.84805   0.70031448   -106.14773    17663.288    4.3414796    4.3414796    4.3414796    17663.288    5635.3697    20798.229    26556.266    22753.516    18906.967    19982.473    81.830137 
   79600    1560.2734   -107.53712    1.4117681   -106.12536    -23978.24    4.3617489    4.3617489    4.3617489    -23978.24   -5536.4723    -28081.07   -38317.177   -11940.094   -3614.6662     21402.55    82.981631 
   79700    1084.5556   -107.10587   0.98132867   -106.12455    21003.107    4.3329898    4.3329898    4.3329898    21003.107   -3745.5293     19450.97     47303.88    28732.705    8874.1037   -5071.5853    81.351018 
   79800    903.85164   -106.95952   0.81782396   -106.14169   -3297.7535    4.3482754    4.3482754    4.3482754   -3297.7535    17786.223   -5604.3061   -22075.178     6505.475     6818.592     35718.34    82.215011 
   79900    1678.3208   -107.64037    1.5185799   -106.12179   -7269.2989    4.3567418    4.3567418    4.3567418   -7269.2989   -12490.821   -30502.583    21185.506     9702.263   -3490.0937    639.39457    82.696185 
   80000    1028.4912   -107.06104   0.93060046   -106.13044    10845.457    4.3336856    4.3336856    4.3336856    10845.457   -12754.569    4789.9655    40500.974    29751.335     20064.24    4935.1152    81.390214 
   80100    1158.3024   -107.18649    1.0480563   -106.13844   -5740.1288    4.3472703    4.3472703    4.3472703   -5740.1288    13287.806   -13056.184   -17452.009   -4208.9102    3315.9653    31694.161    82.158017 
   80200    1314.8247   -107.32069     1.189681     -106.131    4001.1614    4.3500094    4.3500094    4.3500094    4001.1614   -25767.397   -9501.0697     47271.95    29249.522    8203.4239   -15666.748    82.313408 
   80300    898.33985   -106.95077   0.81283678   -106.13793    5013.4297    4.3428326    4.3428326    4.3428326    5013.4297    18944.584    7171.1471   -11075.442    7325.8587    18188.471    27103.618    81.906668 
   80400    1578.3096   -107.56116    1.4280877   -106.13307    2874.4055    4.3465422    4.3465422    4.3465422    2874.4055    5448.7312   -13528.583    16703.068    6086.8279    -4471.676    5338.9212    82.116742 
   80500    984.68277   -107.03345   0.89096166   -106.14249    14893.395    4.3402549    4.3402549    4.3402549    14893.395   -1154.7286    12105.307    33729.608    24199.616    12184.881   -183.19148    81.760906 
   80600    904.15668   -106.96606   0.81809997   -106.14796    81.432869    4.3442881    4.3442881    4.3442881    81.432869    24811.532   -10798.946   -13768.287   -3012.2919    10609.788    32744.099     81.98905 
   80700    1664.7791   -107.63714    1.5063272   -106.13081    2742.3294    4.3520757    4.3520757    4.3520757    2742.3294   -15928.679   -15890.263     40045.93    1597.5297   -312.30442   -10783.166    82.430762 
   80800    861.64923   -106.92005   0.77963833   -106.14041    3105.7437    4.3417558    4.3417558    4.3417558    3105.7437    16844.577   -11385.679    3858.3326    13316.623    17259.595    25168.509     81.84576 
   80900    1436.5671   -107.43401    1.2998361   -106.13417    4086.0849    4.3442457    4.3442457    4.3442457    4086.0849     1248.084    -16551.13    27561.301   -13176.837    6966.3758    23505.575    81.986648 
   81000    1317.5477     -107.323    1.1921448   -106.13085   -11133.413    4.3561586    4.3561586    4.3561586   -11133.413   -21903.524   -17781.274    6284.5579    14396.208    363.15633   -1994.9353    82.662981 
   81100    696.87958   -106.76465   0.63055129    -106.1341   -7065.4334    4.3472001    4.3472001    4.3472001   -7065.4334   -440.56426    -18168.51   -2587.2254   -24.535583      16787.9    44412.605    82.154035 
   81200    1928.0482    -107.8585    1.7445386   -106.11397    9926.8148    4.3450653    4.3450653    4.3450653    9926.8148     3663.812    10129.816    15986.816   -10068.716   -2299.5217   -3530.6148    82.033064 
   81300    861.29481   -106.91249   0.77931765   -106.13317   -7311.4807    4.3501779    4.3501779    4.3501779   -7311.4807   -7358.2823   -2264.5489   -12311.611    22485.229    7191.4008    35419.531    82.322972 
   81400    983.43244   -107.02029   0.88983034   -106.13046    14677.916    4.3497201    4.3497201    4.3497201    14677.916    17205.096    4090.7961    22737.855    667.69533    16108.245    21934.236    82.296985 
   81500    1709.3273   -107.66915    1.5466353   -106.12251   -10452.312    4.3540519    4.3540519    4.3540519   -10452.312   -5600.6216   -16378.982   -9377.3326    4681.5159   -19859.198    3123.1992    82.543103 
   81600    761.88023   -106.82696   0.68936524    -106.1376   -10717.863    4.3415594    4.3415594    4.3415594   -10717.863   -13203.798    -25300.18    6350.3886    19514.934    12324.567    41918.988    81.834652 
   81700    1648.2545   -107.62077    1.4913753    -106.1294     14973.24    4.3409233    4.3409233    4.3409233     14973.24     32283.32    17943.839    -5307.439    -1064.613   -3576.6962   -8631.6916    81.798687 
   81800    1218.0108   -107.23962    1.1020818   -106.13754   -33696.709    4.3564174    4.3564174    4.3564174   -33696.709   -16843.874    -41701.56   -42544.693    11530.356   -7153.2468    25190.951    82.677713 
   81900    904.05368   -106.95554   0.81800677   -106.13753    -10630.37    4.3448345    4.3448345    4.3448345    -10630.37   -15423.765   -1539.6007   -14927.745    17581.635    19359.826    15477.701    82.019991 
   82000    1515.7168    -107.4968    1.3714524   -106.12535     15234.07    4.3412975    4.3412975    4.3412975     15234.07    35200.753     1480.186    9021.2698   -4237.1536   -11331.174   -5211.7327    81.819846 
   82100    1215.8093   -107.24081    1.1000898   -106.14072   -19857.443    4.3432662    4.3432662    4.3432662   -19857.443    869.50067   -24239.942   -36201.889    6011.0378    3237.2534    32797.955    81.931208 
   82200    1083.8126   -107.12582   0.98065645   -106.14516    22687.162    4.3474291    4.3474291    4.3474291    22687.162    43592.632    352.44293    24116.411    9848.3765    17925.196    -2610.891    82.167015 
   82300    1357.2358   -107.36553    1.2280555   -106.13747   -14875.558     4.354209     4.354209     4.354209   -14875.558    3673.0341   -46511.344   -1788.3651   -5752.9402    1214.0467    21297.568    82.552039 
   82400    764.96906   -106.83246   0.69216008    -106.1403    12305.618    4.3339502    4.3339502    4.3339502    12305.618     30880.98   -13434.271    19470.145    12841.884    17252.936    21690.813    81.405125 
   82500    1522.4798   -107.51794    1.3775717   -106.14037     7352.256    4.3421417    4.3421417    4.3421417     7352.256    -884.9522   -2909.5416    25851.262    4459.8743    23411.446    588.56489    81.867587 
   82600     1203.132   -107.22826    1.0886191   -106.13964   -1609.2291    4.3529898    4.3529898    4.3529898   -1609.2291     45668.87   -33102.067    -17394.49   -1011.9764   -10446.255    35952.504    82.482717 
   82700    1071.5359   -107.10708   0.96954818   -106.13753   -8119.7766    4.3471228    4.3471228    4.3471228   -8119.7766   -1431.0399   -21261.109    -1667.181    17228.616    32438.583   -5337.9327    82.149649 
   82800    1106.2394   -107.13328    1.0009487   -106.13233    1446.2032    4.3498215    4.3498215    4.3498215    1446.2032    21744.708   -13503.223   -3902.8754   -6732.8974    1244.5556    24676.777    82.302741 
   82900    1494.9791   -107.48084    1.3526885   -106.12815    5147.2371     4.336839     4.336839     4.336839    5147.2371    27226.479   -1876.2399   -9908.5274   -753.10057   -1508.1846    19565.239    81.568017 
   83000    1052.9301   -107.09666   0.95271326   -106.14394   -4018.1519    4.3449961    4.3449961    4.3449961   -4018.1519   -4676.3795   -17528.673    10150.597     14122.08    21486.881   -6248.8705     82.02914 
   83100    1153.0541    -107.1822    1.0433076   -106.13889   -26763.051    4.3542031    4.3542031    4.3542031   -26763.051   -1345.7266   -41367.918   -37575.508   -13423.872   -10787.753     39458.31    82.551704 
   83200    1218.0599   -107.23077    1.1021262   -106.12864    5844.5841    4.3420579    4.3420579    4.3420579    5844.5841    811.76282    10682.608    6039.3817    19619.893    4621.8346   -3678.7495    81.862843 
   83300    1015.9852   -107.05651   0.91928474   -106.13723   -22705.356    4.3484544    4.3484544    4.3484544   -22705.356   -23912.996   -19687.957   -24515.115    1400.1418    17202.251    18477.521    82.225168 
   83400    1142.2009   -107.17198    1.0334874    -106.1385    5578.0513    4.3435979    4.3435979    4.3435979    5578.0513    33763.848    6940.5637   -23970.257   -9045.1506   -13290.325    32503.376     81.94998 
   83500    1419.5536   -107.42421    1.2844419   -106.13976   -2455.0357     4.350082     4.350082     4.350082   -2455.0357   -2665.2866   -3946.6523    -753.1683    23268.231    1706.3905   -9203.8945    82.317529 
   83600    820.15693   -106.88693   0.74209523   -106.14483   -25945.571    4.3544225    4.3544225    4.3544225   -25945.571    -9409.607   -35709.894   -32717.212   -3705.0348    14559.686    40287.169    82.564183 
   83700    1159.5781   -107.18178    1.0492106   -106.13257    20383.507    4.3372719    4.3372719    4.3372719    20383.507    39055.938    13333.864     8760.718    34.108952   -30477.158    10373.238    81.592444 
   83800    1452.2598   -107.45074    1.3140352   -106.13671   -11823.409    4.3483374    4.3483374    4.3483374   -11823.409   -9023.9348   -14370.351   -12075.943    5484.3217    13704.623    7337.3002    82.218531 
   83900     950.5601   -107.00239   0.86008676   -106.14231    5136.6286    4.3543362    4.3543362    4.3543362    5136.6286     69136.23   -24095.974    -29630.37   -4338.5186   -2205.4684    24771.422    82.559277 
   84000    1297.9714   -107.31472    1.1744318   -106.14029    2398.2104    4.3529589    4.3529589    4.3529589    2398.2104    7929.2619    9837.2969   -10571.928    -5547.247   -16890.229   -8802.4743    82.480958 
   84100    1086.3548   -107.12151   0.98295667   -106.13855    18717.926    4.3428717    4.3428717    4.3428717    18717.926     56892.97   -1108.1175    368.92436   -415.92059    11117.222    22856.325    81.908883 
   84200    1286.2446   -107.30262    1.1638212   -106.13879   -7840.4751    4.3526293    4.3526293    4.3526293   -7840.4751   -2320.7977    620.64339   -21821.271   -7376.9888   -10794.526   -3774.0656    82.462226 
   84300    1127.1545   -107.15337    1.0198731   -106.13349    3621.1843    4.3546727    4.3546727    4.3546727    3621.1843    6643.2892    1891.3561    2328.9076    -5093.012    -23955.47    16620.123    82.578419 
   84400    1373.3958   -107.37133    1.2426774   -106.12865    15464.361    4.3462389    4.3462389    4.3462389    15464.361    71514.272   -10955.976   -14165.214   -10012.649    8637.9232     11988.34     82.09955 
   84500    845.60089   -106.90288   0.76511745   -106.13776   -10015.036    4.3577691    4.3577691    4.3577691   -10015.036   -7688.8163    139.37272   -22495.665   -10693.206   -24772.663   -4728.0272    82.754695 
   84600    1073.1878   -107.10363   0.97104285   -106.13259    19897.737     4.347388     4.347388     4.347388    19897.737    45527.344   -11523.853    25689.721   -10521.004   -4415.3733    33280.526     82.16469 
   84700    1543.3431   -107.52722    1.3964493   -106.13077   -1874.9455    4.3574188    4.3574188    4.3574188   -1874.9455    13467.655   -13630.954    -5461.537   -328.16685    1238.8029   -11528.395    82.734741 
   84800    876.52075   -106.93639    0.7930944    -106.1433   -14647.693    4.3508366    4.3508366    4.3508366   -14647.693   -22518.468   -19181.631   -2242.9806   -9166.1919   -17083.935    16053.551    82.360376 
   84900     1075.935   -107.11368   0.97352856   -106.14016    40917.461    4.3368828    4.3368828    4.3368828    40917.461    49599.632    7000.1179    66152.634   -824.51253    2889.8091        16363     81.57049 
   85000    1482.1367   -107.48321    1.3410684   -106.14214   -10919.767    4.3591494    4.3591494    4.3591494   -10919.767   -23380.867    12240.461   -21618.894    5883.6916   -7028.8317   -19121.763    82.833354 
   85100    1047.2532   -107.08879   0.94757674   -106.14121    14820.092    4.3473283    4.3473283    4.3473283    14820.092    7486.2934    12540.537    24433.447   -2609.1164   -14351.544    20440.283    82.161303 
   85200    1151.5078   -107.18051    1.0419085    -106.1386    18110.681    4.3544435    4.3544435    4.3544435    18110.681    43434.081   -4509.5219    15407.483    2987.0004    6726.1645   -7431.1932     82.56538 
   85300    1345.2952   -107.35589    1.2172514   -106.13863   -17073.964    4.3544626    4.3544626    4.3544626   -17073.964   -13790.603   -22201.663   -15229.627    11911.424   -17808.173   -18188.752    82.566467 
   85400    1099.2932   -107.12991   0.99466363   -106.13525    45521.721    4.3259066    4.3259066    4.3259066    45521.721    69239.219    23846.659    43479.284   -10278.353    6699.3445     22907.63    80.952716 
   85500    1341.8318    -107.3697    1.2141176   -106.15559   -17374.172    4.3553933    4.3553933    4.3553933   -17374.172   -12424.028   -38554.062   -1144.4275    7586.4551    3931.7914   -18365.552    82.619419 
   85600    1417.4621    -107.4234    1.2825495   -106.14085   -5214.0808    4.3565925    4.3565925    4.3565925   -5214.0808     4361.725    -15922.92   -4081.0475    5266.8422   -8904.0336   -8675.7299    82.687682 
   85700    1206.0607    -107.2268    1.0912691   -106.13553    21725.254    4.3338988    4.3338988    4.3338988    21725.254    22239.538    11564.721    31371.503   -14073.029    16279.615     18674.06    81.402228 
   85800    901.59051   -106.96745   0.81577804   -106.15167   -19509.569     4.347749     4.347749     4.347749   -19509.569   -26573.446   -48984.204    17028.943     16900.01     1632.084   -29470.141    82.185157 
   85900    1563.4307   -107.56051    1.4146249   -106.14589    14544.958    4.3421792    4.3421792    4.3421792    14544.958    28232.622    9476.5531       5925.7   -3807.4977   -8209.9493     -221.306    81.869705 
   86000    1141.0413   -107.18739    1.0324381   -106.15495   -4317.4895    4.3533965    4.3533965    4.3533965   -4317.4895   -23738.189   -32734.083    43519.803   -3663.2627    20107.867   -3314.3353    82.505834 
   86100    780.93725   -106.86612   0.70660844   -106.15951   -36660.165    4.3523317    4.3523317    4.3523317   -36660.165   -20654.589    -77525.21   -11800.697    20022.902   -7852.3682   -32155.444    82.445312 
   86200    1554.4945   -107.54511    1.4065393   -106.13857    42011.682    4.3238392    4.3238392    4.3238392    42011.682    15029.748    23232.948    87772.349   -8963.2296     7411.716    5929.5223    80.836704 
   86300    1130.3486   -107.18085    1.0227631   -106.15808   -17845.113    4.3519244    4.3519244    4.3519244   -17845.113   -30595.153   -30428.897    7488.7102    16198.855    7874.7966   -21065.838    82.422169 
   86400    1085.8545   -107.12614   0.98250399   -106.14364   -20273.774    4.3544223    4.3544223    4.3544223   -20273.774   -9979.8149   -52815.852    1974.3456    6955.6436   -2441.0889   -14777.211    82.564176 
   86500    1137.3008   -107.16319    1.0290536   -106.13414    34263.212    4.3325232    4.3325232    4.3325232    34263.212     5658.676      11135.8    85995.161   -557.66207    14592.118     23020.32    81.324743 
   86600    1488.0225   -107.48665     1.346394   -106.14025   -10381.502    4.3394937    4.3394937    4.3394937   -10381.502   -22918.221   -27967.544    19741.259     16431.96    2195.5134   -24837.516    81.717897 
   86700    1043.3221   -107.09585   0.94401972   -106.15183    10674.252    4.3499922    4.3499922    4.3499922    10674.252    3582.9132   -28465.035    56904.879   -4569.6737   -5567.4056    6914.2193    82.312435 
   86800    1213.4366   -107.24917     1.097943   -106.15122   -12994.933    4.3507271    4.3507271    4.3507271   -12994.933   -24831.807   -27479.891    13326.899    10389.694    7323.6763    23436.901    82.354156 
   86900    1376.7315   -107.38564    1.2456956   -106.13995    13428.058    4.3338047    4.3338047    4.3338047    13428.058   -2346.8208   -13947.707    56578.702     2915.428   -7606.5675   -9136.3869    81.396926 
   87000    865.55694   -106.93752   0.78317411   -106.15435   -20507.334    4.3498709    4.3498709    4.3498709   -20507.334    13806.849   -51238.023   -24090.827   -2918.6444    1031.4283    28489.214    82.305549 
   87100    1470.4423    -107.4695    1.3304871   -106.13901    729.90349    4.3435042    4.3435042    4.3435042    729.90349   -26296.721   -14964.943    43451.374     8982.821    3021.7896   -3204.0185    81.944677 
   87200    1198.8343   -107.22649    1.0847304   -106.14176    6161.0798    4.3440104    4.3440104    4.3440104    6161.0798   -3889.7909   -9769.6035    32142.634   -6476.6321    -13044.38    4697.1188    81.973328 
   87300     771.5608   -106.85102   0.69812442   -106.15289   -28119.914    4.3496391    4.3496391    4.3496391   -28119.914    11880.445   -63277.935   -32962.251    5631.3626    3913.8645    30727.044    82.292387 
   87400    1582.0524   -107.57037    1.4314743   -106.13889    13746.926    4.3360482    4.3360482    4.3360482    13746.926   -17564.308   -438.61128    59243.697    4619.0301   -6026.3674   -4511.7905    81.523401 
   87500    1218.1888   -107.25043    1.1022428   -106.14819   -28483.317    4.3539437    4.3539437    4.3539437   -28483.317   -15510.412   -53508.092   -16431.448   -12193.768   -6245.1226    29645.034     82.53695 
   87600    1085.5368   -107.12474   0.98221654   -106.14252   -4294.1607    4.3438095    4.3438095    4.3438095   -4294.1607    270.62864    -25522.39    12369.279     12764.34    7562.5914    2479.9602    81.961954 
   87700    1370.4853   -107.37764    1.2400439    -106.1376   -1534.8358    4.3431199    4.3431199    4.3431199   -1534.8358    -17730.93   -20606.017    33732.439   -16610.346    412.60309   -11948.223    81.922926 
   87800    1165.9446   -107.19212    1.0549712   -106.13715   -23505.214     4.357312     4.357312     4.357312   -23505.214   -12823.505   -31035.336   -26656.801    286.31074   -1956.5036    24480.398    82.728655 
   87900    1188.5003   -107.21042    1.0753801   -106.13504    6392.2142    4.3392983    4.3392983    4.3392983    6392.2142   -5869.5355   -8319.2509    33365.429    5273.5991    2586.9216    -12297.89     81.70686 
   88000    1153.3562   -107.18672    1.0435809   -106.14314    10190.119    4.3426752    4.3426752    4.3426752    10190.119   -9724.7173   -7207.7703    47502.844    -26830.52   -8269.6418    8079.5275    81.897766 
   88100    1574.2089   -107.56166    1.4243773   -106.13729   -2256.6368     4.348436     4.348436     4.348436   -2256.6368    6072.0384   -18836.109    5994.1597    15328.987    -12178.63    13615.776    82.224124 
   88200    801.67304   -106.87443   0.72537061   -106.14906    8444.7039    4.3414211    4.3414211    4.3414211    8444.7039    5231.9674   -39275.634    59377.778   -22641.408     3314.089   -14760.086    81.826834 
   88300    1337.8156   -107.35644    1.2104836   -106.14595   -13686.903    4.3482808    4.3482808    4.3482808   -13686.903   -19295.983   -27132.709    5367.9834   -6854.7562   -15592.857   -898.19377    82.215319 
   88400    1505.2338   -107.50154    1.3619672   -106.13958     20908.97     4.340665     4.340665     4.340665     20908.97    21519.802   -3059.4459    44266.555   -3217.9801   -28.815806   -4396.7642    81.784087 
   88500    1103.7309   -107.14836   0.99867889   -106.14968   -28005.244    4.3569663    4.3569663    4.3569663   -28005.244   -21870.936    -60928.27   -1216.5262   -17297.434    555.27701   -17104.388    82.708969 
   88600    1395.5531   -107.39808    1.2627257   -106.13536   -11006.311      4.34927      4.34927      4.34927   -11006.311   -12735.909   -16263.012   -4020.0117    22279.512   -13241.241   -8320.7228    82.271444 
   88700     1296.411   -107.30066    1.1730199   -106.12764    16520.839    4.3332267    4.3332267    4.3332267    16520.839   -938.99561    5147.6308    45353.883   -29300.651     6801.708   -2543.2201    81.364364 
   88800    885.37534   -106.94306   0.80110621   -106.14195   -13404.173    4.3535147    4.3535147    4.3535147   -13404.173   -28114.133   -28341.269    16242.884    17166.082   -3822.0777   -11234.748     82.51256 
   88900    1200.8389   -107.22128    1.0865443   -106.13474     7192.594    4.3504928    4.3504928    4.3504928     7192.594     -5188.55    10637.114    16129.218    1740.2901   -6368.3699     9137.454    82.340854 
   89000    1264.2822   -107.27468    1.1439491   -106.13073     11410.85    4.3453686    4.3453686    4.3453686     11410.85    509.12357   -205.80074    33929.226   -14852.927    7325.8237    45.760208    82.050242 
   89100    570.85351    -106.6599   0.51652026   -106.14338   -4760.1614    4.3487151    4.3487151    4.3487151   -4760.1614   -4786.6218   -7999.7085   -1494.1538    22228.612   -2160.9115   -5873.2641    82.239957 
   89200    1710.1365   -107.68093    1.5473674   -106.13356    5427.4901    4.3487105    4.3487105    4.3487105    5427.4901    19172.638    14348.289   -17238.457   -15211.642    53.896661    5308.8988    82.239696 
   89300    1266.9871   -107.29169    1.1463965    -106.1453   -3392.7464    4.3467669    4.3467669    4.3467669   -3392.7464    19264.154   -30954.633    1512.2397    15334.133   -4367.5781   -30955.901    82.129479 
   89400    694.97636   -106.77696   0.62882921   -106.14813    13349.947     4.329714     4.329714     4.329714    13349.947    33929.995    498.13448    5621.7107    8954.0382   -17058.791   -10520.965     81.16665 
   89500    1504.0987   -107.50692    1.3609401   -106.14598    -171.0669    4.3527716    4.3527716    4.3527716    -171.0669   -16197.259   -36062.864    51746.922   -7068.1207   -10892.969    1153.4752    82.470315 
   89600    945.44502   -106.99399   0.85545852   -106.13853   -8431.3733    4.3636624    4.3636624    4.3636624   -8431.3733    6938.6917   -57717.337    25484.525    13834.092   -11675.455    -28372.33    83.090895 
   89700    1081.8627   -107.10451    0.9788921   -106.12562     10524.01    4.3443943    4.3443943    4.3443943     10524.01    29278.957    2361.0614   -67.989462   -11105.138   -12910.322    9057.9513    81.995064 
   89800    1498.3822   -107.47857    1.3557677    -106.1228   -683.25202    4.3449549    4.3449549    4.3449549   -683.25202    12502.914   -22712.917     8160.247   -12273.823    3367.8942   -10095.129    82.026812 
   89900    1120.6606   -107.14559    1.0139973   -106.13159   -8348.6967    4.3535563    4.3535563    4.3535563   -8348.6967    21516.515   -24428.707   -22133.898    784.24682   -6064.0442   -10767.761    82.514922 
   90000    1156.7651   -107.17806    1.0466654   -106.13139   -1288.9426    4.3509725    4.3509725    4.3509725   -1288.9426   -14959.252    11903.243   -810.81858   -17452.014    -729.3018     15967.83    82.368093 
   90100    1394.7072   -107.39223    1.2619604   -106.13027    8281.1564    4.3367242    4.3367242    4.3367242    8281.1564    27425.529   -11905.805    9323.7448    343.07585    20987.206   -22881.193    81.561536 
   90200    1091.8778   -107.12857   0.98795399   -106.14061    12488.605    4.3413834    4.3413834    4.3413834    12488.605    17891.899    4066.7336    15507.182   -1615.3132   -20617.376      5879.13    81.824701 
   90300     933.4274   -106.98965   0.84458473   -106.14506   -20286.016    4.3574673    4.3574673    4.3574673   -20286.016   -36168.025   -19077.992   -5612.0311   -10637.021    1553.2347    1864.1163    82.737502 
   90400    1421.6925    -107.4251    1.2863772   -106.13872    8319.5103    4.3420482    4.3420482    4.3420482    8319.5103    30940.042    -16086.87    10105.358    8402.8041    7272.8441   -23320.926    81.862297 
   90500    1515.1454   -107.51128    1.3709354   -106.14034    12339.054    4.3270038    4.3270038    4.3270038    12339.054    15292.467    10925.195    10799.499    1365.9135   -12491.595    8289.7962    81.014326 
   90600    663.83656   -106.76242   0.60065327   -106.16177   -4133.2821    4.3444022    4.3444022    4.3444022   -4133.2821   -9826.0295   -10550.357    7976.5398   -13461.554    1494.5235   -12234.539    81.995509 
   90700    1599.5452   -107.59068    1.4473021   -106.14338   -27018.705    4.3638114    4.3638114    4.3638114   -27018.705   -7959.9759   -32072.731   -41023.406    10404.012    12643.842   -17408.484    83.099408 
   90800    1390.0024    -107.3879    1.2577034   -106.13019   -6110.7514    4.3556412    4.3556412    4.3556412   -6110.7514    5279.9691   -20980.935   -2631.2883   -17735.814    -5448.377    15584.076     82.63353 
   90900    899.69029   -106.94591   0.81405868   -106.13185   -7494.1977     4.328786     4.328786     4.328786   -7494.1977   -9664.4368    2577.2002   -15395.356    124.35244    10163.198   -22520.723    81.114473 
   91000    1233.4502   -107.26222    1.1160517   -106.14617    13561.125    4.3289966    4.3289966    4.3289966    13561.125    27234.994     14419.31    -970.9298    -1165.772    18095.358   -1731.5408    81.126311 
   91100    1515.8314   -107.52358    1.3715561   -106.15202   -7676.6283    4.3572302    4.3572302    4.3572302   -7676.6283    2434.7194   -23191.136   -2273.4685   -12744.455   -6940.5918    6794.3856    82.723999 
   91200    583.17354   -106.69396   0.52766768   -106.16629   -28167.273    4.3544693    4.3544693    4.3544693   -28167.273   -38660.778    4187.5295   -50028.572    11414.669    22302.523    -22149.65    82.566847 
   91300    1681.6955    -107.6613    1.5216335   -106.13967    24568.636    4.3263032    4.3263032    4.3263032    24568.636    26352.933    20577.677    26775.298   -8695.7953   -3894.4118    9033.2625    80.974982 
   91400    1397.6217   -107.41497    1.2645974   -106.15038   -6668.4992    4.3417423    4.3417423    4.3417423   -6668.4992   -12251.255   -3403.5974   -4350.6453    4515.5584    18982.103   -13593.543    81.844996 
   91500     471.8456   -106.58819   0.42693582   -106.16125   -26317.374    4.3550981    4.3550981    4.3550981   -26317.374   -41779.809     11356.66   -48528.972     11475.22    9733.1733    -18045.06    82.602619 
   91600     1608.108    -107.5962    1.4550499   -106.14116    19669.878    4.3407916    4.3407916    4.3407916    19669.878    17353.483    23301.162     18354.99   -3251.6239   -12587.209    8984.6367    81.791243 
   91700    1384.9174   -107.39945    1.2531024   -106.14635   -22229.127     4.342726     4.342726     4.342726   -22229.127   -17653.777    -9135.588   -39898.015   -625.49397    27119.526   -14898.717    81.900638 
   91800    740.36612   -106.81635   0.66989883   -106.14646    8965.8191     4.340536     4.340536     4.340536    8965.8191   -1185.6278     30545.93   -2462.8446    7188.9802   -6644.0346   -6238.1443    81.776793 
   91900    1528.8865   -107.52408    1.3833686   -106.14071   -6913.5092    4.3514231    4.3514231    4.3514231   -6913.5092   -8644.0041   -5487.0991   -6609.4244   -15440.587   -5204.2692    19946.155    82.393687 
   92000    1084.6436   -107.12809    0.9814083   -106.14668   -7033.0504    4.3476518    4.3476518    4.3476518   -7033.0504    567.95854   -14733.186   -6933.9236     9741.569    18766.875   -27574.225    82.179647 
   92100    1167.8031   -107.19521    1.0566528   -106.13855    21081.611    4.3264023    4.3264023    4.3264023    21081.611    15961.674    10723.415    36559.745   -6186.4475   -6333.8767    1389.3633    80.980546 
   92200     1279.686   -107.30481    1.1578868   -106.14692   -8859.3755    4.3502123    4.3502123    4.3502123   -8859.3755   -6733.6276   -27622.641     7778.142   -11437.871   -382.63688    13180.588    82.324927 
   92300     1217.028   -107.24577    1.1011925   -106.14458   -20531.028    4.3523019    4.3523019    4.3523019   -20531.028     9398.213   -31397.446   -39593.852     16121.85    16576.985   -30632.906    82.443616 
   92400    1178.0821   -107.20757    1.0659535   -106.14162    16979.204    4.3357821    4.3357821    4.3357821    16979.204    2952.8328   -2639.6072    50624.388   -23859.698    8157.1641    9291.6831    81.508398 
   92500    1394.1369   -107.40385    1.2614444   -106.14241    11780.553    4.3419846    4.3419846    4.3419846    11780.553    5995.8903   -29768.856    59114.625    1782.1798    253.66123    521.06354    81.858701 
   92600    881.55358   -106.94738   0.79764821   -106.14973   -4034.2407    4.3563587    4.3563587    4.3563587   -4034.2407     -20701.6   -24818.427    33417.305    -2483.249    13111.032   -31440.428    82.674368 
   92700    1376.6041    -107.3769    1.2455803   -106.13132    4076.8189    4.3562027    4.3562027    4.3562027    4076.8189    918.83235   -22710.991    34022.616   -21793.465    4156.9615    10148.649    82.665488 
   92800    1476.6163    -107.4658    1.3360735   -106.12973    8289.6346    4.3357623    4.3357623    4.3357623    8289.6346    29785.956   -14089.085    9172.0328    9386.9144     -13524.7   -21023.459    81.507279 
   92900    581.86224   -106.67517   0.52648118   -106.14869    21637.923    4.3372298    4.3372298    4.3372298    21637.923    7550.2376   -14238.572    71602.103   -27737.683    19796.411   -16730.317    81.590067 
   93000    1697.6801   -107.67074    1.5360966   -106.13464   -6819.2706    4.3602768    4.3602768    4.3602768   -6819.2706    14291.261   -33514.835   -1234.2373   -71.171778   -19012.339    4037.3884    82.897641 
   93100    1010.0619   -107.05573   0.91392527   -106.14181    3191.6447    4.3501672    4.3501672    4.3501672    3191.6447    3168.1095   -37672.274    44079.098   -12775.088   -12468.989   -23351.862    82.322364 
   93200    1147.7656   -107.17739    1.0385224   -106.13887    515.61962     4.331005     4.331005     4.331005    515.61962    3818.4545   -15490.011    13218.416     -32865.3    10919.144   -5643.3822     81.23928 
   93300    1345.5272   -107.36438    1.2174612   -106.14691     19875.29    4.3408417    4.3408417    4.3408417     19875.29    9649.4304   -4328.4776    54304.916     8637.739   -3500.9847    6799.8363    81.794072 
   93400    962.66805   -107.02352   0.87104228   -106.15247   -23226.972    4.3608345    4.3608345    4.3608345   -23226.972   -30251.634   -59041.661    19612.378   -40023.057     3498.083   -24261.599    82.929453 
   93500     1648.612   -107.62587    1.4916988   -106.13417    9894.6127    4.3442569    4.3442569    4.3442569    9894.6127    4577.3295    4047.4175    21059.091    2908.4652    14171.835    12372.411    81.987287 
   93600    981.90198   -107.02662   0.88844555   -106.13817    3193.3083    4.3343387    4.3343387    4.3343387    3193.3083    2811.1184   -20420.257    27189.064   -21067.606   -16401.658    -4251.305    81.427019 
   93700    843.34004   -106.91801   0.76307179   -106.15493   -7400.2294    4.3445589    4.3445589    4.3445589   -7400.2294   -24224.318   -46743.127    48766.757   -30161.143    11006.619   -27882.749    82.004386 
   93800      1694.78   -107.68068    1.5334725    -106.1472    7443.7282    4.3492308    4.3492308    4.3492308    7443.7282     3204.684    8125.9518    11000.549    6544.7442   -3288.9833    12254.127    82.269217 
   93900    734.02278   -106.82102   0.66415924   -106.15686   -37259.668    4.3652279    4.3652279    4.3652279   -37259.668   -42259.289   -68650.706   -869.00917   -45159.548     -16110.4   -20059.299    83.180354 
   94000    1605.4711   -107.58983     1.452664   -106.13717   -2057.6725    4.3396786    4.3396786    4.3396786   -2057.6725    3924.8286   -5495.2164   -4602.6297    1665.8528    268.95582   -18454.378    81.728342 
   94100    1114.8784   -107.14877    1.0087654      -106.14    19562.725    4.3310331    4.3310331    4.3310331    19562.725    5052.2106   -12190.734    65826.699   -17807.298    7334.9455    12178.815    81.240857 
   94200    951.94589   -107.00995   0.86134065   -106.14861   -41159.045    4.3606401    4.3606401    4.3606401   -41159.045   -27254.373   -59954.556   -36268.207   -28305.043   -14107.975   -32978.529    82.918366 
   94300    1842.8266   -107.79241    1.6674283   -106.12498    9455.1177    4.3531476    4.3531476    4.3531476    9455.1177   -5550.1796   -6452.6786    40368.211    13426.415    5756.9668     7469.998    82.491688 
   94400    723.05967   -106.78705   0.65423959   -106.13281    -15965.47    4.3556886    4.3556886    4.3556886    -15965.47   -1401.6715   -64123.799     17629.06   -34325.161    1607.4643   -17298.982    82.636225 
   94500    1421.9111   -107.41261     1.286575   -106.12603   -9087.9714    4.3424566    4.3424566    4.3424566   -9087.9714    5859.6606   -19047.714   -14075.861    8192.8472   -2881.4621   -11250.949    81.885397 
   94600    1288.7343   -107.29745    1.1660739   -106.13137    24114.985    4.3355769    4.3355769    4.3355769    24114.985    28603.902   -1370.8476    45111.901   -9410.9502    464.18582    2464.8676    81.496823 
   94700    993.80673   -107.04612   0.89921722   -106.14691   -20532.457    4.3568731    4.3568731    4.3568731   -20532.457    10194.351   -46236.828   -25554.895   -21918.858    1384.7992   -11515.696    82.703663 
   94800    1300.9017   -107.31319    1.1770832    -106.1361    17054.759     4.344704     4.344704     4.344704    17054.759     15841.48   -895.23409     36218.03    15784.937   -19822.311   -1988.4479    82.012599 
   94900    959.92156   -107.00855    0.8685572   -106.13999    12936.306    4.3423415    4.3423415    4.3423415    12936.306    35508.903   -37543.589    40843.602   -25859.572    4085.5588    394.05945    81.878887 
   95000    1410.1712   -107.40657    1.2759526   -106.13061   -10529.277    4.3495435    4.3495435    4.3495435   -10529.277    21830.372   -37438.209   -15979.993   -7072.6938   -13261.516   -2102.5715    82.286964 
   95100    1063.6143   -107.09349   0.96238056   -106.13111    28743.169     4.338037     4.338037     4.338037    28743.169    58238.597   -14365.848    42356.757    451.86246   -12589.411   -704.63277    81.635631 
   95200    977.73897   -107.02773   0.88467877   -106.14305    -33866.44    4.3561152    4.3561152    4.3561152    -33866.44   -38572.006   -72201.203    9173.8889   -27739.936    3554.3505     -2727.89    82.660508 
   95300    1796.7651   -107.75344    1.6257508   -106.12769    14308.992    4.3389181    4.3389181    4.3389181    14308.992     52638.37   -20331.558    10620.164    3790.7363   -4230.1037    2273.5289    81.685384 
   95400    849.14998   -106.91586   0.76832875   -106.14753   -2420.8759    4.3347891    4.3347891    4.3347891   -2420.8759    -16510.89   -50558.956    59807.218   -18291.313    4815.4101    2496.5351    81.452406 
   95500    1164.0017   -107.20238    1.0532132   -106.14917   -26529.934    4.3549806    4.3549806    4.3549806   -26529.934   -14356.551   -45856.952   -19376.299    -3546.054    18928.217   -1253.6696    82.595936 
   95600    1420.7404   -107.42549    1.2855158   -106.13998    6534.7372    4.3463682    4.3463682    4.3463682    6534.7372    28011.266   -20110.128    11703.073   -5558.7411   -3405.0649    -3100.004     82.10688 
   95700    731.56631   -106.81235   0.66193657   -106.15041    -22786.98    4.3458295    4.3458295    4.3458295    -22786.98   -47740.523   -66780.115    46159.697   -2322.0977    12236.199    8059.3033    82.076355 
   95800    1805.2363   -107.76326    1.6334157   -106.12985    9140.4155    4.3366599    4.3366599    4.3366599    9140.4155    24963.803   -68.932094    2526.3753    7155.6133     144.4592   -3414.8331    81.557909 
   95900    904.50187   -106.96297    0.8184123   -106.14456   -21655.261    4.3483297    4.3483297    4.3483297   -21655.261   -33357.532   -52417.402    20809.151   -7010.0115   -9349.0932   -3599.5239    82.218095 
   96000    1007.8626   -107.05181   0.91193529   -106.13987   -11395.032     4.352988     4.352988     4.352988   -11395.032   -15972.521   -47098.755    28886.179     19666.08    6442.4305    1578.4744    82.482615 
   96100    1646.8118   -107.61482    1.4900699   -106.12475    15578.631    4.3397165    4.3397165    4.3397165    15578.631    34138.659   -16848.272    29445.505   -14628.846   -12907.967   -2017.8876    81.730483 
   96200    508.49818   -106.60647   0.46009984   -106.14637   -25448.805    4.3499908    4.3499908    4.3499908   -25448.805   -19966.771   -78714.151    22334.507    7673.7462   -1548.4388   -302.44654    82.312353 
   96300    1774.5937   -107.73203    1.6056896   -106.12634    4029.5221    4.3489728    4.3489728    4.3489728    4029.5221    5478.0455   -21790.483    28401.004    5289.7564    3725.7091   -5724.2101    82.254576 
   96400    1009.3216   -107.05628   0.91325538   -106.14302    -11200.72    4.3494666    4.3494666    4.3494666    -11200.72    9455.1555   -55453.391    12396.074    -14524.38   -257.00593   -3705.8764    82.282599 
   96500    1026.9191   -107.06995   0.92917801   -106.14078   -13390.318    4.3432515    4.3432515    4.3432515   -13390.318   -8852.4145   -53008.891     21690.35    11212.917    -1663.071    5259.7153    81.930373 
   96600     1425.776    -107.4245    1.2900721   -106.13443    14598.819    4.3427327    4.3427327    4.3427327    14598.819    53401.248   -14129.313    4524.5215   -7003.9248     15822.92   -10328.417    81.901019 
   96700    926.88351   -106.98276   0.83866368   -106.14409   -9130.9925    4.3526514    4.3526514    4.3526514   -9130.9925   -30710.628    -52706.69    56024.341    -9138.455   -12057.333    2387.1344    82.463483 
   96800    1542.6723    -107.5259    1.3958423   -106.13005   -6311.1043    4.3473785    4.3473785    4.3473785   -6311.1043    19339.887    -25931.57   -12341.629    14484.777    14550.606    -1923.136     82.16415 
   96900     991.2553   -107.02863   0.89690863   -106.13172   -9467.2926    4.3427494    4.3427494    4.3427494   -9467.2926    11933.944    -30308.87   -10026.951   -16321.234    1666.1096   -6890.9044    81.901964 
   97000    1041.6434   -107.07409   0.94250085   -106.13159    8249.5868    4.3430286    4.3430286    4.3430286    8249.5868   -2394.3511   -22833.209     49976.32    4347.9897   -1150.7857    2329.5366    81.917758 
   97100    1451.1472    -107.4406    1.3130285   -106.12757    -3594.098    4.3532169    4.3532169    4.3532169    -3594.098     39649.06   -29903.489   -20527.866    7217.1897    1792.6517   -2470.2279    82.495626 
   97200    1303.6257   -107.30961    1.1795479   -106.13006    -10363.28    4.3494904    4.3494904    4.3494904    -10363.28     812.3994   -42049.558    10147.318   -9471.7055    4250.3165    1371.3352    82.283949 
   97300    880.05722   -106.93008   0.79629426   -106.13378    29003.048    4.3422213    4.3422213    4.3422213    29003.048    65323.531   -10292.502    31978.113    6663.1073   -5137.5601   -2988.9367    81.872088 
   97400    1305.6676   -107.31707    1.1813955   -106.13568   -22559.492    4.3495799    4.3495799    4.3495799   -22559.492    10357.724   -35736.736   -42299.463   -960.57057    -22880.38   -8593.8533    82.289027 
   97500    1319.5372   -107.32297    1.1939449   -106.12903    14794.377    4.3430057    4.3430057    4.3430057    14794.377     41295.61   -22818.309    25905.829   -3770.2857    10655.267    1004.9988    81.916465 
   97600    1213.3675   -107.23486    1.0978804   -106.13698   -13917.872    4.3549196    4.3549196    4.3549196   -13917.872     13049.01   -20812.012   -33990.614    4310.4919   -27005.594   -8325.7304    82.592464 
   97700     1272.416   -107.28307    1.1513088   -106.13176   -23659.032    4.3508595    4.3508595    4.3508595   -23659.032   -8537.7438   -31205.734   -31233.619   -1729.9088   -5975.2114   -5802.4668    82.361674 
   97800    1212.2413   -107.22635    1.0968614   -106.12949    18552.148    4.3377623    4.3377623    4.3377623    18552.148    29417.163    -4186.127    30425.407   -1748.5828    11809.337    3489.3852    81.620125 
   97900    1269.8646   -107.28073    1.1490002   -106.13173   -12238.485     4.356307     4.356307     4.356307   -12238.485    23044.974   -26500.481   -33259.946    6739.0088   -3395.5108   -5339.5793    82.671428 
   98000    1081.0145   -107.10868   0.97812465   -106.13055   -14285.491    4.3532581    4.3532581    4.3532581   -14285.491   -25177.065   -17542.669   -136.73982    6880.5337    4405.8587   -5689.7343    82.497967 
   98100     1306.051   -107.31015    1.1817424   -106.12841    2096.2125    4.3458945    4.3458945    4.3458945    2096.2125    32920.733   -18540.118   -8091.9776   -435.37367     18279.45    6585.5695    82.080036 
   98200    1233.1781   -107.24779    1.1158055   -106.13198    5577.7908    4.3455839    4.3455839    4.3455839    5577.7908    27739.853     -9239.25   -1767.2303     6311.516    7026.8094   -5346.0086    82.062439 
   98300    989.55809   -107.03632   0.89537296   -106.14095    2478.9721    4.3456641    4.3456641    4.3456641    2478.9721    7604.6613   -15813.744    15645.999    24464.374    14434.896   -773.77072    82.066981 
   98400     1146.893   -107.17381    1.0377329   -106.13608   -13454.576    4.3618379    4.3618379    4.3618379   -13454.576    24340.408   -17662.263   -47041.873    -2016.392    2807.1825   -6610.8176    82.986714 
   98500    950.54109   -106.99071   0.86006956   -106.13065    19386.929    4.3443283    4.3443283    4.3443283    19386.929    32388.291    562.30185    25210.194    28397.667    4271.5847   -5366.4832    81.991326 
   98600    1248.7714   -107.25325    1.1299146   -106.12333    19550.593    4.3447975    4.3447975    4.3447975    19550.593    9486.1411    28802.647     20362.99    17995.593    19322.976   -17154.654    82.017898 
   98700    881.14824   -106.92083   0.79728145   -106.12355   -4157.3638    4.3659346    4.3659346    4.3659346   -4157.3638    12344.659   -2795.2007    -22021.55    4338.0811   -8882.8921   -10014.036    83.220761 
   98800    1081.5354   -107.08943   0.97859599   -106.11084     6218.782    4.3606464    4.3606464    4.3606464     6218.782    95.096561   -6963.2816    25524.531    44262.535    5879.5727   -7661.6148    82.918726 
   98900    1260.6345   -107.24048    1.1406486   -106.09984    23120.851    4.3534025    4.3534025    4.3534025    23120.851    48135.689    22652.566   -1425.7009    436.32648     11078.92   -12900.182    82.506179 
   99000    712.45049   -106.76448   0.64464017   -106.11984    -1849.012    4.3472274    4.3472274    4.3472274    -1849.012    3482.3724   -2029.6447   -6999.7636    38605.618   -7366.1191   -7164.9459    82.155584 
   99100    1284.4092   -107.28741    1.1621604   -106.12525    17330.281    4.3531955    4.3531955    4.3531955    17330.281    2029.5403    24156.306    25804.997    25421.648    9605.0165   -3079.1986    82.494407 
   99200     1211.517   -107.22524     1.096206   -106.12903    10800.255    4.3597019    4.3597019    4.3597019    10800.255    14266.854    14465.995    3667.9148    6552.9421    5738.7868    -18430.62    82.864858 
   99300    713.70261   -106.77905   0.64577312   -106.13328    6109.3029    4.3593499    4.3593499    4.3593499    6109.3029   -19362.132    14918.573    22771.467    40953.346   -1699.7474    6696.2323    82.844788 
   99400    1887.7638   -107.81725    1.7080884   -106.10916    5738.5186     4.352846     4.352846     4.352846    5738.5186    13658.608    244.92011    3312.0273   -10793.384     24081.83   -9781.4269    82.474541 
   99500     674.2996   -106.73988   0.61012044   -106.12976    6607.8277    4.3407729    4.3407729    4.3407729    6607.8277   -15022.148    20584.413    14261.218    37615.843   -12496.716   -5516.4396    81.790184 
   99600    1323.9537   -107.33138    1.1979411   -106.13344   -5968.9015     4.351437     4.351437     4.351437   -5968.9015    -5594.088   -3438.5781   -8874.0384    4051.7601    7933.2627    6273.4372    82.394477 
   99700    1446.1634   -107.43565    1.3085191   -106.12713   -2836.2548    4.3566674    4.3566674    4.3566674   -2836.2548    1308.6815   -14359.258    4541.8115    1108.2523    7199.2309   -4808.2146    82.691947 
   99800    1020.7234   -107.05572   0.92357203   -106.13215   -10275.747    4.3482108    4.3482108    4.3482108   -10275.747   -41725.939    7455.9124    3442.7844    33017.591   -20265.406    1689.5935    82.211348 
   99900    1240.3937    -107.2474    1.1223343   -106.12507    16930.329     4.341077     4.341077     4.341077    16930.329    12581.672     9335.442    28873.874   -16881.572     10823.96    1625.4172    81.807378 
  100000    1189.0358   -107.21019    1.0758646   -106.13432   -16938.923     4.347176     4.347176     4.347176   -16938.923   -33271.448   -5350.2243   -12195.096    25060.369    2940.4945     3892.508    82.152669 
Loop time of 21.828 on 1 procs for 100000 steps with 8 atoms

Pair  time (%) = 6.86793 (31.4639)
Kspce time (%) = 5.26838 (24.1359)
Neigh time (%) = 0.0605631 (0.277456)
Comm  time (%) = 0.996673 (4.56604)
Outpt time (%) = 0.0237529 (0.108819)
Other time (%) = 8.61068 (39.4479)

Nlocal:    8 ave 8 max 8 min
Histogram: 1 0 0 0 0 0 0 0 0 0
Nghost:    2020 ave 2020 max 2020 min
Histogram: 1 0 0 0 0 0 0 0 0 0
Neighs:    2108 ave 2108 max 2108 min
Histogram: 1 0 0 0 0 0 0 0 0 0

Total # of neighbors = 2108
Ave neighs/atom = 263.5
Neighbor list builds = 714
Dangerous builds = 0
unfix 20
unfix 21
print "seeds:163699"
seeds:163699
