LAMMPS (10 Feb 2015)
# ---- initialize simulations
clear
units metal
dimension 3
boundary p p p
atom_style charge
atom_modify map array
# ---- create atoms
read_data structure.dat
  triclinic box = (0 0 0) to (15 15 15) with tilt (0 0 0)
  1 by 1 by 1 MPI processor grid
  reading atoms ...
  214 atoms
# ---- define interatomic potential
include potential.mod
mass 1 24.305
mass 2 15.999

group Mg type 1
107 atoms in group Mg
group O type 2
107 atoms in group O

set group Mg charge 2.0
  107 settings made for charge
set group O charge -2.0
  107 settings made for charge

variable R_cut equal 10

pair_style buck/coul/long ${R_cut}
pair_style buck/coul/long 10
pair_coeff 1 1 0.0 0.5 0.0 ${R_cut}
pair_coeff 1 1 0.0 0.5 0.0 10
pair_coeff 1 2 821.6 0.3242 0.0 ${R_cut}
pair_coeff 1 2 821.6 0.3242 0.0 10
pair_coeff 2 2 2274.0 0.149 27.88 ${R_cut}
pair_coeff 2 2 2274.0 0.149 27.88 10

kspace_style pppm 1.0e-5

neighbor 1.0 bin
neigh_modify every 1 delay 0 check yes
# ---- define settings
compute eng all pe/atom
compute eatoms all reduce sum c_eng
# ---- run minimization
reset_timestep 0
thermo 1
thermo_style custom step pe lx ly lz xy xz yz press pxx pyy pzz pxy pxz pyz c_eatoms
min_style cg
minimize 1e-20 1e-20 1000 100000
PPPM initialization ...
  G vector (1/distance) = 0.346155
  grid = 24 24 24
  stencil order = 5
  estimated absolute RMS force accuracy = 7.99964e-05
  estimated relative force accuracy = 5.55544e-06
  using double precision FFTs
  3d grid and FFT values/proc = 29791 13824
Neighbor list info ...
  1 neighbor list requests
  update every 1 steps, delay 0 steps, check yes
  master list distance cutoff = 11
Memory usage per processor = 7.83205 Mbytes
Step PotEng Lx Ly Lz Xy Xz Yz Press Pxx Pyy Pzz Pxy Pxz Pyz eatoms 
       0    -4051.742           15           15           15            0            0            0   -398819.62   -398575.43   -398575.43   -399308.02   -222.35986 -5.2968937e-10 -4.9454312e-10    -4051.742 
       1   -4069.2013           15           15           15            0            0            0   -399949.04   -399881.23   -399881.23   -400084.65   -15.253139 9.3584192e-11 6.6871349e-11   -4069.2013 
       2   -4077.1439           15           15           15            0            0            0   -399000.97   -398960.84   -398960.84   -399081.25    101.84678 -2.4339922e-10 -2.0646409e-10   -4077.1439 
       3   -4079.2274           15           15           15            0            0            0   -397020.63    -396968.4    -396968.4   -397125.08    135.02047 -3.0884926e-10 -9.795562e-11   -4079.2274 
       4   -4081.3206           15           15           15            0            0            0   -394843.06   -394841.78   -394841.78   -394845.62    48.306018 2.3763989e-10 1.8564259e-10   -4081.3206 
       5   -4083.4189           15           15           15            0            0            0   -387743.07   -387792.36   -387792.36   -387644.49   -62.548613 -1.6568141e-10 -9.4658478e-11   -4083.4189 
       6    -4084.574           15           15           15            0            0            0   -379511.38   -379536.05   -379536.05   -379462.04   -362.53296 -3.6091445e-10 -1.7450452e-10    -4084.574 
       7   -4086.2136           15           15           15            0            0            0   -379289.87   -379434.69   -379434.69   -379000.24   -796.59847 3.2264875e-10 7.6185462e-10   -4086.2136 
       8   -4091.2258           15           15           15            0            0            0   -371592.67   -372168.73   -372168.73   -370440.56   -1406.5186 -2.1369664e-10 3.7635442e-12   -4091.2258 
       9   -4098.1423           15           15           15            0            0            0   -358166.51   -359302.01   -359302.01   -355895.51    -1169.025 -7.8504881e-11 6.6635853e-10   -4098.1423 
      10   -4106.7048           15           15           15            0            0            0   -341040.24   -342098.67   -342098.67   -338923.37   -757.43842 7.9226157e-10 1.032465e-09   -4106.7048 
      11   -4116.8462           15           15           15            0            0            0   -327615.42   -328021.75   -328021.75   -326802.76   -1054.6698 -4.327071e-10 -1.8346734e-10   -4116.8462 
      12   -4127.6364           15           15           15            0            0            0   -305292.44   -304454.78   -304454.78   -306967.76   -1200.8989 4.8140059e-11 2.6074249e-10   -4127.6364 
      13   -4135.9729           15           15           15            0            0            0   -285058.92   -283423.79   -283423.79   -288329.18   -451.49492 -5.4392094e-10 -4.2483894e-10   -4135.9729 
      14   -4143.9113           15           15           15            0            0            0   -258777.39   -256295.21   -256295.21   -263741.75   -68.005654 -8.1429244e-11 2.9313354e-10   -4143.9113 
      15   -4150.3789           15           15           15            0            0            0   -230760.32   -226728.91   -226728.91   -238823.13    1097.0363 9.4180458e-10 1.7452857e-10   -4150.3789 
      16   -4155.5731           15           15           15            0            0            0   -198560.38   -194262.71   -194262.71   -207155.72    2430.3926 -2.9316816e-10 -8.5669657e-12   -4155.5731 
      17   -4160.9324           15           15           15            0            0            0   -174755.36   -169010.19   -169010.19   -186245.69    3822.5892 4.8333684e-11 -1.0975998e-09   -4160.9324 
      18   -4167.2982           15           15           15            0            0            0   -161211.35    -155254.2    -155254.2   -173125.67    6113.2985 -5.3120636e-10 1.8408849e-09   -4167.2982 
      19   -4173.1913           15           15           15            0            0            0   -159575.41   -154230.03   -154230.03   -170266.18    5306.3692 5.1302687e-10  -7.4985e-09   -4173.1913 
      20   -4178.2987           15           15           15            0            0            0   -154735.79   -150422.25   -150422.25   -163362.86    5155.5318 2.6443278e-09 1.1382306e-08   -4178.2987 
      21   -4183.0299           15           15           15            0            0            0   -146229.91   -140960.83   -140960.83   -156768.05    1323.3982 2.6558118e-05 2.9018426e-05   -4183.0299 
      22    -4186.134           15           15           15            0            0            0   -135373.86   -128753.67   -128753.67   -148614.24   -3756.6469 2.2429548e-05 1.7397569e-05    -4186.134 
      23   -4188.8919           15           15           15            0            0            0    -126762.2   -119258.45   -119258.45   -141769.71   -8298.8018 0.00016322654 0.0002262428   -4188.8919 
      24   -4190.1865           15           15           15            0            0            0   -127597.58   -121043.39    -121043.4   -140705.96   -8042.2495 -0.00051537662 0.0001986045   -4190.1865 
      25   -4191.5025           15           15           15            0            0            0   -124591.28   -118697.22   -118697.22    -136379.4   -9780.7792 -0.0011908298 0.00021915785   -4191.5025 
      26   -4193.5436           15           15           15            0            0            0   -117550.85      -112305   -112305.01   -128042.53    -15214.08 0.00020903421 0.00064072581   -4193.5436 
      27    -4195.535           15           15           15            0            0            0   -106659.79   -99946.351    -99946.35   -120086.66   -16173.671 -0.0021307552 -0.00099454947    -4195.535 
      28   -4196.8087           15           15           15            0            0            0   -98375.553   -90062.274   -90062.272   -115002.11   -16922.927 -0.0016067421 0.0014192516   -4196.8087 
      29   -4197.7975           15           15           15            0            0            0   -96556.344   -89264.855    -89264.86   -111139.32   -17203.944 4.8570601e-05 -0.0036385786   -4197.7975 
      30   -4198.5614           15           15           15            0            0            0   -94099.508   -86240.528   -86240.522   -109817.47   -17638.205 -0.0017402984 -0.00015941975   -4198.5614 
      31   -4199.3103           15           15           15            0            0            0   -92083.048   -82966.119   -82966.127    -110316.9   -18115.341 0.00080983657 -0.0010612729   -4199.3103 
      32   -4200.0716           15           15           15            0            0            0   -88512.992   -80041.841   -80041.847   -105455.29   -18016.336 -0.0014865579 -0.00026863409   -4200.0716 
      33   -4201.0491           15           15           15            0            0            0   -85011.262   -77811.319   -77811.319   -99411.147   -16105.645 -0.0032194025 -0.003050522   -4201.0491 
      34   -4201.6391           15           15           15            0            0            0   -81522.704    -73088.16   -73088.158   -98391.794    -15860.63   0.00269711 -0.0016073145   -4201.6391 
      35   -4202.3144           15           15           15            0            0            0   -77283.014   -67970.588   -67970.594   -95907.862   -15735.916 0.0023737747 -0.0015889609   -4202.3144 
      36   -4202.8239           15           15           15            0            0            0   -77512.642   -68817.819   -68817.819   -94902.287   -15759.672 -0.00046861639 -0.0055006127   -4202.8239 
      37   -4203.4103           15           15           15            0            0            0   -77490.591   -67627.203   -67627.199   -97217.372   -15509.175 -0.0024287149 -0.0070394153   -4203.4103 
      38   -4204.0767           15           15           15            0            0            0    -75970.86   -64944.957   -64944.955   -98022.667    -15721.77 -0.001943666 -0.0074426614   -4204.0767 
      39   -4204.7987           15           15           15            0            0            0   -73873.208   -63038.998   -63038.995    -95541.63   -16215.328 -0.0042443008 -0.008601214   -4204.7987 
      40   -4205.4494           15           15           15            0            0            0   -72212.914   -60897.972   -60897.986   -94842.783   -15644.337  -0.00344043 -0.011276488   -4205.4494 
      41   -4205.7706           15           15           15            0            0            0   -72067.976   -60311.497   -60311.493   -95580.937   -14885.179 -0.0098480456 -0.011382361   -4205.7706 
      42   -4206.2238           15           15           15            0            0            0   -71328.681   -59620.346   -59620.335   -94745.362   -14911.827 -0.0081782907 -0.012784821   -4206.2238 
      43   -4206.9203           15           15           15            0            0            0   -70161.204   -58159.666   -58159.666    -94164.28   -16021.673  -0.01273174 -0.020226667   -4206.9203 
      44   -4207.1608           15           15           15            0            0            0   -68979.532   -56672.938   -56672.937   -93592.722   -15701.345 -0.012645785 -0.018647631   -4207.1608 
      45   -4207.5509           15           15           15            0            0            0   -67182.931   -54732.359   -54732.395   -92084.039   -15325.889 -0.021662531 -0.026480803   -4207.5509 
      46   -4208.0747           15           15           15            0            0            0   -66277.104   -53821.586   -53821.611   -91188.114   -15932.662 -0.026145693 -0.031789621   -4208.0747 
      47   -4208.3927           15           15           15            0            0            0   -65289.269   -52376.914   -52376.964   -91113.929   -16525.767 -0.026487979 -0.040624702   -4208.3927 
      48   -4208.7238           15           15           15            0            0            0   -64363.338   -50846.701   -50846.674   -91396.641   -18268.111 -0.027483081 -0.041204334   -4208.7238 
      49   -4209.1679           15           15           15            0            0            0   -64121.158   -50842.859   -50842.871   -90677.745   -19760.376 -0.024237021 -0.050759984   -4209.1679 
      50   -4209.6414           15           15           15            0            0            0   -63145.216   -49971.444   -49971.388   -89492.817    -19496.11 -0.010061683  -0.04339451   -4209.6414 
      51   -4209.9751           15           15           15            0            0            0   -62294.431   -48887.028   -48887.079   -89109.185   -19872.599  0.011251293 -0.047716277   -4209.9751 
      52   -4210.2359           15           15           15            0            0            0   -62131.224   -48231.274   -48231.147   -89931.253     -21277.9   0.01915069 -0.065190312   -4210.2359 
      53   -4210.3936           15           15           15            0            0            0   -61315.042   -46946.052   -46946.147   -90052.926   -21570.128  0.027883647 -0.087790934   -4210.3936 
      54   -4210.6121           15           15           15            0            0            0   -60454.671   -45867.608   -45867.279   -89629.126   -20624.913  0.035737061  -0.14105016   -4210.6121 
      55   -4210.7698           15           15           15            0            0            0   -60150.082   -45462.529   -45462.918     -89524.8   -20971.014  0.028758884  -0.20397982   -4210.7698 
      56   -4210.9584           15           15           15            0            0            0   -59793.109   -44161.843    -44161.19   -91056.295   -21976.943    0.0279951  -0.31655536   -4210.9584 
      57   -4211.1889           15           15           15            0            0            0    -59497.31    -42364.01     -42364.9    -93763.02   -21517.074   0.02839054  -0.52217595   -4211.1889 
      58   -4211.4849           15           15           15            0            0            0   -60209.166   -42412.527   -42411.444   -95803.526   -20031.153 -0.046438056  -0.78663046   -4211.4849 
      59   -4211.7646           15           15           15            0            0            0   -60233.508   -42748.325   -42751.412   -95200.788   -19688.628 -0.064771625   -1.0554794   -4211.7646 
      60   -4212.0834           15           15           15            0            0            0   -59433.772   -41750.327   -41747.112   -94803.876   -18608.092   -0.1454869   -1.5133689   -4212.0834 
      61   -4212.4186           15           15           15            0            0            0    -57745.45   -39224.093   -39230.739   -94781.517   -17387.853   -0.1811264   -2.0134622   -4212.4186 
      62   -4212.7615           15           15           15            0            0            0   -55357.133   -36521.542   -36510.368   -93039.488   -16791.046  -0.27732565   -2.7374239   -4212.7615 
      63   -4213.1771           15           15           15            0            0            0   -53071.594   -35001.685   -35022.773   -89190.325   -16320.639  -0.23171597   -3.8866471   -4213.1771 
      64   -4213.5623           15           15           15            0            0            0   -51390.682    -34112.85   -34086.926    -85972.27   -14454.089  -0.38026888   -5.3683198   -4213.5623 
      65   -4213.8759           15           15           15            0            0            0   -50291.881   -33078.867   -33111.924   -84684.851   -12482.871  -0.31311904    -7.145698   -4213.8759 
      66   -4214.1926           15           15           15            0            0            0   -50137.637   -32862.418   -32827.041   -84723.453   -11917.561  -0.63253403   -9.1908792   -4214.1926 
      67   -4214.3847           15           15           15            0            0            0   -49640.087   -31831.375   -31869.895   -85218.991   -12140.024  -0.16543852   -11.543642   -4214.3847 
      68   -4214.5383           15           15           15            0            0            0   -49838.645    -31813.74   -31762.336   -85939.859   -11821.504   0.28252342   -14.468267   -4214.5383 
      69   -4214.6578           15           15           15            0            0            0   -50527.827   -32577.276    -32646.51   -86359.693   -11174.767   0.65432585     -18.4122   -4214.6578 
      70   -4214.7872           15           15           15            0            0            0    -51445.72   -33606.076   -33480.863   -87250.222   -10184.371   0.44100524   -25.415944   -4214.7872 
      71   -4214.9161           15           15           15            0            0            0   -51407.115   -33028.798   -33159.214   -88033.333   -9919.5375      2.22268   -36.050129   -4214.9161 
      72   -4215.0391           15           15           15            0            0            0   -51042.159   -32732.377   -32526.639    -87867.46   -9563.6588    3.2577819   -48.556501   -4215.0391 
      73    -4215.209           15           15           15            0            0            0   -50401.391     -32267.1   -32434.755   -86502.318   -8893.9463    14.415468   -71.550291    -4215.209 
      74   -4215.4019           15           15           15            0            0            0   -49217.847   -31509.153   -31371.076   -84773.312   -7623.7598    30.812934   -100.66397   -4215.4019 
      75   -4215.6014           15           15           15            0            0            0   -47414.646   -29336.899   -29386.355   -83520.684   -6051.4152    47.367898   -134.78523   -4215.6014 
      76   -4215.8669           15           15           15            0            0            0   -45614.049   -27714.079   -27612.886   -81515.184   -4816.7906    62.607234   -199.86238   -4215.8669 
      77   -4216.2038           15           15           15            0            0            0    -43308.45   -25982.383   -25989.503   -77953.464   -1882.1863    77.094979   -267.07452   -4216.2038 
      78   -4216.5766           15           15           15            0            0            0   -41053.573   -24558.834    -24485.47   -74116.415   -8.4730673    131.50668   -292.61583   -4216.5766 
      79   -4217.0143           15           15           15            0            0            0   -39913.699   -24086.928   -23899.573   -71754.596    335.50952    189.92921   -291.94272   -4217.0143 
      80   -4217.3909           15           15           15            0            0            0    -38397.18   -23555.313   -23258.582   -68377.647    1806.6905    226.72731   -299.12751   -4217.3909 
      81   -4217.7767           15           15           15            0            0            0   -36583.424    -23011.53   -22610.063   -64128.679    2059.4313    187.33488   -416.37772   -4217.7767 
      82   -4218.2007           15           15           15            0            0            0   -34862.097   -22010.112   -21618.788   -60957.391    3482.4155    57.884743   -451.13606   -4218.2007 
      83   -4218.5283           15           15           15            0            0            0   -33563.705   -21047.365   -20245.604   -59398.147    4785.0125   -93.900283   -301.72682   -4218.5283 
      84   -4218.8392           15           15           15            0            0            0   -32589.561     -20359.7   -19696.124   -57712.859    5918.1087    -217.7218     -249.677   -4218.8392 
      85   -4219.0519           15           15           15            0            0            0   -32745.645   -20669.041   -20180.829   -57387.065    5585.7481   -146.68139   -359.20367   -4219.0519 
      86   -4219.2347           15           15           15            0            0            0   -32582.828    -20407.68   -19706.768   -57634.035    5041.2905   -98.194541   -347.61145   -4219.2347 
      87   -4219.5325           15           15           15            0            0            0   -32454.253   -19878.141   -19102.837   -58381.781     5086.443   -30.897902    -243.4912   -4219.5325 
      88     -4219.84           15           15           15            0            0            0   -32528.159   -19913.956   -19100.648   -58569.873    5480.0757   -36.265629   -103.88724     -4219.84 
      89   -4220.1512           15           15           15            0            0            0   -32609.641    -20110.15   -19174.333    -58544.44    5928.3716   -68.351956    93.396195   -4220.1512 
      90   -4220.4344           15           15           15            0            0            0   -32824.297   -20503.159   -19606.575   -58363.158    6066.3023   -48.930706    169.22005   -4220.4344 
      91   -4220.7331           15           15           15            0            0            0   -32679.678   -20682.021   -20107.398   -57249.615     5988.415    153.85136    219.05281   -4220.7331 
      92   -4221.1619           15           15           15            0            0            0   -32119.725   -20468.973   -19860.631   -56029.571    6222.9698    367.21963    392.67492   -4221.1619 
      93    -4221.503           15           15           15            0            0            0   -31668.219   -20448.912   -19901.249   -54654.497    7202.4183    291.07227    799.54226    -4221.503 
      94   -4221.9096           15           15           15            0            0            0   -30410.273   -19998.891    -19620.66   -51611.268    8023.9706    104.83912    1021.9053   -4221.9096 
      95   -4222.3628           15           15           15            0            0            0   -29286.369    -19298.27    -19033.34   -49527.497    7661.8622   -248.19987    492.43744   -4222.3628 
      96   -4222.7428           15           15           15            0            0            0   -28593.186   -18963.516   -18991.381   -47824.663    7744.1876   -884.61009    72.798724   -4222.7428 
      97   -4223.3793           15           15           15            0            0            0   -28957.522   -19506.229   -20153.272   -47213.064    8553.4911   -1086.6971    554.09487   -4223.3793 
      98   -4224.1995           15           15           15            0            0            0   -29883.093   -20656.063   -21490.908    -47502.31    9057.3305    -1352.422    748.96695   -4224.1995 
      99   -4224.9067           15           15           15            0            0            0   -31575.766    -22959.05   -22920.149   -48848.099    8520.6857   -1808.4847    736.24151   -4224.9067 
     100   -4225.3468           15           15           15            0            0            0   -32747.594   -23824.468   -24431.381   -49986.933    7718.5926   -2169.6873    766.44878   -4225.3468 
     101   -4225.9918           15           15           15            0            0            0     -34628.1    -25064.43   -26820.956   -51998.913     7066.368   -2624.8655    528.50736   -4225.9918 
     102   -4226.6738           15           15           15            0            0            0   -36888.921   -27574.065   -29201.851   -53890.846    6154.6914   -2771.0715    910.31156   -4226.6738 
     103   -4227.3402           15           15           15            0            0            0   -38437.107   -29261.112   -31124.006   -54926.202    5801.9553   -3068.7969    1411.4471   -4227.3402 
     104   -4227.7717           15           15           15            0            0            0   -38319.873   -29124.086   -31042.262    -54793.27    6455.5239   -3202.1999    1399.3069   -4227.7717 
     105   -4228.3147           15           15           15            0            0            0   -37832.317    -28922.47   -30262.648   -54311.835     6077.074    -2904.111    1495.0798   -4228.3147 
     106   -4228.5761           15           15           15            0            0            0   -37638.774   -28630.714   -30496.269   -53789.337    5284.4165   -2943.4412    1752.2203   -4228.5761 
     107   -4228.9309           15           15           15            0            0            0   -37371.805   -27958.504   -31247.131   -52909.781    4720.1531   -2718.5645    1942.8913   -4228.9309 
     108   -4229.1892           15           15           15            0            0            0   -37135.842    -27040.29   -31376.123   -52991.113    5269.1515   -2372.8436    1941.3643   -4229.1892 
     109   -4229.5915           15           15           15            0            0            0   -36894.494   -26367.741   -31598.793   -52716.948    4537.3185   -1969.1419    2153.8475   -4229.5915 
     110   -4230.2073           15           15           15            0            0            0    -37013.29   -25928.073    -32859.99   -52251.806    3769.0915    -1818.445    2534.6315   -4230.2073 
     111   -4230.5639           15           15           15            0            0            0   -37445.257   -25385.752   -35017.351   -51932.667    3284.0341   -1784.2071    2617.2713   -4230.5639 
     112   -4231.0178           15           15           15            0            0            0   -37655.884   -23650.297   -37559.073   -51758.281    2546.2165   -1800.8514    2953.4926   -4231.0178 
     113   -4231.9225           15           15           15            0            0            0   -37872.879   -23403.674   -38622.328   -51592.634     1660.587   -2101.6126    3651.1389   -4231.9225 
     114   -4232.4371           15           15           15            0            0            0   -37679.984   -23820.178   -37997.301   -51222.473    1754.2182   -2138.3107    4033.9649   -4232.4371 
     115   -4232.7222           15           15           15            0            0            0   -36782.499   -22899.539   -37010.992   -50436.967    2117.4133   -2113.2897    4578.6778   -4232.7222 
     116   -4233.1703           15           15           15            0            0            0    -35782.19   -21724.237   -36979.889   -48642.444    1598.6326   -2533.3988      5572.69   -4233.1703 
     117   -4233.5471           15           15           15            0            0            0   -35393.725   -21514.067   -37256.961   -47410.146    1082.2102   -2930.6262    6326.5489   -4233.5471 
     118   -4233.9191           15           15           15            0            0            0   -34367.618    -20969.57    -36188.43   -45944.853    1503.5519   -3142.0392    7564.1357   -4233.9191 
     119   -4234.4022           15           15           15            0            0            0   -33235.006   -21008.213   -34382.646   -44314.159    1459.4614   -3163.6731    8823.3232   -4234.4022 
     120   -4234.8227           15           15           15            0            0            0   -31986.222   -20165.612   -32792.981   -43000.075    755.62395   -3064.7281    9640.1025   -4234.8227 
     121     -4235.09           15           15           15            0            0            0   -30842.286   -18859.899    -31245.67    -42421.29    979.54637   -2768.6908    10042.767     -4235.09 
     122   -4235.4256           15           15           15            0            0            0    -29812.61   -18038.773   -30017.011   -41382.045    926.30689   -2560.5082    9963.6712   -4235.4256 
     123   -4235.7699           15           15           15            0            0            0   -28725.785   -17231.924   -28526.779   -40418.651     1066.506   -2519.6858    10026.497   -4235.7699 
     124   -4236.0599           15           15           15            0            0            0   -28054.436   -16768.297   -27682.969   -39712.043    1488.9589   -2454.9183    10522.312   -4236.0599 
     125    -4236.322           15           15           15            0            0            0   -27431.326   -16679.681    -26773.01   -38841.285    1066.7066   -2321.0225    10907.691    -4236.322 
     126   -4236.6196           15           15           15            0            0            0   -26468.946   -15287.901   -25828.968    -38289.97    1194.3214     -2187.38    11552.966   -4236.6196 
     127   -4236.9505           15           15           15            0            0            0   -26005.885   -13921.439   -26475.589   -37620.626    1244.4089   -2283.4305    11962.309   -4236.9505 
     128   -4237.2742           15           15           15            0            0            0   -25727.813    -13639.28   -26539.556   -37004.602    1287.7578   -2296.2667    11992.274   -4237.2742 
     129    -4237.596           15           15           15            0            0            0   -25451.488   -13619.338   -26302.508   -36432.618    1342.0573   -2260.6933    12276.098    -4237.596 
     130   -4237.9111           15           15           15            0            0            0   -25096.597   -13508.241   -25745.495   -36036.056    1419.2844   -2096.2534    12174.822   -4237.9111 
     131   -4238.1577           15           15           15            0            0            0   -24272.718   -12848.768   -24505.124   -35464.262    771.06319   -1243.8374    12035.826   -4238.1577 
     132   -4238.3019           15           15           15            0            0            0   -23553.399   -12395.104   -23038.438   -35226.656     267.1635   -647.05877    12082.451   -4238.3019 
     133   -4238.5238           15           15           15            0            0            0   -23637.239   -12629.821   -22569.203   -35712.693    421.23898   -620.13734     12289.86   -4238.5238 
     134   -4238.7094           15           15           15            0            0            0   -23525.253   -12465.112   -22081.495   -36029.152    399.79533    -279.0513    12151.052   -4238.7094 
     135   -4238.9001           15           15           15            0            0            0   -23318.458   -11770.891   -21828.649   -36355.834    547.01776   -55.189001    11594.448   -4238.9001 
     136   -4239.1317           15           15           15            0            0            0    -22961.98   -11113.822   -21059.675   -36712.442    297.21825   -41.489997    11184.359   -4239.1317 
     137   -4239.4352           15           15           15            0            0            0   -22849.293   -11826.143   -18862.151   -37859.585   -243.64082    529.31218    10677.997   -4239.4352 
     138   -4239.7857           15           15           15            0            0            0   -23156.365   -12336.916   -17749.511   -39382.669   -840.35555     880.4697    10084.085   -4239.7857 
     139    -4240.061           15           15           15            0            0            0   -23464.004   -12165.445   -18176.093   -40050.475   -1287.3667    979.86427    9839.0278    -4240.061 
     140   -4240.2978           15           15           15            0            0            0   -24113.696   -12276.925   -19293.118   -40771.044     -1780.54     1282.809    9385.6023   -4240.2978 
     141   -4240.4744           15           15           15            0            0            0   -24422.169   -12188.575   -20184.819   -40893.114   -1996.2616    1458.2036    9167.9763   -4240.4744 
     142   -4240.6405           15           15           15            0            0            0   -24325.238   -12396.613   -20254.019   -40325.082   -1790.3252    1519.7603    8742.7621   -4240.6405 
     143   -4240.8023           15           15           15            0            0            0   -24307.608   -12587.656   -20785.589   -39549.577   -1935.7676    1774.0228    8342.8804   -4240.8023 
     144   -4240.9883           15           15           15            0            0            0   -24617.553   -12659.277   -21599.372   -39594.009   -1514.8928    1819.8615    7789.7715   -4240.9883 
     145   -4241.1936           15           15           15            0            0            0   -25242.212   -13188.727   -22976.962   -39560.947   -1512.0835     1640.848    7453.5926   -4241.1936 
     146   -4241.4641           15           15           15            0            0            0   -26275.305    -14648.82   -24845.567   -39331.527   -1726.1166    1740.1974    7524.1844   -4241.4641 
     147   -4241.8219           15           15           15            0            0            0       -27434   -16330.611   -26316.584   -39654.806   -2106.1832     2390.481    7593.7177   -4241.8219 
     148   -4242.2882           15           15           15            0            0            0   -28268.915   -17405.007   -27206.553   -40195.186     -2908.64    2866.5706    7740.1425   -4242.2882 
     149   -4242.7685           15           15           15            0            0            0    -29149.46   -18804.559   -28324.292   -40319.527   -3706.1852    3447.0985    7312.1949   -4242.7685 
     150   -4243.3135           15           15           15            0            0            0   -29721.899   -19933.035   -29103.126   -40129.535     -4236.82    3282.7399     7215.605   -4243.3135 
     151   -4243.8375           15           15           15            0            0            0   -29374.577    -19658.38   -28209.151     -40256.2   -5234.4937    2810.3016    7486.0101   -4243.8375 
     152   -4244.5104           15           15           15            0            0            0   -28407.229   -17835.028   -26737.246   -40649.414   -5635.3505     2632.986    6681.4435   -4244.5104 
     153    -4245.139           15           15           15            0            0            0   -28001.882   -17386.815   -26775.308   -39843.523   -5995.9133    2663.2489    5141.6713    -4245.139 
     154    -4245.674           15           15           15            0            0            0   -27688.088   -17200.746   -27056.493   -38807.024   -5979.5809    2364.2019    4086.3614    -4245.674 
     155   -4246.3629           15           15           15            0            0            0   -27680.813   -17254.212   -27574.309   -38213.917   -6216.8174    1534.9742    3729.2956   -4246.3629 
     156   -4246.9265           15           15           15            0            0            0   -27833.789   -17666.495   -27957.298   -37877.573   -6286.6258    1343.6505    3446.5771   -4246.9265 
     157   -4247.2764           15           15           15            0            0            0   -27956.362   -17439.802   -27978.991   -38450.292   -6305.6141    829.96402    3188.1348   -4247.2764 
     158   -4247.5864           15           15           15            0            0            0   -28053.101   -18115.783   -27845.351   -38198.168   -6140.7722    500.65815    3097.4096   -4247.5864 
     159   -4247.8536           15           15           15            0            0            0   -27720.872   -18527.073   -27702.193    -36933.35   -5940.1861     309.4088    2390.9772   -4247.8536 
     160    -4248.042           15           15           15            0            0            0   -27146.626   -18455.859   -27710.142   -35273.877   -5861.2572     42.81171    2210.2581    -4248.042 
     161   -4248.1944           15           15           15            0            0            0   -26686.306   -18147.871   -27320.778   -34590.269   -5797.4309   -126.42105    2336.6735   -4248.1944 
     162   -4248.3469           15           15           15            0            0            0   -25889.133    -17821.82   -26534.681   -33310.898   -5936.3038   -152.07548    2447.7166   -4248.3469 
     163   -4248.5239           15           15           15            0            0            0   -25001.695    -17316.84     -25463.6   -32224.644   -5938.5878   -164.61726    2215.3023   -4248.5239 
     164   -4248.6786           15           15           15            0            0            0   -24502.014   -17531.702   -24779.702   -31194.639   -5549.4446   -343.06719    2229.9081   -4248.6786 
     165   -4248.8602           15           15           15            0            0            0   -24199.205   -18127.194   -24278.165   -30192.256    -5390.662   -673.55758    2158.7392   -4248.8602 
     166   -4249.0929           15           15           15            0            0            0    -24047.68   -18965.274   -24205.801   -28971.964   -5550.1224   -695.28898    2112.7999   -4249.0929 
     167   -4249.2796           15           15           15            0            0            0   -24260.153    -19112.99   -24746.705   -28920.765   -5750.5155   -336.66674    2231.3095   -4249.2796 
     168   -4249.4057           15           15           15            0            0            0   -24275.285    -19355.81   -25058.089   -28411.955   -5953.9912    15.089675    2440.8331   -4249.4057 
     169   -4249.5147           15           15           15            0            0            0   -24286.633   -19767.326    -24916.27   -28176.304   -6009.5264   -98.760858    2450.5441   -4249.5147 
     170   -4249.6209           15           15           15            0            0            0   -24344.333   -20282.378   -24886.153   -27864.469   -5950.6696   -307.02052    2344.6228   -4249.6209 
     171   -4249.7197           15           15           15            0            0            0   -24385.554   -20655.089   -24613.777   -27887.798   -5777.6048   -100.54504    2294.1814   -4249.7197 
     172   -4249.7955           15           15           15            0            0            0   -24226.228   -20781.678   -24388.842   -27508.163   -5774.2362    71.012718    2459.8672   -4249.7955 
     173   -4249.8499           15           15           15            0            0            0   -24219.367   -20919.182   -24106.448    -27632.47   -5716.2414    123.59186    2588.8321   -4249.8499 
     174    -4249.904           15           15           15            0            0            0   -24157.651   -21103.676   -23988.549   -27380.727   -5689.3627    213.50947    2605.5022    -4249.904 
     175    -4249.954           15           15           15            0            0            0   -24163.838   -21334.859   -23787.114   -27369.541   -5736.4975    411.24862    2519.4024    -4249.954 
     176   -4250.0023           15           15           15            0            0            0   -24158.813   -21525.903   -23748.038   -27202.497   -5820.9114    432.93343    2531.0306   -4250.0023 
     177    -4250.048           15           15           15            0            0            0   -24228.005   -21704.134   -23698.982   -27280.901   -5947.5136    409.66075    2487.6211    -4250.048 
     178   -4250.0889           15           15           15            0            0            0   -24046.978   -21672.427   -23471.566   -26996.942   -6073.2654    516.47966    2595.9457   -4250.0889 
     179   -4250.1237           15           15           15            0            0            0   -23892.032   -21556.951   -23283.894    -26835.25   -6262.5885    816.75374    2771.8394   -4250.1237 
     180   -4250.1534           15           15           15            0            0            0   -23679.378   -21352.924   -23272.762   -26412.449   -6374.0468     1016.055    2949.3418   -4250.1534 
     181    -4250.183           15           15           15            0            0            0    -23464.35   -21148.603   -23107.774   -26136.673   -6370.9175    1178.0017     2929.331    -4250.183 
     182   -4250.2151           15           15           15            0            0            0   -23170.745   -21002.836   -22857.798     -25651.6   -6432.7208    1447.6299    2926.5019   -4250.2151 
     183   -4250.2612           15           15           15            0            0            0   -22933.669   -21151.862   -22329.964   -25319.181   -6569.5191    1988.1426    3039.3171   -4250.2612 
     184   -4250.3196           15           15           15            0            0            0   -22557.487   -21266.459   -22075.046   -24330.958   -6789.9315    2318.5517    3020.0967   -4250.3196 
     185   -4250.3804           15           15           15            0            0            0   -22190.171   -21170.189   -21820.557   -23579.767   -6834.0318    2532.4365     2591.268   -4250.3804 
     186   -4250.4402           15           15           15            0            0            0   -21854.268   -21065.219   -21556.532   -22941.052   -6843.7791    2797.9086    2197.6894   -4250.4402 
     187   -4250.5046           15           15           15            0            0            0    -21483.65   -20935.707    -20945.93   -22569.312   -6972.8885     3156.748    1833.9442   -4250.5046 
     188   -4250.5848           15           15           15            0            0            0   -20725.799   -20511.797   -19935.227   -21730.373   -7063.5722    3452.3964    1319.7664   -4250.5848 
     189   -4250.6909           15           15           15            0            0            0   -20009.765   -20082.792   -18567.023   -21379.482   -6812.1687    3661.5677    663.43519   -4250.6909 
     190   -4250.8276           15           15           15            0            0            0   -19425.003   -20024.992   -17432.254   -20817.764   -6516.9986    3890.1174    197.90797   -4250.8276 
     191   -4250.9631           15           15           15            0            0            0    -19024.81   -20129.508   -16043.692   -20901.231   -6375.5962    3956.2419   -143.72889   -4250.9631 
     192   -4251.0745           15           15           15            0            0            0   -18461.462   -20206.783    -14885.34   -20292.263   -6227.8254    3935.0765   -320.96333   -4251.0745 
     193   -4251.1316           15           15           15            0            0            0   -18428.227   -20126.319   -15143.437   -20014.926   -6209.1599     3920.877   -119.33506   -4251.1316 
     194   -4251.1731           15           15           15            0            0            0   -18399.105   -19936.489   -15114.425   -20146.402   -6307.2054    3888.0781   -85.073033   -4251.1731 
     195   -4251.2179           15           15           15            0            0            0   -18270.542   -19752.233   -15104.315   -19955.078   -6300.0226    3757.0905   -4.2444247   -4251.2179 
     196   -4251.2557           15           15           15            0            0            0    -18310.08   -19807.588   -15037.048   -20085.604   -6120.2705    3650.5784    226.04622   -4251.2557 
     197   -4251.2899           15           15           15            0            0            0   -18334.755    -19891.09   -14761.273   -20351.901   -5955.8713    3397.8828    341.97316   -4251.2899 
     198   -4251.3151           15           15           15            0            0            0   -18376.565   -19948.301   -14799.859   -20381.535   -5835.4364    3169.5717    371.62643   -4251.3151 
     199   -4251.3357           15           15           15            0            0            0   -18459.559   -20058.339   -14718.184   -20602.155   -5837.1972    3099.4006    469.00413   -4251.3357 
     200   -4251.3545           15           15           15            0            0            0    -18454.64   -20153.998   -14679.324   -20530.597   -5778.5924    3090.6617    515.92686   -4251.3545 
     201     -4251.37           15           15           15            0            0            0    -18486.66   -20067.616   -14761.698   -20630.666   -5697.3392    3031.9537    435.36514     -4251.37 
     202   -4251.3866           15           15           15            0            0            0   -18414.405   -19894.988   -14786.286   -20561.941   -5669.6567    2910.3436    569.55322   -4251.3866 
     203   -4251.4001           15           15           15            0            0            0   -18413.831   -20034.862   -14772.102   -20434.529   -5695.7624    2860.0733    715.79694   -4251.4001 
     204   -4251.4112           15           15           15            0            0            0   -18439.243   -20137.183    -14784.71   -20395.834   -5667.8564    2775.5251    766.01023   -4251.4112 
     205    -4251.422           15           15           15            0            0            0   -18473.992   -20306.433    -14779.02   -20336.523   -5656.6703    2713.8879    955.93566    -4251.422 
     206   -4251.4316           15           15           15            0            0            0   -18627.708    -20489.26   -14981.776   -20412.089    -5682.507    2665.3546    1053.0938   -4251.4316 
     207   -4251.4416           15           15           15            0            0            0   -18734.466   -20525.988   -15121.842   -20555.568   -5653.8482    2688.5857    1174.2992   -4251.4416 
     208   -4251.4516           15           15           15            0            0            0   -18860.228   -20602.685   -15205.101   -20772.897   -5725.0169    2744.0501    1300.5246   -4251.4516 
     209   -4251.4642           15           15           15            0            0            0   -18961.966   -20616.524   -15455.427   -20813.947   -5844.4855    2676.5735    1441.3107   -4251.4642 
     210   -4251.4795           15           15           15            0            0            0   -19124.908   -20789.084   -15680.566   -20905.074   -5924.1775    2780.7727    1655.0853   -4251.4795 
     211    -4251.501           15           15           15            0            0            0   -19322.225   -21067.029   -16112.883   -20786.761   -5926.4389    2874.8322    1935.1522    -4251.501 
     212   -4251.5237           15           15           15            0            0            0   -19509.943   -21281.013   -16494.217   -20754.598   -5872.1648     2874.785    2232.7419   -4251.5237 
     213   -4251.5483           15           15           15            0            0            0   -19708.297   -21514.021    -16785.53    -20825.34   -5953.8573    2888.9665    2466.3345   -4251.5483 
     214   -4251.5685           15           15           15            0            0            0   -19713.208   -21526.064   -16829.757   -20783.804    -5950.272    2869.9132    2506.3194   -4251.5685 
     215    -4251.587           15           15           15            0            0            0   -19755.239   -21578.558   -16865.562   -20821.598   -5952.1045    2923.1343    2562.5698    -4251.587 
     216   -4251.6038           15           15           15            0            0            0   -19706.336    -21534.98   -16906.533   -20677.494   -5925.0893    2886.5405    2654.4053   -4251.6038 
     217   -4251.6204           15           15           15            0            0            0   -19684.105   -21461.266   -16856.068   -20734.983   -5823.3546     3058.625    2600.9388   -4251.6204 
     218   -4251.6361           15           15           15            0            0            0   -19590.197   -21313.013   -16861.962   -20595.615   -5808.7906    3147.1322    2424.5026   -4251.6361 
     219   -4251.6505           15           15           15            0            0            0   -19441.419   -21097.665   -16773.065   -20453.526   -5797.7014    3332.6999    2223.9001   -4251.6505 
     220   -4251.6642           15           15           15            0            0            0   -19259.828   -20893.533   -16742.181   -20143.771   -5932.1897    3359.7594     2104.521   -4251.6642 
     221   -4251.6762           15           15           15            0            0            0   -19154.744   -20693.577   -16745.291   -20025.365   -6029.3441    3420.3758    1901.1318   -4251.6762 
     222   -4251.6871           15           15           15            0            0            0   -19129.327   -20620.331   -16863.096   -19904.554   -6214.5671     3559.878    1656.4988   -4251.6871 
     223   -4251.6976           15           15           15            0            0            0   -19128.666   -20536.158    -16996.22   -19853.619   -6339.8323    3569.8613    1466.8214   -4251.6976 
     224   -4251.7078           15           15           15            0            0            0   -19223.452   -20511.442   -17219.528   -19939.384   -6485.7991    3614.6105    1295.5791   -4251.7078 
     225   -4251.7189           15           15           15            0            0            0   -19308.879   -20541.395   -17396.578   -19988.666    -6626.702    3687.9154    1173.2829   -4251.7189 
     226   -4251.7302           15           15           15            0            0            0   -19459.927    -20544.95   -17604.678   -20230.153   -6807.2095    3845.3366    957.58285   -4251.7302 
     227   -4251.7427           15           15           15            0            0            0   -19535.536   -20464.889   -17841.109   -20300.609    -6933.613    4011.3381    807.15728   -4251.7427 
     228   -4251.7564           15           15           15            0            0            0   -19618.373   -20408.757   -18006.508   -20439.855   -7057.1572    4184.4686    647.23951   -4251.7564 
     229   -4251.7726           15           15           15            0            0            0   -19627.163   -20203.033    -18161.84   -20516.616    -6994.058    4342.7514    434.28926   -4251.7726 
     230   -4251.7923           15           15           15            0            0            0   -19639.741   -20023.681   -18119.716   -20775.825   -6954.9592    4514.6793     341.8362   -4251.7923 
     231   -4251.8116           15           15           15            0            0            0   -19694.572   -19825.533   -18133.431   -21124.752   -6897.6843    4623.9255    203.83169   -4251.8116 
     232   -4251.8327           15           15           15            0            0            0    -19793.16   -19731.509    -18219.68   -21428.293   -6739.4458    4629.6399    174.90599   -4251.8327 
     233   -4251.8542           15           15           15            0            0            0   -19933.745   -19765.919   -18391.365   -21643.952   -6583.0271    4749.1577    171.89272   -4251.8542 
     234    -4251.878           15           15           15            0            0            0   -20039.651   -19852.954   -18499.248   -21766.751   -6318.7896    4833.4601     177.6563    -4251.878 
     235   -4251.9072           15           15           15            0            0            0   -20224.229     -20095.4   -18736.095   -21841.193   -6081.8899     4869.228    88.615292   -4251.9072 
     236   -4251.9413           15           15           15            0            0            0   -20403.645   -20255.667   -18952.591   -22002.676   -5883.5928    4975.6637    49.286946   -4251.9413 
     237   -4251.9917           15           15           15            0            0            0   -20602.567   -20312.203    -19467.57   -22027.928   -5912.8851    5046.0518   -60.396488   -4251.9917 
     238    -4252.041           15           15           15            0            0            0   -20748.815   -20417.103   -19765.222   -22064.119   -5882.8698    5146.7046   -148.00698    -4252.041 
     239    -4252.062           15           15           15            0            0            0   -20777.935   -20456.614   -19986.263   -21890.928   -5835.9577    5132.7123   -295.44648    -4252.062 
     240   -4252.0972           15           15           15            0            0            0   -20706.445   -20466.403   -19943.155   -21709.776   -5902.7279    5020.0366    -327.5864   -4252.0972 
     241   -4252.1481           15           15           15            0            0            0   -20566.081   -20389.298   -19654.831   -21654.114   -6022.9765    4991.5937   -211.81391   -4252.1481 
     242   -4252.1825           15           15           15            0            0            0   -20427.716   -20047.823   -19684.548   -21550.778   -6214.1459    4900.0006   -209.31681   -4252.1825 
     243   -4252.2118           15           15           15            0            0            0   -20184.853   -19691.924   -19546.782   -21315.854   -6456.0616    4804.5728   -144.85296   -4252.2118 
     244   -4252.2385           15           15           15            0            0            0   -19841.876    -19340.64    -19231.78   -20953.207   -6604.2545    4841.8787   -114.79132   -4252.2385 
     245   -4252.2628           15           15           15            0            0            0    -19573.78    -19185.62   -18993.658   -20542.063   -6545.6918    4853.7058   -237.80514   -4252.2628 
     246   -4252.2806           15           15           15            0            0            0   -19380.928   -18948.845   -18897.986   -20295.953   -6451.5114    4840.7174   -293.06269   -4252.2806 
     247   -4252.2998           15           15           15            0            0            0   -19223.866   -18617.523   -18953.371   -20100.704   -6419.2852     4921.766   -248.15925   -4252.2998 
     248   -4252.3185           15           15           15            0            0            0   -19020.392   -18188.908   -19044.113   -19828.155   -6232.4874     4970.071   -148.72272   -4252.3185 
     249   -4252.3448           15           15           15            0            0            0   -18762.357   -17681.863   -19004.133   -19601.076   -6177.0964    4863.3103    47.234835   -4252.3448 
     250   -4252.3837           15           15           15            0            0            0   -18339.285   -16912.762   -18759.446   -19345.647   -5843.5243     4848.456    479.91469   -4252.3837 
     251   -4252.4353           15           15           15            0            0            0   -17936.889   -15984.127   -18815.563   -19010.976   -5219.8018    4667.7242      870.949   -4252.4353 
     252   -4252.4815           15           15           15            0            0            0   -17674.764   -15480.409   -18689.261    -18854.62   -4800.8335    4563.9103    1112.5899   -4252.4815 
     253   -4252.5221           15           15           15            0            0            0   -17553.067   -15332.023   -18510.417   -18816.762   -4762.6323    4690.2114    1355.3562   -4252.5221 
     254   -4252.5582           15           15           15            0            0            0    -17442.07   -15182.432   -18330.027    -18813.75   -4666.5018    4728.3685    1526.3276   -4252.5582 
     255   -4252.5901           15           15           15            0            0            0   -17270.333    -15151.56   -18069.637   -18589.803    -4590.145    4949.6383    1764.3511   -4252.5901 
     256   -4252.6224           15           15           15            0            0            0   -17109.137   -14897.524   -17802.294   -18627.593    -4599.318    5236.2365    1970.6766   -4252.6224 
     257   -4252.6553           15           15           15            0            0            0   -16938.398   -14650.266   -17629.941   -18534.986   -4677.3214    5386.4479    2124.3151   -4252.6553 
     258   -4252.6871           15           15           15            0            0            0   -16820.036   -14397.235   -17524.009   -18538.863   -4792.6479    5567.8132    2131.8161   -4252.6871 
     259   -4252.7175           15           15           15            0            0            0   -16718.833   -14209.607   -17388.651   -18558.241   -4853.7501    5721.9622    2284.4826   -4252.7175 
     260   -4252.7453           15           15           15            0            0            0   -16535.695   -13901.997   -17340.945   -18364.143   -4877.3574    5826.2292    2422.1568   -4252.7453 
     261   -4252.7731           15           15           15            0            0            0   -16422.312   -13824.403   -17147.083   -18295.452   -4924.7082    5969.2544    2535.2289   -4252.7731 
     262   -4252.8034           15           15           15            0            0            0   -16354.725   -14004.382   -16941.984   -18117.811   -4877.6087    6151.7977    2653.7943   -4252.8034 
     263   -4252.8318           15           15           15            0            0            0   -16324.442   -14233.722   -16768.422   -17971.181   -4765.8352     6334.336    2735.7373   -4252.8318 
     264   -4252.8595           15           15           15            0            0            0   -16217.523   -14243.348    -16719.89   -17689.332    -4645.092    6547.1178      2873.03   -4252.8595 
     265   -4252.8865           15           15           15            0            0            0   -16153.295   -14266.294   -16666.263   -17527.327   -4415.5115    6859.6861    2950.5131   -4252.8865 
     266   -4252.9162           15           15           15            0            0            0   -16036.529    -14320.57    -16739.47   -17049.546   -4201.3129    7164.1352    2972.1055   -4252.9162 
     267   -4252.9471           15           15           15            0            0            0   -15981.928   -14345.302   -16785.662   -16814.819   -3868.6247    7611.5693    3072.8234   -4252.9471 
     268   -4252.9769           15           15           15            0            0            0   -15972.991   -14269.102    -17085.02    -16564.85   -3446.8793     8036.902    3161.6779   -4252.9769 
     269   -4253.0086           15           15           15            0            0            0   -15991.863    -14382.51   -17259.608   -16333.472    -3110.599    8494.9147    3246.2332   -4253.0086 
     270   -4253.0422           15           15           15            0            0            0   -16035.282   -14418.544   -17412.388   -16274.915   -2825.9531    9006.7498    3167.5821   -4253.0422 
     271   -4253.0743           15           15           15            0            0            0   -16130.432   -14594.899   -17427.633   -16368.763    -2596.514    9348.4857    3089.7774   -4253.0743 
     272   -4253.1061           15           15           15            0            0            0   -16137.733   -14588.633    -17287.51   -16537.055   -2427.8922    9623.6763    3000.5754   -4253.1061 
     273   -4253.1369           15           15           15            0            0            0   -16060.483   -14468.879   -17153.297   -16559.272    -2268.745    9888.2764    3027.2652   -4253.1369 
     274   -4253.1688           15           15           15            0            0            0   -15900.931    -14224.08   -16919.797   -16558.917   -2092.0017     10144.97    3029.0591   -4253.1688 
     275   -4253.1981           15           15           15            0            0            0   -15736.677   -14001.694   -16628.441   -16579.895   -2059.5881    10226.365    3028.4669   -4253.1981 
     276    -4253.225           15           15           15            0            0            0   -15499.735   -13588.816    -16400.97   -16509.419   -1985.2119    10322.307     3045.593    -4253.225 
     277   -4253.2518           15           15           15            0            0            0     -15286.4   -13268.116   -16159.645   -16431.437   -1933.1061    10356.353    3094.0349   -4253.2518 
     278   -4253.2768           15           15           15            0            0            0   -15046.607     -12878.5   -15933.088   -16328.231   -1846.6811    10405.685    3143.4901   -4253.2768 
     279   -4253.2985           15           15           15            0            0            0   -14922.006   -12700.456   -15718.959   -16346.602   -1745.5376    10447.143    3197.9297   -4253.2985 
     280    -4253.319           15           15           15            0            0            0   -14849.908   -12641.735    -15622.12    -16285.87   -1610.2059    10472.308    3133.7529    -4253.319 
     281   -4253.3379           15           15           15            0            0            0   -14901.292   -12728.682   -15576.535   -16398.661   -1472.6417    10529.287    3058.1638   -4253.3379 
     282   -4253.3567           15           15           15            0            0            0   -14986.375   -12764.745   -15609.867   -16584.515   -1318.0994    10507.941    2982.4733   -4253.3567 
     283    -4253.374           15           15           15            0            0            0   -15128.265   -12922.448   -15623.915   -16838.432   -1094.4958    10447.582     2849.994    -4253.374 
     284   -4253.3902           15           15           15            0            0            0   -15351.332   -13110.625   -15710.646   -17232.724   -903.34953    10468.647    2646.2498   -4253.3902 
     285   -4253.4044           15           15           15            0            0            0   -15594.157   -13320.862   -15797.642   -17663.968   -834.62291    10446.048    2577.7408   -4253.4044 
     286   -4253.4173           15           15           15            0            0            0   -15842.023   -13532.813   -15968.508   -18024.749   -832.11624    10445.467    2533.5742   -4253.4173 
     287   -4253.4298           15           15           15            0            0            0   -16149.503   -13854.827   -16149.521    -18444.16   -853.06289    10486.829     2548.589   -4253.4298 
     288   -4253.4431           15           15           15            0            0            0   -16456.999   -14127.985   -16366.034   -18876.977    -868.9781    10504.433    2576.3135   -4253.4431 
     289    -4253.456           15           15           15            0            0            0   -16764.938   -14489.357   -16534.237   -19271.221   -880.31258    10475.163    2586.9896    -4253.456 
     290   -4253.4724           15           15           15            0            0            0   -17039.226   -14846.033   -16652.676   -19618.969   -888.83863    10391.527    2546.6502   -4253.4724 
     291    -4253.491           15           15           15            0            0            0   -17310.318    -15297.44   -16770.379   -19863.136   -919.94426    10241.665    2509.6615    -4253.491 
     292   -4253.5141           15           15           15            0            0            0   -17556.929   -15905.942   -16833.718   -19931.127   -986.43019    10145.836    2489.5837   -4253.5141 
     293    -4253.536           15           15           15            0            0            0   -17719.048   -16377.397   -16787.356   -19992.391   -1042.6745    10080.835    2463.0819    -4253.536 
     294   -4253.5616           15           15           15            0            0            0   -17793.449   -16739.366   -16651.656   -19989.325   -1029.4791    10172.492    2437.4566   -4253.5616 
     295   -4253.5873           15           15           15            0            0            0   -17847.362    -17130.79   -16455.901   -19955.396   -1014.9387    10270.427    2421.8498   -4253.5873 
     296   -4253.6202           15           15           15            0            0            0   -17805.187   -17436.563   -16173.359   -19805.639   -873.28235    10448.761    2391.1366   -4253.6202 
     297   -4253.6564           15           15           15            0            0            0   -17692.697   -17718.247   -15640.417   -19719.427   -693.62212     10629.44     2383.655   -4253.6564 
     298   -4253.7028           15           15           15            0            0            0    -17407.43   -17745.137   -14960.059   -19517.093   -562.81169    10766.577    2377.0986   -4253.7028 
     299   -4253.7332           15           15           15            0            0            0   -17243.263   -17658.138   -14710.108   -19361.543   -500.26724    10799.609    2326.9141   -4253.7332 
     300   -4253.7746           15           15           15            0            0            0   -17029.389   -17322.752   -14607.631   -19157.782   -595.74569    10690.181     2276.239   -4253.7746 
     301   -4253.8111           15           15           15            0            0            0   -16833.946   -17001.591   -14470.599   -19029.649   -653.96948    10653.716    2229.8571   -4253.8111 
     302   -4253.8422           15           15           15            0            0            0   -16725.534   -16718.019   -14378.177   -19080.406   -754.72572    10675.991    2268.4729   -4253.8422 
     303    -4253.869           15           15           15            0            0            0   -16693.162   -16386.292   -14482.283   -19210.911   -903.76446    10635.266    2361.3461    -4253.869 
     304   -4253.8857           15           15           15            0            0            0   -16724.739   -16177.787   -14738.998   -19257.431   -982.52736    10668.798    2446.4111   -4253.8857 
     305   -4253.9019           15           15           15            0            0            0    -16699.49   -15933.924   -14839.815   -19324.731   -1149.6781    10660.787    2501.1429   -4253.9019 
     306   -4253.9158           15           15           15            0            0            0   -16658.829    -15734.99   -14822.039   -19419.459    -1353.916     10610.46    2532.6488   -4253.9158 
     307   -4253.9255           15           15           15            0            0            0    -16644.46   -15596.628   -14810.583   -19526.169   -1526.3895    10513.915    2515.4119   -4253.9255 
     308   -4253.9357           15           15           15            0            0            0   -16578.275   -15439.763   -14762.128   -19532.934   -1666.7501    10360.894    2487.8822   -4253.9357 
     309   -4253.9443           15           15           15            0            0            0   -16472.083   -15279.241   -14640.302   -19496.705   -1787.9238    10200.615    2513.7592   -4253.9443 
     310   -4253.9522           15           15           15            0            0            0   -16356.371   -15142.847   -14473.497   -19452.768   -1970.9867    10087.294    2598.9288   -4253.9522 
     311   -4253.9597           15           15           15            0            0            0    -16258.98   -15068.137   -14286.542   -19422.262   -2131.1877    10065.177    2664.7916   -4253.9597 
     312   -4253.9657           15           15           15            0            0            0   -16122.208   -14946.304     -14087.2   -19333.122   -2206.6957    10063.957    2718.2844   -4253.9657 
     313   -4253.9715           15           15           15            0            0            0   -15941.872   -14778.528   -13839.593   -19207.494   -2262.8837    10041.372    2803.8768   -4253.9715 
     314   -4253.9763           15           15           15            0            0            0   -15783.321   -14610.248   -13684.565   -19055.151   -2279.0262    10007.751    2878.6814   -4253.9763 
     315    -4253.981           15           15           15            0            0            0   -15608.012   -14372.317   -13522.559    -18929.16   -2288.3191    9976.2164    2947.7967    -4253.981 
     316   -4253.9851           15           15           15            0            0            0   -15475.972   -14169.103    -13419.68   -18839.134   -2256.9704    9962.5888    2981.0479   -4253.9851 
     317   -4253.9884           15           15           15            0            0            0   -15370.787   -13969.307   -13403.286   -18739.767   -2171.1582    9922.9643    2967.5887   -4253.9884 
     318   -4253.9912           15           15           15            0            0            0   -15316.605   -13824.234   -13452.915   -18672.667    -2114.017     9868.042    2960.2564   -4253.9912 
     319   -4253.9936           15           15           15            0            0            0    -15293.46   -13708.615   -13506.758   -18665.006   -2064.0413     9847.361    2964.9565   -4253.9936 
     320   -4253.9961           15           15           15            0            0            0   -15283.418   -13620.333   -13590.852   -18639.068   -2012.3373    9839.8212    2950.1317   -4253.9961 
     321   -4253.9979           15           15           15            0            0            0   -15276.981    -13535.73   -13661.293    -18633.92   -1966.7674    9842.5216    2924.3451   -4253.9979 
     322   -4253.9995           15           15           15            0            0            0   -15273.161   -13466.697   -13734.928   -18617.858   -1920.4847     9845.537    2912.9872   -4253.9995 
     323   -4254.0009           15           15           15            0            0            0   -15280.583    -13449.44   -13782.086   -18610.224   -1896.7473    9834.3792    2903.8645   -4254.0009 
     324    -4254.002           15           15           15            0            0            0   -15300.937   -13453.107   -13842.979   -18606.725   -1875.8353    9819.9885     2884.437    -4254.002 
     325   -4254.0029           15           15           15            0            0            0   -15346.326   -13480.385   -13919.824   -18638.767   -1864.6571    9812.5357    2868.9716   -4254.0029 
     326    -4254.004           15           15           15            0            0            0   -15394.864   -13500.732   -13993.448    -18690.41   -1836.9976     9813.769    2882.7907    -4254.004 
     327   -4254.0049           15           15           15            0            0            0   -15436.097   -13503.961   -14040.499   -18763.833   -1823.6669    9811.7314    2912.3683   -4254.0049 
     328   -4254.0057           15           15           15            0            0            0   -15492.384   -13533.696   -14091.536   -18851.919   -1838.1524    9816.7386    2937.9984   -4254.0057 
     329   -4254.0064           15           15           15            0            0            0   -15543.026    -13567.66   -14149.031   -18912.385   -1864.8514    9823.5134    2951.4133   -4254.0064 
     330   -4254.0071           15           15           15            0            0            0   -15569.044   -13577.715   -14199.851   -18929.566   -1893.1459    9829.6323    2971.9662   -4254.0071 
     331   -4254.0078           15           15           15            0            0            0   -15579.523   -13570.656   -14222.232    -18945.68   -1925.5393    9823.4253    2992.4369   -4254.0078 
     332   -4254.0082           15           15           15            0            0            0    -15577.26   -13544.431   -14235.825   -18951.525   -1956.3716    9815.3556    2995.4968   -4254.0082 
     333   -4254.0088           15           15           15            0            0            0   -15556.745   -13503.768   -14227.486   -18938.982   -1992.6167    9803.4275    2993.4653   -4254.0088 
     334   -4254.0092           15           15           15            0            0            0   -15524.866   -13451.819   -14223.576   -18899.203   -2026.3283    9793.4883    2999.7715   -4254.0092 
     335     -4254.01           15           15           15            0            0            0   -15484.224   -13363.406   -14234.019   -18855.247   -2063.6949    9782.7112    3006.6255     -4254.01 
     336   -4254.0106           15           15           15            0            0            0   -15444.643   -13254.727     -14263.6   -18815.602   -2099.5049    9763.2265    3010.7527   -4254.0106 
     337   -4254.0112           15           15           15            0            0            0   -15418.386   -13171.923   -14292.884   -18790.351   -2129.2524    9746.2641    3012.1287   -4254.0112 
     338   -4254.0119           15           15           15            0            0            0   -15392.213   -13099.041   -14321.903   -18755.695   -2161.8314    9744.8699    3022.6132   -4254.0119 
     339   -4254.0126           15           15           15            0            0            0   -15356.222   -13004.606   -14332.058   -18732.004   -2208.1172    9734.9537    3025.5979   -4254.0126 
     340   -4254.0132           15           15           15            0            0            0   -15320.968   -12914.133   -14348.683   -18700.089   -2244.6898    9725.6939    3014.1205   -4254.0132 
     341   -4254.0139           15           15           15            0            0            0   -15277.204   -12816.041   -14359.364   -18656.207   -2260.7784    9723.3931    2996.5048   -4254.0139 
     342   -4254.0146           15           15           15            0            0            0    -15231.26   -12722.758    -14349.41   -18621.612   -2261.7413    9715.0215    2993.2451   -4254.0146 
     343   -4254.0151           15           15           15            0            0            0   -15186.045   -12641.863   -14321.538   -18594.733   -2269.2121    9697.8642    3004.1242   -4254.0151 
     344   -4254.0156           15           15           15            0            0            0   -15125.557   -12548.021    -14282.89   -18545.761    -2268.796    9689.6263    3006.1249   -4254.0156 
     345   -4254.0162           15           15           15            0            0            0   -15067.185    -12461.99   -14245.992   -18493.574   -2261.8752    9675.8512    2995.0588   -4254.0162 
     346   -4254.0166           15           15           15            0            0            0   -14999.649   -12373.075   -14193.201    -18432.67   -2269.9251    9650.6308    2993.5371   -4254.0166 
     347   -4254.0172           15           15           15            0            0            0   -14927.137   -12282.396   -14115.465   -18383.549   -2302.4283    9636.5045     3006.719   -4254.0172 
     348   -4254.0176           15           15           15            0            0            0   -14873.351   -12225.176   -14062.467    -18332.41   -2324.7531    9642.2808     3022.324   -4254.0176 
     349   -4254.0181           15           15           15            0            0            0   -14818.591    -12165.54   -14004.215   -18286.018   -2354.1959    9642.9715    3021.6205   -4254.0181 
     350   -4254.0185           15           15           15            0            0            0   -14780.776   -12117.353   -13971.838   -18253.135    -2385.347    9645.4414    3010.4157   -4254.0185 
     351   -4254.0187           15           15           15            0            0            0   -14744.818   -12063.589   -13936.137   -18234.727   -2418.6033    9652.4084    3001.8984   -4254.0187 
     352    -4254.019           15           15           15            0            0            0   -14709.472    -12014.13   -13899.144   -18215.143   -2447.1771    9658.7863     2992.587    -4254.019 
     353   -4254.0193           15           15           15            0            0            0   -14675.337    -11963.33   -13861.218   -18201.462   -2469.6468    9659.0355     2972.942   -4254.0193 
     354   -4254.0197           15           15           15            0            0            0   -14648.789    -11919.71   -13830.735   -18195.921   -2488.7876    9641.9986    2953.0668   -4254.0197 
     355   -4254.0202           15           15           15            0            0            0   -14628.615   -11882.775   -13810.905   -18192.165   -2495.4757    9622.0191    2949.6344   -4254.0202 
     356   -4254.0204           15           15           15            0            0            0   -14624.473   -11851.246   -13827.686   -18194.486   -2496.7025    9606.7128    2949.6134   -4254.0204 
     357   -4254.0208           15           15           15            0            0            0   -14641.705   -11832.792   -13858.187   -18234.138   -2503.7766     9592.817    2949.4702   -4254.0208 
     358   -4254.0212           15           15           15            0            0            0   -14664.692   -11833.091   -13889.839   -18271.146   -2507.8942    9579.1828    2961.6501   -4254.0212 
     359   -4254.0217           15           15           15            0            0            0   -14702.107   -11846.391   -13922.935   -18336.995   -2511.0667    9567.7456    2964.6464   -4254.0217 
     360   -4254.0222           15           15           15            0            0            0   -14739.698   -11852.396   -13965.354   -18401.344    -2503.328    9572.7675    2960.2453   -4254.0222 
     361   -4254.0225           15           15           15            0            0            0   -14769.108   -11847.068   -13999.188   -18461.067   -2504.7136    9572.1954    2954.7437   -4254.0225 
     362   -4254.0228           15           15           15            0            0            0   -14789.829   -11849.414   -14026.238   -18493.836   -2502.3649     9572.365    2943.6599   -4254.0228 
     363   -4254.0232           15           15           15            0            0            0   -14813.311   -11865.537   -14052.531   -18521.865   -2498.7445    9570.2716    2926.4468   -4254.0232 
     364   -4254.0234           15           15           15            0            0            0   -14836.542   -11885.304    -14068.82   -18555.503   -2505.6799    9577.0518    2907.2784   -4254.0234 
     365   -4254.0236           15           15           15            0            0            0   -14858.016   -11913.477   -14081.674   -18578.898   -2513.9518    9584.5599    2894.2992   -4254.0236 
     366   -4254.0239           15           15           15            0            0            0   -14876.024   -11949.566   -14102.761   -18575.745   -2520.2995    9589.7368    2889.6433   -4254.0239 
     367    -4254.024           15           15           15            0            0            0   -14892.053   -11991.856   -14119.473   -18564.829   -2528.9881    9596.3492    2889.8601    -4254.024 
     368   -4254.0242           15           15           15            0            0            0   -14901.249   -12023.845   -14131.856   -18548.047   -2540.1594    9603.3178     2886.192   -4254.0242 
     369   -4254.0242           15           15           15            0            0            0    -14904.42   -12046.642   -14134.815   -18531.805   -2554.3578    9607.5638    2880.6425   -4254.0242 
     370   -4254.0243           15           15           15            0            0            0   -14900.227   -12059.063   -14136.439   -18505.179   -2559.7703    9615.1643    2880.7553   -4254.0243 
     371   -4254.0244           15           15           15            0            0            0   -14894.199   -12069.027   -14130.396   -18483.173   -2562.4944     9621.578    2879.0971   -4254.0244 
     372   -4254.0245           15           15           15            0            0            0   -14882.901   -12074.969   -14115.897   -18457.837   -2567.1389    9629.5924    2880.7205   -4254.0245 
     373   -4254.0246           15           15           15            0            0            0   -14874.152   -12078.499    -14106.54   -18437.418   -2569.7115    9634.4737    2886.9395   -4254.0246 
     374   -4254.0247           15           15           15            0            0            0   -14868.487   -12082.656   -14113.274   -18409.531   -2567.2664    9635.0888    2891.4388   -4254.0247 
     375   -4254.0247           15           15           15            0            0            0   -14866.919    -12090.84   -14124.832   -18385.085   -2561.9233    9632.8197     2894.509   -4254.0247 
     376   -4254.0248           15           15           15            0            0            0   -14867.876   -12097.701   -14137.484   -18368.442   -2557.5461    9629.9338    2901.2247   -4254.0248 
     377   -4254.0249           15           15           15            0            0            0   -14871.532   -12100.938    -14151.36   -18362.297    -2550.025    9625.6865    2905.6844   -4254.0249 
     378   -4254.0249           15           15           15            0            0            0     -14875.4   -12104.719   -14173.884   -18347.598   -2539.2559    9620.9051    2906.6684   -4254.0249 
     379    -4254.025           15           15           15            0            0            0   -14877.874   -12109.144   -14190.644   -18333.832   -2533.4208    9613.5622     2909.767    -4254.025 
     380   -4254.0251           15           15           15            0            0            0   -14877.866   -12113.358   -14199.816   -18320.425   -2526.5715    9604.9835    2912.3288   -4254.0251 
     381   -4254.0251           15           15           15            0            0            0   -14879.238   -12117.829   -14206.743   -18313.141   -2522.2215    9595.9461    2911.1673   -4254.0251 
     382   -4254.0251           15           15           15            0            0            0   -14879.238   -12117.829   -14206.743   -18313.141   -2522.2215    9595.9461    2911.1673   -4254.0251 
Loop time of 2.9214 on 1 procs for 382 steps with 214 atoms

Minimization stats:
  Stopping criterion = linesearch alpha is zero
  Energy initial, next-to-last, final = 
        -4051.74197412     -4254.02508217     -4254.02508217
  Force two-norm initial, final = 42.4324 0.0360531
  Force max component initial, final = 8.14116 0.00455554
  Final line search alpha, max atom move = 7.62939e-06 3.4756e-08
  Iterations, force evaluations = 382 715

Pair  time (%) = 1.18285 (40.489)
Kspce time (%) = 1.62779 (55.7195)
Neigh time (%) = 0.0789697 (2.70315)
Comm  time (%) = 0.0151207 (0.517586)
Outpt time (%) = 0.0101109 (0.346096)
Other time (%) = 0.00656199 (0.224618)

Nlocal:    214 ave 214 max 214 min
Histogram: 1 0 0 0 0 0 0 0 0 0
Nghost:    2869 ave 2869 max 2869 min
Histogram: 1 0 0 0 0 0 0 0 0 0
Neighs:    37637 ave 37637 max 37637 min
Histogram: 1 0 0 0 0 0 0 0 0 0

Total # of neighbors = 37637
Ave neighs/atom = 175.874
Neighbor list builds = 37
Dangerous builds = 0
# ---- define output variables ----
variable natoms equal "count(all)"
variable tot_energy equal "c_eatoms"
variable length_x equal "lx"
variable length_y equal "ly"
variable length_z equal "lz"
variable tilt_xy equal "xy"
variable tilt_xz equal "xz"
variable tilt_yz equal "yz"
variable tot_press equal "press"
variable press_xx equal "pxx"
variable press_yy equal "pyy"
variable press_zz equal "pzz"
variable press_xy equal "pxy"
variable press_xz equal "pxz"
variable press_yz equal "pyz"

# ---- output ----
print "pypospack:output_section:begin"
pypospack:output_section:begin
print "tot_energy = ${tot_energy}"
tot_energy = -4254.02508216826
print "num_atoms = ${natoms}"
num_atoms = 214
print "xx = ${length_x}"
xx = 15
print "yy = ${length_y}"
yy = 15
print "zz = ${length_z}"
zz = 15
print "xy = ${tilt_xy}"
xy = 0
print "xz = ${tilt_xz}"
xz = 0
print "yz = ${tilt_yz}"
yz = 0
print "tot_press = ${tot_press}"
tot_press = -14879.2376904306
print "pxx = ${press_xx}"
pxx = -12117.8292523159
print "pyy = ${press_yy}"
pyy = -14206.7431104606
print "pzz = ${press_zz}"
pzz = -18313.1407085151
print "pxy = ${press_xy}"
pxy = -2522.22151736683
print "pxz = ${press_xz}"
pxz = 9595.94609396364
print "pyz = ${press_yz}"
pyz = 2911.16728127113
print "pypospack:output_section:done"
pypospack:output_section:done
print "pypospack:lammps_sim:done"
pypospack:lammps_sim:done
