LAMMPS (10 Feb 2015)
# ---- initialize simulations
clear
units metal
dimension 3
boundary p p p
atom_style charge
atom_modify map array
# ---- create atoms
read_data /Users/eugeneragasa/pyflamestk_git/pypospack/tests/tests_integration/workflow/WorkflowLammpsThermalExpansion/param_785/MgO_NaCl_unit.npt.T1300/lammps.structure
  triclinic box = (0 0 0) to (4.2565 4.2565 4.2565) with tilt (0 0 0)
  1 by 1 by 1 MPI processor grid
  reading atoms ...
  8 atoms
# ---- define interatomic potential
include potential.mod
mass 1 24.305
mass 2 15.999

group Mg type 1
4 atoms in group Mg
group O type 2
4 atoms in group O

set group Mg charge 1.62294375895
  4 settings made for charge
set group O charge -1.62294375895
  4 settings made for charge

variable R_cut equal 10.0

pair_style buck/coul/long ${R_cut}
pair_style buck/coul/long 10
pair_coeff 1 1 0.0 0.5 0.0 ${R_cut}
pair_coeff 1 1 0.0 0.5 0.0 10
pair_coeff 1 2 1315.47688947 0.28024601768 0.0 ${R_cut}
pair_coeff 1 2 1315.47688947 0.28024601768 0.0 10
pair_coeff 2 2 7992.27283476 0.124296175577 7.5002562575 ${R_cut}
pair_coeff 2 2 7992.27283476 0.124296175577 7.5002562575 10

kspace_style pppm 1.0e-5

neighbor 1.0 bin
neigh_modify every 1 delay 0 check yes
# ---- define settings
compute eng all pe/atom
compute eatoms all reduce sum c_eng
# ---- run minimization
reset_timestep 0
fix 1 all box/relax iso 0.0 vmax 0.001
thermo 10
thermo_style custom step pe lx ly lz xy xz yz press pxx pyy pzz pxy pxz pyz c_eatoms
min_style cg
minimize 1e-25 1e-25 5000 10000
PPPM initialization ...
  G vector (1/distance) = 0.352546
  grid = 8 8 8
  stencil order = 5
  estimated absolute RMS force accuracy = 3.83063e-05
  estimated relative force accuracy = 2.66022e-06
  using double precision FFTs
  3d grid and FFT values/proc = 3375 512
Neighbor list info ...
  1 neighbor list requests
  update every 1 steps, delay 0 steps, check yes
  master list distance cutoff = 11
Memory usage per processor = 4.06549 Mbytes
Step PotEng Lx Ly Lz Xy Xz Yz Press Pxx Pyy Pzz Pxy Pxz Pyz eatoms 
       0   -108.88461       4.2565       4.2565       4.2565            0            0            0   -30879.056   -30879.056   -30879.056   -30879.056 -2.5133272e-10 -7.2643252e-11 5.7873381e-11   -108.88461 
      10   -108.89911    4.2290577    4.2290577    4.2290577            0            0            0   0.26053131   0.26053131   0.26053131   0.26053131 3.8284322e-11 -1.3873734e-12 -2.9889769e-10   -108.89911 
      12   -108.89911    4.2290577    4.2290577    4.2290577            0            0            0   0.25210742   0.25210742   0.25210742   0.25210742 1.3658055e-10 -3.2077679e-12 -1.3269119e-10   -108.89911 
Loop time of 0.00885201 on 1 procs for 12 steps with 8 atoms

Minimization stats:
  Stopping criterion = linesearch alpha is zero
  Energy initial, next-to-last, final = 
        -108.884606122     -108.899110632     -108.899110632
  Force two-norm initial, final = 4.45895 5.1421e-05
  Force max component initial, final = 4.45895 3.59365e-05
  Final line search alpha, max atom move = 0.5 1.79683e-05
  Iterations, force evaluations = 12 23

Pair  time (%) = 0.0024569 (27.7553)
Kspce time (%) = 0.00145864 (16.4781)
Neigh time (%) = 0 (0)
Comm  time (%) = 0.000278473 (3.14587)
Outpt time (%) = 4.41074e-05 (0.498276)
Other time (%) = 0.00461388 (52.1224)

Nlocal:    8 ave 8 max 8 min
Histogram: 1 0 0 0 0 0 0 0 0 0
Nghost:    2189 ave 2189 max 2189 min
Histogram: 1 0 0 0 0 0 0 0 0 0
Neighs:    2344 ave 2344 max 2344 min
Histogram: 1 0 0 0 0 0 0 0 0 0

Total # of neighbors = 2344
Ave neighs/atom = 293
Neighbor list builds = 0
Dangerous builds = 0
unfix 1
# ---- define output variables ----
variable natoms equal "count(all)"
variable tot_energy equal "c_eatoms"
variable length_x equal "lx"
variable length_y equal "ly"
variable length_z equal "lz"
variable tilt_xy equal "xy"
variable tilt_xz equal "xz"
variable tilt_yz equal "yz"
variable tot_press equal "press"
variable press_xx equal "pxx"
variable press_yy equal "pyy"
variable press_zz equal "pzz"
variable press_xy equal "pxy"
variable press_xz equal "pxz"
variable press_yz equal "pyz"

# ---- output ----
print "pypospack:output_section:begin"
pypospack:output_section:begin
print "tot_energy = ${tot_energy}"
tot_energy = -108.899110631848
print "num_atoms = ${natoms}"
num_atoms = 8
print "xx = ${length_x}"
xx = 4.22905766787052
print "yy = ${length_y}"
yy = 4.22905766787052
print "zz = ${length_z}"
zz = 4.22905766787052
print "xy = ${tilt_xy}"
xy = 0
print "xz = ${tilt_xz}"
xz = 0
print "yz = ${tilt_yz}"
yz = 0
print "tot_press = ${tot_press}"
tot_press = 0.252107417895481
print "pxx = ${press_xx}"
pxx = 0.252107418292273
print "pyy = ${press_yy}"
pyy = 0.252107418323333
print "pzz = ${press_zz}"
pzz = 0.252107417070837
print "pxy = ${press_xy}"
pxy = 1.36580554666579e-10
print "pxz = ${press_xz}"
pxz = -3.20776791999541e-12
print "pyz = ${press_yz}"
pyz = -1.32691186845421e-10
print "pypospack:output_section:done"
pypospack:output_section:done
print "pypospack:lammps_sim:done"
pypospack:lammps_sim:done
#------------------------------------------------------------------------------
# RUN THERMOSTAT
# running using an NPT Nose-Hoover style thermostat
#------------------------------------------------------------------------------
variable tempdamp equal 0.1
variable pressdamp equal 1.0
# set initial velocities
velocity all create 1300 8342067 mom yes dist gaussian loop all
# fix for Nose-Hoover style thermostat
fix 20 all npt temp 1300 1300 0.1 aniso 0.0 0.0 1.0 drag 1.0 couple xyz
variable boxx equal lx
variable boxy equal ly
variable boxz equal lz
variable boxp equal press
variable boxt equal temp
# calculate averages every 10000 steps
reset_timestep 0
fix 21 all ave/time 10 10 100 v_boxx v_boxy v_boxz v_boxp v_boxt file lattice.out
thermo_style custom step temp pe ke etotal press lx ly lz press pxx pyy pzz pxy pxz pyz vol
thermo_modify flush yes
thermo 100
run 100000
PPPM initialization ...
  G vector (1/distance) = 0.352817
  grid = 8 8 8
  stencil order = 5
  estimated absolute RMS force accuracy = 3.78369e-05
  estimated relative force accuracy = 2.62763e-06
  using double precision FFTs
  3d grid and FFT values/proc = 3375 512
Memory usage per processor = 3.06549 Mbytes
Step Temp PotEng KinEng TotEng Press Lx Ly Lz Press Pxx Pyy Pzz Pxy Pxz Pyz Volume 
       0         1300   -108.89911    1.1762673   -107.72284    16611.496    4.2290577    4.2290577    4.2290577    16611.496    31787.303    8515.1535    9532.0308    10217.988   -7694.7829   -4470.3996    75.636395 
     100    656.38533   -108.17011   0.59391124    -107.5762    25523.576    4.2576358    4.2576358    4.2576358    25523.576    33662.877    22763.369    20144.482   -6669.2391   -1282.7033    9818.4053    77.180135 
     200     942.1903   -108.10098   0.85251359   -107.24846   -35050.166    4.2963306    4.2963306    4.2963306   -35050.166   -32879.243   -33100.635   -39170.621   -6568.5414    2655.5167    12.437101    79.303634 
     300    968.51452   -107.84237   0.87633229   -106.96604   -5255.3933    4.2855513    4.2855513    4.2855513   -5255.3933   -40108.208    1250.0401    23091.988    4386.4443    -3576.294   -3286.0191     78.70822 
     400    1257.6407   -107.88761    1.1379397   -106.74967    15112.868    4.2646472    4.2646472    4.2646472    15112.868    17065.287    33105.047   -4831.7307   -538.56135    4471.1851    2729.1362     77.56206 
     500     1163.015   -107.70711    1.0523204   -106.65479   -22251.072    4.2962807    4.2962807    4.2962807   -22251.072   -53440.746   -14700.254    1387.7838   -1754.6064    1224.3397    396.19119     79.30087 
     600    1315.9287   -107.76274    1.1906799   -106.57206    540.85369    4.3129732    4.3129732    4.3129732    540.85369    44427.092   -2595.0823   -40209.449   -12213.953    652.85721    960.42513    80.228796 
     700    1442.7784   -107.84094    1.3054562   -106.53549    7411.9615    4.2921661    4.2921661    4.2921661    7411.9615    78260.235   -18111.096   -37913.255    27722.351   -1069.3737    2926.3223    79.073243 
     800    1552.2382   -107.94038    1.4044977   -106.53588    17048.071    4.2715214    4.2715214    4.2715214    17048.071    42248.906    9960.6179   -1065.3115    9138.8032   -6218.6755    3818.0692    77.937733 
     900    1609.2114   -108.02594    1.4560483    -106.5699    13807.034    4.2842079    4.2842079    4.2842079    13807.034    51936.075    17850.039   -28365.012   -15669.958    14591.848   -9257.8723    78.634227 
    1000    996.77538   -107.45587   0.90190331   -106.55397   -28834.265    4.3063202    4.3063202    4.3063202   -28834.265   -22768.906   -42838.909   -20894.981   -3110.9448   -13140.945    8207.8272    79.858095 
    1100    621.34376   -107.09472    0.5622049   -106.53251   -9416.2401    4.2834874    4.2834874    4.2834874   -9416.2401   -38111.633    11394.769   -1531.8563   -4859.9698     -711.571    6458.1085    78.594561 
    1200    1262.4245   -107.66018    1.1422682   -106.51791    18631.104    4.2634551    4.2634551    4.2634551    18631.104    15902.568    21781.719    18209.026    7437.3496    7424.1783   -8659.5252    77.497036 
    1300    1448.6551   -107.85839    1.3107736   -106.54762   -11509.529    4.2874482    4.2874482    4.2874482   -11509.529    8745.7037     -15812.2    -27462.09    -8060.344   -13760.263    16663.605    78.812782 
    1400    1544.1569   -107.93868    1.3971856    -106.5415   -9958.6429    4.3005436    4.3005436    4.3005436   -9958.6429    15265.576   -24662.018   -20479.487    16206.958   -2674.6955   -3812.1782    79.537155 
    1500    1746.4516   -108.10299    1.5802261   -106.52276   -13257.445    4.2909297    4.2909297    4.2909297   -13257.445   -9062.8175   -10857.304   -19852.213    5121.1275   -14171.397     3001.197    79.004931 
    1600    1411.8588    -107.8063    1.2774795   -106.52882   -17305.119    4.2860577    4.2860577    4.2860577   -17305.119     -34943.5    9391.5239    -26363.38    979.01524    1821.9928    12628.723    78.736125 
    1700     1130.965   -107.56467    1.0233209   -106.54135    15396.401     4.288161     4.288161     4.288161    15396.401    39127.472    -6335.968    13397.698    2715.8806   -6807.1559   -3181.7623    78.852096 
    1800    794.33388   -107.27935   0.71872999   -106.56062     -34557.7    4.3084533    4.3084533    4.3084533     -34557.7   -36724.013   -28916.544   -38032.545   -3410.3517   -11745.308    9862.8642    79.976825 
    1900    880.06569   -107.35035   0.79630193   -106.55404     25508.23      4.29265      4.29265      4.29265     25508.23     66945.08    1812.3882    7767.2205    12731.802     6365.386    12749.259    79.099993 
    2000    1729.5603   -108.13171    1.5649425   -106.56677    3540.2981    4.2818781    4.2818781    4.2818781    3540.2981    25943.934   -13532.129   -1790.9104   -14389.225    17554.373   -8020.3477    78.506008 
    2100    1809.4051   -108.21278    1.6371877   -106.57559   -12377.036    4.2929356    4.2929356    4.2929356   -12377.036   -10012.028   -3900.5072   -23218.573   -67.774534   -4163.2483    8687.9685     79.11578 
    2200    1500.2256   -107.93176    1.3574357   -106.57433   -16361.272    4.3019853    4.3019853    4.3019853   -16361.272   -27135.092   -18446.947   -3501.7772    7800.3046   -2077.8227   -3687.6811    79.617177 
    2300    825.43912   -107.29476   0.74687466   -106.54788    23237.911    4.2861983    4.2861983    4.2861983    23237.911     56806.24     535.9254    12371.569   -2072.7078   -5047.6432    9168.9672    78.743874 
    2400    871.87131   -107.32502   0.78888748   -106.53613   -18224.002    4.2852414    4.2852414    4.2852414   -18224.002   -78311.875    22299.762    1340.1057    8141.8404   -2181.5535    1457.2764    78.691146 
    2500    1296.7553   -107.71362    1.1733314   -106.54029   -30165.004    4.2915337    4.2915337    4.2915337   -30165.004     -68597.9   -10158.449   -11738.664    4899.7423    3540.7006     4175.028    79.038299 
    2600    1198.2975   -107.62082    1.0842448   -106.53658      15061.8    4.2932334    4.2932334    4.2932334      15061.8    87196.912    -5133.677   -36877.836    9024.8161    8821.8336    7657.8769    79.132249 
    2700    1419.1804   -107.82182    1.2841042   -106.53771    22611.937    4.2862117    4.2862117    4.2862117    22611.937    89239.328   -29270.189    7866.6733   -13553.986    3766.7107   -1902.3369    78.744613 
    2800    1792.9618   -108.16057    1.6223095   -106.53826    -21355.79    4.2831063    4.2831063    4.2831063    -21355.79   -11479.656   -24022.054   -28565.659   -3385.8821    4409.9545     2873.147    78.573584 
    2900    1324.6144   -107.74811     1.198539   -106.54957   -13912.842    4.2945887    4.2945887    4.2945887   -13912.842   -36352.125    5382.2858   -10768.686   -365.41931    5643.8329    15846.083    79.207215 
    3000    1044.5517   -107.48457   0.94513232   -106.53943    12259.619    4.2894886    4.2894886    4.2894886    12259.619    52149.136   -14724.801    -645.4773     2500.773   -1052.9519    2974.5522    78.925357 
    3100    599.58408   -107.08559   0.54251628   -106.54308    5155.7111    4.2843811    4.2843811    4.2843811    5155.7111    318.12406    34794.954   -19645.944    9859.0237    13826.281    1187.3645     78.64376 
    3200    1364.8082   -107.77965    1.2349072   -106.54474   -6488.5644     4.287419     4.287419     4.287419   -6488.5644    16822.114   -30700.976   -5586.8319   -7841.8071   -3110.4537     7333.515    78.811169 
    3300    1924.7768   -108.28908    1.7415785   -106.54751   -25340.652    4.2914427    4.2914427    4.2914427   -25340.652    6325.0957   -45989.147   -36357.905    7548.1228   -6464.3807    1279.7028    79.033273 
    3400    1210.3847   -107.63756    1.0951815   -106.54238    15557.403    4.2858838    4.2858838    4.2858838    15557.403    44123.017   -5570.3882     8119.581   -4915.4991    5346.9112    7057.7194    78.726544 
    3500    1593.4465   -107.97006    1.4417839   -106.52828    -13610.34    4.2860105    4.2860105    4.2860105    -13610.34   -31656.624    20024.444   -29198.839    4221.0887   -7435.7099    2510.7385    78.733526 
    3600    1283.0401   -107.69185    1.1609217   -106.53093   -17324.384    4.2934604    4.2934604    4.2934604   -17324.384   -58809.518   -16262.357    23098.724   -7524.2229    8153.0775   -4896.2469    79.144798 
    3700    684.32042   -107.14442    0.6191875   -106.52523     31164.72    4.2924117    4.2924117    4.2924117     31164.72    78263.492    18635.339   -3404.6716    18390.109    8882.6561    2486.2341    79.086817 
    3800    1207.6391   -107.62176    1.0926972   -106.52907   -11117.839     4.293115     4.293115     4.293115   -11117.839   -8808.6194   -12050.228    -12494.67   -9069.2978   -72.070913   -4291.8306    79.125701 
    3900    1433.7026   -107.82556    1.2972442   -106.52831   -4112.7774    4.2853728    4.2853728    4.2853728   -4112.7774   -2744.0714   -26917.174    17322.913    4803.6969    3566.8336   -1742.1925    78.698384 
    4000    1663.2923   -108.04468    1.5049819   -106.53969    -14735.71    4.2922494    4.2922494    4.2922494    -14735.71    11418.908   -55833.099    207.06018    -32.86835    1508.9456   -5152.9859     79.07785 
    4100    1297.6584   -107.71495    1.1741486    -106.5408    16635.651    4.3011489    4.3011489    4.3011489    16635.651    66315.951   -11108.771   -5300.2251    20313.978   -781.68707    -10735.57    79.570745 
    4200    1404.0983   -107.80611    1.2704576   -106.53565   -10694.994      4.29035      4.29035      4.29035   -10694.994   -36877.985    15131.067   -10338.066    4491.2621    10454.359    2055.2737    78.972912 
    4300    1049.6059    -107.4814   0.94970549   -106.53169    20312.143    4.2779041    4.2779041    4.2779041    20312.143   -32961.166    25203.491    68694.105   -300.39262    10969.421   -5309.7959    78.287627 
    4400    910.56193   -107.36298   0.82389557   -106.53909      11949.3    4.2941276    4.2941276    4.2941276      11949.3    40084.585   -24770.168    20533.484   -16076.563   -6264.8187    6863.5353    79.181704 
    4500    1323.9235   -107.73802    1.1979138   -106.54011   -34819.937    4.2962424    4.2962424    4.2962424   -34819.937    -49865.71   -33160.837   -21433.264   -227.47606        11628   -6278.4587    79.298747 
    4600    1232.5727   -107.65622    1.1152577   -106.54096    11632.721    4.2811629    4.2811629    4.2811629    11632.721    8426.2012   -39477.996    65949.958    6519.3412     7407.441    1577.3879    78.466677 
    4700    1694.8412   -108.07378    1.5335279   -106.54026    5623.8526    4.2897972    4.2897972    4.2897972    5623.8526    3214.7649    21922.913   -8266.1198    5424.4801   -22404.712   -9160.2943    78.942395 
    4800     1437.832   -107.83371    1.3009806   -106.53273   -15706.703    4.2989718    4.2989718    4.2989718   -15706.703   -55805.362   -15425.514    24110.766   -3287.9589    3055.6767    839.15882    79.449978 
    4900     1032.563   -107.45597   0.93428466   -106.52168    32587.359    4.2882435    4.2882435    4.2882435    32587.359        63078    41928.582   -7244.5063   -5068.5955    2118.2277    4273.1208    78.856647 
    5000    1359.7958   -107.75048    1.2303718   -106.52011   -15326.994    4.2929577    4.2929577    4.2929577   -15326.994   -41087.652    1716.3348   -6609.6652    8850.6688    3709.1037   -7121.7532    79.117005 
    5100    982.66354   -107.41297   0.88913462   -106.52383   -18647.469    4.2933709    4.2933709    4.2933709   -18647.469   -17394.564   -56029.895    17482.054    -94.38271    1839.2941     8790.772    79.139848 
    5200    1578.5727   -107.95056    1.4283258   -106.52223   -21372.292     4.289285     4.289285     4.289285   -21372.292   -12049.663   -54815.162    2747.9481    -3397.284    13185.191    -7771.565     78.91412 
    5300    1233.8247   -107.63729    1.1163905    -106.5209    40078.571    4.2842015    4.2842015    4.2842015    40078.571    36476.267    19234.045      64525.4     7032.856    2666.3703   -2977.3065    78.633872 
    5400    1532.7026   -107.91791    1.3868215   -106.53109   -2657.1889    4.2939414    4.2939414    4.2939414   -2657.1889    10079.191   -13883.947   -4166.8111    1043.4773   -1711.9329   -8917.0356    79.171405 
    5500    1111.2288   -107.53459    1.0054631   -106.52912    6189.8686    4.2990858    4.2990858    4.2990858    6189.8686      14778.5    6409.7115   -2618.6052    1615.0479   -10138.348    8445.6556    79.456301 
    5600    1075.3614   -107.49062   0.97300959   -106.51761    5426.9523    4.2865394    4.2865394    4.2865394    5426.9523   -26067.566   -11899.519    54247.942    -2376.465   -5212.9537    8779.6502    78.762675 
    5700    910.94517   -107.34707   0.82424233   -106.52283   -23177.413    4.2902145    4.2902145    4.2902145   -23177.413   -22104.601   -57045.325    9617.6877   -474.16099    3708.2957   -6238.9621     78.96543 
    5800    1492.6491   -107.86249    1.3505803   -106.51191   -26999.533    4.2935241    4.2935241    4.2935241   -26999.533   -22972.965    -60672.61    2646.9743    5610.9496    1983.8891    5903.1992    79.148325 
    5900     1173.134   -107.56792    1.0614763   -106.50645    40988.078    4.2899347    4.2899347    4.2899347    40988.078    28587.915    72056.222    22320.097    12385.139    -7495.863    7942.4609    78.949984 
    6000    1735.6389   -108.08569    1.5704425   -106.51525   -18004.856    4.2997485    4.2997485    4.2997485   -18004.856   -41952.608   -29977.642    17915.681    686.03249    14105.044   -4738.7287     79.49305 
    6100     1350.776   -107.73885    1.2222105   -106.51664     13135.42    4.2919824    4.2919824    4.2919824     13135.42    19417.637    35781.656   -15793.035   -2966.4969   -3691.3815    958.58256    79.063094 
    6200    988.77981   -107.40888   0.89466875   -106.51421    12753.479    4.2881503    4.2881503    4.2881503    12753.479    16873.912   -5430.8023    26817.328    7965.6144    3975.5075   -4354.3644    78.851508 
    6300    884.63505   -107.31622   0.80043638   -106.51578   -31849.605    4.3001404    4.3001404    4.3001404   -31849.605   -29177.655   -73891.108    7519.9482   -789.56352    5626.0657   -878.97512    79.514789 
    6400    921.58089     -107.341   0.83386575   -106.50714   -4264.5819     4.295695     4.295695     4.295695   -4264.5819   -11815.314   -55835.789    54857.357   -1024.0205    2239.1566   -10612.426    79.268442 
    6500    1534.1935   -107.89393    1.3881705   -106.50576    15568.306    4.2895157    4.2895157    4.2895157    15568.306   -17370.492    62616.007    1459.4041    10740.605    11855.233   -10811.019     78.92685 
    6600    1603.3279   -107.96428    1.4507248   -106.51356    19462.694    4.2934961    4.2934961    4.2934961    19462.694   -14231.522    26261.301    46358.302     589.9627    12569.882   -4842.7922    79.146773 
    6700    1748.9616   -108.10375    1.5824972   -106.52125    -15599.07    4.2971839    4.2971839    4.2971839    -15599.07   -44489.608    25560.692   -27868.295    8855.7458    8840.8201    706.07884    79.350896 
    6800    1003.5806   -107.43125   0.90806083   -106.52319   -19531.042    4.3002466    4.3002466    4.3002466   -19531.042   -28790.974   -8441.4395   -21360.713    12559.262   -1681.4449    3921.6076    79.520678 
    6900    1324.2217   -107.70791    1.1981837   -106.50972   -7335.5076    4.2904518    4.2904518    4.2904518   -7335.5076    13784.732   -15800.455   -19990.799   -1051.6394    3372.8709   -2120.5771    78.978539 
    7000     1102.504   -107.51714   0.99756881   -106.51957    7741.7077    4.2896077    4.2896077    4.2896077    7741.7077   -30139.185    15683.662    37680.646    6851.1487     9512.275    5692.9074    78.931934 
    7100    1450.0079   -107.84151    1.3119977   -106.52951   -7530.0333    4.2992089    4.2992089    4.2992089   -7530.0333   -15267.405   -21388.935    14066.239    9371.1599   -990.76081   -2887.1319    79.463128 
    7200    1984.6028   -108.30787    1.7957103   -106.51216   -21073.675     4.305787     4.305787     4.305787   -21073.675   -35015.646    5097.3836   -33302.763   -3543.0606   -8338.1679   -21782.843    79.828438 
    7300    1547.0111   -107.89743    1.3997682   -106.49766    522.70819    4.2949791    4.2949791    4.2949791    522.70819   -31379.096    15789.857    17157.364     177.2335   -1612.1819     8169.251    79.228818 
    7400    1280.1206   -107.65603      1.15828   -106.49775   -4696.1189    4.2881013    4.2881013    4.2881013   -4696.1189   -30285.445   -25285.755    41482.843   -2601.4198    3299.3727    6342.7586    78.848802 
    7500    872.70174   -107.30662   0.78963887   -106.51698    6723.0766    4.2968765    4.2968765    4.2968765    6723.0766   -15418.508    55154.883   -19567.144    535.75765    -7728.495    1617.7736    79.333866 
    7600    603.05715   -107.06656   0.54565879    -106.5209    14700.464    4.3040556    4.3040556    4.3040556    14700.464   -16676.542   -5203.9046    65981.839    10253.167   -7869.3361    2362.7258    79.732179 
    7700    1505.5685   -107.87436      1.36227   -106.51209   -13208.454    4.2948698    4.2948698    4.2948698   -13208.454   -37997.508    7131.9016   -8759.7547   -6898.6126    6209.5523   -23107.756    79.222768 
    7800    1796.4246   -108.14217    1.6254427   -106.51673   -1287.5708    4.2841736    4.2841736    4.2841736   -1287.5708   -39965.945   -5872.8507    41976.083    3064.3855    2363.9183    18144.297    78.632337 
    7900    1535.4436    -107.9207    1.3893016    -106.5314     510.1361    4.2946366    4.2946366    4.2946366     510.1361   -42083.208    14258.105    29355.511   -2623.4288   -5152.2097   -14600.486    79.209863 
    8000    1125.6058   -107.54644    1.0184718   -106.52797    4121.8989    4.3024719    4.3024719    4.3024719    4121.8989   -40152.731    19847.767    32670.661   -10388.936   -8394.9189     858.6726    79.644196 
    8100    1002.3235   -107.42231   0.90692339   -106.51538   -7243.7751    4.2928182    4.2928182    4.2928182   -7243.7751   -15520.711   -26938.616    20728.002   -1537.5395   -222.98335   -332.74192    79.109292 
    8200    865.84973   -107.29999   0.78343903   -106.51655   -4728.0201    4.2880323    4.2880323    4.2880323   -4728.0201   -16800.801     21386.48    -18769.74   -1210.6872   -611.62946   -2415.4664    78.844999 
    8300    1438.8607   -107.82474    1.3019114   -106.52283   -10763.486    4.2939643    4.2939643    4.2939643   -10763.486   -31303.422    -15437.25    14450.213    -10726.58   -8638.6388    10153.535    79.172667 
    8400    1728.0592   -108.08114    1.5635843   -106.51756    6840.9579     4.292624     4.292624     4.292624    6840.9579   -11506.751    34863.335   -2833.7101    1263.3415     4144.564    -864.9536    79.098556 
    8500    1619.8028   -107.98269    1.4656316   -106.51706    396.25588    4.2975787    4.2975787    4.2975787    396.25588   -24738.292    13138.437    12788.622    4429.4682    8451.2791    11558.782    79.372766 
    8600       1336.6   -107.71783    1.2093838   -106.50845    3016.6392    4.2995189    4.2995189    4.2995189    3016.6392   -11559.738   -5621.2507    26230.906    12287.305   -10152.443    1996.6507    79.480314 
    8700    721.75391   -107.17267    0.6530581   -106.51961    8192.6146    4.2909419    4.2909419    4.2909419    8192.6146   -21800.571   -27551.175    73929.589    1121.0029   -2714.1006   -8500.3247    79.005606 
    8800     1183.686   -107.59891     1.071024   -106.52788    7280.2177    4.2809875    4.2809875    4.2809875    7280.2177   -24440.136   -8001.4391    54282.228   -7353.9658   -647.43445   -16033.195    78.457031 
    8900    831.08603   -107.28908    0.7519841   -106.53709    21824.294    4.3005658    4.3005658    4.3005658    21824.294   -31297.755    30779.075    65991.564    1078.9986   -11932.205    10348.803    79.538388 
    9000    1746.1782   -108.08407    1.5799788   -106.50409   -15738.246    4.3069371    4.3069371    4.3069371   -15738.246   -34808.423   -2259.0692   -10147.245   -1157.3601   -2233.0294    18289.087     79.89242 
    9100    1637.9832   -107.96536    1.4820817   -106.48328    3320.0664    4.2889216    4.2889216    4.2889216    3320.0664   -20640.338     36567.96   -5967.4231    7635.2113    11751.324    4322.2074    78.894066 
    9200    1170.8087   -107.55151    1.0593723   -106.49213    -2548.469    4.2868165    4.2868165    4.2868165    -2548.469   -3153.2857   -21550.088    17057.967   -490.14351    471.87302   -3163.3247    78.777952 
    9300    1474.9837   -107.84566    1.3345963   -106.51106   -44121.032    4.2997876    4.2997876    4.2997876   -44121.032   -43077.257   -60262.329   -29023.509    3764.5282    4477.7698   -1272.8129    79.495221 
    9400    693.29603   -107.14305   0.62730881   -106.51574    262.24119    4.2975727    4.2975727    4.2975727    262.24119   -9941.2529    8011.8223    2716.1542   -4588.8853    12437.233    3065.2524    79.372431 
    9500    1667.4285   -108.00778    1.5087243   -106.49906   -1133.8914    4.2764632    4.2764632    4.2764632   -1133.8914    13096.222   -18411.129    1913.2327    9732.2118    2463.6134   -9457.7519    78.208546 
    9600    1508.4812   -107.88756    1.3649055   -106.52266    10755.865    4.2800708    4.2800708    4.2800708    10755.865    5461.9769    41246.857    -14441.24   -15343.342    647.70475   -9327.4034    78.406641 
    9700    1874.6127    -108.2209    1.6961889   -106.52472   -26143.907    4.2996452    4.2996452    4.2996452   -26143.907   -41235.884   -17905.295   -19290.541   -17999.598   -6094.8855    4286.7594     79.48732 
    9800    1237.9489    -107.6353    1.1201222   -106.51518   -6380.3001    4.2952889    4.2952889    4.2952889   -6380.3001    47883.517   -32338.728    -34685.69   -4842.1072   -6591.3178     3178.513    79.245964 
    9900    1249.1607   -107.63031    1.1302668   -106.50004   -5713.6109    4.2818486    4.2818486    4.2818486   -5713.6109   -3362.0747   -17994.157    4215.3986    5024.2342    3377.4139    1555.3461    78.504385 
   10000    620.04019   -107.07404   0.56102539   -106.51301    40243.204    4.2843097    4.2843097    4.2843097    40243.204    48886.886    40563.362    31279.365    14186.044   -18618.118    1982.1963    78.639833 
   10100    1359.8451   -107.74843    1.2304164   -106.51802   -33144.438    4.2998015    4.2998015    4.2998015   -33144.438   -44954.545   -45178.486   -9300.2847   -8740.5042   -5683.0538    6117.4088    79.495992 
   10200    1232.8954   -107.62273    1.1155496   -106.50718   -1315.7651    4.2958049    4.2958049    4.2958049   -1315.7651   -38905.968    13959.851    20998.821    3697.2911   -8903.2494    5067.5256    79.274524 
   10300    1745.7039   -108.07789    1.5795496   -106.49834    8918.5131    4.2806626    4.2806626    4.2806626    8918.5131    11476.972    3833.6802    11444.887    5754.9462     966.6005   -6993.6104     78.43917 
   10400    1336.7435   -107.72123    1.2095136   -106.51172    6857.3251     4.280222     4.280222     4.280222    6857.3251    52660.783   -37985.779    5896.9707   -5029.9741    7350.0051   -4241.3315    78.414954 
   10500    1111.8998   -107.52621    1.0060703   -106.52014   -5447.9117    4.2929422    4.2929422    4.2929422   -5447.9117     33548.64   -72339.205     22446.83    4743.8746    8321.6894    493.56303    79.116149 
   10600    1140.1028   -107.54089     1.031589    -106.5093    4050.7373    4.2919375    4.2919375    4.2919375    4050.7373    59213.079   -39879.804   -7181.0636   -10606.777    4910.9474   -10469.717     79.06061 
   10700    1034.0187    -107.4378   0.93560188   -106.50219    19486.676    4.2854116    4.2854116    4.2854116    19486.676   -7706.8715    47943.849    18223.051    7267.9155    688.73895   -1456.5054    78.700524 
   10800    1644.7971   -107.99558     1.488247   -106.50733   -18024.604    4.2950579    4.2950579    4.2950579   -18024.604   -52921.572    3498.5684   -4650.8079     5778.576   -1402.3965   -918.74734    79.233175 
   10900    1372.7005   -107.75136    1.2420482   -106.50931    15180.125    4.2940935    4.2940935    4.2940935    15180.125    36134.292    24605.641   -15199.559   -7734.0403   -6654.5353   -2215.7237    79.179816 
   11000    1426.4988   -107.79395    1.2907261   -106.50323    4383.1518    4.2859455    4.2859455    4.2859455    4383.1518    12078.583   -2428.5646     3499.437   -1978.9571   -3711.8988    6410.7019     78.72994 
   11100    990.94481   -107.41067   0.89662769   -106.51404    1510.3284    4.2941062    4.2941062    4.2941062    1510.3284    71953.806   -47358.373   -20064.448   -5631.5515   -13862.386   -4390.7724    79.180519 
   11200    1504.5125   -107.87182    1.3613145    -106.5105   -32293.941    4.3013115    4.3013115    4.3013115   -32293.941    2617.8158   -74264.388   -25235.251    2524.5173    -7938.545   -7609.9645    79.579773 
   11300    1595.5026    -107.9427    1.4436443   -106.49906   -7040.9539    4.2943222    4.2943222    4.2943222   -7040.9539   -2740.8933   -2227.3659   -16154.602   -715.14484    12384.743    1824.4296    79.192468 
   11400    1646.6297   -107.99245    1.4899052   -106.50255    4705.6046    4.2940204    4.2940204    4.2940204    4705.6046    38353.993    12694.803   -36931.982    10057.221    11761.307   -4581.5922    79.175775 
   11500    1330.0916   -107.71805    1.2034948   -106.51455   -20966.485      4.30226      4.30226      4.30226   -20966.485    3834.6191   -38254.988   -28479.086   -16858.715   -1730.1396   -8821.4022    79.632427 
   11600    1161.1865   -107.55399     1.050666   -106.50333   -18881.581    4.2981318    4.2981318    4.2981318   -18881.581    40172.538   -60025.792    -36791.49    9865.8692    5197.1292   -3928.6808    79.403415 
   11700    1423.9534   -107.78651    1.2884229   -106.49809   -8584.7835    4.2937113    4.2937113    4.2937113   -8584.7835    26367.564   -36105.628   -16016.287   -4535.3501   -3421.2198   -10521.327    79.158674 
   11800    1503.2741   -107.86314     1.360194   -106.50295   -14751.217    4.3008148    4.3008148    4.3008148   -14751.217    50656.387   -46281.846    -48628.19   -8288.1938   -15808.371   -6312.4624    79.552203 
   11900    1883.2455   -108.21509    1.7040001   -106.51109   -2780.9599    4.2936643    4.2936643    4.2936643   -2780.9599    32492.865    -17741.16   -23094.584    21628.411   -9844.9804    -1720.805    79.156077 
   12000    1648.9006    -108.0126    1.4919599   -106.52064    -8900.604    4.2798585    4.2798585    4.2798585    -8900.604    -3726.212   -10106.316   -12869.284   -2223.3743   -6451.5612   -9395.2522    78.394977 
   12100    1001.3783    -107.4334   0.90606812   -106.52733    -15975.02     4.284277     4.284277     4.284277    -15975.02    33043.363    -63555.47   -17412.951   -4983.9152    1846.0738   -2011.0766     78.63803 
   12200    905.92734   -107.34441    0.8197021   -106.52471   -26240.331    4.3032321    4.3032321    4.3032321   -26240.331    28982.646   -92611.414   -15092.225    4717.5877   -532.70251    2536.1147    79.686419 
   12300    1216.1015   -107.61375    1.1003542   -106.51339    -13556.83    4.2947137    4.2947137    4.2947137    -13556.83    16882.148   -65260.997    7708.3587   -16253.927   -2567.4061   -2811.6661    79.214131 
   12400    1853.1323   -108.18346     1.676753   -106.50671    24582.712    4.2719109    4.2719109    4.2719109    24582.712     81079.97    4746.1778   -12078.012   -5692.5052   -1531.6993   -14161.539    77.959052 
   12500    1638.6429   -108.00706    1.4826785   -106.52438     22849.96    4.2833997    4.2833997    4.2833997     22849.96    40265.941   -16118.597    44402.537    8398.1137   -8966.2847    1957.1738    78.589733 
   12600    1076.5452   -107.50055   0.97408072   -106.52647   -5815.4811    4.2967417    4.2967417    4.2967417   -5815.4811   -4446.0766   -50148.535    37148.168   -5970.5475   -19185.787    8709.6103    79.326397 
   12700    938.85379   -107.36131   0.84949464   -106.51181   -22864.957    4.2891731    4.2891731    4.2891731   -22864.957   -10780.499   -61022.715    3208.3418   -3756.6896   -11714.481    4239.8497    78.907942 
   12800    1020.1603    -107.4262   0.92306251   -106.50314    1358.3574    4.2732766    4.2732766    4.2732766    1358.3574    18937.162   -23366.716    8504.6266   -5250.6893    5206.2732    3240.1625    78.033845 
   12900    1520.0283   -107.89325    1.3753535    -106.5179    1526.2043    4.2806246    4.2806246    4.2806246    1526.2043   -17194.047    3569.8071    18202.853   -6280.6629    5862.3974    5399.1808    78.437081 
   13000      1818.75   -108.16035    1.6456432   -106.51471   -19015.402    4.2990729    4.2990729    4.2990729   -19015.402   -16515.174   -7060.0526    -33470.98    -12403.51    3885.8418   -17382.752    79.455585 
   13100    1638.6606   -107.98174    1.4826945   -106.49905   -16686.372    4.2877346    4.2877346    4.2877346   -16686.372   -12996.358   -11409.332   -25653.426    5313.3753    8424.6466    2945.7444    78.828579 
   13200    1194.8238   -107.57609    1.0811017   -106.49499    18497.617    4.2708701    4.2708701    4.2708701    18497.617    59917.813    -39247.91    34822.948   -6318.2377    11482.314    4253.7899    77.902087 
   13300     1000.231   -107.42248   0.90503001   -106.51745   -25155.921    4.2911833    4.2911833    4.2911833   -25155.921    4807.0164   -73392.552   -6882.2272   -8124.7112   -13373.652   -1333.7757    79.018939 
   13400    1042.7905   -107.46119   0.94353879   -106.51765   -29647.242    4.2981416    4.2981416    4.2981416   -29647.242     -21596.8   -60073.072   -7271.8539    8979.8306    -8527.092    5116.6897    79.403959 
   13500    1178.2043   -107.57315     1.066064   -106.50709    30664.317    4.2837239    4.2837239    4.2837239    30664.317    43250.016    38681.122    10061.812   -10248.051   -11193.141    2703.8372    78.607579 
   13600    1528.0683   -107.89252    1.3826283   -106.50989    3044.9786      4.28235      4.28235      4.28235    3044.9786   -12124.745    1381.3933    19878.288   -8566.1119   -10272.023    5795.3269     78.53197 
   13700    1048.1982   -107.47143    0.9484318   -106.52299    13678.641    4.2867217    4.2867217    4.2867217    13678.641   -15340.024    40453.194    15922.752    7391.1177   -1085.8108   -8086.0593    78.772727 
   13800    1344.5614   -107.73313    1.2165875   -106.51654   -6949.7161     4.297117     4.297117     4.297117   -6949.7161    16812.021   -10932.345   -26728.825    1929.9417    6325.9682   -7094.7525    79.347187 
   13900    1454.0653   -107.82197    1.3156688    -106.5063   -19325.724    4.2908474    4.2908474    4.2908474   -19325.724     15295.84   -51320.538   -21952.475    8394.2901    17918.731    11602.319    79.000387 
   14000    847.18591   -107.27307   0.76655162   -106.50652    25103.939    4.2755505    4.2755505    4.2755505    25103.939    63958.176   -16132.504    27486.144    23826.453    164.08767    1164.1234    78.158484 
   14100    1505.1672   -107.88257    1.3619069   -106.52066    5292.8384    4.2857716    4.2857716    4.2857716    5292.8384   -18843.134    35532.982    -811.3331    10348.268   -4479.0007   -14573.985    78.720362 
   14200    1457.8663   -107.83578    1.3191081   -106.51667   -13395.714    4.3020592    4.3020592    4.3020592   -13395.714   -14026.131     4444.079    -30605.09    -14807.46    5062.8071   -10697.223    79.621278 
   14300    974.86099   -107.38735   0.88207471   -106.50528    -931.0734     4.294331     4.294331     4.294331    -931.0734   -32282.653    18833.283     10656.15      20854.5    725.83874   -12971.374    79.192956 
   14400    1333.8699   -107.70214    1.2069135   -106.49522    6410.2086    4.2743405    4.2743405    4.2743405    6410.2086    8982.6367    -21896.06     32144.05   -8329.4218   -13322.108    3939.7015    78.092146 
   14500    1233.4943   -107.63023    1.1160916   -106.51414    13636.678    4.2788261    4.2788261    4.2788261    13636.678     62782.46   -16965.242   -4907.1858   -12434.547   -7224.4407    526.63486    78.338259 
   14600    1319.7332   -107.71634    1.1941224   -106.52222   -10630.253    4.3019906    4.3019906    4.3019906   -10630.253   -8950.2485   -615.62348   -22324.888    13004.732   -1229.5776   -12695.083    79.617471 
   14700    1302.0055   -107.68186    1.1780819   -106.50378    16593.437    4.2969841    4.2969841    4.2969841    16593.437     52029.16    3220.8513   -5469.7011   -2468.2904   -1062.9176    -305.1001    79.339828 
   14800    1193.6699   -107.57336    1.0800576   -106.49331    17410.651    4.2729676    4.2729676    4.2729676    17410.651    34483.439     14879.32    2869.1921    836.74966   -5438.3665    10422.991     78.01692 
   14900    1038.7922   -107.44911   0.93992105   -106.50919    5127.5255     4.278493     4.278493     4.278493    5127.5255   -31253.954    59284.196   -12647.665    1286.8952   -2790.1709    3279.2394    78.319963 
   15000    1249.6931   -107.64103    1.1307486   -106.51028   -20245.344    4.2966706    4.2966706    4.2966706   -20245.344    17918.892   -56117.556   -22537.369     14360.16    7121.2857   -1127.1232    79.322463 
   15100    1323.3397   -107.70627    1.1973855   -106.50888   -1911.0803    4.2852643    4.2852643    4.2852643   -1911.0803     21051.64   -17690.126   -9094.7544    9575.5009    1998.0136    7715.9629    78.692409 
   15200    1550.9175   -107.91318    1.4033028   -106.50988     25208.28     4.274958     4.274958     4.274958     25208.28    65341.876    22869.152   -12586.188    13318.965   -783.92801     -1676.76    78.125993 
   15300     1666.795   -108.02671    1.5081512   -106.51856     15857.45    4.2832377    4.2832377    4.2832377     15857.45    57949.993    17754.416   -28132.059    839.62749     4663.685    8461.3229    78.580815 
   15400    1472.4092    -107.8495    1.3322668   -106.51724   -19637.522    4.2916225    4.2916225    4.2916225   -19637.522    -47654.07    24325.736   -35584.231    5519.4006    1804.8601      10126.8    79.043203 
   15500    835.73769   -107.26816   0.75619302   -106.51197     2508.586     4.286809     4.286809     4.286809     2508.586   -30537.936    45107.192   -7043.4975    11373.303    4343.8751   -8060.6955     78.77754 
   15600    1221.0438   -107.61784    1.1048261   -106.51302   -16709.001    4.2806599    4.2806599    4.2806599   -16709.001   -26969.216   -11685.474   -11472.313   -12661.929     1180.706    6442.8096    78.439021 
   15700    1183.6477   -107.59747    1.0709893   -106.52648   -5779.9044    4.2926269    4.2926269    4.2926269   -5779.9044     34386.18   -25058.878   -26667.015    5034.2594   -1830.1319    7993.9966    79.098716 
   15800    1479.0811   -107.85202    1.3383037   -106.51371   -4871.4383    4.3011188    4.3011188    4.3011188   -4871.4383   -22815.658    53910.281   -45708.938   -2546.6403   -1566.4328    11083.559    79.569077 
   15900    1486.2115   -107.85517    1.3447554   -106.51041     15607.12    4.2805857    4.2805857    4.2805857     15607.12    30240.602    38922.385   -22341.627   -10561.636    -1514.888    13448.021    78.434946 
   16000    1691.8612   -108.04698    1.5308315   -106.51615    9011.5596    4.2662017    4.2662017    4.2662017    9011.5596   -5267.2081    21229.058    11072.829    8876.4414   -3669.7221   -8407.4771    77.646904 
   16100     1284.525   -107.71523    1.1622653   -106.55296   -11959.485    4.2915884    4.2915884    4.2915884   -11959.485   -31061.512    26097.546    -30914.49    7609.1335    4857.2695   -9187.6484    79.041318 
   16200    1136.6777   -107.56112    1.0284899   -106.53263   -34498.845    4.3055504    4.3055504    4.3055504   -34498.845   -10745.032   -36525.802   -56225.702   -4131.2736   -2005.6451   -1664.1376    79.815279 
   16300    869.22031   -107.29961    0.7864888   -106.51313    29062.691    4.2747091    4.2747091    4.2747091    29062.691    44685.355    45551.159   -3048.4404    2787.4949   -4667.7382    -516.1116    78.112346 
   16400    1381.3609   -107.75522    1.2498844   -106.50534      25979.9    4.2637279    4.2637279    4.2637279      25979.9    43376.099    10870.748    23692.854    8350.5468    5199.7749   -1070.8213     77.51191 
   16500    1462.3523   -107.85008    1.3231671   -106.52691   -24870.949    4.2957108    4.2957108    4.2957108   -24870.949   -18399.489   -5655.4682    -50557.89   -6959.7971    5741.6234   -12644.675    79.269317 
   16600    1486.7119   -107.85488    1.3452082   -106.50968    -5463.916    4.2927086    4.2927086    4.2927086    -5463.916   -2869.1253   -1424.6513   -12097.971    1887.3585    1449.9276    -14895.18    79.103234 
   16700    1380.9315    -107.7509    1.2494958   -106.50141    11254.244    4.2792362    4.2792362    4.2792362    11254.244   -2443.0131    24957.493    11248.253    5337.9533   -5685.9478    10732.631    78.360787 
   16800    961.18131   -107.38035   0.86969705   -106.51066   -2905.6629     4.284528     4.284528     4.284528   -2905.6629    37440.012   -8233.8783   -37923.122   -6328.0387   -448.47745   -8439.1149    78.651853 
   16900    1280.1056   -107.66825    1.1582664   -106.50999   -2899.1726    4.2782139    4.2782139    4.2782139   -2899.1726    -13750.81      30525.3   -25472.008   -22855.004    2350.7005   -7139.4249    78.304635 
   17000    932.40664   -107.37215   0.84366112   -106.52849    11116.955    4.2847166    4.2847166    4.2847166    11116.955    3297.2518    28608.909    1444.7038    4731.1627    5283.6312    7532.8047    78.662238 
   17100      1421.78    -107.8101    1.2864564   -106.52365   -8140.7241    4.2912077    4.2912077    4.2912077   -8140.7241    12237.239   -14891.323   -21768.088    16010.348   -7506.1565   -5869.0445    79.020287 
   17200    1498.2995    -107.8704    1.3556928    -106.5147    7394.3829    4.2883669    4.2883669    4.2883669    7394.3829    5609.1695    53663.956   -37089.977     2959.237   -1638.3524   -2214.9624    78.863458 
   17300    1763.9673   -108.10211    1.5960747   -106.50603   -18220.486    4.2869223    4.2869223    4.2869223   -18220.486    -36108.56    3240.4097   -21793.306    5926.8371    615.97327     4565.629    78.783785 
   17400    772.06697   -107.20864   0.69858242   -106.51006    28428.533    4.2798567    4.2798567    4.2798567    28428.533    7747.0619    68960.834    8577.7044    14022.178   -1938.9863    2820.3324     78.39488 
   17500    1002.5841   -107.42346   0.90715913    -106.5163    1171.5435     4.286659     4.286659     4.286659    1171.5435    -25272.48    28931.955   -144.84492   -3684.0789   -2202.3494    7332.5436     78.76927 
   17600    1474.5544   -107.84207    1.3342078   -106.50786   -5662.6071    4.2871044    4.2871044    4.2871044   -5662.6071    -17200.96    16954.094   -16740.956   -20841.682   -5469.5988    14699.476    78.793827 
   17700    1598.5726   -107.95366    1.4464221   -106.50724   -1460.9449    4.2833495    4.2833495    4.2833495   -1460.9449    17545.406    6317.2882   -28245.529   -2377.5562    513.04942    2729.5674    78.586967 
   17800    1526.1391   -107.89158    1.3808828    -106.5107   -16712.571    4.2921827    4.2921827    4.2921827   -16712.571   -2112.5918   -13023.305   -35001.816    11656.549    482.07883    6487.7678    79.074163 
   17900    1527.2632   -107.89066    1.3818999   -106.50876   -10784.345    4.2874608    4.2874608    4.2874608   -10784.345   -67630.236    72763.261    -37486.06   -1806.5758    1065.9615    2064.6526    78.813479 
   18000    846.41833   -107.28466   0.76585709    -106.5188    25609.875    4.2833408    4.2833408    4.2833408    25609.875    4392.9501     104321.9   -31885.222   -1698.1379    864.05897   -4563.1787    78.586491 
   18100    1158.8455   -107.56892    1.0485477   -106.52037   -3816.8687    4.2941283    4.2941283    4.2941283   -3816.8687   -8931.9323    31015.598   -33534.272   -16302.013   -6365.7483    1181.7297    79.181741 
   18200    1509.6469   -107.87935    1.3659602   -106.51339   -16220.453    4.2984032    4.2984032    4.2984032   -16220.453   -21208.285     3471.673   -30924.746   -8513.6215    2343.7331   -14028.468    79.418461 
   18300    1492.7353   -107.86297    1.3506583   -106.51231   -9415.1317    4.2745798    4.2745798    4.2745798   -9415.1317     21261.67   -11347.351   -38159.714    15130.102    11312.499   -13150.268    78.105258 
   18400    1196.7208    -107.6002    1.0828181   -106.51738    27225.552     4.262398     4.262398     4.262398    27225.552    8691.5192    78886.454   -5901.3177    -3420.707   -510.25348   -3137.5748    77.439402 
   18500    1185.6563   -107.61164    1.0728067   -106.53884   -14064.967    4.2954819    4.2954819    4.2954819   -14064.967   -34057.554   -2531.9983    -5605.347    7674.1194    418.24437    3848.8255    79.256647 
   18600    1337.3798   -107.72436    1.2100894   -106.51427    -23087.68    4.2963629    4.2963629    4.2963629    -23087.68   -41149.207   -2474.6162   -25639.216   -3071.4253   -1887.0703    58.516206     79.30542 
   18700    1454.7076   -107.81282    1.3162501   -106.49657   -5515.9352    4.2772383    4.2772383    4.2772383   -5515.9352    5717.6628    1716.5942   -23982.063    2436.3744    8319.9889   -75.729665    78.251079 
   18800    1589.2855   -107.94132    1.4380189    -106.5033   -12465.558    4.2849839    4.2849839    4.2849839   -12465.558   -8899.5407   -5893.0985   -22604.036    3884.8147    10081.113    10220.856    78.676964 
   18900     1105.662   -107.51013    1.0004262    -106.5097   -17928.776    4.2989098    4.2989098    4.2989098   -17928.776   -2465.8295   -11933.343   -39387.155   -7981.9284   -3766.3626   -7885.9846    79.446544 
   19000    1061.6189   -107.46279   0.96057509   -106.50222    6488.0631    4.2818769    4.2818769    4.2818769    6488.0631   -16265.502    63944.334   -28214.642    8678.2668    4181.1229   -3608.2105    78.505941 
   19100    1052.4904   -107.46232    0.9523154   -106.51001    3939.9786    4.2772806    4.2772806    4.2772806    3939.9786   -31493.793    68692.122   -25378.393   -4220.4732   -1541.0244    1056.5425    78.253402 
   19200    1505.9059   -107.88579    1.3625753   -106.52321   -32551.468    4.2914206    4.2914206    4.2914206   -32551.468   -42839.902   -7169.8797   -47644.622   -1582.4112   -1987.0077   -13012.403    79.032049 
   19300    1535.2544   -107.91279    1.3891305   -106.52366    710.02184    4.2868143    4.2868143    4.2868143    710.02184    14198.066    21753.251   -33821.251   -7339.8754    1482.8063   -8289.0796    78.777832 
   19400    1708.5892    -108.0703    1.5459674   -106.52433    11320.389    4.2742986    4.2742986    4.2742986    11320.389   -16737.164    72213.477   -21515.147    11991.643   -5356.6207   -269.95072    78.089848 
   19500    1091.3164   -107.51994   0.98744598    -106.5325    45834.642    4.2756437    4.2756437    4.2756437    45834.642    55763.747    87943.968   -6203.7876    6053.9586    1585.4038   -18117.197    78.163597 
   19600    1434.9033   -107.82526    1.2983307   -106.52693   -26847.902    4.2915744    4.2915744    4.2915744   -26847.902   -25681.549   -28368.497   -26493.659   -12788.298   -8144.9233   -409.48127    79.040548 
   19700    966.32642   -107.39331   0.87435246   -106.51896   -30705.459    4.2830804    4.2830804    4.2830804   -30705.459   -39360.371   -28159.184   -24596.821    3432.5005   -2294.6227    2859.8718    78.572158 
   19800    1108.2771   -107.51584    1.0027924   -106.51305    605.71271    4.2688593    4.2688593    4.2688593    605.71271   -33318.211    42966.736   -7831.3869    8894.7018    44.945284   -260.72413    77.792106 
   19900    979.62565   -107.41736   0.88638588   -106.53098    13689.101    4.2870965    4.2870965    4.2870965    13689.101    18008.977    58656.181   -35597.855    16761.778   -1648.7992    6302.7323    78.793391 
   20000    1502.5697   -107.87673    1.3595566   -106.51718   -1123.7918    4.2950241    4.2950241    4.2950241   -1123.7918   -25297.325    72086.053   -50160.103    27954.944    5278.6527    3123.4705    79.231308 
   20100    1655.6105    -108.0093    1.4980311   -106.51127    13423.162    4.2836307    4.2836307    4.2836307    13423.162    29629.652    48700.088   -38060.254   -3866.2525   -9227.4851      6386.56    78.602445 
   20200    2049.9732   -108.36583    1.8548589   -106.51098    -10242.67    4.2774721    4.2774721    4.2774721    -10242.67   -14362.047    17988.698   -34354.662   -4528.1287   -13409.095    2276.0011    78.263914 
   20300    1393.6769   -107.78558    1.2610282   -106.52455   -29456.183    4.2916683    4.2916683    4.2916683   -29456.183   -43682.557   -18218.797   -26467.195    7071.6605    3676.4125    3745.6625    79.045738 
   20400     730.0838   -107.18074   0.66059517   -106.52015   -17860.982    4.2985459    4.2985459    4.2985459   -17860.982    -52007.59    24831.646   -26407.003   -5442.1347    3617.5399    6971.9727    79.426368 
   20500    684.42372   -107.12591   0.61928097   -106.50663    36236.749    4.2769583    4.2769583    4.2769583    36236.749   -7940.6037    108802.81    7848.0404    1655.1186    6433.6131    13669.149    78.235712 
   20600    1075.6619   -107.48821   0.97328147   -106.51493    15110.381    4.2751743    4.2751743    4.2751743    15110.381    5812.0967    29793.052    9725.9951   -7399.7635   -3112.6776    7793.1131    78.137853 
   20700    1482.6424   -107.86751     1.341526   -106.52599   -24387.658    4.2982071    4.2982071    4.2982071   -24387.658    14987.343   -43010.296    -45140.02   -6267.3568   -10080.059   -353.74809    79.407591 
   20800    1761.1706   -108.10617    1.5935441   -106.51263   -16919.064    4.2874736    4.2874736    4.2874736   -16919.064   -22507.253   -12704.924   -15545.014    13509.008     5655.792   -3277.3083    78.814185 
   20900    1266.6238   -107.65581    1.1460678   -106.50974    26433.951    4.2597765    4.2597765    4.2597765    26433.951   -33683.629    62396.215    50589.268    9746.0403    4945.2133   -1397.3162     77.29661 
   21000    1473.2966   -107.86781    1.3330697   -106.53474    -2389.861     4.275773     4.275773     4.275773    -2389.861    -41278.42    40970.629   -6861.7919   -5330.8122   -2809.5027   -14799.574    78.170685 
   21100    918.18805   -107.35789   0.83079584   -106.52709    6506.1478    4.2986291    4.2986291    4.2986291    6506.1478   -14556.431    39539.086   -5464.2108   -4364.8306   -1198.5054   -5867.9195    79.430983 
   21200     1209.736   -107.60178    1.0945946   -106.50718    2793.5142    4.2911601    4.2911601    4.2911601    2793.5142    8523.2505   -16843.149    16700.442    7177.5592    1543.0814   -1007.1371    79.017658 
   21300    1592.1897    -107.9379    1.4406467   -106.49725    947.82403    4.2814062    4.2814062    4.2814062    947.82403    12871.329   -19725.242    9697.3854   -2698.5802    7686.4255    26.499298    78.480053 
   21400    1236.8287   -107.62624    1.1191086   -106.50713    17885.718    4.2805832    4.2805832    4.2805832    17885.718   -4976.8367    58231.355    402.63637   -1215.5267     5079.264    8609.4134    78.434809 
   21500    1371.7372     -107.753    1.2411766   -106.51182   -4414.5026    4.2871969    4.2871969    4.2871969   -4414.5026   -59647.713    45705.102    699.10354    12158.297    1806.3307    10088.157    78.798924 
   21600    1194.2569   -107.59458    1.0805887   -106.51399   -14625.584    4.2936712    4.2936712    4.2936712   -14625.584   -70608.435    37719.616   -10987.933   -12395.121    504.11785   -9081.5905    79.156458 
   21700    1229.7314   -107.62324    1.1126868   -106.51056   -12020.098    4.2794437    4.2794437    4.2794437   -12020.098   -43736.352    15521.265   -7845.2069    14773.495    7654.0336    6553.8155    78.372185 
   21800     1468.665   -107.84459     1.328879   -106.51571    15670.679    4.2645256    4.2645256    4.2645256    15670.679    18741.688    15739.328     12531.02    12687.579    7316.2641    -4033.555    77.555427 
   21900    1304.2576   -107.71189    1.1801197   -106.53177   -13313.121    4.2819153    4.2819153    4.2819153   -13313.121   -9724.6696   -33361.114    3146.4205   -23354.102   -2947.6926   -11925.945    78.508055 
   22000    1090.1657   -107.50723   0.98640488   -106.52083   -29865.038    4.2975091    4.2975091    4.2975091   -29865.038   -41486.586   -4152.0319   -43956.498    15882.494    2962.0677   -290.36792    79.368911 
   22100    1082.5403   -107.48587   0.97950524   -106.50637    4304.8168    4.2836683    4.2836683    4.2836683    4304.8168   -20534.278    48960.295   -15511.566    9158.3441   -2568.3053   -5400.1183    78.604517 
   22200    1606.7939   -107.95977    1.4538609   -106.50591     9417.752    4.2721377    4.2721377    4.2721377     9417.752   -13475.771    35196.077      6532.95    -13929.53    1538.2612   -1111.4916     77.97147 
   22300    1733.8553   -108.08493    1.5688288    -106.5161   -9601.3576    4.2923042    4.2923042    4.2923042   -9601.3576   -33425.683     16128.64    -11507.03    10701.592    4443.1783    14455.585    79.080876 
   22400    1798.7801    -108.1302     1.627574   -106.50262   -14947.059    4.2916415    4.2916415    4.2916415   -14947.059   -20688.415   -3832.7063   -20320.056   -13509.876    913.31947    17265.569    79.044255 
   22500    1178.5424   -107.56779    1.0663699   -106.50142    11607.046    4.2701138    4.2701138    4.2701138    11607.046   -731.71015    23458.966    12093.884   -17263.798   -3.8584471    -591.8031    77.860706 
   22600     1080.568   -107.49119   0.97772062   -106.51347   -20013.248    4.2786492    4.2786492    4.2786492   -20013.248   -5373.1401   -23909.863   -30756.742    14787.618   -4469.6742   -8332.5519    78.328544 
   22700    1073.3897    -107.4842   0.97122553   -106.51297   -14680.938    4.2898906    4.2898906    4.2898906   -14680.938   -50724.987    41515.178   -34833.004   -12862.029    2147.0774   -789.67268    78.947547 
   22800    1451.5691   -107.82661    1.3134102    -106.5132   -21529.892    4.2873701    4.2873701    4.2873701   -21529.892   -17120.881   -21966.406   -25502.389   -10723.021   -1724.1168   -21717.347    78.808474 
   22900    1809.0177   -108.14425    1.6368372   -106.50741    16934.893     4.271385     4.271385     4.271385    16934.893   -1097.9403    60016.768   -8114.1474   -14313.337   -1571.6103   -11785.898    77.930266 
   23000     1624.651   -107.99111    1.4700183   -106.52109    6647.5522    4.2804148    4.2804148    4.2804148    6647.5522   -24953.057    68340.169   -23444.455   -21073.226   -8888.5636    -2347.972    78.425547 
   23100    1356.4951   -107.74716    1.2273853   -106.51978   -11343.404    4.2892337    4.2892337    4.2892337   -11343.404   -16560.487    13921.167    -31390.89   -13624.622   -9785.8207   -10770.264    78.911288 
   23200    1169.4763   -107.57343    1.0581667   -106.51526    22508.506    4.2728959    4.2728959    4.2728959    22508.506    8522.0491    51658.825    7344.6448    11053.398   -5188.2794   -4837.1289    78.012992 
   23300     660.1307   -107.12642   0.59730013   -106.52912   -14025.656    4.2768252    4.2768252    4.2768252   -14025.656   -40076.705     5604.684    -7604.946   -11726.561   -9869.2968    14709.328    78.228408 
   23400    860.16648   -107.30498   0.77829671   -106.52668   -21787.882    4.2890385    4.2890385    4.2890385   -21787.882   -45336.575    7991.1566   -28018.228    1735.8943     185.0986   -488.12041    78.900513 
   23500    1288.4338   -107.67996    1.1658019   -106.51416    20873.027    4.2818416    4.2818416    4.2818416    20873.027    36401.387    49963.832   -23746.138    29383.099    1720.4433    5852.0695    78.504001 
   23600    1701.9028   -108.04925    1.5399175   -106.50933     13908.54    4.2754826    4.2754826    4.2754826     13908.54    56259.416    15419.166   -29952.963   -5609.7997   -15640.896    9455.2706    78.154757 
   23700    1951.0502   -108.27818    1.7653512   -106.51282   -18350.533    4.2875817    4.2875817    4.2875817   -18350.533   -9412.9389   -5084.5537   -40554.106   -11243.745   -8563.0609    6929.4992    78.820142 
   23800    1469.0001   -107.83057    1.3291822   -106.50139     2364.896    4.2826025    4.2826025    4.2826025     2364.896    41140.692    2481.1831   -36527.187    11486.493    3651.1239    3574.1412    78.545858 
   23900     1099.271    -107.5027   0.99464351   -106.50806   -23268.654    4.2774094    4.2774094    4.2774094   -23268.654   -30792.374   -29758.604   -9254.9845   -13605.632   -9707.5566    5582.2119    78.260471 
   24000    885.91337   -107.32075   0.80159303   -106.51915   -26944.855    4.2848586    4.2848586    4.2848586   -26944.855     -489.594   -76674.747    -3670.223   -16479.314   -6625.6556    1416.7534    78.670061 
   24100    1023.9257   -107.44299   0.92646953   -106.51652    11374.751     4.279577     4.279577     4.279577    11374.751    7891.7335     33054.72   -6822.1997    11579.379   -1371.1984    3382.0684    78.379506 
   24200    1346.3526   -107.73762    1.2182081   -106.51941    2570.4493    4.2811353    4.2811353    4.2811353    2570.4493     12619.75    3171.4224   -8079.8244   -14607.999   -2107.4545   -6035.2997    78.465158 
   24300    1589.1407   -107.94968    1.4378879    -106.5118   -5547.3712    4.2918945    4.2918945    4.2918945   -5547.3712   -12792.835    14401.494   -18250.773    4184.0576    1006.9063   -8607.4429    79.058236 
   24400    1557.4887   -107.90688    1.4092485   -106.49763    8144.3536    4.2817126    4.2817126    4.2817126    8144.3536    71.507313    60887.753     -36526.2    36344.132   -5541.7214    8680.8247    78.496908 
   24500    1184.5589   -107.56701    1.0718138   -106.49519    750.08114    4.2692434    4.2692434    4.2692434    750.08114    44862.992   -9520.5269   -33092.221   -2410.6064   -4417.0186    6830.3618    77.813107 
   24600    826.68755   -107.26555   0.74800427   -106.51755   -7685.9593    4.2855226    4.2855226    4.2855226   -7685.9593     36638.05   -28739.587   -30956.341    1338.8256    1381.3067     3595.089    78.706639 
   24700    895.88633   -107.32268   0.81061678   -106.51206    -18045.35    4.2940711    4.2940711    4.2940711    -18045.35   -1477.4621    -11263.14   -41395.448     13704.31   -3139.9512    3091.9099    79.178575 
   24800    1232.6318   -107.63122    1.1153112   -106.51591   -11369.883     4.269144     4.269144     4.269144   -11369.883   -8480.8562    -12877.58   -12751.214   -8697.1162   -6516.1075    5534.1684    77.807668 
   24900    1421.7224   -107.81204    1.2864043   -106.52564    20229.893    4.2553659    4.2553659    4.2553659    20229.893    41854.863     12355.57    6479.2455   -9802.6727    3620.7188    3080.4281    77.056755 
   25000    1989.2122   -108.34594     1.799881   -106.54606   -11206.583      4.28142      4.28142      4.28142   -11206.583    9213.9321   -2580.2654   -40253.417   -9100.8026   -2442.9698   -1454.6438    78.480814 
   25100    1286.0391   -107.69175    1.1636352   -106.52812    -8110.756    4.3046221    4.3046221    4.3046221    -8110.756    29434.423    2602.0454   -56368.737    4309.9424   -3367.1878   -3492.0955    79.763662 
   25200    1402.2401   -107.77959    1.2687763   -106.51082   -11988.127    4.2743132    4.2743132    4.2743132   -11988.127   -24023.135   -2221.7615   -9719.4847   -2618.4279   -6399.0283   -1582.5453    78.090648 
   25300    665.70064   -107.10101   0.60233993   -106.49867    43356.617    4.2406283    4.2406283    4.2406283    43356.617    44065.004    61623.097    24381.749    8563.5366   -3569.2017    -3270.929    76.258913 
   25400    875.29887   -107.33948   0.79198881   -106.54749   -18780.039    4.2774179    4.2774179    4.2774179   -18780.039    3959.2666       -39786   -20513.384   -1389.7715   -3200.9699    7129.5902    78.260937 
   25500    1043.5725   -107.46275   0.94424636   -106.51851    -24591.07    4.2970627    4.2970627    4.2970627    -24591.07    20706.026   -56768.703   -37710.532    1927.9373   -4031.1877    4296.7269    79.344178 
   25600    1225.0857   -107.61914    1.1084832   -106.51066    21370.529    4.2627841    4.2627841    4.2627841    21370.529    42499.976    15951.554    5660.0585   -4304.3947   -3939.7671    -1128.823    77.460451 
   25700    2028.0442   -108.34828     1.835017   -106.51327    2733.5479    4.2570324    4.2570324    4.2570324    2733.5479    7615.3097    25620.581   -25035.247   -5877.8994    16567.525    5892.5781    77.147326 
   25800    1695.4363   -108.05894    1.5340664   -106.52487    7184.6943    4.2772863    4.2772863    4.2772863    7184.6943    64563.178   -2782.9443   -40226.151    9697.3143    1030.4747   -7897.4306    78.253713 
   25900    1260.9379    -107.6645    1.1409231   -106.52357    6292.7977     4.287839     4.287839     4.287839    6292.7977    31931.607    12488.406    -25541.62    21362.085   -1800.6055   -8114.3318    78.834334 
   26000    1087.7345   -107.49204   0.98420505   -106.50783   -1655.5491    4.2816241    4.2816241    4.2816241   -1655.5491    17476.287    2282.4561   -24725.391   -831.11008    1202.5226    15576.232    78.492041 
   26100    721.36539   -107.15749   0.65270657   -106.50478     92.68862    4.2641356    4.2641356    4.2641356     92.68862    25453.879   -24330.002   -845.81158    4968.7467   -7347.2602   -10000.117    77.534147 
   26200    778.99682   -107.23247   0.70485269   -106.52762    6705.9235    4.2705694    4.2705694    4.2705694    6705.9235    14013.482    3735.5451    2368.7436     12073.92   -571.44666   -1061.8615    77.885633 
   26300    1386.2738   -107.77639    1.2543297   -106.52206    -30247.97    4.2926934    4.2926934    4.2926934    -30247.97   -39685.508   -9824.0335   -41234.369    1334.0309    -4445.039    14251.134     79.10239 
   26400    1566.4178   -107.93395    1.4173277   -106.51662    20400.802    4.2688169    4.2688169    4.2688169    20400.802    25093.455    34983.886    1125.0653   -4407.1592   -3725.3073   -19353.563    77.789787 
   26500    1737.8349   -108.09182    1.5724295   -106.51939    24305.954    4.2603422    4.2603422    4.2603422    24305.954    26462.856    60388.703   -13933.697   -6281.3251    4246.2558   -8278.8412     77.32741 
   26600     1714.817   -108.08348    1.5516024   -106.53188    2910.6579    4.2802302    4.2802302    4.2802302    2910.6579    9186.0195     24405.25   -24859.296    563.55546    1286.2612    7483.0868    78.415403 
   26700     1335.412   -107.73205    1.2083088   -106.52374    8321.3797    4.2852457    4.2852457    4.2852457    8321.3797    8922.4845    28531.556   -12489.901   -5224.8007    910.66586   -17287.822    78.691383 
   26800    954.09131   -107.38083   0.86328187   -106.51755   -12643.974    4.2753276    4.2753276    4.2753276   -12643.974   -13544.048   -38039.965    13652.093   -1660.0939   -9693.6576    2149.5329    78.146261 
   26900    554.43235   -107.01963   0.50166204   -106.51797    23240.477    4.2623771    4.2623771    4.2623771    23240.477   -20280.945    82679.811    7322.5661    13356.456    200.52812     11617.84    77.438263 
   27000    1057.4464    -107.4926    0.9567997    -106.5358   -20971.015    4.2752838    4.2752838    4.2752838   -20971.015   -28203.478   -45891.686    11182.118    -6488.356    2922.0153   -2400.6925    78.143857 
   27100    1064.0432   -107.49507   0.96276868   -106.53231    8650.8399     4.275903     4.275903     4.275903    8650.8399    6897.1931    17261.359    1793.9672     4233.509   -11357.768   -3869.3617    78.177814 
   27200    1745.2179    -108.1025    1.5791098   -106.52339     2671.152    4.2718935    4.2718935    4.2718935     2671.152   -12493.261    33129.908   -12623.191    17320.138     1416.317     4629.666    77.958099 
   27300    1592.7793    -107.9637    1.4411802   -106.52252    5784.2896    4.2752541    4.2752541    4.2752541    5784.2896    17135.638    12175.278   -11958.046    2809.3783   -10848.578    6627.9591    78.142227 
   27400    1616.8643   -107.98442    1.4629728   -106.52145    9213.8431    4.2653779    4.2653779    4.2653779    9213.8431    17791.594    16643.028   -6793.0934   -6947.2058   -9614.5065   -11002.924    77.601933 
   27500    1395.9069   -107.79269    1.2630459   -106.52965   -24946.523    4.2779763    4.2779763    4.2779763   -24946.523   -6504.5463   -43973.779   -24361.242   -11883.429    13004.437    14417.581     78.29159 
   27600    842.68267   -107.28873   0.76247698   -106.52625   -14781.829    4.2763403    4.2763403    4.2763403   -14781.829   -24691.499   -30238.478    10584.491    6251.3375   -8893.5988    25819.843    78.201807 
   27700    871.29596   -107.30639    0.7883669   -106.51802    7382.6286    4.2559256    4.2559256    4.2559256    7382.6286   -11019.307   -7941.1299    41108.323    9371.0806   -14607.809   -12746.377    77.087169 
   27800    975.75199   -107.41711    0.8828809   -106.53423   -20901.014    4.2766417    4.2766417    4.2766417   -20901.014   -37284.611   -20184.137   -5234.2939    -8352.913    7835.7599    9235.5814    78.218338 
   27900     1205.648   -107.60956    1.0908957   -106.51866   -16240.669    4.2848095    4.2848095    4.2848095   -16240.669   -43519.018   -11687.654    6484.6663   -2053.7351    -5417.452    24455.606    78.667354 
   28000    1704.1527   -108.05093    1.5419532   -106.50898    3675.9534    4.2589427    4.2589427    4.2589427    3675.9534   -11273.205    19393.234     2907.832     15473.65   -26919.631    -6473.305     77.25123 
   28100    1613.7054   -107.98514    1.4601146   -106.52503    6482.2077    4.2654361    4.2654361    4.2654361    6482.2077    16030.562   -9773.9723    13190.033     15035.68   -3577.2259    13183.997    77.605108 
   28200    1456.6833   -107.84305    1.3180377   -106.52501   -7587.2516    4.2779536    4.2779536    4.2779536   -7587.2516   -20525.779    13008.812   -15244.788   -2819.4823    3658.6209    15289.624    78.290346 
   28300    1040.6027    -107.4639   0.94155921   -106.52234   -10425.953    4.2711778    4.2711778    4.2711778   -10425.953   -56768.781   -25532.394    51023.316   -5533.5223   -7541.2863   -14787.197    77.918922 
   28400    1039.5834   -107.46327   0.94063693   -106.52263   -13064.344     4.268382     4.268382     4.268382   -13064.344   -21872.948   -26744.556     9424.473   -9796.6568     474.8866   -4456.1954    77.766014 
   28500    877.27251   -107.32078    0.7937746     -106.527    7738.4759    4.2688262    4.2688262    4.2688262    7738.4759   -36352.705     15225.96    44342.173    1304.1139   -6085.5805    4800.4247    77.790296 
   28600    1256.1463   -107.66464    1.1365876   -106.52805    5354.1337    4.2683248    4.2683248    4.2683248    5354.1337   -35201.032     16736.46    34526.973   -7300.1091   -12033.416    3681.8931    77.762887 
   28700    1410.9246   -107.80643    1.2766343    -106.5298    13395.114    4.2682952    4.2682952    4.2682952    13395.114     14772.54    845.89493    24566.907   -13987.071   -2874.8859   -305.81219    77.761267 
   28800    1562.1004   -107.94329    1.4134213   -106.52987   -2172.5233    4.2721648    4.2721648    4.2721648   -2172.5233   -12352.188   -8619.5276    14454.145      16489.8    1294.8707    3461.0763    77.972954 
   28900    1524.1579    -107.9101    1.3790901   -106.53101   -10206.814    4.2683747    4.2683747    4.2683747   -10206.814   -37841.059     10842.06   -3621.4421    4300.8749   -12430.204   -9364.5305    77.765617 
   29000    1526.5463   -107.90981    1.3812512   -106.52856     11930.78    4.2639777    4.2639777    4.2639777     11930.78   -31996.218    34123.211    33665.348   -4824.2792    4017.9543   -6541.8717    77.525534 
   29100    1186.9601   -107.60832    1.0739865   -106.53433   -18210.523     4.278592     4.278592     4.278592   -18210.523   -43410.977   -14373.358     3152.767     6920.575    -3080.029    17317.198      78.3254 
   29200    849.52521   -107.29859   0.76866826   -106.52992   -8543.1531    4.2688206    4.2688206    4.2688206   -8543.1531   -31009.465   -16478.174     21858.18   -1769.4585   -12156.185   -798.27081    77.789991 
   29300    1157.0503      -107.57    1.0469234   -106.52307    14391.202    4.2617771    4.2617771    4.2617771    14391.202   -10588.157    1458.2279    52303.535   -1018.3454   -11045.275    6609.3215    77.405568 
   29400    1339.6654   -107.74232    1.2121574   -106.53016   -8987.8851    4.2785641    4.2785641    4.2785641   -8987.8851   -21177.761   -27388.869    21602.975    338.90706    1363.8806    2040.0071    78.323867 
   29500    1496.9485   -107.88352    1.3544704   -106.52905   -3519.7524     4.274287     4.274287     4.274287   -3519.7524   -16491.235   -20605.305    26537.283   -21353.287   -4653.2768    9761.0613    78.089213 
   29600    1651.2873    -108.0192    1.4941195   -106.52508    10526.115    4.2702408    4.2702408    4.2702408    10526.115    -9878.653    2582.0938    38874.905   -8359.4241    -7398.159    1633.6836    77.867655 
   29700    1474.4492   -107.86007    1.3341126   -106.52596   -2156.0542    4.2695056    4.2695056    4.2695056   -2156.0542   -52695.307    24378.758    21848.387    10560.791   -9826.6301   -7945.9525    77.827445 
   29800    878.00134   -107.32587   0.79443407   -106.53143    9216.1024    4.2640737    4.2640737    4.2640737    9216.1024   -28850.517   -6223.2645    62722.088    -3154.268    1771.2176     11992.01    77.530771 
   29900    861.02449   -107.31386   0.77907305   -106.53479    3838.8742    4.2773057    4.2773057    4.2773057    3838.8742   -34279.339   -45393.833    91189.794    1145.7292   -1764.4701   -2106.7472    78.254779 
   30000    1217.0758    -107.6359    1.1012357   -106.53466   -23494.488    4.2861433    4.2861433    4.2861433   -23494.488   -42088.781   -55507.338    27112.654   -5204.4066    5682.3892   -925.95832    78.740845 
   30100    1481.0699   -107.87347    1.3401032   -106.53337    -11907.89    4.2716313    4.2716313    4.2716313    -11907.89   -13829.355   -22694.618     800.3038   -6337.0022    -23982.45    14809.238    77.943747 
   30200    1351.9474   -107.75328    1.2232704   -106.53001     37709.25    4.2643919    4.2643919    4.2643919     37709.25   -4780.2296    19377.737    98530.242    22009.643    5847.5081    -4397.978    77.548128 
   30300    1741.9721   -108.10875    1.5761729   -106.53257   -18888.393    4.2816104    4.2816104    4.2816104   -18888.393    -41105.58    723.59204   -16283.192    5953.2288   -940.89605    10856.059    78.491283 
   30400    990.42209   -107.42552   0.89615472   -106.52936   -7697.0198     4.285462     4.285462     4.285462   -7697.0198   -48985.005    12970.402    12923.544   -5430.9236   -3663.3746    724.07864      78.7033 
   30500    1065.2242   -107.48089   0.96383723   -106.51705    4355.5302    4.2721101    4.2721101    4.2721101    4355.5302   -31875.082   -18980.356    63922.028    7284.3925     8045.926    21045.945    77.969961 
   30600    1274.5061   -107.66605    1.1531999   -106.51285     9725.449    4.2669492    4.2669492    4.2669492     9725.449   -14628.355   -25885.085    69689.787   -4321.9915    6135.3779   -8483.9264    77.687725 
   30700    1182.6389   -107.60074    1.0700765   -106.53067   -7021.7612    4.2820137    4.2820137    4.2820137   -7021.7612   -36003.601   -27645.475    42583.792    7248.8216   -16057.696    9748.5168    78.513465 
   30800    1171.6393   -107.58262    1.0601239   -106.52249   -5403.1589    4.2915919    4.2915919    4.2915919   -5403.1589    -33188.85   -17849.286    34828.659    12290.832    149.53487    6466.2215    79.041515 
   30900     1753.273   -108.09923    1.5863982   -106.51283    16374.583    4.2684949    4.2684949    4.2684949    16374.583    -5218.417    44221.234    10120.931   -4293.7998    6265.8622   -4856.7965    77.772187 
   31000    910.84952   -107.35824   0.82415579   -106.53409    13323.827    4.2705197    4.2705197    4.2705197    13323.827   -22693.396    9301.8947    53362.981    5986.9351   -12354.878    14748.552    77.882915 
   31100     1221.122   -107.63608    1.1048969   -106.53119   -32884.711    4.2889187    4.2889187    4.2889187   -32884.711   -57456.015   -8424.5053   -32773.613    1398.8884    11019.636    2278.6463    78.893904 
   31200    1399.8577   -107.78685    1.2666206   -106.52023    2711.6515    4.2742127    4.2742127    4.2742127    2711.6515   -41141.259   -26532.809    75809.022   -7970.8542   -1518.3746   -1259.2021    78.085142 
   31300    1362.4109   -107.76415    1.2327381   -106.53141   -22747.505    4.2699061    4.2699061    4.2699061   -22747.505   -26317.111   -48062.069    6136.6655    16636.068   -9208.8833     5042.069    77.849349 
   31400    1288.5609   -107.70212     1.165917    -106.5362    9920.1239    4.2854992    4.2854992    4.2854992    9920.1239    -20716.16    4663.0663    45813.465     7050.044    10530.012      2731.74    78.705352 
   31500    1624.7354   -107.98952    1.4700947   -106.51942   -11862.988    4.2980552    4.2980552    4.2980552   -11862.988   -34241.415   -1649.2548    301.70581    10070.066   -4194.3917    9386.4491    79.399173 
   31600    972.11593   -107.39584   0.87959092   -106.51624   -9650.4485     4.284262     4.284262     4.284262   -9650.4485    -17258.62   -13975.713    2282.9876    9611.2479   -4463.4236    27735.968    78.637206 
   31700    1289.1016   -107.66509    1.1664062   -106.49869    27542.772    4.2571075    4.2571075    4.2571075    27542.772     14119.63    72622.333    -4113.646   -6077.8093    6587.7856   -1724.2844    77.151409 
   31800    905.43037   -107.35007   0.81925243   -106.53082    2889.6052    4.2836173    4.2836173    4.2836173    2889.6052   -25602.296    -12387.99    46659.102    5336.1522   -8444.0198   -6153.5888    78.601707 
   31900    1087.5483    -107.5001   0.98403656   -106.51606   -36684.552    4.3002721    4.3002721    4.3002721   -36684.552   -39554.909   -35989.726   -34509.022    10214.059    6276.7515    9850.7629    79.522095 
   32000    1487.9915   -107.84482     1.346366   -106.49845    30605.765    4.2676402    4.2676402    4.2676402    30605.765    -4632.792    14303.518    82146.569   -735.82396    7615.3263    10437.197    77.725477 
   32100     1586.056   -107.95517    1.4350968   -106.52007    21161.103      4.26966      4.26966      4.26966    21161.103    10205.166    24908.593    28369.551    14612.233    -4913.541   -3341.2598    77.835888 
   32200     1438.892   -107.83245    1.3019398   -106.53051   -3537.0137    4.2938157    4.2938157    4.2938157   -3537.0137   -23175.211   -12454.571    25018.741    5442.4063    4565.0508    7308.4147    79.164451 
   32300    1300.1441   -107.68587    1.1763977   -106.50947   -13681.661    4.2976286    4.2976286    4.2976286   -13681.661    772.49236   -1058.8619   -40758.615    2103.3474   -2602.0432    8518.9117    79.375531 
   32400     1157.202   -107.53944    1.0470607   -106.49238   -7798.4141    4.2749037    4.2749037    4.2749037   -7798.4141    23332.545   -12336.412   -34391.375    17904.171   -5371.8253   -16373.909    78.123018 
   32500    1091.3346   -107.48418   0.98746248   -106.49672    12907.739    4.2662649    4.2662649    4.2662649    12907.739    7726.6745    4312.5439        26684    7257.4973   -2136.0025    66.929592    77.650358 
   32600     1370.796   -107.75894    1.2403251   -106.51862   -18262.205    4.2921603    4.2921603    4.2921603   -18262.205   -23048.427   -19882.048   -11856.141   -11166.134   -1018.7117    2391.8641    79.072924 
   32700    1559.7874   -107.92615    1.4113284   -106.51482   -19705.495    4.2882723    4.2882723    4.2882723   -19705.495   -39177.014   -47108.396    27168.925    7968.6913   -194.17471   -7655.0239    78.858237 
   32800    1503.5339   -107.86394     1.360429   -106.50351    34037.575    4.2626749    4.2626749    4.2626749    34037.575    31939.413    55831.217    14342.096    7057.8473     4179.589     5081.735    77.454494 
   32900    1492.9714   -107.87682    1.3508719   -106.52595   -4725.5821    4.2833077    4.2833077    4.2833077   -4725.5821    10266.165   -6183.5421    -18259.37   -9013.8631   -8085.6043    6992.8941    78.584669 
   33000    1135.9828   -107.53938    1.0278611   -106.51152   -16148.496     4.295655     4.295655     4.295655   -16148.496   -18461.838    1819.3074   -31802.956   -1675.2839    2796.7808    1625.7333    79.266228 
   33100    983.46205   -107.39266   0.88985713    -106.5028    5901.0274    4.2762431    4.2762431    4.2762431    5901.0274    13355.298    36463.863   -32116.079   -3965.1705    15383.134   -10938.405    78.196473 
   33200    1138.8694   -107.53928     1.030473   -106.50881    1828.3177    4.2755047    4.2755047    4.2755047    1828.3177   -21042.449   -11788.357    38315.759   -6097.4608   -5711.1357    4299.8186     78.15597 
   33300    1430.8711   -107.81114    1.2946823   -106.51646   -4125.4902    4.2839235    4.2839235    4.2839235   -4125.4902   -37947.352    3267.1307     22303.75    6229.2555    177.53625    5615.3415    78.618565 
   33400    1628.5516   -107.99232    1.4735477   -106.51877   -6713.8721    4.2891518    4.2891518    4.2891518   -6713.8721    4180.6451   -34163.502     9841.241    3953.2081   -5629.2278    1935.4128    78.906769 
   33500    1359.2428   -107.74763    1.2298714   -106.51776   -15189.272    4.2901974    4.2901974    4.2901974   -15189.272   -1056.2495   -20268.536   -24243.032   -6211.1835   -9908.3438    9401.9525     78.96449 
   33600    1203.0381   -107.59458    1.0885341   -106.50605     15864.87     4.270224     4.270224     4.270224     15864.87    56912.809    21080.544   -30398.742   -2282.0694    162.01316   -7109.8275    77.866737 
   33700    1358.2001   -107.75153     1.228928    -106.5226   -25376.398    4.2777526    4.2777526    4.2777526   -25376.398    6839.0612   -28272.707   -54695.547   -1225.5484   -1838.5411    8073.7977    78.279312 
   33800     746.0964   -107.19969    0.6750837   -106.52461   -26989.897    4.2986998    4.2986998    4.2986998   -26989.897   -17638.369   -45106.401   -18224.921   -21147.819    12107.343    15640.349    79.434898 
   33900    1826.9432   -108.15557    1.6530566   -106.50252   -9858.5334    4.2786146    4.2786146    4.2786146   -9858.5334   -27212.603   -10381.844    8018.8468   -4595.9844   -2485.5006   -15048.966    78.326643 
   34000    1314.1513   -107.70041    1.1890717   -106.51134    30389.802    4.2702296    4.2702296    4.2702296    30389.802     67045.21   -5628.6276    29752.823   -5135.0789    -3221.779    8918.5755    77.867041 
   34100    1167.0719   -107.57754    1.0559912   -106.52154   -15196.692    4.2946551    4.2946551    4.2946551   -15196.692   -4300.0622   -9987.7262   -31302.287   -22333.606   -2705.2583    16890.876    79.210884 
   34200    1194.5048   -107.58149     1.080813   -106.50067   -5119.3022    4.2947586    4.2947586    4.2947586   -5119.3022    11358.028     32388.19   -59104.125   -4739.6167    1477.4427     3214.557    79.216611 
   34300    1020.5753   -107.41514   0.92343801    -106.4917    12280.968    4.2811526    4.2811526    4.2811526    12280.968    26273.414    53961.424   -43391.935   -14715.294   -993.45486    -2432.999    78.466113 
   34400    823.63622   -107.25417   0.74524336   -106.50892    17231.098    4.2907311    4.2907311    4.2907311    17231.098   -6753.3648    24180.986    34265.672   -24162.664   -7053.0007   -6107.5653    78.993962 
   34500    1625.0105   -107.96759    1.4703437   -106.49724   -4257.1307    4.3025623    4.3025623    4.3025623   -4257.1307   -39326.589    29115.072   -2559.8748    3672.6851    7131.9345   -9780.5105    79.649215 
   34600    1028.4083   -107.42037   0.93052541   -106.48984    18802.022    4.2924084    4.2924084    4.2924084    18802.022    14096.626    25724.284    16585.155    -24240.68    5224.6719   -9837.3274    79.086639 
   34700    1235.3792   -107.60705     1.117797   -106.48925    10633.655     4.271825     4.271825     4.271825    10633.655   -5429.0793    24938.747    12391.298   -12621.139    4685.0751   -1454.6908     77.95435 
   34800    1098.6172   -107.49807   0.99405189   -106.50402    11601.531    4.2785767    4.2785767    4.2785767    11601.531    40519.217    37055.705    -42770.33    3830.1169   -9445.3901   -11288.079    78.324558 
   34900    961.01415   -107.38061    0.8695458   -106.51107   -25152.815    4.3003993    4.3003993    4.3003993   -25152.815    194.45121   -10031.199   -65621.697   -23653.305     3813.217   -2757.5021    79.529151 
   35000    1087.2641   -107.48134   0.98377938   -106.49756    -3408.055    4.2935469    4.2935469    4.2935469    -3408.055     -8779.18   -5767.4382    4322.4532    -12358.08    14316.347       655.17    79.149583 
   35100    1804.4026   -108.11258    1.6326614   -106.47992    20333.922    4.2665511    4.2665511    4.2665511    20333.922    6419.1181    14419.891    40162.758    8068.7945   -6947.1097   -18163.541    77.665986 
   35200    1348.1296   -107.72859     1.219816   -106.50877    14487.232    4.2758519    4.2758519    4.2758519    14487.232    29479.281   -17319.554    31301.968   -20140.386   -7081.7278   -9245.2381    78.175014 
   35300    1320.9371   -107.69764    1.1952117   -106.50243   -20417.698    4.2974752    4.2974752    4.2974752   -20417.698   -6791.4263   -46260.689   -8200.9794   -18539.707    38.445326     8807.778    79.367031 
   35400    1289.6241   -107.66365    1.1668789   -106.49677    -3094.138    4.2804897    4.2804897    4.2804897    -3094.138    14706.797    5879.7164   -29868.928    4218.3601   -9425.6939    1911.5687    78.429665 
   35500    879.70337   -107.29925    0.7959741   -106.50328   -5571.1043    4.2671817    4.2671817    4.2671817   -5571.1043    18411.168   -3895.9987   -31228.483   -13084.495   -965.33051   -13690.993    77.700425 
   35600    1204.8551   -107.61197    1.0901782   -106.52179   -10366.558     4.281131     4.281131     4.281131   -10366.558    14354.706   -21219.827   -24234.553   -5473.4018    2898.6159    1928.9629    78.464925 
   35700    1924.0542   -108.25535    1.7409247   -106.51443   -18485.743    4.2932015    4.2932015    4.2932015   -18485.743   -16673.657    -40798.19    2014.6184    17449.023    12418.822    3354.9899    79.130485 
   35800     1172.334   -107.57541    1.0607524   -106.51466    6664.3557    4.2832447    4.2832447    4.2832447    6664.3557    23071.009   -33885.096    30807.154   -16360.358   -3009.6561   -6005.1018    78.581201 
   35900    1439.3752   -107.80639    1.3023769   -106.50401    17203.473    4.2639355    4.2639355    4.2639355    17203.473    3784.6961    24089.705    23736.018    3192.5816   -22300.476    -12379.35    77.523234 
   36000    1341.4252   -107.73175    1.2137497     -106.518   -13728.891    4.2783942    4.2783942    4.2783942   -13728.891     12313.28   -14824.251   -38675.704   -7247.6633    12205.353    4761.5012    78.314539 
   36100    827.57925   -107.26771    0.7488111    -106.5189    -50398.77     4.296122     4.296122     4.296122    -50398.77   -15970.187   -51722.328   -83503.797   -18292.123   -5495.5453    2141.2793     79.29208 
   36200    1091.8569   -107.50093   0.98793507   -106.51299   -3116.7899    4.2727516    4.2727516    4.2727516   -3116.7899    26549.043   -7925.4445   -27973.968    1496.2718   -10905.051   -4402.4586    78.005091 
   36300    1489.7444   -107.86744    1.3479521   -106.51948    42380.951    4.2607572    4.2607572    4.2607572    42380.951    103973.59   -631.45195    23800.714   -9203.7287    -10634.12   -5038.3261    77.350009 
   36400    1579.0395   -107.96994    1.4287481   -106.54119   -26001.592    4.2888247    4.2888247    4.2888247   -26001.592   -19777.428   -57234.046   -993.30286   -29054.916   -15242.702   -281.43474    78.888714 
   36500    1538.2492    -107.9179    1.3918402   -106.52606    3808.7619      4.28147      4.28147      4.28147    3808.7619    17807.213   -33842.073    27461.146    929.10484    1206.5599    4350.2867    78.483562 
   36600    1307.0132   -107.69418     1.182613   -106.51156    25795.265    4.2712362    4.2712362    4.2712362    25795.265     60705.66     7442.877    9237.2576   -2982.2958    4768.6383   -1516.5755     77.92212 
   36700    1141.2042    -107.5454    1.0325856   -106.51281   -39180.229    4.2790649    4.2790649    4.2790649   -39180.229   -10900.607   -30888.568   -75751.512   -19155.598    -323.7927    4289.6424    78.351372 
   36800    734.55099   -107.18464   0.66463717      -106.52    5029.4935    4.2780314    4.2780314    4.2780314    5029.4935    53846.144   -12190.861   -26566.803    2510.9359   -20491.686   -817.62587    78.294614 
   36900    1532.9637   -107.90392    1.3870578   -106.51686   -3295.3169    4.2873302    4.2873302    4.2873302   -3295.3169    992.79477   -15158.453    4279.7079    -7258.232    13028.913   -12519.685    78.806272 
   37000    1829.7478   -108.16125    1.6555943   -106.50565   -4559.3826    4.2824658    4.2824658    4.2824658   -4559.3826    24169.916    -24141.81   -13706.253   -6282.6677   -2557.0095    1670.9401    78.538339 
   37100    1557.5547   -107.91884    1.4093082   -106.50953    11632.159    4.2776441    4.2776441    4.2776441    11632.159    14123.944   -22083.705    42856.238    1262.6138   -4148.1992   -1845.6164    78.273352 
   37200    1420.9949   -107.79593    1.2857461   -106.51019   -14577.688    4.2901497    4.2901497    4.2901497   -14577.688   -10088.677   -254.63734   -33389.749   -4320.8914    12664.073   -9169.9659    78.961855 
   37300    1087.2621   -107.48687   0.98377757    -106.5031   -23180.384    4.2850552    4.2850552    4.2850552   -23180.384     8671.527    4972.1175   -83184.796   -14635.432   -14176.796     749.3001    78.680889 
   37400    1113.6525    -107.5133    1.0076562   -106.50565   -11849.881    4.2802192    4.2802192    4.2802192   -11849.881    -17055.03   -12801.846   -5692.7671   -3426.8037   -4606.1653    4095.3754    78.414796 
   37500     1303.122   -107.68751    1.1790922   -106.50842    3988.1751    4.2850971    4.2850971    4.2850971    3988.1751    7950.2477   -533.11439    4547.3921   -1023.4829    3389.1199   -14542.573    78.683196 
   37600    1765.1346   -108.09958    1.5971309   -106.50245    923.36827      4.28121      4.28121      4.28121    923.36827    13759.661   -10697.563   -291.99327   -8507.9237   -13087.722   -7527.6708    78.469267 
   37700     1547.087   -107.90346    1.3998368   -106.50363   -17007.375    4.2899181    4.2899181    4.2899181   -17007.375   -3367.8797   -30383.543   -17270.701   -10363.642   -5655.6722    8050.8949    78.949065 
   37800    1135.6397    -107.5244    1.0275507   -106.49685    -13916.19    4.2957353    4.2957353    4.2957353    -13916.19    16733.681    -1760.011    -56722.24    1296.8157   -6361.8055   -195.30544    79.270672 
   37900    899.91869   -107.29713   0.81426534   -106.48286    2140.3935    4.2862304    4.2862304    4.2862304    2140.3935    35355.339     10188.74   -39122.899    14744.404   -17735.134   -7631.3153    78.745642 
   38000    1120.2521   -107.49806    1.0136276   -106.48443   -16019.586    4.2852362    4.2852362    4.2852362   -16019.586   -13923.077   -7521.6031   -26614.079    8500.8557    9865.0978    7122.7857    78.690859 
   38100    1563.1329   -107.90547    1.4143555   -106.49112   -14863.512    4.2917085    4.2917085    4.2917085   -14863.512    26448.363   -49859.162   -21179.736   -4560.4299    240.07154   -200.52003    79.047959 
   38200    1749.9885   -108.07296    1.5834264   -106.48953   -8647.5248    4.2913973    4.2913973    4.2913973   -8647.5248   -10245.993    -42762.51    27065.928    2923.6047   -4925.3982    1243.5807    79.030763 
   38300    1359.1006    -107.7255    1.2297428   -106.49576   -20653.405    4.2847812    4.2847812    4.2847812   -20653.405   -33736.029    10082.889   -38307.074    4048.0287    23406.249    12041.465    78.665796 
   38400    1418.8757   -107.78232    1.2838286   -106.49849    7405.6768    4.2711446    4.2711446    4.2711446    7405.6768    13036.257    1934.8196    7245.9538    1081.2168    -4123.253    3102.2453    77.917108 
   38500    1211.1197   -107.61636    1.0958465   -106.52052   -10884.486    4.2832242    4.2832242    4.2832242   -10884.486   -1674.4856   -10832.075   -20146.897    14121.906    5987.4014   -3766.6988    78.580074 
   38600    926.79815   -107.35607   0.83858644   -106.51749   -10105.194    4.2908052    4.2908052    4.2908052   -10105.194   -52173.838    21556.881    301.37487   -7339.7688    21913.888    296.91704    78.998056 
   38700    1460.4421   -107.82732    1.3214387   -106.50588    -3717.188    4.2839734    4.2839734    4.2839734    -3717.188   -25371.848    -14724.66    28944.943   -243.35485   -10646.268    -7880.953    78.621314 
   38800    1647.8947   -108.00355    1.4910497    -106.5125   -8376.8738      4.27953      4.27953      4.27953   -8376.8738   -23286.723   -49235.319     47391.42     14868.11   -4534.7531   -10197.315    78.376925 
   38900    1195.3828   -107.60176    1.0816075   -106.52015    902.74692    4.2876346    4.2876346    4.2876346    902.74692   -26355.172     2530.493     26532.92    -3984.072    7046.4479   -7662.3027    78.823059 
   39000     1850.617   -108.17847    1.6744772   -106.50399   -25599.946    4.2944573    4.2944573    4.2944573   -25599.946   -25978.739   -20099.366   -30721.733    6903.4495   -8123.9049   -7817.8486    79.199941 
   39100    1392.7902   -107.76213    1.2602259   -106.50191   -22527.495    4.2960961    4.2960961    4.2960961   -22527.495   -33000.388   -11900.622   -22681.476    4850.3698     14651.83   -9909.8172    79.290647 
   39200    1262.5269   -107.63604    1.1423608   -106.49368   -17000.109    4.2903418    4.2903418    4.2903418   -17000.109    3526.9624   -6792.1594   -47735.131    5675.0929   -5948.5744   -14712.013     78.97246 
   39300    1598.2604   -107.93148    1.4461396   -106.48534   -12717.021    4.2784877    4.2784877    4.2784877   -12717.021    2364.1145   -24419.249   -16095.928    7965.1163   -125.81235   -7976.2457    78.319672 
   39400    1494.2692   -107.85737    1.3520462   -106.50532    896.26601    4.2887563    4.2887563    4.2887563    896.26601   -2930.9339    5344.7341    274.99783    3145.3807    19220.958   -8392.8828    78.884943 
   39500     1340.716   -107.71725     1.213108   -106.50414   -40419.401    4.3113271    4.3113271    4.3113271   -40419.401   -25071.988   -47172.001   -49014.215   -6699.0084   -12182.694   -6963.4817    80.136972 
   39600    1362.2727   -107.72084     1.232613   -106.48822   -19572.553    4.2932999    4.2932999    4.2932999   -19572.553   -10939.182    2969.9746    -50748.45    7076.4155   -5974.6325   -16771.619    79.135924 
   39700    1444.5331   -107.78711    1.3070439   -106.48007    27431.342    4.2744394    4.2744394    4.2744394    27431.342    7225.1457    82269.189   -7200.3096   -3459.1668    5996.1347   -10330.305    78.097567 
   39800    1118.5736   -107.51628    1.0121089   -106.50417    6225.6744    4.2963042    4.2963042    4.2963042    6225.6744    38467.563    35096.945   -54887.485   -17499.791   -9225.9205   -7995.6383    79.302169 
   39900    1235.4438   -107.60892    1.1178555   -106.49107    -7665.392    4.2992532    4.2992532    4.2992532    -7665.392   -7501.1154    18664.939       -34160   -17855.827    1268.4895   -7882.3333     79.46558 
   40000    1371.5661   -107.72036    1.2410218   -106.47934     6743.554    4.2848705    4.2848705    4.2848705     6743.554    2158.7459    18273.298   -201.38224   -4707.9852   -14721.312   -8957.4173    78.670714 
   40100    1273.0232   -107.64397    1.1518581   -106.49211   -6710.4851    4.2873451    4.2873451    4.2873451   -6710.4851   -9305.9779    26860.925   -37686.402   -5443.6106   -10037.441   -2293.3537    78.807099 
   40200    717.80675   -107.14761   0.64948663   -106.49812    15596.446    4.2853686    4.2853686    4.2853686    15596.446    22296.657    73575.111    -49082.43   -24222.463     13866.54    1419.7518    78.698157 
   40300    1473.1976   -107.83844    1.3329801   -106.50546   -10879.559    4.2858766    4.2858766    4.2858766   -10879.559   -15988.918    14492.219   -31141.979    4895.9238   -3662.0113    4851.9981    78.726145 
   40400    1295.1205   -107.67727    1.1718522   -106.50542    3939.6274    4.2926605    4.2926605    4.2926605    3939.6274   -3853.5808    38696.192   -23023.729   -3276.7966   -4848.7794    7888.7544    79.100573 
   40500    1441.1577   -107.80448    1.3039898   -106.50049    13389.228    4.2842979    4.2842979    4.2842979    13389.228    6642.8393    30444.231    3080.6145   -7148.0797     15302.48   -3698.4167     78.63918 
   40600    1424.2641   -107.79138    1.2887041   -106.50267    10858.625     4.284993     4.284993     4.284993    10858.625   -5502.9526    15898.831    22179.996   -956.43321   -2357.7563    8198.8269    78.677461 
   40700    1354.7393   -107.73009    1.2257966   -106.50429   -15356.355    4.2909571    4.2909571    4.2909571   -15356.355   -13265.617   -13647.488    -19155.96     5019.686    13977.992   -4088.7996    79.006443 
   40800    1166.7806   -107.55979    1.0557276   -106.50406   -2911.1156    4.2829335    4.2829335    4.2829335   -2911.1156     44217.56   -21754.454   -31196.453   -147.20251    12955.396    4896.2148    78.564074 
   40900    997.46234   -107.41122   0.90252489    -106.5087    11628.163    4.2836291    4.2836291    4.2836291    11628.163    15262.472    46963.043   -27341.026    -19453.29   -20247.705    618.82777    78.602359 
   41000    1364.1363   -107.74508    1.2342992   -106.51078    1396.1479    4.2866448    4.2866448    4.2866448    1396.1479    17047.045    13561.601   -26420.202    7428.4854    6406.3995    1556.2589    78.768485 
   41100    1314.5002   -107.70446    1.1893874   -106.51507    17760.155    4.2843587    4.2843587    4.2843587    17760.155      12918.1    52975.465   -12613.099    845.42707    140.74497   -767.96822     78.64253 
   41200    1631.6557   -107.99492    1.4763564   -106.51857   -17158.852    4.2780939    4.2780939    4.2780939   -17158.852   -42666.752   -4819.9108   -3989.8942   -8972.6923   -28203.455   -9054.9282    78.298051 
   41300    1102.6837   -107.52665   0.99773135   -106.52892    21654.137    4.2741312    4.2741312    4.2741312    21654.137    17076.422    27614.893    20271.096   -5321.9348    12068.537    1494.3559    78.080672 
   41400    1264.8977   -107.67535     1.144506   -106.53085   -7630.0423    4.2806116    4.2806116    4.2806116   -7630.0423    25981.313   -3414.0674   -45457.372    10586.313   -4753.9945   -4920.1139    78.436366 
   41500    924.04114   -107.36259   0.83609184    -106.5265    8325.2982    4.2807402    4.2807402    4.2807402    8325.2982    29079.193    20098.876   -24202.175   -14207.221   -17686.398    4943.4724    78.443435 
   41600    1424.9124   -107.80556    1.2892907   -106.51627    1447.4635    4.2823538    4.2823538    4.2823538    1447.4635    24031.106    -12922.74   -6765.9755    889.05002    14311.583   -2006.7045    78.532179 
   41700    1376.5892   -107.76548    1.2455668   -106.51991   -26893.035    4.2874062    4.2874062    4.2874062   -26893.035   -30275.889   -30405.885   -19997.332   -17233.582    377.86383    8443.0145    78.810466 
   41800    1490.6795   -107.86813    1.3487981   -106.51933   -1363.8727    4.2676204    4.2676204    4.2676204   -1363.8727   -34052.142     25739.86    4220.6633   -24358.551   -25053.176    3579.5587    77.724394 
   41900    1576.9342   -107.94874    1.4268432   -106.52189    24444.283    4.2650312    4.2650312    4.2650312    24444.283     45464.11    6067.6883    21801.052    9746.1538    6399.9319    -12230.38    77.583015 
   42000    958.06848   -107.39623   0.86688049   -106.52935   -26644.966     4.295116     4.295116     4.295116   -26644.966   -41343.085   -4307.1988   -34284.613   -20122.583   -11341.007    1568.1245     79.23639 
   42100    1302.2105     -107.691    1.1782674   -106.51273   -326.54189    4.2754851    4.2754851    4.2754851   -326.54189     19660.05   -6013.5668   -14626.108     10309.09    1524.7199     248.2937    78.154894 
   42200    1185.7367   -107.58012    1.0728795   -106.50724    12515.336    4.2602377    4.2602377    4.2602377    12515.336     22848.16    7710.3894    6987.4598   -4980.3596    4278.2357   -15091.527    77.321715 
   42300    1091.9689   -107.51105   0.98803639   -106.52302   -12436.681     4.283242     4.283242     4.283242   -12436.681   -15884.196    1628.8629   -23054.709   -5894.9043   -19007.982    422.31642    78.581051 
   42400    1750.0765   -108.09346     1.583506   -106.50995   -6177.3863    4.2829981    4.2829981    4.2829981   -6177.3863   -33669.826     18476.35   -3338.6834   -4589.0225    7388.2864   -2503.7024    78.567631 
   42500    944.23685   -107.37201   0.85436534   -106.51765    24903.085    4.2805326    4.2805326    4.2805326    24903.085    15767.707    46658.461    12283.089   -11775.083   -3443.7237   -5017.7324    78.432025 
   42600    1438.9361    -107.8181    1.3019796   -106.51612   -17281.283    4.2769892    4.2769892    4.2769892   -17281.283   -24615.397    8121.7894   -35350.242   -5704.8992   -15970.898    567.10925    78.237409 
   42700    1128.5808   -107.53732    1.0211637   -106.51616    16108.155    4.2748995    4.2748995    4.2748995    16108.155    28028.507    31366.729    -11070.77   -5777.5483    7801.5962    3435.2741    78.122785 
   42800    1346.0517   -107.73314    1.2179359    -106.5152       -20106    4.2892371    4.2892371    4.2892371       -20106   -14034.085   -25530.666   -20753.249   -11963.723    2200.6415   -6009.6955    78.911474 
   42900    1090.0469   -107.49617   0.98629737   -106.50987   -3601.8521    4.2841422    4.2841422    4.2841422   -3601.8521   -46990.162    44444.025   -8259.4197    -6057.363   -12640.918   -3693.4794     78.63061 
   43000    1324.7146   -107.71253    1.1986296    -106.5139    6467.2658    4.2652957    4.2652957    4.2652957    6467.2658   -17720.145    27812.753    9309.1894     1284.556    8232.3815   -3708.1136    77.597448 
   43100    1478.0546   -107.87448    1.3373748   -106.53711   -14881.015    4.2830131    4.2830131    4.2830131   -14881.015   -48274.537    31425.757   -27794.266    9241.2773   -6159.9386   -8147.7237    78.568454 
   43200    1005.5406   -107.43591   0.90983422   -106.52607   -22706.032    4.2938552    4.2938552    4.2938552   -22706.032    -21194.77   -6254.3248   -40669.003   -14331.206   -10923.246    8255.4896    79.166637 
   43300    1078.2275    -107.4811   0.97560292    -106.5055    37948.243    4.2664611    4.2664611    4.2664611    37948.243    29691.314    106900.76   -22747.347   -5568.4925    14106.759   -15775.007    77.661071 
   43400    1632.3932   -107.99592    1.4770237    -106.5189    4669.7238    4.2749593    4.2749593    4.2749593    4669.7238    4721.4371    -3183.569    12471.303   -12361.782   -7893.8925    1615.7299    78.126067 
   43500    1328.8131    -107.7256     1.202338   -106.52326   -7552.7742    4.2907449    4.2907449    4.2907449   -7552.7742   -23018.456    21275.448   -20915.314   -20674.967   -10654.287    5522.9843    78.994726 
   43600     1314.769   -107.70701    1.1896307   -106.51738     2795.356    4.2830246    4.2830246    4.2830246     2795.356   -34215.373    30748.162    11853.279    3927.6893    10828.656   -6526.2936    78.569089 
   43700    1432.6926   -107.81181    1.2963304   -106.51548    -10915.89     4.279392     4.279392     4.279392    -10915.89   -41862.692    8481.0414    633.97964    2784.3247   -2463.8362   -2432.0449    78.369344 
   43800    630.41432   -107.09529   0.57041212   -106.52488    -247.6126    4.2865522    4.2865522    4.2865522    -247.6126    24633.999    16671.497   -42048.334   -9724.3663   -867.10502    3276.3633    78.763383 
   43900    1352.6151   -107.74131    1.2238745   -106.51743   -20264.214    4.2886164    4.2886164    4.2886164   -20264.214    693.11887    6245.5499   -67731.309    15224.633    11625.808   -16789.213    78.877223 
   44000    1466.2049   -107.83979     1.326653   -106.51313    3790.2171    4.2832441    4.2832441    4.2832441    3790.2171    3296.1579    8258.1025   -183.60922   -21202.564   -7367.9589    5758.3405    78.581167 
   44100     1242.973   -107.64788    1.1246681   -106.52321     9671.862    4.2746504    4.2746504    4.2746504     9671.862   -26254.364    18023.043    37246.907   -42918.278   -390.44123    3048.3876    78.109132 
   44200     1663.949   -108.03881     1.505576   -106.53323   -8275.3083    4.2878989    4.2878989    4.2878989   -8275.3083   -50863.244   -3522.8546    29560.174    15747.511   -810.38869   -13126.527    78.837639 
   44300     806.2668   -107.25302   0.72952714   -106.52349   -31177.559    4.3114103    4.3114103    4.3114103   -31177.559   -80014.953   -23422.776    9905.0522    -23844.59   -298.22012   -1059.9747     80.14161 
   44400    1093.0595   -107.49035   0.98902325   -106.50132   -11168.585    4.2814093    4.2814093    4.2814093   -11168.585   -24035.609   -24913.862    15443.715   -12445.193    9067.8991    4919.1565    78.480223 
   44500    1256.3762   -107.62507    1.1367956   -106.48827    46212.129    4.2609185    4.2609185    4.2609185    46212.129    35709.644    55110.671    47816.072    8836.1261    6556.3985   -3968.0434    77.358793 
   44600    1194.3875   -107.59793    1.0807069   -106.51722   -19112.829    4.2939207    4.2939207    4.2939207   -19112.829   -43865.401   -48894.365     35421.28   -30002.269   -741.69936   -2310.7345    79.170259 
   44700    962.94792   -107.36919   0.87129551   -106.49789    12820.991    4.3011759    4.3011759    4.3011759    12820.991   -3337.4775    28522.991     13277.46   -7724.2079     5456.005    11734.083    79.572243 
   44800    1570.6099   -107.90233    1.4211209   -106.48121      5069.88    4.2803901    4.2803901    4.2803901      5069.88   -23813.191   -18014.165    57036.995    1019.5728    2357.1267    4256.9116    78.424191 
   44900    836.81616   -107.26154   0.75716885   -106.50437    22166.495    4.2796868    4.2796868    4.2796868    22166.495   -30603.771    41684.198    55419.059   -16765.664   -5056.8922    6232.2723    78.385543 
   45000    1483.0713   -107.85391    1.3419141   -106.51199    1599.7389    4.2878208    4.2878208    4.2878208    1599.7389   -26419.802    28760.933    2458.0852    6548.1541    -13742.69   -296.71234     78.83333 
   45100    1203.4995   -107.61283    1.0889516   -106.52388   -14956.248    4.2913077    4.2913077    4.2913077   -14956.248   -1942.8168   -33442.165   -9483.7625   -8230.6582    169.30472    1296.5272    79.025814 
   45200    761.69069   -107.21069   0.68919375    -106.5215     21152.58    4.2778708    4.2778708    4.2778708     21152.58   -10088.809    62084.413    11462.136   -9919.4559   -353.04371      7724.07    78.285797 
   45300    1185.0552   -107.59547    1.0722629   -106.52321    33929.486    4.2745087    4.2745087    4.2745087    33929.486    48066.865    24493.688    29227.906    5165.0085   -12244.318    6308.0568    78.101361 
   45400    1370.1165   -107.77086    1.2397102   -106.53115   -16290.924    4.2929356    4.2929356    4.2929356   -16290.924   -38076.473   -24700.537    13904.238   -17479.093    3862.6927   -18515.267    79.115781 
   45500     1133.461   -107.54383    1.0255793   -106.51825    2403.6626    4.2972959    4.2972959    4.2972959    2403.6626   -29977.293    18600.981      18587.3   -4623.7651   -10114.479   -2474.8756    79.357095 
   45600    1833.1658   -108.15154    1.6586869   -106.49286   -9402.9584    4.2821802    4.2821802    4.2821802   -9402.9584   -6800.1109   -13943.291   -7465.4732    6219.2841    -7600.653    7883.5076    78.522628 
   45700    753.03122   -107.18725   0.68135847   -106.50589    17004.323    4.2838023    4.2838023    4.2838023    17004.323    42323.631    32496.168   -23806.831   -20853.758   -6262.8558   -5281.1333    78.611892 
   45800     1465.776   -107.82501    1.3262649   -106.49875    -31225.74    4.2951297    4.2951297    4.2951297    -31225.74   -11345.427    -9333.548   -72998.245    2966.9841   -8657.8593    5748.2719    79.237151 
   45900    1100.5116   -107.50056   0.99576598   -106.50479   -4118.7246    4.2901131    4.2901131    4.2901131   -4118.7246   -12081.108    41839.827   -42114.893   -12576.832   -954.44198   -6996.9351    78.959832 
   46000    1064.8892   -107.48726   0.96353411   -106.52372    22285.774    4.2711218    4.2711218    4.2711218    22285.774   -8172.0045    73642.686    1386.6393   -9523.8901   -5076.8732   -9084.4657    77.915862 
   46100    1896.0004    -108.2544     1.715541   -106.53886   -16727.497    4.2807657    4.2807657    4.2807657   -16727.497   -14529.972   -19431.302   -16221.218   -1334.8951   -17012.242    15999.687    78.444836 
   46200    1467.1835   -107.86247    1.3275385   -106.53493    -7802.146    4.2948009    4.2948009    4.2948009    -7802.146   -40881.681    30155.617   -12680.374   -1146.9397    1397.6826   -16949.284    79.218952 
   46300    1024.5508   -107.45804    0.9270351   -106.53101   -6478.9262    4.2896884    4.2896884    4.2896884   -6478.9262   -14630.713    38032.963   -42839.029   -12425.785    4203.2595   -9184.6321    78.936388 
   46400    1509.0009   -107.88932    1.3653757   -106.52394   -19782.529    4.2877731    4.2877731    4.2877731   -19782.529   -7059.9106    19989.541   -72277.216   -3177.2732   -9479.0317   -3629.4172    78.830698 
   46500    1255.5903   -107.66091    1.1360845   -106.52482   -16223.565    4.2960654    4.2960654    4.2960654   -16223.565    -25826.09    18700.283    -41544.89    -6467.629    5971.3974    8527.5769    79.288946 
   46600    963.68916    -107.3921    0.8719662   -106.52014    32248.179    4.2845492    4.2845492    4.2845492    32248.179    28684.351    81258.097   -13197.912   -5285.1903   -2853.6458   -23225.679    78.653019 
   46700    1686.0587    -108.0573    1.5255813   -106.53172   -2053.3513    4.2812755    4.2812755    4.2812755   -2053.3513   -27324.008    31648.376   -10484.422    9946.6475   -1671.7319    -274.5874    78.472869 
   46800    1590.4241   -107.97895    1.4390492   -106.53991    2942.4511     4.286552     4.286552     4.286552    2942.4511    11660.633    9408.1095   -12241.389   -9103.8297    7205.2692    10654.249     78.76337 
   46900    1206.1947   -107.63538    1.0913903   -106.54399   -14633.003    4.2947787    4.2947787    4.2947787   -14633.003   -40064.062    30873.758   -34708.704    4082.1236   -15555.785   -10275.664    79.217724 
   47000    571.46954   -107.05907   0.51707765   -106.54199    11302.252    4.2994207    4.2994207    4.2994207    11302.252    9204.2852    73866.687   -49164.216    842.91632     1588.965    525.74227     79.47487 
   47100    1547.9883   -107.93118    1.4006524   -106.53053   -33085.148    4.2931838    4.2931838    4.2931838   -33085.148   -46361.455   -11839.058   -41054.931    5454.2459    -5816.021    9893.2675    79.129502 
   47200    1370.3878   -107.76664    1.2399557   -106.52668    20861.843    4.2798555    4.2798555    4.2798555    20861.843    6204.2676    56867.285   -486.02212   -9105.8007    -12508.52   -9658.5165    78.394812 
   47300    1367.1626   -107.77519    1.2370375   -106.53815     9322.687    4.2864836    4.2864836    4.2864836     9322.687   -16021.262    55252.061   -11262.737    2328.4694    8875.2567    5991.9764    78.759602 
   47400    957.81026   -107.41216   0.86664686   -106.54551    10274.436    4.2925699    4.2925699    4.2925699    10274.436    -25083.73    92284.204   -36377.164    8531.0903   -6745.1258    6795.5145    79.095567 
   47500    1300.1483   -107.71074    1.1764015   -106.53434   -560.59244    4.2844083    4.2844083    4.2844083   -560.59244    24085.791    26300.962    -52068.53   -12633.792    5006.1372   -9907.7782     78.64526 
   47600    1119.8355   -107.54133    1.0132507   -106.52808    3697.6519    4.2804992    4.2804992    4.2804992    3697.6519    4169.9658    46515.101   -39592.111     15068.98    339.91629    3281.0284    78.430191 
   47700    1061.6371   -107.49247   0.96059158   -106.53188   -9885.5579    4.2926109    4.2926109    4.2926109   -9885.5579    -23496.44    36059.196    -42219.43   -13496.677   -5450.5137    2561.3141    79.097831 
   47800    1906.9694    -108.2407     1.725466   -106.51524   -7431.9002    4.2824166    4.2824166    4.2824166   -7431.9002   -29125.171    41617.618   -34788.147     3133.103    28777.422    10222.185    78.535633 
   47900    1488.1273   -107.86507    1.3464888   -106.51858   -5808.3858    4.2783184    4.2783184    4.2783184   -5808.3858    11690.511    4819.2486   -33934.917    2572.3591    333.32826    5962.8162    78.310378 
   48000    1171.2211   -107.58352    1.0597454   -106.52378    -11195.21     4.284117     4.284117     4.284117    -11195.21     -14659.9    40866.586   -59792.316   -15996.831   -4266.4347    14431.124    78.629221 
   48100    906.45659   -107.34407   0.82018097   -106.52389   -13329.247    4.2862577    4.2862577    4.2862577   -13329.247   -11139.529    32750.441   -61598.652     -5026.78    19656.179   -2396.4005    78.747149 
   48200    1016.6621   -107.43959   0.91989726   -106.51969   -26192.022    4.2813657    4.2813657    4.2813657   -26192.022   -14953.877   -1748.9279    -61873.26    10157.997   -4833.8403    22581.727    78.477829 
   48300    1216.2119   -107.62413     1.100454   -106.52367    9229.6999    4.2769716    4.2769716    4.2769716    9229.6999   -19680.939    49315.162    -1945.123   -11455.173    3470.4825    466.89662    78.236445 
   48400    1636.5522   -108.00244    1.4807868   -106.52165    2971.1737    4.2881561    4.2881561    4.2881561    2971.1737   -35444.955     50210.95   -5852.4736    4208.0009    274.58612   -9607.0033     78.85183 
   48500    1511.1259   -107.88153    1.3672985   -106.51423    7641.9758    4.2859928    4.2859928    4.2859928    7641.9758   -18999.783    60825.592   -18899.882    15290.712   -10715.373    -1306.348    78.732551 
   48600    1317.2309   -107.70948    1.1918582   -106.51763   -15439.193    4.2816028    4.2816028    4.2816028   -15439.193   -21574.011     19711.46   -44455.029   -5250.9799    11932.238   -2657.6963    78.490866 
   48700    1131.4924   -107.54305    1.0237981   -106.51925   -753.90217    4.2705109    4.2705109    4.2705109   -753.90217   -21607.461    59427.736   -40081.982    3939.2591    1198.5999    7443.6716    77.882433 
   48800    881.84571   -107.32588   0.79791253   -106.52797     20237.37    4.2716766    4.2716766    4.2716766     20237.37    17436.752    54930.679   -11655.319   -1030.9425    1105.9817    15349.316    77.946225 
   48900    974.30878   -107.41258   0.88157506   -106.53101   -14667.908    4.2952128    4.2952128    4.2952128   -14667.908   -20021.312    35090.797    -59073.21    -3545.797    13155.049    469.76045    79.241747 
   49000    2194.4598   -108.49486    1.9855933   -106.50927   -9793.0323     4.279832     4.279832     4.279832   -9793.0323   -35636.064   -577.09954    6834.0665    15846.533   -6612.3334   -5847.8548    78.393521 
   49100    1204.7466    -107.6068      1.09008   -106.51672    28189.562    4.2680258    4.2680258    4.2680258    28189.562    14505.167    59336.304    10727.214   -12603.035      9279.58   -8201.1048    77.746547 
   49200    1467.1959   -107.85299    1.3275497   -106.52544   -17215.036    4.2751889    4.2751889    4.2751889   -17215.036   -7462.0512    5703.4002   -49886.456    2968.3807    8699.6393    190.48553    78.138654 
   49300    928.39624   -107.36709   0.84003243   -106.52706    7513.4837    4.2855484    4.2855484    4.2855484    7513.4837    -37380.28    110493.83     -50573.1     10224.97   -3256.9072   -11131.596    78.708062 
   49400    1005.6606   -107.43324   0.90994283    -106.5233   -9730.9186    4.2828003    4.2828003    4.2828003   -9730.9186   -36394.273    34919.977    -27718.46   -12185.423    16050.258    6020.7419    78.556746 
   49500    1325.8788   -107.71049     1.199683   -106.51081    26775.409    4.2685681    4.2685681    4.2685681    26775.409   -2215.9593    97487.043   -14944.858    10649.284   -4201.7234    1639.0545    77.776188 
   49600    1606.1869   -107.97948    1.4533116   -106.52617   -5757.4581    4.2788125    4.2788125    4.2788125   -5757.4581   -29558.645    20703.279   -8417.0084    1260.1059    2240.5883    -11194.03    78.337509 
   49700    1600.3807   -107.97892    1.4480581   -106.53086   -10439.978    4.2868423    4.2868423    4.2868423   -10439.978   -42963.789    18790.632   -7146.7763   -26247.315     6370.305    22482.302    78.779375 
   49800    1246.6138   -107.65604    1.1279623   -106.52808    -13108.65    4.2886707    4.2886707    4.2886707    -13108.65   -30674.649     45615.49   -54266.792    7980.7239      3408.27   -20898.964    78.880219 
   49900    981.51818    -107.4109   0.88809828    -106.5228   -3402.4765    4.2720011    4.2720011    4.2720011   -3402.4765   -21289.952    59305.883   -48223.361    3798.9102    14344.345   -10439.806    77.963994 
   50000    1293.9589   -107.70867    1.1708012   -106.53787    3740.3033    4.2729825    4.2729825    4.2729825    3740.3033   -39352.228    47981.211    2591.9267   -10579.472    916.99465   -5217.3143    78.017737 
   50100    1437.3875   -107.84885    1.3005784   -106.54827    -10311.62    4.2958272    4.2958272    4.2958272    -10311.62   -60773.165    71494.636    -41656.33   -9376.2457   -1175.7519    5121.5166    79.275758 
   50200    1213.6282   -107.65319    1.0981163   -106.55508   -5946.6142     4.282413     4.282413     4.282413   -5946.6142   -31496.263    47662.937   -34006.516    2166.7228    13578.725   -4760.6914    78.535433 
   50300    1618.9992   -108.00609    1.4649045   -106.54119    12840.714    4.2591263    4.2591263    4.2591263    12840.714   -26347.176     47833.23    17036.087   -11494.287    14.843587    5863.6856    77.261216 
   50400    1559.2435    -107.9661    1.4108363   -106.55527   -15010.933    4.2808768    4.2808768    4.2808768   -15010.933   -46269.187    29347.295   -28110.907    728.61135    3997.8585   -10763.003    78.450947 
   50500     1150.835    -107.5905    1.0412997    -106.5492   -19319.831    4.2930916    4.2930916    4.2930916   -19319.831   -51829.231    49099.707   -55229.968   -2704.1775     9934.077   -1930.0796    79.124404 
   50600    688.98201   -107.17672    0.6234054   -106.55332   -8813.2845    4.2784964    4.2784964    4.2784964   -8813.2845   -75353.086    59409.853    -10496.62   -10580.748   -3960.2097     13334.55    78.320152 
   50700    1392.7653   -107.80761    1.2602033   -106.54741    16773.447    4.2609952    4.2609952    4.2609952    16773.447   -38589.357    88073.855    835.84449     10526.97    2283.5797   -6076.4356    77.362968 
   50800    1785.9125   -108.16618    1.6159311   -106.55025   -3694.0875    4.2819031    4.2819031    4.2819031   -3694.0875   -38487.295    30155.914   -2750.8824   -12250.647    2266.4107    2367.8665    78.507382 
   50900    1032.4599   -107.47339   0.93419137    -106.5392   -4110.5842    4.2877445    4.2877445    4.2877445   -4110.5842    -38501.47    25035.255    1134.4627   -4601.2209   -1518.8922    3564.6608    78.829125 
   51000    1208.7188   -107.63034    1.0936741   -106.53666    7062.7959    4.2759067    4.2759067    4.2759067    7062.7959    -41122.56    73774.273   -11463.324    15480.178    6535.6556    5936.4914    78.178019 
   51100    1575.4286   -107.96476    1.4254809   -106.53928    491.87244     4.277652     4.277652     4.277652    491.87244   -14658.864        39720   -23585.519    -3387.518    3384.1987    -608.0891    78.273787 
   51200    1407.3838   -107.82373    1.2734304    -106.5503   -17633.618    4.2809515    4.2809515    4.2809515   -17633.618   -42467.026    21135.954   -31569.781    2001.4085   -3192.2363   -3356.1511    78.455056 
   51300    1264.8153    -107.7054    1.1444315   -106.56097   -1243.5522    4.2839513    4.2839513    4.2839513   -1243.5522   -51462.503    83816.087   -36084.241    21899.343    3241.7155   -6237.3844    78.620098 
   51400    1214.1641   -107.65792    1.0986012   -106.55932   -2341.3279    4.2913535    4.2913535    4.2913535   -2341.3279   -20673.233    43270.815   -29621.565   -8809.5548    893.92146    -1625.396    79.028342 
   51500    1349.7601   -107.76661    1.2212913   -106.54532    3611.2398    4.2818224    4.2818224    4.2818224    3611.2398   -29350.507    28590.344    11593.883     2587.163    4119.2316    3671.6805    78.502947 
   51600    1812.3101   -108.17343    1.6398162   -106.53361   -20607.795    4.2772667    4.2772667    4.2772667   -20607.795   -33496.227   -23803.217   -4523.9426    23711.121    4235.8294    5724.3127    78.252639 
   51700    1099.8521   -107.53462   0.99516933   -106.53945    14690.833    4.2882734    4.2882734    4.2882734    14690.833   -7691.5944     66986.36   -15222.267    -5114.507     2506.599   -15749.784    78.858299 
   51800    1234.1795   -107.65105    1.1167116   -106.53434   -13123.582    4.2942242    4.2942242    4.2942242   -13123.582    -52658.94      49103.7   -35815.507    6267.0825   -4598.1223    3116.4093    79.187047 
   51900    1541.2766   -107.92006    1.3945795   -106.52548     -9168.48    4.2839461    4.2839461    4.2839461     -9168.48   -23800.864    23028.525   -26733.101    5468.2391    126.04235    5168.8713    78.619811 
   52000    953.62407   -107.40391    0.8628591   -106.54105    5605.9352    4.2851258    4.2851258    4.2851258    5605.9352    1660.4613   -14161.607    29318.952   -5461.4377    4718.2405   -5720.9266    78.684781 
   52100    1436.5821   -107.84692    1.2998497   -106.54707    6502.9643     4.291126     4.291126     4.291126    6502.9643   -38397.846    85549.195   -27642.456     9663.365   -1717.9187   -1664.5105    79.015774 
   52200    1422.6333   -107.83714    1.2872285   -106.54991    8722.2653     4.294899     4.294899     4.294899    8722.2653   -26831.534    21187.509    31810.821    576.32317   -2990.1464    11019.774    79.224383 
   52300    1421.8293   -107.83124    1.2865011   -106.54474   -15235.434    4.2853486    4.2853486    4.2853486   -15235.434   -19167.877   -3203.0345   -23335.391    -4238.621    5657.4971    -20673.47    78.697055 
   52400    1192.0902   -107.61989    1.0786283   -106.54126   -593.08209     4.287119     4.287119     4.287119   -593.08209   -27065.518    65184.623   -39898.352    4912.4418    3410.6484    7201.4546    78.794631 
   52500    903.62689   -107.36005    0.8176206   -106.54243    8622.0245    4.2979823    4.2979823    4.2979823    8622.0245   -42867.205     48514.68    20218.598   -1386.1302   -8905.6674   -150.13338     79.39513 
   52600    1349.4829   -107.75992    1.2210405   -106.53888   -13239.265    4.2899833    4.2899833    4.2899833   -13239.265   -22710.874    37843.426   -54850.347   -7453.6676    772.72171   -7512.0979    78.952665 
   52700     1937.018   -108.28945    1.7526546   -106.53679   -3932.2577    4.2788369    4.2788369    4.2788369   -3932.2577   -30996.309   -11500.927    30700.463      13349.6    742.00169   -1800.1488     78.33885 
   52800    1363.7026   -107.77539    1.2339068   -106.54148     2858.153    4.2890443    4.2890443    4.2890443     2858.153   -29144.127    46812.074   -9093.4877    8351.9228   -14337.459   -8103.8288    78.900834 
   52900    1177.0874   -107.59892    1.0650535   -106.53386   -12276.393    4.2907745    4.2907745    4.2907745   -12276.393   -18661.827   -37795.152    19627.799   -7009.3009    2622.4883   -10768.273    78.996357 
   53000    1073.9066    -107.4986   0.97169328   -106.52691   -18569.885    4.2875014    4.2875014    4.2875014   -18569.885    -29511.58   -2191.5876   -24006.486    4270.9463    5481.9761   -2068.5703    78.815713 
   53100    850.20744   -107.29914   0.76928556   -106.52986    16537.264    4.2821347    4.2821347    4.2821347    16537.264    11312.663    70365.843   -32066.715    10552.563   -5758.9991    8575.1524    78.520123 
   53200    1532.7754    -107.9166    1.3868874   -106.52972   -5113.9963    4.2946753    4.2946753    4.2946753   -5113.9963   -28961.503   -3916.4713    17535.986   -7770.4053    7624.5615   -21516.585    79.212003 
   53300    1496.9125   -107.86953    1.3544379   -106.51509    4479.8056    4.2990055    4.2990055    4.2990055    4479.8056   -33621.651    53148.428   -6087.3603       3435.9    9995.7426    7099.2496    79.451849 
   53400    1665.2408   -108.00459    1.5067448   -106.49784   -2421.2263    4.2879918    4.2879918    4.2879918   -2421.2263   -28090.027   -4105.2132    24931.562    323.11151    4278.0648   -1722.3386    78.842764 
   53500     1197.944   -107.58596    1.0839249   -106.50204   -9658.4205    4.2942083    4.2942083    4.2942083   -9658.4205   -15462.617    8615.1146    -22127.76   -3661.2234     12099.48    3301.5873    79.186165 
   53600    952.14032   -107.36932   0.86151657    -106.5078   -11.539864     4.294873     4.294873     4.294873   -11.539864   -22231.759    26076.765   -3879.6261    8769.1018   -964.11441    15131.084    79.222947 
   53700     1231.103   -107.62733    1.1139279   -106.51341   -1111.0815    4.2974875    4.2974875    4.2974875   -1111.0815   -16308.662    20143.425   -7168.0076     14279.21   -3927.8773   -10798.118    79.367714 
   53800    1333.4434   -107.71839    1.2065276   -106.51186   -8998.1536    4.2967026    4.2967026    4.2967026   -8998.1536   -11332.613    35307.195   -50969.043    291.89414     8766.669   -6161.7939    79.324233 
   53900     1613.795   -107.97255    1.4601956   -106.51236    7689.5888    4.2834268    4.2834268    4.2834268    7689.5888   -11553.646     24116.63    10505.783   -3408.3798   -7809.5151    9684.6786    78.591224 
   54000    1734.7809   -108.09837    1.5696662   -106.52871   -11354.694    4.2923835    4.2923835    4.2923835   -11354.694   -15402.104    2935.3596   -21597.337    2021.1515    1305.7508    3216.9781    79.085259 
   54100    1090.3186   -107.51269   0.98654321   -106.52614    6017.9718    4.2901338    4.2901338    4.2901338    6017.9718   -14296.441    74109.982   -41759.626   -3169.6582    5511.0951    15964.843    78.960975 
   54200    953.02241   -107.38812    0.8623147   -106.52581    283.31681    4.2922919    4.2922919    4.2922919    283.31681    30318.659   -12456.459    -17012.25    5173.1553   -9185.1298     1006.761    79.080197 
   54300    1586.2273   -107.95185    1.4352518    -106.5166   -15150.676    4.2932937    4.2932937    4.2932937   -15150.676    -40240.13    35424.328   -40636.227    2395.5472    7182.1653   -5016.5431     79.13558 
   54400    1610.8692   -107.96761    1.4575483   -106.51006    2414.1424    4.2818864    4.2818864    4.2818864    2414.1424    20952.306   -14222.712    512.83253   -5691.2263    2556.3832   -4495.7372    78.506468 
   54500    1237.4282    -107.6542    1.1196511   -106.53455     18680.66    4.2932404    4.2932404    4.2932404     18680.66   -5142.1057    52935.092    8248.9928    10179.867   -16373.554   -630.87679    79.132633 
   54600    1801.3778   -108.14912    1.6299245    -106.5192   -15654.044    4.3058449    4.3058449    4.3058449   -15654.044       -43060    31322.752   -35224.884   -10355.471   -4271.2821    13993.514    79.831659 
   54700    1545.0829   -107.90151    1.3980235   -106.50349   -20126.861    4.2865775    4.2865775    4.2865775   -20126.861   -16059.162    21438.086   -65759.506   -2725.2937    -9682.183    9709.1996    78.764776 
   54800    892.88503   -107.31625   0.80790114   -106.50835    4382.1339    4.2835601    4.2835601    4.2835601    4382.1339    37807.409    16387.983   -41048.991    877.06003   -8809.3107    7775.3212     78.59856 
   54900    1471.6104   -107.84416     1.331544   -106.51262   -3338.7636    4.3008152    4.3008152    4.3008152   -3338.7636   -23394.348    63716.245   -50338.188   -15543.215   -5667.0665    2690.9203    79.552226 
   55000    1352.9549   -107.74131    1.2241821   -106.51713    11759.812    4.2973715    4.2973715    4.2973715    11759.812    20267.214    53938.004   -38925.783   -3589.4303   -9832.9432    4080.6799    79.361287 
   55100    1361.3782   -107.74445    1.2318036   -106.51265   -1822.7787    4.3025086    4.3025086    4.3025086   -1822.7787   -4144.6689    13176.748   -14500.415    952.51367    3183.5984   -1965.4367    79.646235 
   55200    1361.5296   -107.73086    1.2319406   -106.49891   -17688.324    4.2986873    4.2986873    4.2986873   -17688.324   -22061.928    11293.087    -42296.13   -14810.349    5256.9981    10879.143    79.434207 
   55300    996.44919   -107.39567   0.90160817   -106.49406    19285.364     4.282332     4.282332     4.282332    19285.364    29218.794    38003.755   -9366.4548    9009.6967     3117.832    8298.7382    78.530979 
   55400    1180.8388   -107.57667    1.0684477   -106.50822    11598.057    4.2967388    4.2967388    4.2967388    11598.057   -18773.788    49692.154    3875.8056   -11438.335   -4511.8144    -9840.851    79.326237 
   55500    1393.7089   -107.77094    1.2610571   -106.50988   -15342.627    4.3055002    4.3055002    4.3055002   -15342.627    4772.0683   -29137.787   -21662.162   -3078.9461   -3244.1239    8525.4892    79.812484 
   55600    1183.2099   -107.58029    1.0705932   -106.50969    15960.437    4.2952042    4.2952042    4.2952042    15960.437   -24831.939    60731.087    11982.162   -2574.1236    13725.052    1544.7324    79.241275 
   55700    1525.5283   -107.89681    1.3803301   -106.51648    12323.941    4.2899142    4.2899142    4.2899142    12323.941    48797.166   -9240.7891   -2584.5545      1713.02   -11994.401   -12490.883    78.948854 
   55800    1105.0995   -107.52722   0.99991724    -106.5273   -576.51807    4.2854216    4.2854216    4.2854216   -576.51807    491.13286    36120.196   -38340.883   -4966.2483   -19577.537     7877.078    78.701074 
   55900    1262.2068   -107.66843    1.1420712   -106.52636   -8078.5549    4.2955677    4.2955677    4.2955677   -8078.5549    7606.9742    19577.164   -51419.803   -3567.9372    846.70317    530.76682    79.261396 
   56000    1370.3943   -107.73798    1.2399616   -106.49802   -7534.3861    4.3085237    4.3085237    4.3085237   -7534.3861   -25941.694    7938.4314   -4599.8953    15297.416   -6877.1056   -3789.3878    79.980746 
   56100    914.39864   -107.31775   0.82736711   -106.49038     19310.62    4.2948855    4.2948855    4.2948855     19310.62    -24284.23    63600.146    18615.945    8465.1828   -4084.9469    25184.651    79.223636 
   56200    1739.0879   -108.06431    1.5735632   -106.49074    6576.3438    4.2836543    4.2836543    4.2836543    6576.3438   -13287.966    40992.995   -7975.9977    3715.3643    -5736.091    25007.409    78.603748 
   56300    1318.0819   -107.70445    1.1926282   -106.51182    10292.601    4.2966062    4.2966062    4.2966062    10292.601   -20482.482    19322.828    32037.457    5738.3717   -17412.669    4206.7776    79.318895 
   56400    1151.7627   -107.54775    1.0421391   -106.50561    -30239.44    4.3073191    4.3073191    4.3073191    -30239.44    -29834.31   -18447.134   -42436.875    6844.1993   -964.50221    16542.014     79.91368 
   56500    1270.2749   -107.64568    1.1493714   -106.49631   -14167.243    4.2851375    4.2851375    4.2851375   -14167.243   -13503.485    7955.6107   -36953.856   -8281.7882   -2993.2059    -7012.887    78.685422 
   56600    1261.5352   -107.64548    1.1414636   -106.50402    42031.056    4.2722869    4.2722869    4.2722869    42031.056    33488.238    80937.993    11666.937    4504.6461    1896.7511   -23219.124    77.979641 
   56700    1371.6621   -107.76827    1.2411087   -106.52716     1986.135    4.3043594    4.3043594    4.3043594     1986.135    7180.0141    9382.6304   -10604.239   -5187.9593    -17447.05   -1701.8811    79.749061 
   56800    1152.8881   -107.54687    1.0431574   -106.50371   -13575.791    4.3084019    4.3084019    4.3084019   -13575.791   -48967.205    44529.901    -36290.07    355.58171   -17788.366   -15332.448    79.973964 
   56900    1355.6198    -107.7106    1.2265933   -106.48401    6163.0577    4.2701322    4.2701322    4.2701322    6163.0577     17911.18    22103.761   -21525.769     10154.46    6137.1843   -16057.915    77.861714 
   57000    900.02966   -107.32431   0.81436575   -106.50994    28782.703     4.269217     4.269217     4.269217    28782.703    10400.694     24363.63    51583.785   -3895.0667   -4577.5206    24670.925     77.81166 
   57100    1160.1023   -107.57475    1.0496849   -106.52507   -21605.239    4.3085042    4.3085042    4.3085042   -21605.239   -45826.759    19393.469   -38382.428    2694.2655    3194.8118   -1068.9724    79.979663 
   57200    1369.6014   -107.73824    1.2392442   -106.49899   -16735.758    4.3117371    4.3117371    4.3117371   -16735.758   -62793.288    22892.011   -10305.996    10965.778   -4077.2482    21417.417    80.159836 
   57300    1120.8424   -107.49737    1.0141617   -106.48321    45353.509    4.2715654    4.2715654    4.2715654    45353.509    14408.672     107551.7    14100.159   -10561.274   -10531.047    28452.105     77.94014 
   57400    1265.0202   -107.63686    1.1446169   -106.49225    9356.5314    4.2709753    4.2709753    4.2709753    9356.5314    2675.6509     17954.34     7439.603   -214.08317    13848.499    7231.1923    77.907841 
   57500    801.57195   -107.24575   0.72527915   -106.52047   -19126.707    4.3032782    4.3032782    4.3032782   -19126.707   -11538.947   -24723.401   -21117.774    12674.298   -10898.025    9603.7936    79.688981 
   57600    972.03349    -107.3794   0.87951633   -106.49988   -5869.4413     4.304855     4.304855     4.304855   -5869.4413   -20731.695   -33516.535    36639.906     4700.527   -4961.2299    22190.259    79.776611 
   57700    1464.5016   -107.81778    1.3251119   -106.49266    20113.452    4.2735552    4.2735552    4.2735552    20113.452    -7481.025     12570.79     55250.59   -4161.6293    3939.6213    1692.0227    78.049108 
   57800    1639.3241   -107.99218    1.4832949   -106.50888   -4367.8027    4.2717751    4.2717751    4.2717751   -4367.8027   -14293.486   -1405.6185    2595.6968    8515.3259   -8168.8145   -2777.1073     77.95162 
   57900    1755.7507   -108.10089    1.5886401   -106.51225    -24442.22    4.2936732    4.2936732    4.2936732    -24442.22   -32945.955   -28241.022   -12139.682    818.59382    -7586.649    5447.8677    79.156569 
   58000    1240.7856   -107.62932    1.1226889   -106.50663   -12766.651    4.2961214    4.2961214    4.2961214   -12766.651    937.71896   -28115.693   -11121.978    8836.4014    14016.753   -19000.366    79.292048 
   58100    1053.1192   -107.45125   0.95288439   -106.49836    -23317.08    4.2890123    4.2890123    4.2890123    -23317.08   -39296.918   -21677.883   -8976.4392    17516.792   -16074.026    10139.465    78.899068 
   58200     906.3913   -107.31552    0.8201219    -106.4954    29427.149    4.2712289    4.2712289    4.2712289    29427.149    57841.227    -8596.125    39036.344   -5628.2381    3791.8958   -2585.5865    77.921722 
   58300    1446.1684     -107.822    1.3085235   -106.51348   -16502.242    4.2786667    4.2786667    4.2786667   -16502.242   -33948.268   -15281.086   -277.37243    21217.619     696.9259   -15249.452    78.329506 
   58400    1282.4942   -107.68096    1.1604277   -106.52053   -17251.659    4.2936744    4.2936744    4.2936744   -17251.659   -15622.793   -22187.957   -13944.229    7894.0655    -13011.92    8874.8469    79.156636 
   58500    1625.7452   -107.97653    1.4710084   -106.50552   -23700.827    4.2889564    4.2889564    4.2889564   -23700.827    121.53969   -64446.229   -6777.7926   -3657.5161   -1825.9954   -3018.3477    78.895984 
   58600    1201.2927   -107.59227    1.0869549   -106.50531   -3420.3957    4.2856821    4.2856821    4.2856821   -3420.3957    11992.241   -10565.188    -11688.24    9162.2206   -5999.1244    1357.0888     78.71543 
   58700    1415.2275   -107.78606    1.2805276   -106.50554   -5312.7511    4.2779813    4.2779813    4.2779813   -5312.7511   -22000.086    4717.1072    1344.7252   -10956.809   -14106.781    2839.8689    78.291868 
   58800    994.95635   -107.41688   0.90025742   -106.51662    10144.935    4.2817263    4.2817263    4.2817263    10144.935    48043.864   -15213.783   -2395.2762    72.268444    -3455.448   -6362.4248     78.49766 
   58900    1334.9831   -107.72023    1.2079208   -106.51231   -23802.729    4.2935988    4.2935988    4.2935988   -23802.729   -47457.244   -15055.045   -8895.8967    4958.8941   -23.932919   -2552.9196    79.152452 
   59000    1230.5092   -107.62106    1.1133906   -106.50767   -8397.3982    4.2873966    4.2873966    4.2873966   -8397.3982   -11132.917    6061.3471   -20120.624   -556.71096   -24796.573   -3052.5422    78.809936 
   59100    1182.6457   -107.57538    1.0700827    -106.5053    11927.762    4.2793851    4.2793851    4.2793851    11927.762    4979.3368   -39949.687    70753.636    7957.4283    9276.8989   -13694.898    78.368965 
   59200    1759.5874   -108.10331    1.5921116    -106.5112   -14596.965    4.2885177    4.2885177    4.2885177   -14596.965   -27368.801   -14177.249   -2244.8466   -3008.7832   -12194.047   -2264.6617    78.871778 
   59300    945.90332   -107.37052   0.85587321   -106.51464    8262.0306    4.2924112    4.2924112    4.2924112    8262.0306   -387.81624   -2565.0405    27738.949      968.738   -8202.3581     6660.165    79.086789 
   59400    1545.5693   -107.90204    1.3984636   -106.50358   -21736.882    4.2848267    4.2848267    4.2848267   -21736.882   -23314.234    -28307.36   -13589.053   -605.51262    559.42008     9052.421    78.668302 
   59500    1100.9787   -107.50727    0.9961887   -106.51108    18273.943    4.2878182    4.2878182    4.2878182    18273.943    27664.271    24638.239    2519.3191   -3602.9683   -1741.7414    11657.361    78.833188 
   59600    1109.3433   -107.51283    1.0037571   -106.50907   -9077.5014    4.2981265    4.2981265    4.2981265   -9077.5014   -23219.426   -26568.908     22555.83    2800.0202   -6641.4153    14030.201    79.403122 
   59700    1318.2114   -107.69283    1.1927454   -106.50008    12431.439    4.2892853    4.2892853    4.2892853    12431.439    24862.851   -30403.379    42834.844   -6373.2572    18523.983    13688.747    78.914137 
   59800    1561.4122   -107.91417    1.4127986   -106.50137   -4701.3598    4.2848913    4.2848913    4.2848913   -4701.3598    5366.5792   -23248.141     3777.482   -7885.2179   -10683.269     2323.825    78.671859 
   59900    1138.9522   -107.53145    1.0305479    -106.5009    5679.3584    4.2853512    4.2853512    4.2853512    5679.3584     7325.021    7193.3606    2519.6936   -13439.608   -2162.5867    5839.7468    78.697198 
   60000    1451.7561   -107.81503    1.3135794   -106.50145   -8170.6663    4.2974097    4.2974097    4.2974097   -8170.6663    20486.245   -5212.6808   -39785.563    6212.7931    12150.475   -9974.3452    79.363401 
   60100     1573.689   -107.92024    1.4239069   -106.49633   -47140.288    4.3012797    4.3012797    4.3012797   -47140.288   -37228.791   -26342.034   -77850.039    8231.2896    -7967.418   -3103.9408    79.578007 
   60200    909.63468   -107.32497   0.82305657   -106.50191    22548.213    4.2687648    4.2687648    4.2687648    22548.213    96137.824   -8908.8648   -19584.321   -5551.7663    5162.1702     3489.756    77.786941 
   60300    1589.1207   -107.95291    1.4378698   -106.51505    7020.7273    4.2667923    4.2667923    4.2667923    7020.7273    45987.781   -21968.885   -2956.7137   -3494.8786    1541.2812   -1808.4527     77.67916 
   60400    1379.5521   -107.78817    1.2482477   -106.53993   -39144.286    4.3053249    4.3053249    4.3053249   -39144.286    2391.5588     -68958.6   -50865.816    1774.2409    -4970.124   -7033.2105    79.802736 
   60500    1411.8165   -107.78329    1.2774412   -106.50584   -54646.667    4.3113289    4.3113289    4.3113289   -54646.667   -39404.241   -86647.141   -37888.619   -20615.587   -3628.2645   -12970.442    80.137071 
   60600    1503.5981   -107.85205    1.3604872   -106.49156    26015.821    4.2655164    4.2655164    4.2655164    26015.821    57351.998    45056.675    -24361.21   -11151.405    13473.235   -2747.6465    77.609493 
   60700    1462.2601    -107.8336    1.3230836   -106.51051    2817.2415    4.2643702    4.2643702    4.2643702    2817.2415    8199.4185    13450.432   -13198.126    7370.7774    3371.5422    819.54519    77.546943 
   60800    990.55368   -107.42864   0.89627378   -106.53237   -35254.872    4.3077044    4.3077044    4.3077044   -35254.872   -37292.268   -22813.176   -45659.172   -6664.2676   -20764.989   -16209.588    79.935131 
   60900    1473.8556   -107.83733    1.3335756   -106.50375   -29800.647    4.3001643    4.3001643    4.3001643   -29800.647   -41623.895   -12406.284   -35371.762    3844.7604    9829.3562   -981.42311    79.516116 
   61000    1420.9183   -107.77817    1.2856767   -106.49249    17719.597    4.2660544    4.2660544    4.2660544    17719.597    35419.173   -27279.377    45018.995   -12817.695     2423.691   -3836.0904    77.638865 
   61100    1263.1209   -107.66191    1.1428983   -106.51901     13804.28    4.2736375    4.2736375    4.2736375     13804.28    34301.363   -14769.148    21880.624   -7026.4106    9668.2263   -7128.2775     78.05362 
   61200    1013.0236   -107.43408   0.91660505   -106.51747    2155.5744    4.3005506    4.3005506    4.3005506    2155.5744    33654.671   -10730.159   -16457.789    7213.4968    25187.873   -5292.4519    79.537547 
   61300    1058.6886   -107.46197   0.95792369   -106.50405   -21839.012     4.305438     4.305438     4.305438   -21839.012   -22660.725    -55013.74     12157.43   -20998.963    9270.7337   -4881.7223    79.809028 
   61400    1441.0633   -107.78972    1.3039043   -106.48581   -12398.976     4.285814     4.285814     4.285814   -12398.976   -6046.2189   -28859.837   -2290.8714   -10128.453    23813.736   -8818.2272    78.722698 
   61500    1267.2581   -107.64182    1.1466417   -106.49517    20861.226    4.2736968    4.2736968    4.2736968    20861.226    69058.285   -12233.243    5758.6365    -8287.382     13950.39   -11860.594    78.056868 
   61600    1644.4641   -108.00264    1.4879457   -106.51469    1327.6236    4.2858189    4.2858189    4.2858189    1327.6236   -3415.7926   -32109.409    39508.072   -2163.5829   -2175.5892     4425.134    78.722966 
   61700    1291.6325   -107.68604    1.1686962   -106.51735    11315.979    4.2989839    4.2989839    4.2989839    11315.979    90477.346   -22447.968    -34081.44    -2456.378   -2455.0027    49.561922     79.45065 
   61800    1264.4241   -107.65141    1.1440775   -106.50733   -24615.955    4.2934465    4.2934465    4.2934465   -24615.955   -26084.896   -21836.043   -25926.926   -13632.883   -8926.6872   -1053.2652    79.144031 
   61900    1093.9642   -107.48616    0.9898418   -106.49632    11933.075    4.2701638    4.2701638    4.2701638    11933.075   -697.13368   -15275.048    51771.407   -15138.702   -7309.2959     5223.309    77.863441 
   62000    1117.3344   -107.52906    1.0109876   -106.51807    5750.9124    4.2784929    4.2784929    4.2784929    5750.9124    19534.434     31194.04   -33475.736    15094.379   -1626.4892   -2295.0625    78.319957 
   62100    1185.8855   -107.58897    1.0730141   -106.51596   -14996.952     4.291537     4.291537     4.291537   -14996.952    1620.4036   -30800.298   -15810.963    9191.9754   -6027.7397    4595.4567    79.038482 
   62200    1577.2601    -107.9316    1.4271381   -106.50447    7571.9952    4.2788866    4.2788866    4.2788866    7571.9952    13941.048    4772.5896    4002.3484   -13216.335    2411.8708    3302.0572    78.341579 
   62300    1309.1361    -107.6988    1.1845338   -106.51427    7348.8068    4.2779903    4.2779903    4.2779903    7348.8068    3700.6577    23759.236   -5413.4737    14658.749    21243.607    6771.7287    78.292359 
   62400     1376.264   -107.75744    1.2452725   -106.51217   -4056.8977    4.2738449    4.2738449    4.2738449   -4056.8977   -35519.227    15688.291    7660.2432    1335.4788   -4664.0054    12978.049    78.064984 
   62500     1038.243   -107.46443   0.93942412   -106.52501   -9627.3423    4.2814141    4.2814141    4.2814141   -9627.3423    -40812.82    36827.894   -24897.101   -2067.0242    37.785413   -834.40476    78.480489 
   62600    1202.3219    -107.6091    1.0878861   -106.52122   -16260.411     4.289992     4.289992     4.289992   -16260.411   -15615.986    8211.0279   -41376.274    10760.927    16602.094    2743.1296    78.953146 
   62700    1332.0865     -107.716    1.2052999    -106.5107    27913.877    4.2698986    4.2698986    4.2698986    27913.877    51547.076    24781.278    7413.2767    2121.6187   -13555.059   -7434.8711    77.848936 
   62800    1366.4818   -107.75817    1.2364214   -106.52175    5037.1878    4.2709805    4.2709805    4.2709805    5037.1878    18366.458    15494.524   -18749.418    785.37495   -685.34542    4059.9873    77.908129 
   62900    1123.9283   -107.54551    1.0169539   -106.52856   -2024.3963    4.2882606    4.2882606    4.2882606   -2024.3963    9620.0809   -6109.1692   -9584.1005    -10959.46    22450.054   -5054.9981    78.857592 
   63000     1776.608     -108.122    1.6075122   -106.51449    5016.8166    4.2747753    4.2747753    4.2747753    5016.8166    7919.6889     1891.103    5239.6579    738.15175    2899.4221   -14361.606    78.115977 
   63100    1416.5482   -107.80732    1.2817225    -106.5256    27819.733    4.2638446    4.2638446    4.2638446    27819.733    4225.3418     43865.39    35368.468    7153.6358    262.15582    4212.2578    77.518274 
   63200    1217.3343   -107.65739    1.1014696   -106.55592    1084.2311    4.2816168    4.2816168    4.2816168    1084.2311    44982.559   -6531.7219   -35198.144   -695.44308    4390.7606   -7093.2068    78.491636 
   63300    994.40414   -107.43925   0.89975776   -106.53949   -24247.707    4.3005406    4.3005406    4.3005406   -24247.707   -37137.703    1961.4069   -37566.827    9343.8491   -13329.994    3520.3684    79.536993 
   63400    1537.7284   -107.90238     1.391369   -106.51101   -6659.7055    4.2762847    4.2762847    4.2762847   -6659.7055    1980.5819   -367.47958   -21592.219   -3448.2482    3941.5527    5451.5732    78.198752 
   63500    1043.5484   -107.45328   0.94422456   -106.50906    21597.691    4.2613082    4.2613082    4.2613082    21597.691    34037.606     48850.46   -18094.995    5349.7896   -1179.4306   -5006.6694    77.380021 
   63600     1445.679   -107.83883    1.3080808   -106.53075    -26782.21    4.2795931    4.2795931    4.2795931    -26782.21   -22522.369   -9881.2484   -47943.013    -3500.016   -18672.693   -2725.7163    78.380392 
   63700    1728.6814   -108.08772    1.5641472   -106.52357   -14829.287    4.2854846    4.2854846    4.2854846   -14829.287   -39714.103     5582.066   -10355.824    20381.596    1108.6749   -2921.3325    78.704547 
   63800    1280.9849     -107.681     1.159062   -106.52193    24020.048    4.2702225    4.2702225    4.2702225    24020.048    43230.542    50819.778   -21990.177    -3874.467   -3908.9424    615.43504    77.866655 
   63900    1012.6299   -107.45238   0.91624882   -106.53613   -31034.673    4.2801408    4.2801408    4.2801408   -31034.673   -29648.306   -14869.151   -48586.562    168.60389   -16715.863    -13934.69    78.410489 
   64000    1194.8076   -107.60571     1.081087   -106.52462   -2399.0299    4.2771724    4.2771724    4.2771724   -2399.0299   -14458.426    50836.673   -43575.337    21922.586   -1972.7071    8639.2553    78.247464 
   64100    1404.2716   -107.78942    1.2706145   -106.51881     10692.31    4.2712646    4.2712646    4.2712646     10692.31     18078.42    23691.985   -9693.4744   -13714.709   -2964.8725   -6920.7107    77.923673 
   64200    1042.1627   -107.47042   0.94297072   -106.52745    -30697.46    4.2894412    4.2894412    4.2894412    -30697.46   -24156.027   -33511.268   -34425.085    8176.0608   -7194.5582   -21846.995    78.922738 
   64300    1689.2346   -108.03798     1.528455   -106.50952   -17797.701    4.2823797    4.2823797    4.2823797   -17797.701    -38118.34   -18549.084     3274.321    7591.2561    3723.3897   -5491.4197    78.533602 
   64400    1620.8567   -107.97841    1.4665852   -106.51182    9763.9943    4.2742591    4.2742591    4.2742591    9763.9943    6988.3944    42393.091   -20089.502    3529.9336    9878.6666   -4205.8462    78.087681 
   64500    1163.7893   -107.58114     1.053021   -106.52812   -2182.9208    4.2714164    4.2714164    4.2714164   -2182.9208   -23437.925    13067.629    3821.5329    -4037.327   -7306.4781   -9579.5036    77.931982 
   64600    1409.7076   -107.81522    1.2755331   -106.53969   -17890.018    4.2692425    4.2692425    4.2692425   -17890.018   -24206.891    13154.756   -42617.918    20825.994    17680.618   -1991.9441    77.813056 
   64700    1115.5362   -107.55188    1.0093606   -106.54252   -16597.098    4.2870381    4.2870381    4.2870381   -16597.098   -28574.155    3176.7928   -24393.931     2479.933    3862.8852    2514.9102    78.790168 
   64800    1187.3376   -107.59864     1.074328   -106.52431   -31046.105    4.2904011    4.2904011    4.2904011   -31046.105   -34834.877   -29178.182   -29125.255   -18712.496   -6832.5278    9575.7657    78.975736 
   64900    811.28249   -107.25113   0.73406544   -106.51707    21816.281    4.2796492    4.2796492    4.2796492    21816.281   -16591.878    54984.877    27055.845    14958.836    17938.056   -15520.959    78.383477 
   65000    1810.2774   -108.14683     1.637977   -106.50886    -3051.772    4.2726096    4.2726096    4.2726096    -3051.772   -22147.402    20450.423   -7458.3372   -8873.0537   -12750.678     2128.267     77.99731 
   65100     1344.772   -107.74956     1.216778   -106.53278    3832.0986    4.2816463    4.2816463    4.2816463    3832.0986   -27158.541    1373.4624    37281.374   -5352.2219   -7875.7913    8815.8311    78.493259 
   65200      1191.65   -107.61513    1.0782299    -106.5369   -24908.635    4.2953969    4.2953969    4.2953969   -24908.635   -63139.128     33963.07   -45549.847    28894.907    13649.115   -5132.6702    79.251942 
   65300    1637.0733   -107.99697    1.4812584   -106.51571     4048.534    4.2741076    4.2741076    4.2741076     4048.534    15192.049    2622.9853   -5669.4318    14449.535   -7520.8133   -7325.5835    78.079379 
   65400    1332.1689   -107.72496    1.2053744   -106.51959   -1929.1791    4.2714153    4.2714153    4.2714153   -1929.1791   -7068.8209    33313.964   -32032.681   -23813.547    4574.7295    1217.4704    77.931925 
   65500    811.02487   -107.26503   0.73383234    -106.5312   -25730.537    4.2931958    4.2931958    4.2931958   -25730.537    -25892.59   -33394.432   -17904.588    13630.758    8606.6922   -1803.6404    79.130166 
   65600    1579.6715   -107.94312      1.42932    -106.5138   -15685.581    4.2954856    4.2954856    4.2954856   -15685.581   -547.27935   -38687.295   -7822.1696   -12273.699   -3196.6684    5570.5859    79.256849 
   65700    1375.5993   -107.75397    1.2446712    -106.5093    11276.254    4.2830808    4.2830808    4.2830808    11276.254   -2778.3653    28106.778    8500.3483   -7252.7866    17698.325   -6077.6322    78.572181 
   65800    1062.5155     -107.476   0.96138635   -106.51461    4289.5484    4.2731878    4.2731878    4.2731878    4289.5484   -53303.072    57046.772    9124.9453    12248.822    27097.511    6660.8587    78.028979 
   65900    1632.2619   -107.99999    1.4769049   -106.52309   -5090.9787    4.2836735    4.2836735    4.2836735   -5090.9787   -21021.053     32648.36   -26900.243   -14326.945   -11115.974    13476.553    78.604801 
   66000    1330.0535   -107.71925    1.2034604   -106.51579   -8899.6123    4.3000143    4.3000143    4.3000143   -8899.6123   -15738.072    30529.963   -41490.728    8227.2202     12439.18   -115.06835    79.507791 
   66100    1365.9259   -107.73556    1.2359185   -106.49964   -25280.228    4.2860903    4.2860903    4.2860903   -25280.228   -38782.479   -7377.8755    -29680.33    4053.9086    30333.612    2110.8664    78.737921 
   66200    1353.2914   -107.71999    1.2244865   -106.49551     3027.839    4.2721963    4.2721963    4.2721963     3027.839   -4170.7867   -12971.767     26226.07    6694.3356    -10972.79    1121.2003    77.974679 
   66300    1451.5863   -107.82956    1.3134258   -106.51613   -12986.829    4.2843405    4.2843405    4.2843405   -12986.829   -40006.663    22859.644   -21813.467     8308.176    15151.568    16935.163     78.64153 
   66400    1121.1711   -107.53094    1.0144592   -106.51648   -3560.4105    4.2921106    4.2921106    4.2921106   -3560.4105   -39454.302    19628.143    9144.9276   -1450.5229     19520.31   -16931.208    79.070175 
   66500    1298.0477   -107.68409    1.1745008   -106.50959   -16901.385    4.2884583    4.2884583    4.2884583   -16901.385   -42100.539    40550.372   -49153.989    5901.5878   -19499.509   -2613.6349    78.868498 
   66600    1468.9992   -107.84929    1.3291814   -106.52011   -9574.4076    4.2830661    4.2830661    4.2830661   -9574.4076   -31764.603    24402.666   -21361.286    8324.6109    24115.366    -5060.256    78.571373 
   66700     1746.015      -108.12    1.5798311   -106.54016    -31691.35    4.2839842    4.2839842    4.2839842    -31691.35   -38766.419   -23485.718   -32821.915   -4710.2402   -3743.9767    21006.465    78.621908 
   66800    1306.1267   -107.73671    1.1818109    -106.5549    7769.6119     4.284524     4.284524     4.284524    7769.6119   -29535.851    57269.952   -4425.2647    8019.0477   -3300.3923    4256.7157    78.651631 
   66900    1210.1566   -107.65632    1.0949752   -106.56135   -46.476274    4.2962774    4.2962774    4.2962774   -46.476274   -49061.472    43580.879    5341.1639    7977.8903    5409.9767   -14085.155    79.300684 
   67000    1053.8247     -107.509   0.95352272   -106.55548   -15554.688    4.2984568    4.2984568    4.2984568   -15554.688   -45285.126    23385.665   -24764.603    3008.4352   -19419.634    19352.204    79.421431 
   67100    1303.7986   -107.73723    1.1797043   -106.55753   -4051.3322    4.2846034    4.2846034    4.2846034   -4051.3322   -9471.1061   -7125.4584    4442.5679   -7737.8208    8273.8024   -3411.9064    78.656003 
   67200    1884.9345   -108.27439    1.7055284   -106.56886   -17788.417    4.2863713    4.2863713    4.2863713   -17788.417   -25045.548    -2386.644    -25933.06    10248.264   -3634.4885    9387.0983    78.753411 
   67300    1427.1817   -107.87255     1.291344    -106.5812   -22645.985    4.2976123    4.2976123    4.2976123   -22645.985   -56437.332   -33091.714    21591.092    3376.9917   -12877.651    11952.438     79.37463 
   67400    1745.1658   -108.15255    1.5790627   -106.57349   -18978.998    4.2952085    4.2952085    4.2952085   -18978.998   -32938.498    -26931.83    2933.3344    2050.8025    989.64262   -14598.554    79.241514 
   67500    1698.4523   -108.11045    1.5367953   -106.57365    -10297.44    4.2902777    4.2902777    4.2902777    -10297.44   -40728.113    16551.868   -6716.0755   -1109.6974   -10105.815    6467.4422     78.96892 
   67600    1305.9223   -107.75775    1.1816259   -106.57612    5301.5824    4.2930609    4.2930609    4.2930609    5301.5824   -45789.094    51068.248    10625.593     13242.26   -12078.368    11556.719    79.122707 
   67700    1051.5471   -107.51917    0.9514619   -106.56771    3304.4294    4.3044248    4.3044248    4.3044248    3304.4294   -5122.6029    33750.677   -18714.786   -1502.8538   -3265.6067    17442.023    79.752696 
   67800    1337.0801   -107.75622    1.2098182    -106.5464    -774.7473    4.2957071    4.2957071    4.2957071    -774.7473   -16720.092    30530.715   -16134.864    7868.8955   -3472.8801   -9899.7948    79.269111 
   67900    1157.9594   -107.59436     1.047746   -106.54661    6914.2787    4.2979888    4.2979888    4.2979888    6914.2787   -22158.173    -9323.011     52224.02    1331.7083    2222.6006   -460.76605    79.395492 
   68000     1576.756   -107.98017     1.426682   -106.55348   -5611.9067    4.2932329    4.2932329    4.2932329   -5611.9067   -36820.484    17413.695    2571.0693     5244.879   -2931.7839    9184.7818    79.132221 
   68100    1166.3309   -107.61901    1.0553207   -106.56369    23111.615    4.2790131    4.2790131    4.2790131    23111.615   -12482.403    77515.184    4302.0634    6330.1881   -11826.543    4246.9793    78.348529 
   68200    1353.1369   -107.80465    1.2243467    -106.5803    7480.8359    4.2966072    4.2966072    4.2966072    7480.8359   -11891.645    15437.303     18896.85    6929.0746    342.01549    11516.212    79.318952 
   68300    1548.4252    -107.9628    1.4010477   -106.56176   -40474.704    4.3050041    4.3050041    4.3050041   -40474.704   -74558.875   -26194.998   -20670.239   -4848.6831   -9474.4724   -3217.1983    79.784903 
   68400    1012.4267   -107.46351     0.916065   -106.54744    8327.6814    4.2760768    4.2760768    4.2760768    8327.6814   -16263.283    50511.023    -9264.696    21729.321    -8514.715   -2152.0602     78.18735 
   68500    890.28034   -107.35837   0.80554436   -106.55283    35975.253    4.2711849    4.2711849    4.2711849    35975.253    1021.9102    109122.05   -2218.2055   -12676.637    869.15928   -9232.8142    77.919311 
   68600    1094.1158    -107.5519   0.98997893   -106.56192   -44800.481    4.2968808    4.2968808    4.2968808   -44800.481   -75890.175   -27675.776   -30835.493    21940.058   -12981.674   -1209.4031    79.334101 
   68700    1127.7121   -107.55344    1.0203776   -106.53306      5154.66    4.2845805    4.2845805    4.2845805      5154.66   -32184.759   -6923.7935    54572.532    21325.824    -1608.515    2604.2632    78.654743 
   68800    1612.7003   -107.97312    1.4592051   -106.51392    17296.585    4.2786652    4.2786652    4.2786652    17296.585   -27743.394    75273.028    4360.1209   -7948.2209    14920.672   -12362.088    78.329418 
   68900    1100.3398   -107.51981    0.9956106   -106.52419   -11264.546    4.2977255    4.2977255    4.2977255   -11264.546   -58668.867   -21765.858    46641.086    7738.7335   -18047.626   -1843.5984    79.380899 
   69000    1323.8948   -107.71163    1.1978878   -106.51374   -14.142522    4.2834483    4.2834483    4.2834483   -14.142522   -34124.348    59823.199   -25741.279    8060.2567    5223.7433   -10390.657    78.592408 
   69100      1091.82   -107.50916   0.98790164   -106.52126    8767.9443      4.27227      4.27227      4.27227    8767.9443   -2888.2235    44588.497   -15396.441   -1692.0973   -1806.0405    5536.0505    77.978716 
   69200    1371.5236   -107.78026    1.2409833   -106.53927   -6805.3904    4.2885006    4.2885006    4.2885006   -6805.3904   -29334.619    11485.096   -2566.6487    6222.5748   -16809.352   -12062.518    78.870834 
   69300    1229.4122   -107.63635     1.112398   -106.52395   -1835.6959    4.3013314    4.3013314    4.3013314   -1835.6959   -43108.118    32229.671    5371.3594    9427.5003    2321.6731    8534.7721    79.580873 
   69400    1304.8238   -107.69421     1.180632   -106.51357   -7062.8699    4.2829181    4.2829181    4.2829181   -7062.8699   -10639.481    -35979.73    25430.602    3497.8197   -1349.3549    9335.8864    78.563227 
   69500    1343.6282   -107.73064     1.215743    -106.5149    5711.8824    4.2767349    4.2767349    4.2767349    5711.8824    5097.6933    8478.2293    3559.7246    38.069814   -16055.877    2350.5911    78.223454 
   69600    1516.6841   -107.89185    1.3723276   -106.51952   -16953.333     4.292927     4.292927     4.292927   -16953.333   -45754.795    1559.3604   -6664.5654    7454.2269    7634.7868    14750.388    79.115306 
   69700    1262.0204   -107.66109    1.1419026   -106.51919     -14802.3    4.2944141    4.2944141    4.2944141     -14802.3   -12126.663   -64.699437   -32215.539   -14594.744   -10066.524   -15033.651    79.197552 
   69800    1069.0592   -107.48204    0.9673072   -106.51474    36192.058    4.2862781    4.2862781    4.2862781    36192.058   -12530.982    83503.135    37604.022    4122.4239   -3856.6205    8334.3374    78.748271 
   69900    1700.4332   -108.05853    1.5385877   -106.51994    -35021.96    4.2906706    4.2906706    4.2906706    -35021.96   -53942.079    -38619.88   -12503.922   -17139.537    7921.1862   -4941.9783    78.990621 
   70000    1048.6958   -107.47857   0.94888196   -106.52969    788.44184    4.2814284    4.2814284    4.2814284    788.44184    7933.6322   -20633.208    15064.901     2709.398   -15741.405    1237.2449    78.481278 
   70100    1028.9647   -107.47257   0.93102887   -106.54154    9482.3811    4.2779541    4.2779541    4.2779541    9482.3811   -19009.326    40660.857    6795.6125    3673.6562    4710.6256   -11857.806    78.290374 
   70200    1811.0424   -108.17982    1.6386692   -106.54115   -13789.809    4.2878002    4.2878002    4.2878002   -13789.809   -17125.517   -29983.977    5740.0661    1644.1231    144.04936    12548.562    78.832195 
   70300    1176.4339   -107.60175    1.0644621   -106.53729    9704.0256    4.2951195    4.2951195    4.2951195    9704.0256   -6017.5987    21951.764    13177.912    1582.1774   -6778.2204    12785.565    79.236587 
   70400     1383.014   -107.77202    1.2513801   -106.52064   -15947.048    4.2831009    4.2831009    4.2831009   -15947.048   -31151.731   -17953.249     1263.836    3285.2508    1720.5747    1234.4709    78.573286 
   70500    1254.1682   -107.64923    1.1347977   -106.51444    10864.589    4.2815064    4.2815064    4.2815064    10864.589    16737.006    6653.7595    9203.0033   -15770.418    5541.6161    2815.4775    78.485564 
   70600    1278.4196   -107.67295    1.1567409   -106.51621   -30035.926    4.2953298    4.2953298    4.2953298   -30035.926   -36106.351   -32146.888   -21854.538   -2053.9129   -14426.188   -2937.9212    79.248227 
   70700    844.51385   -107.27551   0.76413388   -106.51138    8404.8507    4.2843413    4.2843413    4.2843413    8404.8507   -17685.799    51160.474   -8260.1227    820.06116    4075.3284    5533.3544    78.641571 
   70800    1665.8835   -108.01802    1.5073264   -106.51069   -8357.7242    4.2806407    4.2806407    4.2806407   -8357.7242   -6043.3975   -35961.723    16931.948   -24494.816    2977.0912   -13297.804    78.437968 
   70900    1389.4714   -107.78073    1.2572229   -106.52351   -2634.1589    4.2873456    4.2873456    4.2873456   -2634.1589   -28320.099    25129.086   -4711.4639     12967.69   -15339.569   -15355.586    78.807126 
   71000    1323.5876   -107.72435    1.1976099   -106.52674    1418.6648    4.2875359    4.2875359    4.2875359    1418.6648    37427.529   -20205.547   -12965.988   -3626.3776    14434.112    10461.511    78.817616 
   71100    1023.0605   -107.45875    0.9256866   -106.53306   -17911.854    4.2932655    4.2932655    4.2932655   -17911.854   -2733.7293   -44693.905   -6307.9271    1303.8491    214.29033   -13428.795    79.134025 
   71200    1428.8863   -107.81644    1.2928863   -106.52355    1251.3278    4.2748359    4.2748359    4.2748359    1251.3278    40632.951   -31416.162   -5462.8061    8755.1185   -1548.7417    2156.1405    78.119301 
   71300    1045.4139   -107.48531   0.94591243    -106.5394    1996.0994    4.2756216    4.2756216    4.2756216    1996.0994    2135.4387   -8029.7072    11882.567   -19137.339    8693.0268   -7573.6882    78.162385 
   71400    1299.1727   -107.71029    1.1755187   -106.53478    5620.3717    4.2824553    4.2824553    4.2824553    5620.3717    40315.282   -20090.776   -3363.3905   -1474.1507    1818.0761   -9812.8521     78.53776 
   71500    1817.1022   -108.17191    1.6441523   -106.52776   -4699.7708    4.2932042    4.2932042    4.2932042   -4699.7708   -12640.635   -1227.2059   -231.47179   -4916.4641   -10577.114    1129.7764    79.130633 
   71600    1006.9067   -107.43053   0.91107033   -106.51946   -18163.798    4.2973824    4.2973824    4.2973824   -18163.798    9185.8242   -32055.283   -31621.934     -491.473    5608.1795    5247.0258    79.361892 
   71700    1369.2697    -107.7395     1.238944   -106.50055   -10031.271    4.2722376    4.2722376    4.2722376   -10031.271    18300.841   -28874.524    -19520.13   -3878.2719   -2266.4771   -19099.629    77.976942 
   71800    1033.3764   -107.45369   0.93502069   -106.51867    35850.909     4.271942     4.271942     4.271942    35850.909    32809.121   -18292.246    93035.853   -6189.5964    5761.5915    8673.1942    77.960754 
   71900     1064.602   -107.51371   0.96327429   -106.55044   -43040.861    4.2937758    4.2937758    4.2937758   -43040.861   -35328.961   -58306.854   -35486.769     2116.864    8497.2498   -22758.937    79.162243 
   72000    1464.6151   -107.86287    1.3252146   -106.53766   -12147.202    4.2885475    4.2885475    4.2885475   -12147.202   -10867.304    11926.832   -37501.132   -1549.4601    12824.045   -3663.1712    78.873421 
   72100    1488.2411   -107.87452    1.3465918   -106.52793    15835.618    4.2824275    4.2824275    4.2824275    15835.618   -5141.3655   -10304.743    62952.963   -5031.6558   -2023.0044    11237.855    78.536231 
   72200    849.05497   -107.31019   0.76824278   -106.54195    15493.139    4.2891032    4.2891032    4.2891032    15493.139    21440.786   -11240.595    36279.227    3260.1675   -1299.1202   -17959.009    78.904085 
   72300    1631.2975   -108.00861    1.4760323   -106.53258   -24140.523    4.2972021    4.2972021    4.2972021   -24140.523   -1702.8773    -17949.43   -52769.262    12246.532    5515.8091    2272.3086    79.351903 
   72400    1117.7959   -107.55732    1.0114052   -106.54592    4906.0648    4.2915469    4.2915469    4.2915469    4906.0648    75819.297    -33010.65   -28090.453   -13780.728   -6315.9789    -2726.564    79.039027 
   72500     1099.169     -107.552   0.99455124   -106.55744    21974.127    4.2747677    4.2747677    4.2747677    21974.127    26214.195    20727.546    18980.638    3696.6458    10962.727   -16818.082    78.115564 
   72600    1841.2749   -108.23606    1.6660242   -106.57004   -18922.209    4.2821496    4.2821496    4.2821496   -18922.209   -10655.898    4970.8768   -51081.605   -14822.672    -4885.353    6204.6185    78.520945 
   72700    1144.2622    -107.5979    1.0353525   -106.56255    16479.528    4.3006386    4.3006386    4.3006386    16479.528    67288.663    -18994.88    1144.8015    6076.7825   -4348.8875   -6039.4572    79.542429 
   72800    1191.9315   -107.61429    1.0784847    -106.5358   -22822.963    4.3039794    4.3039794    4.3039794   -22822.963    1943.8592   -20612.118   -49800.631   -3272.8144    10565.037    3076.0642    79.727941 
   72900    1179.4799   -107.59765    1.0672182   -106.53043   -2418.1836    4.2886824    4.2886824    4.2886824   -2418.1836     42576.62   -1086.8928   -48744.277    3762.8352    3815.4966   -5967.0527    78.880861 
   73000    1622.8672    -108.0052    1.4684043   -106.53679   -11815.184    4.2804603    4.2804603    4.2804603   -11815.184    8403.7346   -683.36131   -43165.926   -1625.0377   -7312.7533   -7026.1301    78.428053 
   73100    1189.0917   -107.61528    1.0759152   -106.53937    44039.133    4.2747921    4.2747921    4.2747921    44039.133    106324.78   -2280.9175    28073.538    5964.6105    16634.646    9265.5161    78.116901 
   73200     1672.288    -108.0621    1.5131214   -106.54898   -20359.396    4.2928288    4.2928288    4.2928288   -20359.396    398.95592   -1237.8284   -60239.316    -3739.789   -11738.302    851.88851    79.109876 
   73300    1280.8499   -107.68501    1.1589399   -106.52607    1320.7213    4.2995481    4.2995481    4.2995481    1320.7213    20606.066   -27022.713    10378.811     1677.041    7060.3982   -1239.6103    79.481935 
   73400    1520.9862   -107.88827    1.3762203   -106.51205   -2423.6746    4.2807334    4.2807334    4.2807334   -2423.6746    15678.678    9375.6941   -32325.395     4084.512    8997.1417   -547.48721    78.443062 
   73500    900.25975   -107.33598   0.81457394    -106.5214   -2294.6971    4.2719641    4.2719641    4.2719641   -2294.6971   -13120.865    10044.193   -3807.4196    8570.2857   -12461.932    -2796.981    77.961967 
   73600    1408.4725   -107.80385    1.2744155   -106.52943   -10034.432    4.2805879    4.2805879    4.2805879   -10034.432   -6251.8137    3880.7679   -27732.251     2719.453   -4781.8982      6756.86    78.435066 
   73700    1145.6949    -107.5669    1.0366489   -106.53025   -2021.8115    4.3070493    4.3070493    4.3070493   -2021.8115    10790.353   -8787.2612   -8068.5258    8757.9797   -1482.3632    6607.0982    79.898664 
   73800    1356.0444   -107.74266    1.2269775   -106.51568   -16085.477    4.2937256    4.2937256    4.2937256   -16085.477    5927.6247   -15494.259   -38689.798    23394.481   -21159.767   -11149.354    79.159468 
   73900    1413.1294   -107.77066    1.2786292   -106.49204    30617.015    4.2559614    4.2559614    4.2559614    30617.015    100429.04   -13073.757    4495.7646     8718.859    18795.281    5689.5486    77.089109 
   74000    1158.8567   -107.58409    1.0485579   -106.53553   -6623.0732    4.2873474    4.2873474    4.2873474   -6623.0732   -3380.0417   -3943.5014   -12545.676    1646.4755   -21375.551   -371.38248    78.807224 
   74100    1099.2882   -107.50607   0.99465907   -106.51141   -25829.986    4.3045035    4.3045035    4.3045035   -25829.986   -27676.962    -7033.057   -42779.938   -1433.0863   -6700.9353    8453.5988    79.757073 
   74200    1072.7996   -107.46537    0.9706916   -106.49468    11943.534    4.2858097    4.2858097    4.2858097    11943.534    9054.0403     2962.025    23814.538    8755.7274    2356.0245    21560.991    78.722457 
   74300    2062.2507   -108.35752    1.8659678   -106.49156    -19434.75    4.2840032    4.2840032    4.2840032    -19434.75   -29499.364   -14473.521   -14331.366   -19653.928    8688.4777   -11309.573    78.622955 
   74400    1088.9217   -107.49153   0.98527924   -106.50625    21479.894    4.2903606    4.2903606    4.2903606    21479.894    25280.481   -3941.1182     43100.32   -3216.9107   -456.02777    9521.3308    78.973503 
   74500    1501.6228   -107.86741    1.3586999   -106.50871   -18185.672    4.2998292    4.2998292    4.2998292   -18185.672    4333.9689   -29833.833   -29057.153     5792.152   -3224.8344   -4371.3814    79.497528 
   74600    1459.9982    -107.8175    1.3210371   -106.49646    8140.6405    4.2832683    4.2832683    4.2832683    8140.6405    12467.506    23499.854   -11545.439   -747.74538   -8483.5639   -4073.9468    78.582501 
   74700    1067.9261    -107.4692   0.96628197   -106.50292   -4522.7967    4.2705656    4.2705656    4.2705656   -4522.7967     802.5991   -21262.422    6891.4325   -530.08486   -10279.843    5766.6419    77.885423 
   74800    1177.4213   -107.58673    1.0653555   -106.52137   -15396.687    4.2886093    4.2886093    4.2886093   -15396.687   -28062.469   -6630.4386   -11497.154    6430.9899    395.50606    9761.9429    78.876831 
   74900    1597.4477   -107.95818    1.4454043   -106.51277    9588.1124    4.2933875    4.2933875    4.2933875    9588.1124    40787.434   -35043.683    23020.586    706.82008   -5942.2915    9652.6737    79.140766 
   75000    1501.6597   -107.87444    1.3587333   -106.51571   -16656.442    4.2933589    4.2933589    4.2933589   -16656.442    15887.052   -56051.401   -9804.9762   -587.52311   -1483.6756    12284.659    79.139186 
   75100    1543.0572   -107.90811    1.3961906   -106.51192   -18825.525    4.2822842    4.2822842    4.2822842   -18825.525   -9094.4887   -8482.5201   -38899.566    12786.075    7249.6541    10155.337     78.52835 
   75200    1496.6216   -107.85702    1.3541746   -106.50284    28244.742    4.2612439    4.2612439    4.2612439    28244.742     48274.88    23442.393    13016.952    4196.2234    14027.904   -7146.4679    77.376518 
   75300    925.12808   -107.37096   0.83707533   -106.53388   -24255.276    4.2912782    4.2912782    4.2912782   -24255.276   -42069.865   -18925.666   -11770.297    8681.1819   -10331.101    32926.794    79.024183 
   75400    1280.5017   -107.66476    1.1586249   -106.50613   -37396.571    4.3068048    4.3068048    4.3068048   -37396.571    -70285.17    -8336.496   -33568.047    251.21378     23993.53    938.32874    79.885061 
   75500    1605.1645   -107.93711    1.4523866   -106.48472    25949.654    4.2791563    4.2791563    4.2791563    25949.654    25233.051    25874.533    26741.377    8581.3523    12303.562   -15782.121    78.356394 
   75600    1434.6566   -107.80133    1.2981075   -106.50322    7399.8243    4.2759775    4.2759775    4.2759775    7399.8243    13210.402    19879.987   -10890.916    1230.8275   -10101.764    7188.7474    78.181903 
   75700    1126.7579   -107.54143    1.0195142   -106.52192    -10222.97    4.2898795    4.2898795    4.2898795    -10222.97    -29707.04    1136.5728   -2098.4435   -9867.9552    16636.547   -7905.8765    78.946937 
   75800    1371.2368   -107.74651    1.2407238   -106.50579   -24320.414    4.3017324    4.3017324    4.3017324   -24320.414   -38535.786    3277.8698   -37703.324    955.99215    10711.928   -12944.644    79.603135 
   75900    1276.1901   -107.65159    1.1547236   -106.49687   -8583.1505    4.2905222    4.2905222    4.2905222   -8583.1505   -29108.736    7537.1521   -4177.8678   -11460.117   -15268.593    19629.176    78.982426 
   76000    1140.2042   -107.52392    1.0316807   -106.49224    22370.402    4.2652834    4.2652834    4.2652834    22370.402   -22676.946    55513.765    34274.388   -3512.5226    16087.138   -4718.2334    77.596775 
   76100     1422.477   -107.81026    1.2870871   -106.52317    10156.457    4.2805703    4.2805703    4.2805703    10156.457   -17331.065    9527.9104    38272.526   -6266.7158    7862.0081   -5920.5822    78.434098 
   76200    1337.1614   -107.72581    1.2098917   -106.51592   -9534.1958    4.3053783    4.3053783    4.3053783   -9534.1958   -6733.1054   -15903.745   -5965.7372   -4613.4482   -30919.508   -653.77456     79.80571 
   76300    975.20148   -107.38154    0.8823828   -106.49915   -9660.7122    4.2957873    4.2957873    4.2957873   -9660.7122     758.4452    32005.678    -61746.26   -3629.8322    11711.419   -6884.0998    79.273549 
   76400     1203.512   -107.57315     1.088963   -106.48419    2860.7307    4.2857585    4.2857585    4.2857585    2860.7307    26460.006     22049.87   -39927.685    843.32165    34.731517   -1762.8187    78.719638 
   76500    1524.4796   -107.87271    1.3793812   -106.49333    12592.606    4.2810686    4.2810686    4.2810686    12592.606    51581.965   -2225.0122   -11579.133    6029.8507   -14079.598    4069.1116    78.461493 
   76600     886.0071   -107.32676   0.80167784   -106.52508    30880.402    4.2917842    4.2917842    4.2917842    30880.402     19595.15    94416.461   -21370.406    14677.515    17631.513   -1734.4609    79.052137 
   76700    1535.0637   -107.89758    1.3889579   -106.50862   -11964.909    4.3010078    4.3010078    4.3010078   -11964.909    18061.305   -28026.198   -25929.833    7102.9588   -14468.537    1952.0273    79.562916 
   76800    1289.0253   -107.66368    1.1663372   -106.49734    21126.951    4.2673509    4.2673509    4.2673509    21126.951    45568.098    46532.375    -28719.62    344.45145    10635.126   -6327.6875    77.709673 
   76900    886.76607    -107.3255   0.80236457   -106.52314   -17472.428    4.2720724    4.2720724    4.2720724   -17472.428   -22741.021    37548.346   -67224.608     9557.811    20910.725   -13996.539    77.967897 
   77000     1223.193   -107.62353    1.1067707   -106.51676   -12404.493    4.2933924    4.2933924    4.2933924   -12404.493   -2490.6417   -661.97291   -34060.865    12645.182   -34752.891    804.63289    79.141042 
   77100     1712.734   -108.05527    1.5497177   -106.50555    9261.0269    4.2783698    4.2783698    4.2783698    9261.0269    12754.564    7271.6153    7756.9012   -25652.561    12361.845    2972.6565    78.313199 
   77200    1176.6745   -107.58312    1.0646798   -106.51844     -10966.5    4.2763594    4.2763594    4.2763594     -10966.5   -24989.581    38110.407   -46020.326    9839.7374    24834.972   -18211.351    78.202852 
   77300    1390.3058   -107.77645    1.2579779   -106.51848   -2564.8638     4.280532     4.280532     4.280532   -2564.8638   -6056.8298    9738.8368   -11376.598   -2041.7852   -24934.668    7491.9577    78.431992 
   77400     976.8407   -107.40722   0.88386599   -106.52335   -7740.9653    4.2904326    4.2904326    4.2904326   -7740.9653    15717.132   -7094.3595   -31845.669    8028.5603    14405.793    3182.8417    78.977475 
   77500    1199.8682   -107.60008    1.0856659   -106.51441   -34228.147    4.2871042    4.2871042    4.2871042   -34228.147   -17045.416   -17976.366    -67662.66    7738.8657    10631.615   -7228.0695    78.793812 
   77600    1127.2819   -107.53073    1.0199883   -106.51074    32449.744    4.2700222    4.2700222    4.2700222    32449.744    15400.492    45644.764    36303.976   -427.38988   -8642.0708    1992.8962    77.855695 
   77700     1655.326   -108.02235    1.4977737   -106.52458    2347.1344    4.2783247    4.2783247    4.2783247    2347.1344    27191.442   -15298.126   -4851.9125   -500.00286    11807.006   -3731.9132    78.310721 
   77800    1520.3579   -107.89892    1.3756517   -106.52327    -22936.86    4.2919996    4.2919996    4.2919996    -22936.86    -34680.03    3980.0959   -38110.645    1952.4286    1131.8145   -11324.226    79.064045 
   77900    1127.8675   -107.52987    1.0205182   -106.50935    892.63961    4.2865283    4.2865283    4.2865283    892.63961    1337.6098     8818.682   -7478.3729    897.00639   -25610.752    15827.451    78.762062 
   78000    1204.4811   -107.59419    1.0898399   -106.50435    9450.3951    4.2778008    4.2778008    4.2778008    9450.3951    35391.548   -10508.638    3468.2745   -16601.868    12731.882    2480.4342    78.281954 
   78100    1309.9103   -107.70234    1.1852344   -106.51711    -11239.98    4.2756688    4.2756688    4.2756688    -11239.98    315.60461   -9278.6287   -24756.915    9708.2808     6073.507   -18939.265    78.164969 
   78200    1004.7629   -107.43998   0.90913061   -106.53085    2366.1284    4.2820316    4.2820316    4.2820316    2366.1284    28566.457   -6950.5119    -14517.56    80.237379   -24493.381    4698.6851    78.514451 
   78300    1545.1069    -107.9145    1.3980451   -106.51646    8259.3237    4.2920794    4.2920794    4.2920794    8259.3237    35728.893   -20508.006    9557.0832   -15262.027    9292.5898   -15151.423    79.068451 
   78400    1370.5875   -107.74884    1.2401364    -106.5087   -6411.8117    4.2887327    4.2887327    4.2887327   -6411.8117    -31374.62    5847.3967    6291.7881     -10296.5   -11168.777   -8269.3875    78.883641 
   78500     1439.403   -107.80428    1.3024021   -106.50188    677.71949    4.2687552    4.2687552    4.2687552    677.71949    4565.4532   -7436.3348      4904.04    12751.211   -491.98788    32333.696    77.786412 
   78600     1238.328   -107.63078    1.1204652   -106.51032    33362.274    4.2722203    4.2722203    4.2722203    33362.274    44486.531    4463.6045    51136.687   -3484.4762    3582.4556   -9677.9843    77.975996 
   78700    1002.8809    -107.4271    0.9074277   -106.51967   -13184.833    4.2957649    4.2957649    4.2957649   -13184.833   -9409.7814    13572.027   -43716.744   -6487.6509   -9545.9755   -15188.989    79.272312 
   78800    1171.4127   -107.57138    1.0599188   -106.51146   -13263.275    4.2948044    4.2948044    4.2948044   -13263.275    8648.8719   -8387.0478   -40051.649    16991.248   -4023.5966    6429.3495    79.219146 
   78900    1396.0766   -107.76879    1.2631994   -106.50559    17150.104    4.2846598    4.2846598    4.2846598    17150.104    39100.454   -22669.259    35019.117   -11290.951     3379.993   -8809.8262    78.659114 
   79000    1692.8084   -108.03972    1.5316886   -106.50803    9528.3057    4.2750698    4.2750698    4.2750698    9528.3057      4775.18    17402.621    6407.1162   -1685.0124    -287.7044    -7666.125    78.132123 
   79100    1477.4309   -107.86025    1.3368105   -106.52344    18536.096    4.2817588    4.2817588    4.2817588    18536.096    44062.431    9445.4148    2100.4439    -2140.092   -15919.707    6885.5254    78.499444 
   79200    1272.1417   -107.66844    1.1510605   -106.51738   -9249.1932    4.3018951    4.3018951    4.3018951   -9249.1932   -13771.612   -26283.167    12307.199   -4752.8764    10662.586   -21885.076    79.612167 
   79300    1524.7381   -107.88685    1.3796151   -106.50723   -17433.932    4.2810975    4.2810975    4.2810975   -17433.932    2746.4916   -16718.282   -38330.006    6708.4596   -17391.616   -6151.7196    78.463081 
   79400    962.23615   -107.36877   0.87065149   -106.49812    50217.002    4.2519887    4.2519887    4.2519887    50217.002    58245.408    76182.681    16222.918    435.84098   -12560.755    12372.688    76.873438 
   79500    1274.6106   -107.69222    1.1532944   -106.53893   -17837.983    4.2858828    4.2858828    4.2858828   -17837.983    2189.6035   -40006.571   -15696.982    7690.6828    5412.4107   -12393.914    78.726486 
   79600    1737.0198   -108.08174     1.571692   -106.51005    -33000.32    4.3037685    4.3037685    4.3037685    -33000.32    -34834.76   -22325.149   -41841.052   -641.24316   -20685.112    -16105.57    79.716219 
   79700    1410.8028    -107.7694     1.276524   -106.49287    30205.819    4.2784993    4.2784993    4.2784993    30205.819    36377.623    51469.008    2770.8272    4058.7978    1909.6684    15894.097    78.320308 
   79800    1272.7435   -107.66072    1.1516051   -106.50912    8003.1537    4.2828363    4.2828363    4.2828363    8003.1537    21475.766   -39422.039    41955.734   -7718.5881   -5565.0266     14211.17    78.558722 
   79900    1664.0703   -108.00835    1.5056858   -106.50267    -27182.81    4.2945125    4.2945125    4.2945125    -27182.81   -25835.727    -44542.79   -11169.915   -7820.2596    1337.5473    2204.9154    79.202997 
   80000    813.12496   -107.23975   0.73573255   -106.50402    47064.726    4.2831077    4.2831077    4.2831077    47064.726    84846.994    15355.845    40991.338    10818.336    14317.729    6774.4369    78.573659 
   80100    952.08543   -107.37867    0.8614669   -106.51721   -6474.4107     4.291001     4.291001     4.291001   -6474.4107    7515.2671   -33767.999    6829.4995   -27533.134    6340.0974   -4260.6342    79.008872 
   80200    1251.4906   -107.63793     1.132375   -106.50555    9505.0646    4.2839172    4.2839172    4.2839172    9505.0646    16151.685   -38003.924    50367.432   -25404.921    7181.9524    3290.2901    78.618217 
   80300    1676.3921   -108.01584    1.5168348   -106.49901    21139.848    4.2721581    4.2721581    4.2721581    21139.848    15582.046   -14897.937    62735.435    8511.8785    14282.433    15667.628    77.972588 
   80400    945.24433   -107.38223   0.85527693   -106.52695   -27277.935    4.2995921    4.2995921    4.2995921   -27277.935   -55922.384   -79846.257    53934.837   -16862.264     2474.843    11504.962    79.484374 
   80500    1244.3784   -107.62969    1.1259397   -106.50375    2907.2803     4.290038     4.290038     4.290038    2907.2803   -20116.426   -18965.593     47803.86   -14282.196   -10407.677     8813.858    78.955686 
   80600     1370.553   -107.73293    1.2401051   -106.49283    27319.181    4.2740805    4.2740805    4.2740805    27319.181    39541.062    20760.876    21655.604    10623.845   -13997.976    4007.7919    78.077892 
   80700     651.1632   -107.10535   0.58918615   -106.51616   -24447.919    4.2944986    4.2944986    4.2944986   -24447.919    -18179.68   -62469.793    7305.7161    -5421.097    -9858.297    9032.1368     79.20223 
   80800     1150.276   -107.53892    1.0407939   -106.49813    2496.1863    4.2894547    4.2894547    4.2894547    2496.1863    10662.147   -15581.383    12407.796    2095.3163   -4866.4271    7212.6421    78.923483 
   80900    1508.6789   -107.86202    1.3650844   -106.49694    1368.0679    4.2885166    4.2885166    4.2885166    1368.0679    3119.1281    -1625.537    2610.6127    9850.5917   -10330.714   -956.73366    78.871713 
   81000    1090.3415   -107.50493   0.98656386   -106.51837   -18644.822    4.2780811    4.2780811    4.2780811   -18644.822   -62819.466   -19170.196    26055.196    8251.2901    2230.7971    6546.7288    78.297346 
   81100    1043.2722   -107.47259   0.94397464   -106.52861    37018.739    4.2637891    4.2637891    4.2637891    37018.739    79095.128    4507.4531    27453.635    11811.617    32.226024    2922.3538    77.515246 
   81200    1739.7299   -108.11614    1.5741442     -106.542    1.6847511    4.2855548    4.2855548    4.2855548    1.6847511    9685.6507   -1391.8812   -8288.7153   -7587.3201   -10118.149   -840.35721    78.708413 
   81300    1456.0053   -107.85126    1.3174242   -106.53384    642.53214    4.2890323    4.2890323    4.2890323    642.53214      30525.7   -33346.473    4748.3697   -3774.7154    3809.4462   -321.08556     78.90017 
   81400    807.76773   -107.26282   0.73088522   -106.53194   -19174.155     4.294809     4.294809     4.294809   -19174.155   -33.852723   -36859.917   -20628.695    7477.4178    14203.205   -1281.6779      79.2194 
   81500    1568.7485   -107.93093    1.4194366   -106.51149   -19559.729    4.2815213    4.2815213    4.2815213   -19559.729   -1976.2867   -37793.881    -18909.02   -2622.8405   -18590.065   -547.65418    78.486388 
   81600    1363.2661   -107.74141    1.2335119    -106.5079    40659.518    4.2633685    4.2633685    4.2633685    40659.518    59984.928    36013.314    25980.312   -1412.5903    5425.9843    -21.78516    77.492314 
   81700    1086.5916   -107.52447   0.98317089    -106.5413   -29514.122    4.2881511    4.2881511    4.2881511   -29514.122   -31801.856   -48825.308   -7915.2018    5398.5255    5647.5599   -13428.597    78.851554 
   81800    1173.5303    -107.5799    1.0618349   -106.51807    -27624.28      4.30427      4.30427      4.30427    -27624.28   -41812.096   -24550.155    -16510.59    -1164.861   -17598.058   -2272.9546    79.744092 
   81900    2092.2848   -108.39131    1.8931432   -106.49817    7013.7554    4.2759981    4.2759981    4.2759981    7013.7554     9991.015    8476.9676    2573.2836   -17214.046    -6041.761    9674.0839    78.183034 
   82000    1531.9567   -107.90397    1.3861466   -106.51782    -21626.07    4.2759457    4.2759457    4.2759457    -21626.07    181.70667   -25573.698   -39486.219   -2066.1707   -7187.3173   -24753.774    78.180159 
   82100    1151.7511   -107.56719    1.0421286   -106.52506    -29054.97    4.2907727    4.2907727    4.2907727    -29054.97   -36970.554   -18162.753   -32031.604    4747.3629    5278.3094   -3972.1153    78.996257 
   82200    1623.2527   -107.97673    1.4687532   -106.50798    -17709.35    4.2946349    4.2946349    4.2946349    -17709.35   -19800.648   -9540.8477   -23786.554     -6121.45    909.46342    2559.3789    79.209768 
   82300    755.87366   -107.20318   0.68393037   -106.51925   -8085.5879    4.2915074    4.2915074    4.2915074   -8085.5879    26183.354   -8228.7535   -42211.364    1669.5766     4866.434   -30250.483    79.036848 
   82400     1144.687   -107.55206    1.0357368   -106.51632    12496.263    4.2647049    4.2647049    4.2647049    12496.263    57730.806   -18794.788   -1447.2277   -15126.872   -6544.8142    24.627265    77.565208 
   82500    1309.3136   -107.72224    1.1846945   -106.53754    18121.325    4.2760528    4.2760528    4.2760528    18121.325    67172.009   -14702.655    1894.6201    4518.3117    9940.3432    -4196.175    78.186032 
   82600    1924.1406   -108.26685    1.7410029   -106.52585    -37943.27    4.2994336    4.2994336    4.2994336    -37943.27     7118.386   -58634.403   -62313.793   -3212.9642   -8084.6099   -10619.295    79.475584 
   82700    1531.4001   -107.89572     1.385643   -106.51007    2982.8006    4.2898701    4.2898701    4.2898701    2982.8006    28410.424   -8032.2885   -11429.733   -5248.1339    1334.4596    8849.0371     78.94642 
   82800    1194.4758   -107.59167    1.0807868   -106.51088   -16024.151     4.290582     4.290582     4.290582   -16024.151    29343.211   -48042.568   -29373.096   -3025.5627    7959.8441   -11821.871    78.985726 
   82900    1021.2035   -107.43099   0.92400638   -106.50698    11677.362    4.2872091    4.2872091    4.2872091    11677.362    75849.361    2242.8327   -43060.106   -1918.4274    170.99607    3707.2733      78.7996 
   83000    1285.9157   -107.67096    1.1635236   -106.50743   -9915.5959    4.2808194    4.2808194    4.2808194   -9915.5959    9548.6109   -40319.333    1023.9338   -6054.6063      2113.56    7118.2157    78.447791 
   83100    801.20919   -107.24794   0.72495091   -106.52299   -3656.2622    4.2857061    4.2857061    4.2857061   -3656.2622    -14338.14   -18860.756     22230.11   -3165.1119   -1032.3741   -7315.4563    78.716753 
   83200    1810.6366   -108.15477    1.6383021   -106.51646   -17175.645    4.2872455    4.2872455    4.2872455   -17175.645    38283.846   -46606.678   -43204.103   -5541.4488   -23290.817    4128.6162    78.801603 
   83300    1478.9627   -107.86854    1.3381965   -106.53034    18285.523    4.2798845    4.2798845    4.2798845    18285.523     44233.85    18001.433   -7378.7145   -4965.7467    10029.092    2787.0276    78.396406 
   83400    982.74467   -107.43274   0.88920803   -106.54353    21668.443    4.2835967    4.2835967    4.2835967    21668.443    110958.47   -42941.244   -3011.8996    22708.375   -7683.6965   -9237.9548    78.600573 
   83500    1355.6878   -107.75316    1.2266549    -106.5265   -26486.264    4.3029309    4.3029309    4.3029309   -26486.264     -4624.46    -33400.43   -41433.903   -853.08325    716.68799    11727.435    79.669689 
   83600    1362.5354   -107.73969    1.2328507   -106.50684    1983.7279    4.2871704    4.2871704    4.2871704    1983.7279    21255.658   -12688.166   -2616.3083   -1151.3443      13715.1    32.040924    78.797462 
   83700    1004.4824   -107.42376   0.90887674   -106.51488    10669.586    4.2779571    4.2779571    4.2779571    10669.586    55221.818   -32951.708    9738.6483     10589.01   -23448.437    2525.4402    78.290539 
   83800    1243.6219   -107.64318    1.1252552   -106.51793   -5806.7578    4.2964528    4.2964528    4.2964528   -5806.7578    63359.783   -49824.623   -30955.433    362.09974     -2326.53    10100.649    79.310399 
   83900    1507.4082   -107.87828    1.3639346   -106.51435    331.05214    4.2880417    4.2880417    4.2880417    331.05214    24776.368   -22709.197   -1074.0145    8538.4521    -16581.33   -10461.742    78.845518 
   84000    833.70118   -107.27199   0.75435034   -106.51764   -3534.6841    4.2773505    4.2773505    4.2773505   -3534.6841    951.26426   -37797.739    26242.423    11238.414   -16035.336    12297.162     78.25724 
   84100    1290.0448   -107.68081    1.1672596   -106.51355   -22381.035    4.2858349    4.2858349    4.2858349   -22381.035   -7379.1324   -31762.187   -28001.786   -2744.8609    16098.166    17378.364    78.723848 
   84200     1699.796   -108.04013    1.5380112   -106.50212   -12411.543    4.2973537    4.2973537    4.2973537   -12411.543    9879.8195   -29801.003   -17313.446    3024.0394    14982.686   -13187.249    79.360302 
   84300    960.33513   -107.37337   0.86893141   -106.50444    16017.376    4.2849521    4.2849521    4.2849521    16017.376    44777.275   -37633.659    40908.511    8734.3099   -21509.636    2629.6246     78.67521 
   84400    1427.2364   -107.79771    1.2913935   -106.50632    9640.5252    4.2752495    4.2752495    4.2752495    9640.5252    85472.537   -46860.594   -9690.3674   -2828.8951    19759.116    5808.4512    78.141978 
   84500    1678.4618   -108.03829    1.5187075   -106.51958    -28013.28    4.2989662    4.2989662    4.2989662    -28013.28    10697.005   -29870.242   -64866.602    1729.6911   -9322.9778    3446.3673    79.449669 
   84600    1203.1285   -107.60099     1.088616   -106.51238   -4236.1346    4.2948151    4.2948151    4.2948151   -4236.1346    55294.185    -32432.37   -35570.219   -7801.7403   -19670.296    9221.0727    79.219739 
   84700    809.21719   -107.24415   0.73219672   -106.51196    38357.439    4.2868033    4.2868033    4.2868033    38357.439    105782.42   -14825.499    24115.397   -12469.934    14424.925   -12348.314    78.777224 
   84800     1857.431   -108.18416    1.6806426   -106.50352   -6442.6145    4.2940895    4.2940895    4.2940895   -6442.6145     11166.05    -40228.79    9734.8962   -618.26299   -11597.142    6802.0461    79.179594 
   84900    1315.2277   -107.69719    1.1900457   -106.50714   -23884.258    4.2879907    4.2879907    4.2879907   -23884.258    17156.885   -57362.617   -31447.042   -2571.3406   -1926.1729    14064.062    78.842702 
   85000    818.74705    -107.2494   0.74081954   -106.50858    31095.281    4.2688053    4.2688053    4.2688053    31095.281    46994.914    6906.2941    39384.636   -4620.4986     11488.62    651.31177    77.789154 
   85100    1529.2319   -107.90727    1.3836812   -106.52359    1466.0147    4.2884262    4.2884262    4.2884262    1466.0147    99.788982   -5835.5459    10133.801     8782.548    4142.1426    915.29625    78.866728 
   85200    1572.9947   -107.93889    1.4232787   -106.51561   -3571.0079    4.2922052    4.2922052    4.2922052   -3571.0079    49305.414    -51720.65   -8297.7878    600.83094   -9535.6863     5803.464    79.075408 
   85300    778.73858   -107.21776   0.70461903   -106.51314     23092.26    4.2833396    4.2833396    4.2833396     23092.26    7537.7841   -21200.652    82939.647    -7412.359    3435.0906    2702.8794    78.586424 
   85400    1827.2193   -108.15829    1.6533064   -106.50498   -16938.339    4.2850752    4.2850752    4.2850752   -16938.339   -23640.751   -37337.216    10162.951    8080.6601    1537.9939    7317.8044    78.681991 
   85500    1210.2927   -107.61356    1.0950982   -106.51846   -9911.0836    4.2815868    4.2815868    4.2815868   -9911.0836    1645.3563   -49048.459    17669.852   -4842.1549    9914.2757   -6937.7953    78.489988 
   85600     960.7476   -107.39329   0.86930462   -106.52399    1565.9067    4.2742501    4.2742501    4.2742501    1565.9067    7350.9803   -48417.384    45764.124   -3116.8352    4188.3944   -2920.3744     78.08719 
   85700     1557.542   -107.93419    1.4092967   -106.52489    3838.3832    4.2850958    4.2850958    4.2850958    3838.3832    15189.388   -24439.274    20765.035    7375.3019    3458.9915    15738.461    78.683125 
   85800     1796.333   -108.15055    1.6253599   -106.52519   -51.844176    4.2826428    4.2826428    4.2826428   -51.844176    4231.2022   -27844.775     23458.04   -7722.7885   -15662.471   -13447.034    78.548075 
   85900     1001.102   -107.44525   0.90581809   -106.53943    5920.6236    4.2768982    4.2768982    4.2768982    5920.6236    16868.798   -46160.023    47053.096   -2238.6933    13390.315   -190.18616    78.232418 
   86000    1047.5337   -107.48893    0.9478305    -106.5411    12417.077    4.2764239    4.2764239    4.2764239    12417.077   -30262.728    8912.9044    58601.055    6782.6162   -7433.0407    3803.9659    78.206392 
   86100    1432.8737   -107.83153    1.2964943   -106.53503   -14538.717    4.2861228    4.2861228    4.2861228   -14538.717   -21965.788   -17294.669    -4355.695    1868.3985   -5559.1268   -10620.639    78.739712 
   86200    999.05232   -107.43383   0.90396353   -106.52986   -29483.546    4.2903565    4.2903565    4.2903565   -29483.546   -47655.883   -58124.842    17330.088   -280.77985    15374.952    32.043132    78.973274 
   86300    1271.2748   -107.67811    1.1502762   -106.52784    12092.323    4.2610328    4.2610328    4.2610328    12092.323    22860.069   -22791.014    36207.915   -8897.3969    1928.8816    10221.911    77.365021 
   86400    1821.8237   -108.18762    1.6484244   -106.53919    22348.251    4.2652354    4.2652354    4.2652354    22348.251    20356.509    25972.202    20716.043   -3096.3885    4190.7788    5947.8046    77.594158 
   86500    1265.8353   -107.69213    1.1453544   -106.54678   -39560.558    4.3031712    4.3031712    4.3031712   -39560.558   -25946.106   -75376.738    -17358.83    7172.6101    5620.5604    -2418.186    79.683038 
   86600    855.99082   -107.30825   0.77451848   -106.53373    10080.564    4.2777865    4.2777865    4.2777865    10080.564    46375.381   -31745.774    15612.084    4008.9831   -2627.0357    21661.559    78.281172 
   86700    1996.7413   -108.31741    1.8066935   -106.51072    8619.0081    4.2533348    4.2533348    4.2533348    8619.0081   -7035.5268    9569.4908     23323.06    -7644.591    18389.124    4724.8863    76.946471 
   86800    1018.7498   -107.47223   0.92178627   -106.55044    6261.2388    4.2802854    4.2802854    4.2802854    6261.2388    5730.3937   -38402.183    51455.506    8813.0217    -1244.092   -6684.7746    78.418437 
   86900    1034.8017   -107.46661   0.93631035    -106.5303   -52158.786    4.3042756    4.3042756    4.3042756   -52158.786   -26535.327   -95921.159   -34019.873    6673.1721    13314.709    34579.842    79.744401 
   87000    1633.6645   -107.98407    1.4781739    -106.5059    25098.463     4.272742     4.272742     4.272742    25098.463    21781.213    2242.8784    51271.298   -9627.2926   -3225.6016    2363.7173    78.004564 
   87100    1360.5734   -107.75176    1.2310754   -106.52069     9982.797    4.2621039    4.2621039    4.2621039     9982.797    27943.991   -18039.258    20043.658    8433.8024   -13721.922    5193.2815    77.423377 
   87200    716.62874   -107.19928   0.64842074   -106.55086    12769.211     4.272074     4.272074     4.272074    12769.211    16762.534   -41029.836    62574.935   -3882.6347    24529.717    35531.249    77.967982 
   87300    1648.8024   -108.04073     1.491871   -106.54886   -22618.727    4.2898997    4.2898997    4.2898997   -22618.727   -10814.332   -42751.591   -14290.258    -2014.058    1415.1069     -768.818    78.948051 
   87400    1571.8969   -107.95999    1.4222854    -106.5377    10097.355    4.2784291    4.2784291    4.2784291    10097.355   -17827.961   -31717.354    79837.381    4570.3647    -9091.383    29.839335    78.316454 
   87500     997.4971   -107.44001   0.90255634   -106.53745   -9180.4793    4.2679027    4.2679027    4.2679027   -9180.4793    44465.378   -72417.526    410.71055   -6825.3481    14837.104    25672.209     77.73982 
   87600    1336.5406   -107.73928    1.2093301   -106.52995    -3620.723    4.2719656    4.2719656    4.2719656    -3620.723    8888.8117   -33883.778    14132.797     3647.696   -8485.2755   -14485.577    77.962049 
   87700     1726.112   -108.08262    1.5618224    -106.5208   -8390.6445    4.2798888    4.2798888    4.2798888   -8390.6445    14045.892   -5496.1336   -33721.691    5435.6872   -3130.0172    9828.5674     78.39664 
   87800    1080.1668    -107.5105   0.97735758   -106.53314   -10204.731    4.2833908    4.2833908    4.2833908   -10204.731    48382.005   -44170.958    -34825.24   -11713.919   -6085.9538    22539.018    78.589243 
   87900    1148.3963   -107.56503    1.0390931   -106.52594    8193.1849    4.2725317    4.2725317    4.2725317    8193.1849   -5076.8753   -17597.246    47253.676   -7317.2634    20020.428   -15393.082    77.993044 
   88000    1254.1468   -107.65855    1.1347783   -106.52377    27797.457    4.2791268    4.2791268    4.2791268    27797.457    45761.752   -7597.6633    45228.281    4799.4032   -5842.9826   -5366.6325    78.354773 
   88100     1444.904   -107.82701    1.3073795   -106.51963   -13543.639    4.2859237    4.2859237    4.2859237   -13543.639   -4521.1139   -49321.142     13211.34   -8219.1284     1699.927     911.0232    78.728738 
   88200    966.18506   -107.39163   0.87422455   -106.51741   -12004.354    4.2767712    4.2767712    4.2767712   -12004.354   -39717.249   -44413.631     48117.82    -13805.65       3984.9   -16777.389    78.225449 
   88300    1754.1279   -108.09818    1.5871718   -106.51101    9524.8509    4.2697755    4.2697755    4.2697755    9524.8509    35077.598   -25902.891    19399.847    6321.1843    3930.7851    12433.636    77.842206 
   88400    1786.0401   -108.13382    1.6160466   -106.51777   -16899.686    4.2776877    4.2776877    4.2776877   -16899.686   -22295.691   -23414.095   -4989.2713   -10339.065    3150.0261    4453.7119    78.275747 
   88500     680.1508   -107.14353   0.61541474   -106.52811   -3979.2338      4.28051      4.28051      4.28051   -3979.2338   -27178.295   -36151.168    51391.761    -6091.851   -2836.0689   -18433.205     78.43078 
   88600     1343.323   -107.73411    1.2154669   -106.51865   -4112.3581    4.2767803    4.2767803    4.2767803   -4112.3581    1321.7048    7607.7546   -21266.534   -3217.3079    14090.933    -430.5938    78.225943 
   88700    1258.2624   -107.65978    1.1385023   -106.52128    1835.5173     4.285093     4.285093     4.285093    1835.5173    5034.3666   -40453.716    40925.901    2031.8537   -8090.6795    10413.616    78.682971 
   88800    972.16601   -107.39687   0.87963624   -106.51724    -12664.13    4.2839554    4.2839554    4.2839554    -12664.13   -22026.953   -55349.068    39383.633    12255.606     15178.32    -5823.987     78.62032 
   88900    1457.5691   -107.82192    1.3188391   -106.50308    12529.446    4.2693513    4.2693513    4.2693513    12529.446    9358.0369    8614.7042    19615.596   -15816.593    7495.4259     11067.14    77.819003 
   89000    1582.9306    -107.9452    1.4322689   -106.51294    22692.694    4.2812119    4.2812119    4.2812119    22692.694    50733.509   -3250.3979    20594.972    8389.3856   -10156.226    2472.3144    78.469373 
   89100    1413.8983   -107.79573    1.2793249   -106.51641   -24170.078    4.2909445    4.2909445    4.2909445   -24170.078   -741.76329   -41993.887   -29774.583    23805.438    1338.2088   -1231.1736    79.005748 
   89200    1262.9895   -107.65913    1.1427794   -106.51635   -9818.4513    4.2775886    4.2775886    4.2775886   -9818.4513    41761.128   -14303.449   -56913.032    9686.5691    18058.753    20886.723    78.270306 
   89300    1353.8577   -107.73842    1.2249989   -106.51343    24715.128    4.2722728    4.2722728    4.2722728    24715.128    58929.696    16808.234    -1592.545     12186.16   -555.29587   -9526.8854     77.97887 
   89400    768.49831   -107.22689   0.69535342   -106.53154   -6470.4822      4.28632      4.28632      4.28632   -6470.4822    25488.585   -31011.204   -13888.828    20005.784    14501.499   -1849.2069    78.750584 
   89500    1218.6145   -107.62179     1.102628   -106.51917   -22553.814    4.2919091    4.2919091    4.2919091   -22553.814   -21977.014   -24414.375   -21270.052   -9779.6288    10835.053    13773.812    79.059042 
   89600    1878.4148   -108.19719    1.6996292   -106.49756    1955.3457    4.2855837    4.2855837    4.2855837    1955.3457    33278.036   -27572.196    160.19699   -5113.6007   -9714.4235   -3517.0687    78.710006 
   89700    1201.0366   -107.58443    1.0867231   -106.49771     16896.94     4.279551     4.279551     4.279551     16896.94    61150.182   -24486.278    14026.918    7892.5013     18611.35    15241.134    78.378078 
   89800    1147.1277   -107.54899    1.0379452   -106.51104   -378.06026    4.2821675    4.2821675    4.2821675   -378.06026    26929.265   -34970.998    6907.5529   -7831.6731   -3437.9263    4664.8581    78.521927 
   89900    1509.3485   -107.86918    1.3656903   -106.50349    8312.8506    4.2836906    4.2836906    4.2836906    8312.8506    41833.474   -48027.167    31132.245   -15688.726    2598.2729   -8213.9687    78.605744 
   90000    980.55404   -107.40249    0.8872259   -106.51526   -6918.8725    4.2860996    4.2860996    4.2860996   -6918.8725   -8245.7507    -19039.64    6528.7731     1542.715    8323.6577    5150.5239    78.738436 
   90100    1128.6047   -107.53585    1.0211853   -106.51466   -31946.816    4.2910535    4.2910535    4.2910535   -31946.816   -30821.715   -46139.646   -18879.087   -16541.437    11680.394    8289.0658    79.011768 
   90200    1637.9563   -107.98314    1.4820573   -106.50108    22835.988    4.2756667    4.2756667    4.2756667    22835.988    5832.4581    686.09248    61989.414   -18111.592   -5587.6432   -16498.029    78.164855 
   90300    1528.1084   -107.89725    1.3826646   -106.51459   -84.454213    4.2771377    4.2771377    4.2771377   -84.454213   -9717.6785    18913.544   -9449.2279    202.72952    3810.5367    8426.5047    78.245557 
   90400    1121.9948   -107.53501    1.0152044    -106.5198   -23470.436    4.2881172    4.2881172    4.2881172   -23470.436   -43576.458   -22177.893   -4656.9562   -20825.124    15577.278    7419.1832    78.849679 
   90500    1435.4355   -107.80479    1.2988122   -106.50598    3365.4819    4.2836183    4.2836183    4.2836183    3365.4819    4916.3299    6230.4042   -1050.2886   -9457.2695   -9912.5622   -18885.002    78.601764 
   90600    932.67023    -107.3507   0.84389962    -106.5068    7747.6459    4.2848537    4.2848537    4.2848537    7747.6459   -9412.7213    19477.056    13178.603    2085.8736    21605.953    1384.4643    78.669788 
   90700    867.90833   -107.29578   0.78530169   -106.51048   -24685.558      4.27849      4.27849      4.27849   -24685.558   -51384.149    2786.8387   -25459.364   -12668.343    7763.0973    1779.8696    78.319799 
   90800    1132.4271   -107.54397    1.0246439   -106.51932    27992.076    4.2679577    4.2679577    4.2679577    27992.076    25442.807    5257.9462    53275.476    -4370.437   -7397.2242   -10989.984    77.742826 
   90900    1711.7456   -108.07386    1.5488234   -106.52503   -7623.0127    4.2894418    4.2894418    4.2894418   -7623.0127   -4897.6217    3662.5066   -21633.923    16608.586    24940.346   -3151.6188    78.922776 
   91000    1089.3349   -107.50993   0.98565308   -106.52428   -6191.9055    4.2843721    4.2843721    4.2843721   -6191.9055   -21523.996   -10179.358    13127.638    708.64718    1636.0101   -16738.846    78.643266 
   91100    1095.6646   -107.50154   0.99138034   -106.51016    23552.888    4.2622632    4.2622632    4.2622632    23552.888    69011.796   -38144.446    39791.313    777.27158    808.86348    1837.0023    77.432056 
   91200     1273.703   -107.67975    1.1524733   -106.52727   -1530.5419    4.2872572    4.2872572    4.2872572   -1530.5419    10902.011   -31136.388    15642.752    7643.5339    20766.964    6697.5614    78.802249 
   91300    1445.5664   -107.82509    1.3079788   -106.51711    5519.1762    4.2822699    4.2822699    4.2822699    5519.1762    30719.435   -24949.089    10787.183   -4516.5278    2426.5821   -11837.316    78.527562 
   91400    909.56825    -107.3429   0.82299647    -106.5199    31827.266     4.269063     4.269063     4.269063    31827.266     37249.67    -31402.62    89634.748     239.5691   -270.08658    -2275.662    77.803239 
   91500    1367.4415   -107.76619    1.2372898    -106.5289   -27002.997    4.2890993    4.2890993    4.2890993   -27002.997   -21413.909   -18910.413    -40684.67    -8367.372    6674.4303    13541.891    78.903872 
   91600     1661.779   -108.02461    1.5036126     -106.521    19116.614    4.2672263    4.2672263    4.2672263    19116.614    19089.545    26319.968    11940.328   -15738.701   -1138.2217    4935.4824    77.702864 
   91700    1345.3353   -107.75036    1.2172877   -106.53308    1681.4193    4.2576566    4.2576566    4.2576566    1681.4193    26582.954   -33928.889    12390.193    10941.443   -3886.1082    -3408.553    77.181266 
   91800    467.17171   -106.97665   0.42270678   -106.55394   -22410.037    4.2856899    4.2856899    4.2856899   -22410.037    1185.1142   -42651.042   -25764.183   -675.59564    14678.765      8214.82    78.715857 
   91900    1647.0852   -108.01025    1.4903173   -106.51993   -13026.519    4.2838488    4.2838488    4.2838488   -13026.519    8105.7051   -28150.214   -19035.047    -917.2393     2858.827    3832.3886    78.614454 
   92000     1402.981   -107.78247    1.2694467   -106.51302    11461.543      4.27607      4.27607      4.27607    11461.543    71335.724   -20367.565    -16583.53    19473.191    6168.1607    2865.1931    78.186976 
   92100    1195.1929    -107.6015    1.0814356   -106.52006   -21859.066     4.278473     4.278473     4.278473   -21859.066   -37048.534   -6784.0244   -21744.639    535.89717    11359.695    3457.6339    78.318866 
   92200    1232.7748   -107.64007    1.1154406   -106.52463    29453.617    4.2748151    4.2748151    4.2748151    29453.617    89548.332   -4567.3031    3379.8226   -12747.232    3289.2617    2392.3524    78.118159 
   92300    1494.1728   -107.87598    1.3519589   -106.52403    12894.853    4.2761161    4.2761161    4.2761161    12894.853    36969.682     17173.99   -15459.112   -3785.6886     10642.28    10116.626    78.189506 
   92400    911.10986   -107.34783   0.82439135   -106.52344   -5113.1998     4.277515     4.277515     4.277515   -5113.1998    22833.795   -37063.288   -1110.1063    -4118.498   -3483.8263    10144.576    78.266269 
   92500    978.77131   -107.40615   0.88561285   -106.52054    2120.4849    4.2856215    4.2856215    4.2856215    2120.4849    42682.704    -53278.92    16957.671   -16345.374    5487.9285   -5574.6269     78.71209 
   92600    1750.1207   -108.08814     1.583546   -106.50459    12357.771    4.2800601    4.2800601    4.2800601    12357.771    5190.0378   -17578.107    49461.384    6633.3069    14766.706   -2328.5569    78.406057 
   92700     1408.078   -107.78247    1.2740586   -106.50842    10571.044    4.2734382    4.2734382    4.2734382    10571.044    30871.367   -5670.9416    6512.7054   -17927.158    1675.5857    15394.244    78.042699 
   92800    1448.2865   -107.82123      1.31044   -106.51079   -14972.498    4.2828844    4.2828844    4.2828844   -14972.498    17231.404   -47853.923   -14294.977   -13260.498    -2139.396   -4715.0204    78.561369 
   92900    1461.4953   -107.83135    1.3223916   -106.50896    27472.079    4.2791614    4.2791614    4.2791614    27472.079    31885.804    32431.811    18098.622    8725.6665    4455.3737   -797.85665    78.356675 
   93000    1420.8414   -107.80375    1.2856072   -106.51815    -21818.92    4.2808997    4.2808997    4.2808997    -21818.92   -17356.319   -45754.394   -2346.0473   -10366.916    1693.9653   -5267.1698    78.452203 
   93100    862.66505    -107.3044   0.78055747   -106.52385   -24226.184     4.278624     4.278624     4.278624   -24226.184    7794.2363   -61723.471   -18749.319   -4150.0042   -10068.442   -9658.6218    78.327159 
   93200    1229.1886   -107.62633    1.1121957   -106.51413    16017.052    4.2737682    4.2737682    4.2737682    16017.052    51614.896   -20551.775    16988.034    8896.3296    6330.6424   -1266.9157    78.060778 
   93300    2034.2104   -108.35241    1.8405963   -106.51181   -19026.283    4.2871218    4.2871218    4.2871218   -19026.283   -26330.223    -19006.92   -11741.705   -5923.8641    9879.8121   -9040.0028    78.794784 
   93400    1282.9398     -107.684    1.1608309   -106.52317   -43671.711    4.2864438    4.2864438    4.2864438   -43671.711   -27313.404   -74625.978    -29075.75    3363.5246   -3007.9802   -20197.602    78.757407 
   93500    1218.0932   -107.61548    1.1021563   -106.51332    30679.515    4.2560193    4.2560193    4.2560193    30679.515    54857.791    15466.819    21713.935    17438.254    272.23955   -8781.9133    77.092259 
   93600    1728.4844   -108.08073     1.563969   -106.51676    1441.8137    4.2761936    4.2761936    4.2761936    1441.8137    6481.7435   -36921.492    34765.189   -7933.8212    9460.7361    4081.7547    78.193758 
   93700    777.53597   -107.22732   0.70353089   -106.52379   -27200.611    4.2916257    4.2916257    4.2916257   -27200.611   -24698.501    -54868.74   -2034.5931     4645.573    -5375.318   -6861.9698     79.04338 
   93800    775.26916   -107.22032   0.70147983   -106.51884      25570.7    4.2707679    4.2707679    4.2707679      25570.7    23497.349    4449.4358    48765.315    15379.911    14708.076    4034.6181    77.896493 
   93900    1711.3807   -108.06738    1.5484932   -106.51889    20626.877    4.2744758    4.2744758    4.2744758    20626.877   -3362.0599    16221.066    49021.624   -6959.2709    -2676.253    22987.871    78.099559 
   94000    1365.6515   -107.76151    1.2356701   -106.52584    1804.7304    4.2775688    4.2775688    4.2775688    1804.7304    -12136.02    32274.877   -14724.665   -3981.2459    3926.2872   -15138.515     78.26922 
   94100    1285.5927   -107.69352    1.1632313   -106.53029   -30927.788    4.2824264    4.2824264    4.2824264   -30927.788   -2677.3734   -46205.976   -43900.016   -3882.5943    12003.059   -12153.197    78.536172 
   94200    1678.6194   -108.03456    1.5188501   -106.51571   -9895.6099    4.2871243    4.2871243    4.2871243   -9895.6099    -2749.868   -21971.025   -4965.9371   -13398.918    3091.8258   -10134.396    78.794919 
   94300    1368.5077   -107.75542    1.2382545   -106.51717   -22009.905    4.2914488    4.2914488    4.2914488   -22009.905   -45722.685   -61333.924    41026.895    11982.453    9646.3924    -16029.63    79.033607 
   94400    1330.6678   -107.72294    1.2040162   -106.51892   -23479.378    4.2784139    4.2784139    4.2784139   -23479.378   -21845.199   -53581.131    4988.1947    -426.2435    511.26534   -3748.8246    78.315618 
   94500    1294.8328   -107.69416     1.171592   -106.52256    34307.813    4.2810957    4.2810957    4.2810957    34307.813   -9616.7748    43686.054    68854.161    -19175.87    2633.7416    18225.043    78.462984 
   94600    1405.4842   -107.78173    1.2717116   -106.51002   -26357.647     4.315785     4.315785     4.315785   -26357.647   -69609.384    28775.773   -38239.331    7547.6089    9801.7735    4180.5676    80.385814 
   94700    974.78807   -107.39381   0.88200873    -106.5118   -10427.249    4.2844162    4.2844162    4.2844162   -10427.249   -42146.277    52799.024   -41934.493    4910.5116    7235.3219   -9216.3733    78.645694 
   94800    1008.5464   -107.40483   0.91255395   -106.49228    55985.038    4.2398988    4.2398988    4.2398988    55985.038    32569.893    22143.413    113241.81    -23973.39   -17952.392    18272.315    76.219565 
   94900    1528.9225   -107.93482    1.3834012   -106.55142    1987.6719    4.2739182    4.2739182    4.2739182    1987.6719   -20599.386   -18285.062    44847.464    12257.762    2759.7624   -4197.8399    78.069002 
   95000    1435.6164   -107.83212    1.2989759   -106.53314   -31608.312    4.3103671    4.3103671    4.3103671   -31608.312   -45436.929   -83961.857    34573.849   -1228.9754    7377.6079    3827.0585    80.083453 
   95100    1052.8229   -107.46765   0.95261632   -106.51504   -39207.823     4.304247     4.304247     4.304247   -39207.823   -42111.893    -79156.15    3644.5726   -26347.972   -15249.799    6083.6829    79.742813 
   95200    1678.6157    -108.0054    1.5188468   -106.48655    1337.1067    4.2664862    4.2664862    4.2664862    1337.1067   -16209.702   -4370.7646    24591.786   -3542.8579    14022.661     2724.649    77.662441 
   95300    1269.3059   -107.65594    1.1484946   -106.50745    42909.161    4.2645384    4.2645384    4.2645384    42909.161    1730.7797    48157.939    78838.766   -14781.715    5824.6738    -11306.33    77.556125 
   95400    1087.1392   -107.51536   0.98366642   -106.53169   -20828.035    4.3059101    4.3059101    4.3059101   -20828.035   -38617.621   -22723.341   -1143.1427    -16586.18    5766.2917    1477.6796    79.835287 
   95500     1339.376   -107.71408    1.2118955   -106.50219   -10138.849    4.3111648    4.3111648    4.3111648   -10138.849   -49700.329    32589.398   -13305.616   -10842.446    7500.2994    12184.997    80.127919 
   95600    1329.2462   -107.69483    1.2027299    -106.4921    18615.844    4.2791702    4.2791702    4.2791702    18615.844   -32199.031    39172.482     48874.08   -17338.536    11871.675    8777.7901     78.35716 
   95700    1029.9669    -107.4409    0.9319357   -106.50896    11848.721    4.2715201    4.2715201    4.2715201    11848.721   -9038.2448     20426.59    24157.817   -10344.033   -2049.4737   -2669.2874    77.937658 
   95800    1579.1398   -107.96423    1.4288389   -106.53539   -14000.363    4.3016494    4.3016494    4.3016494   -14000.363   -38236.928   -23831.775    20067.615   -8508.1222    5879.0985    -14627.19    79.598528 
   95900    1394.6948   -107.77769    1.2619492   -106.51574   -2538.2233    4.3152653    4.3152653    4.3152653   -2538.2233   -41922.872   -27263.199    61571.401     -9092.73    10678.503   -2354.2644    80.356778 
   96000    1637.5618   -107.97724    1.4817004   -106.49554   -13762.993    4.2878974    4.2878974    4.2878974   -13762.993    7422.5194       -48993    281.50043     5762.266    10486.987   -7100.3809    78.837554 
   96100    1397.4021   -107.75412    1.2643988   -106.48972    13226.817    4.2721982    4.2721982    4.2721982    13226.817   -17909.706   -29138.796    86728.953     3717.903    7809.3408   -12543.344    77.974783 
   96200    1717.4552    -108.0619    1.5539895   -106.50791    1114.1059    4.2982782    4.2982782    4.2982782    1114.1059    -17911.47    -32834.91    54088.698    3629.0277    10331.105    8951.9987     79.41153 
   96300    1177.3066   -107.56111    1.0652518   -106.49586   -16706.193    4.3130012    4.3130012    4.3130012   -16706.193   -17950.138   -70812.644    38644.202    9289.7689   -3001.1599   -5916.5349    80.230358 
   96400    1080.5908   -107.46331   0.97774129   -106.48557   -32116.937    4.2916328    4.2916328    4.2916328   -32116.937   -24134.178   -54711.287   -17505.347   -1692.1662     5408.832   -32473.966    79.043772 
   96500    2298.2562   -108.55143    2.0795105   -106.47192   -4972.4885    4.2634668    4.2634668    4.2634668   -4972.4885    -22741.43   -3422.9184    11246.883   -832.75638    -5674.193    885.27363    77.497674 
   96600    1403.0795   -107.79234    1.2695358    -106.5228   -568.92828    4.2840835    4.2840835    4.2840835   -568.92828    -11383.22   -42756.205     52432.64    732.35108    12896.437   -26707.053    78.627374 
   96700    812.62532   -107.26015   0.73528046   -106.52487   -32030.195    4.3083547    4.3083547    4.3083547   -32030.195   -18071.768   -56267.178   -21751.639   -3221.7638    4560.4419   -18837.315    79.971336 
   96800    1223.9853   -107.60958    1.1074876   -106.50209    13329.164    4.2868883    4.2868883    4.2868883    13329.164   -19721.295   -6240.7188    65949.504   -557.55096   -11423.252    11122.302    78.781911 
   96900    1898.5055   -108.21396    1.7178077   -106.49615   -6568.6265    4.2661676    4.2661676    4.2661676   -6568.6265   -15037.154   -21248.473    16579.747    8830.4495   -3922.7325   -19856.585    77.645044 
   97000    855.34658   -107.30677   0.77393556   -106.53283   -5154.3939    4.2865253    4.2865253    4.2865253   -5154.3939   -26672.869   -18504.596    29714.283    5721.8784    30045.562    -18994.15    78.761899 
   97100    898.31703   -107.33539   0.81281613   -106.52258    18654.114    4.2981978    4.2981978    4.2981978    18654.114   -14418.379    42139.662    28241.058   -9405.2437    11537.264    19076.446    79.407074 
   97200    1752.5547   -108.08213    1.5857483   -106.49638    6031.6362    4.2958751    4.2958751    4.2958751    6031.6362    7587.5381    10992.979   -485.60894   -4444.4845    -6609.323    -4558.069    79.278411 
   97300    1225.2422   -107.60757    1.1086249   -106.49895   -27575.489    4.2964823    4.2964823    4.2964823   -27575.489    -22345.19   -42075.769   -18305.507    1299.7292    25069.751   -14863.074    79.312031 
   97400    1076.2691   -107.48114   0.97383093   -106.50731    14804.072    4.2711395    4.2711395    4.2711395    14804.072    55185.045    12272.811   -23045.639    3287.0694   -10961.959    4325.8813    77.916827 
   97500    1553.5228   -107.93973    1.4056601   -106.53407    6840.6393    4.2828188    4.2828188    4.2828188    6840.6393   -12620.862    21037.782    12104.998   -7921.7856   -6140.6831   -1338.5012    78.557759 
   97600    1373.7211   -107.76959    1.2429717   -106.52662   -28590.267    4.3032804    4.3032804    4.3032804   -28590.267   -21607.367   -16653.933   -47509.502   -7280.6285    41163.792   -4323.6762    79.689103 
   97700    1370.3196   -107.74994     1.239894   -106.51005    13154.946    4.2690496    4.2690496    4.2690496    13154.946    14295.209    32102.301   -6932.6707    16965.375   -10415.007    5490.0677    77.802509 
   97800     1365.955   -107.75519    1.2359448   -106.51925    14540.595    4.2743076    4.2743076    4.2743076    14540.595    37233.603    6074.2754    313.90783   -13577.864   -10029.331    15757.746    78.090342 
   97900    1185.1417    -107.5901    1.0723411   -106.51775   -30313.131    4.3066718    4.3066718    4.3066718   -30313.131    16029.683   -51954.111   -55014.964    1687.4988    29478.594    -4627.416     79.87766 
   98000    1289.1363   -107.67924    1.1664376    -106.5128   -26585.935      4.29172      4.29172      4.29172   -26585.935   -9056.7924    -11764.96   -58936.052    8573.3433   -14182.538    -1512.845    79.048594 
   98100    1354.6612   -107.74505    1.2257259   -106.51933    20085.657    4.2665377    4.2665377    4.2665377    20085.657     22339.32    18767.076    19150.574   -11417.725   -7381.2232    12336.694    77.665256 
   98200    1340.5531   -107.75935    1.2129606   -106.54639    24020.161    4.2750082    4.2750082    4.2750082    24020.161    61742.125    22122.354   -11803.997     -10971.7    6553.7036   -6566.7674    78.128744 
   98300    1330.0025   -107.74872    1.2034142    -106.5453   -10624.142    4.3007465    4.3007465    4.3007465   -10624.142    6483.6005   -4753.8598   -33602.168    5104.8638   -1388.5778    14215.957    79.548414 
   98400    1419.6462   -107.80003    1.2845258    -106.5155    12596.565    4.2919157    4.2919157    4.2919157    12596.565    32246.443    5038.3212    504.93125   -10826.539    -5293.663    6982.4222    79.059409 
   98500    1452.4465   -107.82005    1.3142042   -106.50584    3490.2944    4.2779256    4.2779256    4.2779256    3490.2944    19439.195    4432.9959   -13401.308   -3711.7362     3384.967   -4937.4314    78.288805 
   98600    1035.7114   -107.45673   0.93713346    -106.5196    14942.462    4.2728035    4.2728035    4.2728035    14942.462    60985.948   -29311.158    13152.596    11544.702    13889.809    18527.979    78.007932 
   98700    1562.3339   -107.95519    1.4136325   -106.54156   -7462.5597    4.2830962    4.2830962    4.2830962   -7462.5597   -4112.3887   -30331.894    12056.603   -23946.172   -2049.6013   -4250.2129    78.573025 
   98800     1025.148   -107.45623   0.92757547   -106.52865   -19833.351      4.30816      4.30816      4.30816   -19833.351   -32027.392   -27727.995    255.33361   -2158.9442    2048.7498    781.89134    79.960495 
   98900    1251.1543   -107.64238    1.1320707   -106.51031   -1175.0064    4.2766386    4.2766386    4.2766386   -1175.0064   -16831.568    25214.503   -11907.953    22750.634    28756.248    15869.701    78.218173 
   99000    1317.9694   -107.70183    1.1925264    -106.5093    33952.383    4.2677273    4.2677273    4.2677273    33952.383    50927.121    15321.498    35608.531   -3400.0776   -634.00808   -8410.1525    77.730235 
   99100    1349.1917   -107.73958     1.220777    -106.5188   -17588.046    4.2933914    4.2933914    4.2933914   -17588.046   -14188.835   -12038.095   -26537.208    -14132.33   -6942.9502    15546.854    79.140984 
   99200    1334.4992   -107.71954    1.2074829   -106.51206   -15241.955    4.2870197    4.2870197    4.2870197   -15241.955    9363.6259   -40739.295   -14350.197    13690.687    26411.207    3634.4186    78.789157 
   99300    1459.4544   -107.83509     1.320545   -106.51455   -8426.2908    4.2860332    4.2860332    4.2860332   -8426.2908    10449.911   -28799.329    -6929.455    7203.6289   -2658.4839   -2337.9167    78.734777 
   99400    1128.9889   -107.54342    1.0215329   -106.52188    8464.1322     4.276631     4.276631     4.276631    8464.1322    90182.858   -34086.688   -30703.773    1043.7833   -17872.848    20975.716    78.217756 
   99500    1162.9994   -107.58392    1.0523063   -106.53161   -3454.1169    4.2772992    4.2772992    4.2772992   -3454.1169   -17912.484   -31573.269    39123.402    20212.133    28744.309   -5893.5227    78.254421 
   99600    1520.4727   -107.90859    1.3757556   -106.53284   -19024.809     4.292488     4.292488     4.292488   -19024.809    5479.4863   -66040.877    3486.9649    6094.6909   -8954.5083    4702.3146    79.091038 
   99700    1179.0938   -107.60484    1.0668688   -106.53797    1304.9566    4.2767802    4.2767802    4.2767802    1304.9566    74310.252   -38718.232    -31677.15     4334.306   -9352.8113    8639.5544    78.225942 
   99800      1441.52    -107.8475    1.3043176   -106.54319    239.88433     4.275918     4.275918     4.275918    239.88433    6688.7411   -36995.397    31026.309    18103.672    333.40159   -5499.9411    78.178638 
   99900    1193.4853   -107.62274    1.0798905   -106.54285    35169.106    4.2808098    4.2808098    4.2808098    35169.106      40177.1   -31402.855    96733.074   -595.78692    10088.476    4970.3072    78.447265 
  100000     915.8022   -107.36945   0.82863708   -106.54081    -23106.94     4.293017     4.293017     4.293017    -23106.94    18719.795   -46204.717   -41835.898    10637.643   -30801.365     1433.093    79.120283 
Loop time of 22.4736 on 1 procs for 100000 steps with 8 atoms

Pair  time (%) = 7.20674 (32.0676)
Kspce time (%) = 5.38375 (23.9559)
Neigh time (%) = 0.0228527 (0.101687)
Comm  time (%) = 1.07209 (4.77046)
Outpt time (%) = 0.0248907 (0.110755)
Other time (%) = 8.76324 (38.9935)

Nlocal:    8 ave 8 max 8 min
Histogram: 1 0 0 0 0 0 0 0 0 0
Nghost:    2189 ave 2189 max 2189 min
Histogram: 1 0 0 0 0 0 0 0 0 0
Neighs:    2290 ave 2290 max 2290 min
Histogram: 1 0 0 0 0 0 0 0 0 0

Total # of neighbors = 2290
Ave neighs/atom = 286.25
Neighbor list builds = 256
Dangerous builds = 0
unfix 20
unfix 21
print "seeds:8342067"
seeds:8342067
