LAMMPS (10 Feb 2015)
# ---- initialize simulations
clear
units metal
dimension 3
boundary p p p
atom_style charge
atom_modify map array
# ---- create atoms
read_data /Users/eugeneragasa/pyflamestk_git/pypospack/tests/tests_integration/workflow/WorkflowLammpsThermalExpansion/param_5378/MgO_NaCl_unit.npt.T100/lammps.structure
  triclinic box = (0 0 0) to (4.2565 4.2565 4.2565) with tilt (0 0 0)
  1 by 1 by 1 MPI processor grid
  reading atoms ...
  8 atoms
# ---- define interatomic potential
include potential.mod
mass 1 24.305
mass 2 15.999

group Mg type 1
4 atoms in group Mg
group O type 2
4 atoms in group O

set group Mg charge 1.67557694923
  4 settings made for charge
set group O charge -1.67557694923
  4 settings made for charge

variable R_cut equal 10.0

pair_style buck/coul/long ${R_cut}
pair_style buck/coul/long 10
pair_coeff 1 1 0.0 0.5 0.0 ${R_cut}
pair_coeff 1 1 0.0 0.5 0.0 10
pair_coeff 1 2 1405.50211521 0.282257384366 0.0 ${R_cut}
pair_coeff 1 2 1405.50211521 0.282257384366 0.0 10
pair_coeff 2 2 19860.1058829 0.143671361936 6.84969713079 ${R_cut}
pair_coeff 2 2 19860.1058829 0.143671361936 6.84969713079 10

kspace_style pppm 1.0e-5

neighbor 1.0 bin
neigh_modify every 1 delay 0 check yes
# ---- define settings
compute eng all pe/atom
compute eatoms all reduce sum c_eng
# ---- run minimization
reset_timestep 0
fix 1 all box/relax iso 0.0 vmax 0.001
thermo 10
thermo_style custom step pe lx ly lz xy xz yz press pxx pyy pzz pxy pxz pyz c_eatoms
min_style cg
minimize 1e-25 1e-25 5000 10000
PPPM initialization ...
  G vector (1/distance) = 0.352969
  grid = 8 8 8
  stencil order = 5
  estimated absolute RMS force accuracy = 4.01483e-05
  estimated relative force accuracy = 2.78815e-06
  using double precision FFTs
  3d grid and FFT values/proc = 3375 512
Neighbor list info ...
  1 neighbor list requests
  update every 1 steps, delay 0 steps, check yes
  master list distance cutoff = 11
Memory usage per processor = 4.06549 Mbytes
Step PotEng Lx Ly Lz Xy Xz Yz Press Pxx Pyy Pzz Pxy Pxz Pyz eatoms 
       0   -115.02334       4.2565       4.2565       4.2565            0            0            0    14836.064    14836.064    14836.064    14836.064 5.7083842e-11 -5.8546636e-11 3.613515e-11   -115.02334 
       4   -115.02629     4.268627     4.268627     4.268627            0            0            0   -3.7663252   -3.7663252   -3.7663252   -3.7663252 5.5364648e-11 -5.1262271e-11 1.3911233e-11   -115.02629 
Loop time of 0.00720596 on 1 procs for 4 steps with 8 atoms

Minimization stats:
  Stopping criterion = linesearch alpha is zero
  Energy initial, next-to-last, final = 
        -115.023341276       -115.0262927       -115.0262927
  Force two-norm initial, final = 2.14234 0.00179672
  Force max component initial, final = 2.14234 0.000546963
  Final line search alpha, max atom move = 0.00390625 2.13657e-06
  Iterations, force evaluations = 4 21

Pair  time (%) = 0.00193787 (26.8925)
Kspce time (%) = 0.00117207 (16.2652)
Neigh time (%) = 0 (0)
Comm  time (%) = 0.000219345 (3.04394)
Outpt time (%) = 0 (0)
Other time (%) = 0.00387669 (53.7983)

Nlocal:    8 ave 8 max 8 min
Histogram: 1 0 0 0 0 0 0 0 0 0
Nghost:    2189 ave 2189 max 2189 min
Histogram: 1 0 0 0 0 0 0 0 0 0
Neighs:    2344 ave 2344 max 2344 min
Histogram: 1 0 0 0 0 0 0 0 0 0

Total # of neighbors = 2344
Ave neighs/atom = 293
Neighbor list builds = 0
Dangerous builds = 0
unfix 1
# ---- define output variables ----
variable natoms equal "count(all)"
variable tot_energy equal "c_eatoms"
variable length_x equal "lx"
variable length_y equal "ly"
variable length_z equal "lz"
variable tilt_xy equal "xy"
variable tilt_xz equal "xz"
variable tilt_yz equal "yz"
variable tot_press equal "press"
variable press_xx equal "pxx"
variable press_yy equal "pyy"
variable press_zz equal "pzz"
variable press_xy equal "pxy"
variable press_xz equal "pxz"
variable press_yz equal "pyz"

# ---- output ----
print "pypospack:output_section:begin"
pypospack:output_section:begin
print "tot_energy = ${tot_energy}"
tot_energy = -115.026292700229
print "num_atoms = ${natoms}"
num_atoms = 8
print "xx = ${length_x}"
xx = 4.26862697136346
print "yy = ${length_y}"
yy = 4.26862697136346
print "zz = ${length_z}"
zz = 4.26862697136346
print "xy = ${tilt_xy}"
xy = 0
print "xz = ${tilt_xz}"
xz = 0
print "yz = ${tilt_yz}"
yz = 0
print "tot_press = ${tot_press}"
tot_press = -3.7663252179344
print "pxx = ${press_xx}"
pxx = -3.76632521787482
print "pyy = ${press_yy}"
pyy = -3.76632521789834
print "pzz = ${press_zz}"
pzz = -3.76632521803003
print "pxy = ${press_xy}"
pxy = 5.53646482695888e-11
print "pxz = ${press_xz}"
pxz = -5.12622707696674e-11
print "pyz = ${press_yz}"
pyz = 1.39112332535826e-11
print "pypospack:output_section:done"
pypospack:output_section:done
print "pypospack:lammps_sim:done"
pypospack:lammps_sim:done
#------------------------------------------------------------------------------
# RUN THERMOSTAT
# running using an NPT Nose-Hoover style thermostat
#------------------------------------------------------------------------------
variable tempdamp equal 0.1
variable pressdamp equal 1.0
# set initial velocities
velocity all create 100 4206806 mom yes dist gaussian loop all
# fix for Nose-Hoover style thermostat
fix 20 all npt temp 100 100 0.1 aniso 0.0 0.0 1.0 drag 1.0 couple xyz
variable boxx equal lx
variable boxy equal ly
variable boxz equal lz
variable boxp equal press
variable boxt equal temp
# calculate averages every 10000 steps
reset_timestep 0
fix 21 all ave/time 10 10 100 v_boxx v_boxy v_boxz v_boxp v_boxt file lattice.out
thermo_style custom step temp pe ke etotal press lx ly lz press pxx pyy pzz pxy pxz pyz vol
thermo_modify flush yes
thermo 100
run 100000
PPPM initialization ...
  G vector (1/distance) = 0.352845
  grid = 8 8 8
  stencil order = 5
  estimated absolute RMS force accuracy = 4.03767e-05
  estimated relative force accuracy = 2.80401e-06
  using double precision FFTs
  3d grid and FFT values/proc = 3375 512
Memory usage per processor = 3.06549 Mbytes
Step Temp PotEng KinEng TotEng Press Lx Ly Lz Press Pxx Pyy Pzz Pxy Pxz Pyz Volume 
       0          100    -115.0263  0.090482101   -114.93581    1238.3319     4.268627     4.268627     4.268627    1238.3319     906.7163    1820.1506    988.12885   -968.38928   -572.75703    154.93752    77.779404 
     100    42.303644   -114.96096  0.038277226   -114.92269     4449.859    4.2681103    4.2681103    4.2681103     4449.859    776.64245    6374.3516    6198.5831    1369.4052    237.67143   -740.49589    77.751166 
     200    96.600038   -114.98601  0.087405744    -114.8986    501.73572    4.2701154    4.2701154    4.2701154    501.73572   -1710.2851    632.21733    2583.2749    1935.2495    189.12021    1031.2707    77.860796 
     300    78.706146   -114.94851  0.071214975   -114.87729    4576.7924    4.2710626    4.2710626    4.2710626    4576.7924   -850.86982    9805.2345    4776.0126    436.10566     320.7405   -811.46121    77.912618 
     400    156.52426   -115.00221   0.14162644   -114.86059    405.85957    4.2711202    4.2711202    4.2711202    405.85957   -1146.4658    1277.2058    1086.8387   -1136.7032   -554.15623   -156.03703     77.91577 
     500    84.128313   -114.92656  0.076121065   -114.85044    2201.8567    4.2735632    4.2735632    4.2735632    2201.8567   -4161.0987    9531.4252    1235.2436    1815.9202   -89.682993   -884.98844    78.049547 
     600    135.82399   -114.96821    0.1228964   -114.84532   -1517.8227    4.2735685    4.2735685    4.2735685   -1517.8227   -4074.9355   -1589.5949    1111.0622    1994.4363    575.39705    1397.2302    78.049839 
     700    96.502503   -114.93152  0.087317493    -114.8442    2683.1125    4.2732286    4.2732286    4.2732286    2683.1125   -3647.7161    7963.1075    3733.9461   -296.93154   -403.85159    -279.0732    78.031219 
     800    163.09025   -114.99189   0.14756748   -114.84433   -5078.6613    4.2758568    4.2758568    4.2758568   -5078.6613   -6154.6405   -4751.2899   -4330.0534   -171.71537   -352.38769   -239.74945    78.175284 
     900    65.762406   -114.90509  0.059503207   -114.84558   -824.49265    4.2737689    4.2737689    4.2737689   -824.49265   -6434.4546    1642.0547    2318.9219    2959.1008   -35.950248   -1436.3641    78.060821 
    1000    154.42232   -114.98483   0.13972456   -114.84511    -4869.348    4.2753926    4.2753926    4.2753926    -4869.348   -7208.9203   -3761.0242   -3638.0994    1474.9742    1154.0416    763.82054    78.149825 
    1100    96.473152   -114.93271  0.087290935   -114.84542    1202.9498    4.2742039    4.2742039    4.2742039    1202.9498   -5143.0942    6635.0524    2116.8913   -624.94703   -223.00208   -70.458954    78.084656 
    1200    121.58847   -114.95552    0.1100158    -114.8455   -2213.7134    4.2734619    4.2734619    4.2734619   -2213.7134   -5590.2082   -2721.9652     1671.033    1497.5905   -761.24187    553.88875    78.043999 
    1300    90.291639   -114.92734  0.081697772   -114.84564   -113.80828    4.2745948    4.2745948    4.2745948   -113.80828   -6562.7793    6983.8643   -762.50977    1349.8869   -467.51841   -1303.7021    78.106083 
    1400    138.27315   -114.97009   0.12511245   -114.84498   -279.34915    4.2730991    4.2730991    4.2730991   -279.34915   -2456.3416    1585.8426    32.451479    345.58095    684.45397    1140.3579    78.024125 
    1500    94.295202   -114.93057   0.08532028   -114.84525    2163.3055    4.2728388    4.2728388    4.2728388    2163.3055   -4336.0935    8774.5139    2051.4961   -545.95997    673.55044     -843.247    78.009862 
    1600    108.35431   -114.94359  0.098041259   -114.84555   -1807.8237    4.2738731    4.2738731    4.2738731   -1807.8237   -4837.9508    -3293.947    2708.4266    1751.3566   -659.63608    1012.6461    78.066528 
    1700    79.533307   -114.91779  0.071963407   -114.84582    1226.5507    4.2722556    4.2722556    4.2722556    1226.5507   -2957.0476    5280.8568    1355.8429    857.24102   -130.05969   -1745.2682    77.977925 
    1800    147.51096   -114.97851   0.13347101   -114.84504   -1470.8566    4.2732334    4.2732334    4.2732334   -1470.8566   -3440.7834     383.9303   -1355.7169    25.552094   -70.192161    1362.2568    78.031482 
    1900    69.988366   -114.90907  0.063326945   -114.84574    2258.3068    4.2720884    4.2720884    4.2720884    2258.3068   -2765.1572     5855.545    3684.5325    587.73762    551.96042   -725.07908     77.96877 
    2000    102.62195   -114.93835  0.092854493    -114.8455   -1278.6651    4.2728387    4.2728387    4.2728387   -1278.6651   -5711.9899   -526.57986    2402.5746     1933.244   -406.21693    920.92281     78.00986 
    2100    86.806047    -114.9239  0.078543935   -114.84536    2456.6815    4.2726803    4.2726803    4.2726803    2456.6815   -3476.6439    9727.3401    1119.3484   -198.62523   -125.03162   -1215.9109    78.001184 
    2200    124.61771   -114.95784   0.11275672   -114.84509    325.61147     4.271995     4.271995     4.271995    325.61147   -2932.1364    767.68072    3141.2901    517.81329    369.31104    462.77335    77.963658 
    2300    68.235434   -114.90726  0.061740855   -114.84551    596.48629    4.2734623    4.2734623    4.2734623    596.48629   -6328.9554    9519.6276   -1401.2133    751.27306     51.23483   -195.53567    78.044022 
    2400    99.805504   -114.93568  0.090306118   -114.84537   -1760.3481    4.2733085    4.2733085    4.2733085   -1760.3481   -5316.2336   -2145.7551    2180.9443    1086.6498    39.515229     1064.225    78.035594 
    2500    78.304547   -114.91616    0.0708516   -114.84531    1695.7319    4.2724268    4.2724268    4.2724268    1695.7319   -2769.9021    5998.7216    1858.3761   -745.97384   -788.26078    50.411746    77.987299 
    2600    112.20919    -114.9467   0.10152923   -114.84517   -2566.4507    4.2742047    4.2742047    4.2742047   -2566.4507   -6959.4387   -1793.0984    1053.1849    1394.3675    511.24571   -352.10252    78.084704 
    2700    53.174665   -114.89386  0.048113554   -114.84575   -175.21216    4.2730439    4.2730439    4.2730439   -175.21216   -4043.3379    4887.0075    -1369.306     1270.811   -91.922086   -170.01414      78.0211 
    2800    108.09032   -114.94308  0.097802394   -114.84528   -1576.0045    4.2734253    4.2734253    4.2734253   -1576.0045   -4495.1337   -863.09686    630.21712    183.25339      510.828    390.37372    78.041992 
    2900    79.400253   -114.91719  0.071843018   -114.84535    1947.9569    4.2732354    4.2732354    4.2732354    1947.9569   -3576.7245    7215.2353    2205.3599    -482.1305   -332.95947    410.84909    78.031589 
    3000    84.673488    -114.9219  0.076614351   -114.84528   -861.99846    4.2735962    4.2735962    4.2735962   -861.99846   -5396.3824    504.98175    2305.4052     1903.274    281.87028   -231.22449    78.051357 
    3100    59.324559   -114.89913  0.053678107   -114.84545    237.19232    4.2734954    4.2734954    4.2734954    237.19232    -5923.309    8485.4619   -1850.5759    754.33676   -161.87512   -118.86842    78.045835 
    3200    109.72852   -114.94441  0.099284671   -114.84512    -1365.658    4.2731851    4.2731851    4.2731851    -1365.658   -4329.3291   -2030.5206    2262.8759   -79.004641   -456.70989    893.96177    78.028833 
    3300    74.979394   -114.91321  0.067842931   -114.84537    -482.4511    4.2739627    4.2739627    4.2739627    -482.4511   -5765.3932    6161.4296   -1843.3896    78.707083    315.62447    389.81085    78.071438 
    3400    67.157341   -114.90634  0.060765373   -114.84558   -2072.3279    4.2732594    4.2732594    4.2732594   -2072.3279   -7150.1983   -3209.1849    4142.3994    2700.1862     146.3096   -290.56524    78.032904 
    3500    63.162009   -114.90269  0.057150313   -114.84554   -383.94814    4.2729315    4.2729315    4.2729315   -383.94814   -4546.3208    2855.7405    538.73592    336.50577    569.34669   -321.57569     78.01494 
    3600    112.86156   -114.94709   0.10211951   -114.84497   -2316.5819    4.2743188    4.2743188    4.2743188   -2316.5819    -6253.785     96.47082   -792.43147    -209.1107   -930.85659    566.88918    78.090953 
    3700    64.364393   -114.90368  0.058238255   -114.84544    493.63148    4.2723322    4.2723322    4.2723322    493.63148   -4440.4861    5208.7585      712.622    1524.2433    107.79785    941.35959     77.98212 
    3800    75.335694   -114.91364  0.068165319   -114.84547    -147.2396    4.2730688    4.2730688    4.2730688    -147.2396   -4325.4262    342.22381    3541.4836    1473.6653    37.740844   -712.69497    78.022464 
    3900    69.051333   -114.90784  0.062479098   -114.84536     2330.943    4.2733267    4.2733267    4.2733267     2330.943   -4272.7192    9201.8036    2063.7446   -221.86728     547.7507   -82.578334    78.036592 
    4000    99.429299   -114.93511   0.08996572   -114.84515   -23.271509    4.2724989    4.2724989    4.2724989   -23.271509   -3507.7666    1692.0271     1745.925    46.081819   -324.68414   -117.00722    77.991251 
    4100    68.794689   -114.90758  0.062246881   -114.84533   -438.06892    4.2733807    4.2733807    4.2733807   -438.06892   -4724.6254    5131.9803   -1721.5616    1656.0864   -35.049456    1408.1765    78.039549 
    4200    79.174677    -114.9171  0.071638912   -114.84546   -901.86551    4.2731579    4.2731579    4.2731579   -901.86551   -6116.0448   -1418.0093    4828.4575    784.51095    92.333275   -805.71781    78.027345 
    4300    78.331395   -114.91628  0.070875892    -114.8454   -22.324087    4.2731697    4.2731697    4.2731697   -22.324087   -3971.1405    3832.4781    71.690155   -256.57634    -90.66923    844.01006    78.027991 
    4400    80.393708   -114.91819  0.072741917   -114.84545   -1597.8835    4.2732755    4.2732755    4.2732755   -1597.8835   -6084.1838    -940.7548    2231.2881    1428.5567    -265.6425   -432.86613    78.033788 
    4500    77.189916   -114.91538  0.069843059   -114.84554   -1748.6778    4.2731173    4.2731173    4.2731173   -1748.6778   -5880.6067    157.91706    476.65635    2544.9562   -219.85789    1246.9996    78.025121 
    4600    97.348131   -114.93337  0.088082635   -114.84529   -1112.2235    4.2743177    4.2743177    4.2743177   -1112.2235    -6163.798    2843.7765   -16.649075    -804.3159    434.80663   -897.68186    78.090895 
    4700    68.386546   -114.90719  0.061877584   -114.84532    2170.7388     4.272151     4.272151     4.272151    2170.7388   -3121.1458    6575.7935    3057.5685     275.9569    114.24124    232.82527    77.972198 
    4800    90.317965   -114.92707  0.081721592   -114.84535   -409.72451    4.2730017    4.2730017    4.2730017   -409.72451   -5432.6403    1025.1616    3178.3052    1444.5779   -184.03465    -14.24514    78.018788 
    4900    78.778748   -114.91672  0.071280666   -114.84544    468.25119    4.2743331    4.2743331    4.2743331    468.25119   -4343.2396     6067.133   -319.13985    1225.9224   -41.521932    895.84252     78.09174 
    5000    103.44779    -114.9391  0.093601737    -114.8455   -172.58954    4.2719748    4.2719748    4.2719748   -172.58954   -3173.0658    1015.6622    1639.6349   -1654.5942   -321.10137   -152.10861    77.962552 
    5100    85.155625   -114.92256  0.077050599    -114.8455   -560.78625    4.2735969    4.2735969    4.2735969   -560.78625   -3857.0488    2383.5452   -208.85518    515.71191    261.09704    62.003075    78.051395 
    5200    75.540105   -114.91391  0.068350274   -114.84556   -749.30559    4.2740898    4.2740898    4.2740898   -749.30559   -6046.5869    -1482.841    5281.5111    2046.3426   -469.45962   -135.32289    78.078405 
    5300    96.113954   -114.93228  0.086965926   -114.84531   -779.66809     4.272396     4.272396     4.272396   -779.66809   -3388.0896    958.66844    90.416864    928.59069    579.56652    714.30796    77.985615 
    5400    108.91649   -114.94377  0.098549928   -114.84522   -1677.2403    4.2739084    4.2739084    4.2739084   -1677.2403   -4053.0881    205.61221   -1184.2451   -1556.3742   -85.376772   -85.933202    78.068461 
    5500    80.622217   -114.91843  0.072948676   -114.84548    205.52565    4.2733203    4.2733203    4.2733203    205.52565   -5070.2429    2870.0354    2816.7844    1965.4402   -106.12293    342.75917    78.036243 
    5600    99.176937   -114.93514  0.089737377    -114.8454    192.92489     4.273123     4.273123     4.273123    192.92489   -5319.5166     2822.085    3076.2063    1162.7459   -574.79886   -243.73979    78.025434 
    5700    91.805765   -114.92823  0.083067786   -114.84517    1377.4598     4.272944     4.272944     4.272944    1377.4598   -2776.9556    5165.2276    1744.1073   -106.38387   -59.267647     352.9404    78.015628 
    5800    115.57693   -114.94986   0.10457643   -114.84528   -1025.5695    4.2729463    4.2729463    4.2729463   -1025.5695   -4252.1325    29.355867    1146.0682   -1296.8096    915.17873   -762.11103    78.015753 
    5900    91.394132   -114.92822  0.082695331   -114.84552    102.27685    4.2739467    4.2739467    4.2739467    102.27685   -4983.3258    4954.4662    335.69012    1390.3285   -31.285638    800.79272    78.070562 
    6000    97.196909   -114.93362  0.087945806   -114.84568    182.54046    4.2723827    4.2723827    4.2723827    182.54046   -2409.6066    -522.9254    3480.1534    617.47634   -146.62801   -343.81414    77.984884 
    6100    108.28386   -114.94342  0.097977513   -114.84544   -1073.1355    4.2733736    4.2733736    4.2733736   -1073.1355   -4106.5217    44.689411    842.42584   -916.71647   -1079.8511     786.7286    78.039163 
    6200    104.65407   -114.94006  0.094693202   -114.84537   -1010.0279     4.274481     4.274481     4.274481   -1010.0279   -4449.8477   -220.95029    1640.7144    257.43183    905.58363   -812.73963    78.099847 
    6300    99.722341   -114.93559   0.09023087   -114.84536    641.76883    4.2718558    4.2718558    4.2718558    641.76883   -2510.8049    2823.3728    1612.7386    1424.5939   -379.20592    811.36946    77.956035 
    6400    125.30697    -114.9586   0.11338038   -114.84522   -751.07047    4.2736137    4.2736137    4.2736137   -751.07047   -3626.4931    1631.0699   -257.78827    144.55007    449.17752   -196.90321    78.052316 
    6500     84.30528   -114.92178  0.076281189    -114.8455    2204.8072    4.2736078    4.2736078    4.2736078    2204.8072   -3000.2976    4393.6081    5221.1112    -670.1289    -774.2196   -23.097881    78.051993 
    6600    122.67471   -114.95653   0.11099866   -114.84553   -218.36024    4.2721591    4.2721591    4.2721591   -218.36024   -3481.0392    1210.2711    1615.6874    906.27613    896.80945   -468.28823    77.972642 
    6700    106.18243   -114.94147   0.09607609    -114.8454    394.26413    4.2735863    4.2735863    4.2735863    394.26413   -4287.2634    5720.6915   -250.63572    365.52637   -133.90009    930.05995    78.050813 
    6800    121.81438    -114.9556   0.11022021   -114.84538   -921.68103    4.2734656    4.2734656    4.2734656   -921.68103   -3261.3805   -524.48996    1020.8273   -5.6983309   -103.76754    323.78057    78.044202 
    6900    98.651397   -114.93485  0.089261858   -114.84559    303.53707    4.2728943    4.2728943    4.2728943    303.53707   -4307.1111    2734.4658    2483.2565   -1027.5865   -219.09388   -418.86253    78.012904 
    7000    111.16412   -114.94611   0.10058363   -114.84553   -1056.3905    4.2734206    4.2734206    4.2734206   -1056.3905   -3913.6135   -1250.1321    1994.5742    1502.3574    182.88356   -893.17588    78.041738 
    7100    116.76608   -114.95097    0.1056524   -114.84531   -747.69862    4.2734625    4.2734625    4.2734625   -747.69862   -3887.5963    843.53237    800.96803   -286.51074    573.27731     1108.809    78.044031 
    7200    127.01828   -114.96015   0.11492881   -114.84522   -670.07244    4.2737285    4.2737285    4.2737285   -670.07244   -3943.4347    2576.9949   -643.77743    473.43321    -307.8453     695.2581    78.058605 
    7300    87.216199   -114.92439   0.07891505   -114.84548    2287.5321    4.2721215    4.2721215    4.2721215    2287.5321   -2042.5886    3562.4596    5342.7253     271.2608    22.363899   -347.36035    77.970583 
    7400    135.62266   -114.96791   0.12271423    -114.8452   -648.70312    4.2734608    4.2734608    4.2734608   -648.70312   -3554.4503    907.35882    700.98212    779.73836    -469.6067   -1465.4404    78.043939 
    7500     99.64414    -114.9356  0.090160112   -114.84544    2289.2808    4.2734666    4.2734666    4.2734666    2289.2808   -3262.8963     6261.829    3868.9096   -274.93814    552.51505    1225.9074    78.044255 
    7600       124.92   -114.95856   0.11303024   -114.84553   -710.09739     4.272245     4.272245     4.272245   -710.09739     -1643.62     656.4696   -1143.1417    577.44558    133.55504     144.1692    77.977346 
    7700    104.51331   -114.94006   0.09456584   -114.84549   -664.53618    4.2740536    4.2740536    4.2740536   -664.53618   -6179.1262    3042.7149    1142.8028    -122.3825    737.90523   -223.42323    78.076418 
    7800     120.1509   -114.95405   0.10871506   -114.84533   -689.78953    4.2737285    4.2737285    4.2737285   -689.78953   -4085.0164   -954.43857    2970.0863    260.67546   -215.88387   -1716.9297    78.058606 
    7900    105.08165   -114.94057  0.095080084   -114.84549    197.31218    4.2723625    4.2723625    4.2723625    197.31218   -3260.6944    1688.8142    2163.8167   -348.72046   -102.07783    1671.3632    77.983778 
    8000     116.3611   -114.95072   0.10528597   -114.84543   -2149.8578    4.2740777    4.2740777    4.2740777   -2149.8578   -5597.3182    945.67331   -1797.9286     1561.906   -140.74589    545.28635    78.077741 
    8100    103.05805   -114.93867  0.093249093   -114.84542     790.9201    4.2732208    4.2732208    4.2732208     790.9201   -4489.7459    3039.4087    3823.0975     412.2795     157.9294   -334.86212     78.03079 
    8200    138.76473   -114.97068   0.12555724   -114.84512    115.74901    4.2728163    4.2728163    4.2728163    115.74901   -3548.9262    2883.5359    1012.6373   -642.40529    480.86228   -1710.5427     78.00863 
    8300    75.086372   -114.91356  0.067939727   -114.84562    2589.1187    4.2727667    4.2727667    4.2727667    2589.1187    -4036.107    5565.2839    6238.1794    731.87176    245.38136    1094.5307    78.005914 
    8400    129.53182   -114.96251   0.11720311   -114.84531   -1468.9672    4.2734738    4.2734738    4.2734738   -1468.9672   -3862.8349    653.89543   -1197.9622    1125.6887   -262.20656    1001.1777    78.044649 
    8500    110.47143   -114.94526  0.099956876   -114.84531    1640.8428    4.2731394    4.2731394    4.2731394    1640.8428   -4425.1257    6340.1138    3007.5403   -157.07351    65.785211   -265.67247    78.026331 
    8600    113.77219   -114.94842   0.10294347   -114.84548   -583.00433    4.2725967    4.2725967    4.2725967   -583.00433   -2897.0568    71.511572    1076.5323   -775.05553   -50.844886   -1756.0291    77.996608 
    8700    88.013595   -114.92528   0.07963655   -114.84564    -1327.012    4.2741615    4.2741615    4.2741615    -1327.012   -6013.7796   -169.19716    2201.9409    847.19845    791.06413    514.54113    78.082336 
    8800    116.79145    -114.9509   0.10567536   -114.84522   -778.92715    4.2735304    4.2735304    4.2735304   -778.92715   -5483.6693    1930.9965    1215.8914    1177.3326   -451.30137    1182.0012    78.047749 
    8900    109.23026   -114.94399  0.098833832   -114.84516    901.78937    4.2720134    4.2720134    4.2720134    901.78937   -3523.6934    3918.0982    2310.9633   -576.29175    301.21509   -269.48599    77.964667 
    9000    115.24668   -114.94952   0.10427762   -114.84525   -2237.5794    4.2743689    4.2743689    4.2743689   -2237.5794   -6061.1201     1268.348   -1919.9661   -278.76515    59.520083   -1406.0944    78.093701 
    9100    73.211813   -114.91184  0.066243587   -114.84559    2058.7548    4.2728245    4.2728245    4.2728245    2058.7548   -5580.6902    4438.4628    7318.4917    1895.7612    625.92126    443.64253    78.009081 
    9200    134.30697   -114.96666   0.12152377   -114.84513    510.89447    4.2723601    4.2723601    4.2723601    510.89447   -3785.3927    3906.1489    1411.9272    252.98033    -690.4239    1109.0917    77.983648 
    9300    92.248544   -114.92886  0.083468421   -114.84539    848.44636    4.2738711    4.2738711    4.2738711    848.44636   -6038.3654    6014.4798    2569.2246   -610.43923   -147.01358    7.7901588    78.066421 
    9400    105.95874   -114.94137  0.095873698    -114.8455   -2010.0212    4.2732801    4.2732801    4.2732801   -2010.0212   -4786.9152    -476.1534   -766.99502   -423.65406     330.8619   -1853.6838    78.034037 
    9500    97.922882   -114.93411  0.088602682   -114.84551     635.7076    4.2730674    4.2730674    4.2730674     635.7076   -4688.3116    2994.4782    3600.9562    1372.7017    657.75546    308.82818    78.022386 
    9600    105.62109   -114.94096   0.09556818   -114.84539    12.627327     4.273269     4.273269     4.273269    12.627327   -5079.1086    1795.9582    3321.0324   -454.65295    227.14926    892.19163    78.033431 
    9700    92.320037   -114.92911   0.08353311   -114.84558    -1579.615    4.2735612    4.2735612    4.2735612    -1579.615   -5389.6097     719.5965   -68.831741   -631.89431   -869.22352    497.22187    78.049439 
    9800    106.03466   -114.94131  0.095942391   -114.84537   -1405.6175    4.2735731    4.2735731    4.2735731   -1405.6175   -5133.0164    1843.3189    -927.1549    261.76445     635.8298   -1515.0673    78.050092 
    9900     97.16294   -114.93312   0.08791507    -114.8452    1837.7736    4.2722225    4.2722225    4.2722225    1837.7736   -4741.0751    5114.1217    5140.2743    1382.4345    -691.4951   -138.61942    77.976113 
   10000    114.70932   -114.94889   0.10379141   -114.84509   -580.76427    4.2737899    4.2737899    4.2737899   -580.76427   -5334.5961      2308.72    1283.5834   -748.53311    832.82929    1119.9748    78.061968 
   10100    70.276548    -114.9093  0.063587697   -114.84571     1367.024     4.273077     4.273077     4.273077     1367.024   -4986.8306    4894.6878    4193.2149    225.58903   -683.72342    397.51132    78.022913 
   10200    110.85386   -114.94576    0.1003029   -114.84546   -255.57096    4.2724183    4.2724183    4.2724183   -255.57096   -4769.7868    3338.4513    664.62262   -50.231209    740.51959   -1110.6256    77.986838 
   10300    115.12029   -114.94926   0.10416326    -114.8451   -762.60235    4.2743427    4.2743427    4.2743427   -762.60235   -6139.8219    2784.3379     1067.677    446.76785   -745.60453   -412.58318    78.092266 
   10400     87.60952   -114.92465  0.079270934   -114.84538   -346.72736    4.2728554    4.2728554    4.2728554   -346.72736   -5125.3397    366.26591    3718.8918   -977.77192    228.91382    1094.8315    78.010776 
   10500    79.553523   -114.91751    0.0719817   -114.84553   -264.46053    4.2727494    4.2727494    4.2727494   -264.46053   -4372.1518    1489.7646    2089.0056   -95.866118   -239.34571   -257.64669     78.00497 
   10600    107.84819   -114.94271  0.097583305   -114.84512   -1079.7796    4.2742259    4.2742259    4.2742259   -1079.7796   -6279.1728    1731.7367    1308.0971    383.67183    306.63181   -598.69079    78.085862 
   10700    114.27081   -114.94848   0.10339463   -114.84508   -866.71268    4.2726882    4.2726882    4.2726882   -866.71268   -4333.5476    1820.6449   -87.235331   -582.07809   -74.225448   -700.20095    78.001619 
   10800    88.692365   -114.92571  0.080250716   -114.84546   -60.153965    4.2731655    4.2731655    4.2731655   -60.153965   -4745.3989    2638.3405    1926.5965    82.763782   -204.50187    1113.6252    78.027763 
   10900    71.722109   -114.91044  0.064895671   -114.84554    1710.0052    4.2733436    4.2733436    4.2733436    1710.0052   -4660.2845    4783.4137    5006.8865    556.93536    176.98568    131.86277    78.037515 
   11000    123.12358   -114.95647    0.1114048   -114.84507   -235.55301    4.2729087    4.2729087    4.2729087   -235.55301   -4998.1167    3211.4219    1080.0358    253.14116    -586.5938   -527.33487    78.013692 
   11100     104.6871   -114.94012  0.094723092   -114.84539   -69.208214    4.2733939    4.2733939    4.2733939   -69.208214   -3534.8917    3496.8614    -169.5943   -779.49963    171.48263    -354.4542    78.040273 
   11200    77.625869   -114.91612  0.070237518   -114.84588   -209.73716    4.2730634    4.2730634    4.2730634   -209.73716    -4802.009     1204.587    2968.2105   -149.06317   -488.16867    481.35889    78.022169 
   11300    103.49392   -114.93917  0.093643475   -114.84553   -1080.8615    4.2736952    4.2736952    4.2736952   -1080.8615   -5550.9335     549.4068    1758.9423    252.60831    531.84689    290.94356    78.056779 
   11400     97.91298   -114.93376  0.088593722   -114.84517    772.35461    4.2728617    4.2728617    4.2728617    772.35461   -3674.9363    1889.3224    4102.6777    269.21238   -179.57125     -500.361    78.011119 
   11500    101.59373   -114.93725   0.09192414   -114.84532   -1529.2922    4.2728884    4.2728884    4.2728884   -1529.2922   -4295.2131    898.98148    -1191.645   -1221.8104     50.73115   -403.29041    78.012579 
   11600    87.235384   -114.92442  0.078932409   -114.84549   -1279.2829    4.2743162    4.2743162    4.2743162   -1279.2829   -5600.5883    895.65825     867.0813    538.24868   -556.51298     502.5804     78.09081 
   11700    111.00997   -114.94565   0.10044415    -114.8452    489.97656    4.2725981    4.2725981    4.2725981    489.97656   -3337.0563     2498.701    2308.2849    306.80606   -178.89436   -32.352089    77.996683 
   11800    92.995992    -114.9295  0.084144728   -114.84536    1776.9083    4.2726242    4.2726242    4.2726242    1776.9083    -3658.796    5279.8591    3709.6619    604.51558   -55.614735   -87.301162    77.998111 
   11900    91.903889   -114.92866   0.08315657    -114.8455   -1101.4808    4.2742928    4.2742928    4.2742928   -1101.4808   -4604.9338    1013.8931    286.59832   -513.38339    329.64574   -136.93637    78.089531 
   12000    100.58489   -114.93644  0.091011319   -114.84543   -333.22848    4.2725979    4.2725979    4.2725979   -333.22848   -2763.2114      1039.79    723.73591   -9.0252748   -401.17525    602.26273    77.996669 
   12100    120.98137   -114.95445   0.10946649   -114.84498    105.78067    4.2730408    4.2730408    4.2730408    105.78067   -3276.5986     2961.265    632.67562    291.53545   -273.85664   -497.18742    78.020928 
   12200      71.9205    -114.9106   0.06507518   -114.84553    1053.1957    4.2735599    4.2735599    4.2735599    1053.1957   -3167.3208    572.60226    5754.3057    553.09175   -396.71894    573.09638    78.049367 
   12300    99.139866   -114.93529  0.089703835   -114.84558   -2237.0308    4.2731788    4.2731788    4.2731788   -2237.0308   -3950.4039   -1565.9664   -1194.7222   -878.59897    231.41824   -284.19107    78.028487 
   12400    106.97761   -114.94212  0.096795592   -114.84532   -85.218303     4.273188     4.273188     4.273188   -85.218303   -3172.1604     1900.486    1016.0195    3.0001202   -328.09987    384.89322    78.028994 
   12500    119.58939   -114.95335   0.10820699   -114.84515   -271.40287    4.2733121    4.2733121    4.2733121   -271.40287   -2873.5754    2239.7803    -180.4135   -1.6209864    505.36547   -667.71356    78.035791 
   12600    76.341342   -114.91466   0.06907525   -114.84559    249.51456     4.273438     4.273438     4.273438    249.51456   -4683.9351    1481.5438     3950.935    1299.8628   -61.759924     675.3025    78.042689 
   12700    92.255013   -114.92911  0.083474274   -114.84564      59.8877    4.2730059    4.2730059    4.2730059      59.8877   -2250.9045    1473.6603    956.90734   -173.05649    213.05015    100.70768    78.019016 
   12800    119.10898   -114.95315   0.10777231   -114.84537    475.78455    4.2729944    4.2729944    4.2729944    475.78455   -3062.2229    3762.7655    726.81104   -438.86234   -1143.0208    93.497264    78.018389 
   12900     113.6324   -114.94822   0.10281699   -114.84541   -1135.6423    4.2738411    4.2738411    4.2738411   -1135.6423   -3673.4848    583.74315   -317.18522    740.43489    252.08947   -485.56524    78.064778 
   13000    72.020454    -114.9109   0.06516562   -114.84574    70.338584    4.2726333    4.2726333    4.2726333    70.338584   -2195.5929   -654.45433     3061.063     698.8993    285.89217    637.71692    77.998611 
   13100    106.27587   -114.94141  0.096160645   -114.84525   -297.70488    4.2731975    4.2731975    4.2731975   -297.70488   -2380.1221    1385.2595    101.74798   -437.20497     124.6235   -127.73181    78.029511 
   13200    107.86221   -114.94273  0.097595995   -114.84513    422.56797    4.2737046    4.2737046    4.2737046    422.56797   -3606.4933    1094.4053    3779.7919   -835.07061   -210.40838    252.14717    78.057296 
   13300    109.74447   -114.94469  0.099299105   -114.84539   -1787.9058    4.2729099    4.2729099    4.2729099   -1787.9058   -1538.7869   -1393.2002   -2431.7303    632.00679   -346.65491   -849.12485    78.013757 
   13400    80.620985   -114.91864  0.072947562   -114.84569    407.14209    4.2732774    4.2732774    4.2732774    407.14209   -3615.8909    3632.3394    1204.9777    904.30978    974.99045     494.6097    78.033889 
   13500    111.45101   -114.94607   0.10084321   -114.84523    1028.9752    4.2733618    4.2733618    4.2733618    1028.9752   -2370.5929    2570.8534    2886.6652   -408.19047   -649.49857    117.50457    78.038516 
   13600    103.55549   -114.93893  0.093699186   -114.84523    838.36487    4.2728137    4.2728137    4.2728137    838.36487   -2785.1935    2354.9692     2945.319   -665.56392    338.43502    481.57558    78.008492 
   13700    93.346658   -114.92993  0.084462017   -114.84547   -1207.4665    4.2733312    4.2733312    4.2733312   -1207.4665   -3280.3244     1626.453    -1968.528    1635.2632   -562.76798   -642.04224    78.036835 
   13800    101.41738   -114.93738  0.091764574   -114.84562   -525.42939     4.273373     4.273373     4.273373   -525.42939   -2674.9642    1419.1393   -320.46326    179.29548    1253.4992    606.54378    78.039125 
   13900    112.53627   -114.94715   0.10182519   -114.84533    156.86546    4.2732576    4.2732576    4.2732576    156.86546   -3589.2424    1149.3723    2910.4664   -269.65719   -765.67061    278.95556    78.032804 
   14000    80.630014   -114.91854  0.072955731   -114.84558    87.449998    4.2727972    4.2727972    4.2727972    87.449998   -3017.7013   -376.99344    3657.0448   -1254.4258    272.67969    567.96662    78.007589 
   14100    102.04619   -114.93786  0.092333535   -114.84553   -2289.7203    4.2738078    4.2738078    4.2738078   -2289.7203   -3286.1891   -836.18411   -2746.7877    1107.3949   -659.96192   -858.30553    78.062948 
   14200    103.50753   -114.93914  0.093655788   -114.84548    382.59321    4.2736187    4.2736187    4.2736187    382.59321   -3506.3142    3005.6523    1648.4415    103.80819    1007.7481    415.32539    78.052588 
   14300    114.23704   -114.94872   0.10336408   -114.84535    267.91452    4.2724177    4.2724177    4.2724177    267.91452   -2573.1011     1563.921    1812.9236    -469.3941    252.82631   -60.003742    77.986805 
   14400     73.81347   -114.91249  0.066787979    -114.8457    874.69473    4.2734447    4.2734447    4.2734447    874.69473    -3274.045    3845.9307    2052.1985   -488.46482     276.0794    732.30464    78.043053 
   14500    96.450376   -114.93273  0.087270327   -114.84546   -27.085938    4.2735002    4.2735002    4.2735002   -27.085938   -4255.7482    2119.3432    2055.1472    1214.6149    237.85417   -623.44552    78.046099 
   14600    118.83908   -114.95269    0.1075281   -114.84517    22.700052    4.2724988    4.2724988    4.2724988    22.700052   -2166.0845    2595.0779   -360.89326    117.33129   -246.40729    399.88276    77.991244 
   14700    95.874937   -114.93198  0.086749658   -114.84523   -529.08348    4.2736206    4.2736206    4.2736206   -529.08348   -4617.5293    2817.9587    212.32021   -260.65551    560.66925   -227.89663    78.052691 
   14800    76.926461   -114.91523  0.069604678   -114.84562   -650.63995    4.2734129    4.2734129    4.2734129   -650.63995   -4497.2475   -210.35883    2755.6865   -944.46171   -287.01385    1335.9576    78.041313 
   14900    99.224475   -114.93521   0.08978039   -114.84543    -390.8614    4.2730881    4.2730881    4.2730881    -390.8614   -3481.7277   -136.24417    2445.3877    580.28916    548.68886   -392.74034    78.023519 
   15000    108.30211   -114.94334  0.097994023   -114.84534   -620.07108    4.2733483    4.2733483    4.2733483   -620.07108   -4942.3223    2860.2476    221.86149    265.66216   -65.864435   -182.55335    78.037773 
   15100    98.171266   -114.93432  0.088827425   -114.84549    -1400.048    4.2734132    4.2734132    4.2734132    -1400.048   -4672.2212    852.44755   -380.37051   -537.92718    453.38157   -143.51953    78.041329 
   15200    80.496573   -114.91843  0.072834991    -114.8456    583.09306    4.2734811    4.2734811    4.2734811    583.09306   -4585.2566    3197.4345    3137.1014    -454.9207   -275.03514    926.46718    78.045052 
   15300     95.79213   -114.93192  0.086674732   -114.84524    1460.5275    4.2724136    4.2724136    4.2724136    1460.5275   -3830.1226    3931.6792    4280.0259    31.786546    118.31501   -17.365747    77.986581 
   15400     110.2566   -114.94501  0.099762488   -114.84525   -586.67684    4.2732281    4.2732281    4.2732281   -586.67684   -4959.7394    3573.4823   -373.77336    845.60847    181.61733   -438.64235    78.031188 
   15500    80.244553   -114.91821  0.072606958    -114.8456   -150.39346    4.2737015    4.2737015    4.2737015   -150.39346   -4680.9122    2622.7192    1607.0126    128.61624    591.30287   -57.069262    78.057124 
   15600    102.77929   -114.93858   0.09299686   -114.84558    -894.1372    4.2724981    4.2724981    4.2724981    -894.1372   -4537.9711    1893.1822   -37.622743   -488.07557   -30.583638     995.0336    77.991205 
   15700    92.219231   -114.92884  0.083441898   -114.84539    329.71058     4.273552     4.273552     4.273552    329.71058   -4595.2985    2038.1544    3546.2758     193.8746   -48.785954   -36.907426    78.048932 
   15800    89.117879   -114.92615   0.08063573   -114.84551   -521.86183    4.2735995    4.2735995    4.2735995   -521.86183   -5847.7968    1673.2773     2608.934    252.31553    153.33772    53.266957    78.051535 
   15900    95.279704   -114.93174  0.086211078   -114.84553   -1150.0114    4.2726967    4.2726967    4.2726967   -1150.0114   -4661.0622    871.51828    339.50981   -413.36457    153.05354   -277.20759    78.002083 
   16000    99.566039   -114.93548  0.090089444   -114.84539   -144.84419    4.2736795    4.2736795    4.2736795   -144.84419   -4924.2999    4957.8502   -468.08288   -64.482643   -436.29288    854.75283    78.055922 
   16100    97.619994   -114.93353  0.088328622    -114.8452    653.98502    4.2729393    4.2729393    4.2729393    653.98502   -6050.1714    2640.6329    5371.4936   -296.38394    299.77646    85.309244    78.015372 
   16200    83.561433   -114.92092   0.07560814   -114.84531    458.53059    4.2729645    4.2729645    4.2729645    458.53059   -5253.4629    3464.4137    3164.6409    1127.2558    166.24078    34.816483    78.016748 
   16300    88.067815   -114.92493   0.07968561   -114.84525   -227.20472    4.2734998    4.2734998    4.2734998   -227.20472   -5680.8693    3796.7092     1202.546   -285.62939    937.00936   -637.63523    78.046076 
   16400    119.62853    -114.9534   0.10824241   -114.84515   -1522.4859    4.2730798    4.2730798    4.2730798   -1522.4859   -5324.7833    2858.3133   -2100.9878     835.7159   -854.22115    753.96647    78.023064 
   16500     84.31943    -114.9217  0.076293992   -114.84541    317.18245    4.2735675    4.2735675    4.2735675    317.18245   -6264.0729    2220.8762     4994.744    31.682814   -50.867868    407.57086    78.049782 
   16600    85.280779   -114.92277  0.077163841   -114.84561   -808.06599    4.2731272    4.2731272    4.2731272   -808.06599   -4969.0663    1154.4133     1390.455    234.40158   -183.14415    324.70151    78.025665 
   16700     97.28582   -114.93343  0.088026254    -114.8454   -812.69714    4.2732919    4.2732919    4.2732919   -812.69714    -5872.365    1873.6618    1560.6117   -324.46675    496.11938   -631.96201    78.034685 
   16800    106.28976    -114.9415  0.096173208   -114.84533   -98.022655    4.2737573    4.2737573    4.2737573   -98.022655   -4440.6111    3766.9657    379.57747    947.04199    -109.9104    199.90288    78.060185 
   16900    101.79993   -114.93749  0.092110716   -114.84538   -53.108232    4.2724682    4.2724682    4.2724682   -53.108232   -5633.5045    2741.7662    2732.4136   -334.94004   -202.06403    608.79847    77.989569 
   17000     84.23648   -114.92178  0.076218937   -114.84556    787.97126    4.2732495    4.2732495    4.2732495    787.97126   -4604.5833     4392.163     2576.334     52.68679   -15.258174    264.48825     78.03236 
   17100    94.379206   -114.93076  0.085396289   -114.84537    1158.9553     4.273277     4.273277     4.273277    1158.9553   -5108.6774    3811.9218    4773.6213   -65.669655   -548.36848   -595.72426    78.033867 
   17200    118.50486   -114.95247   0.10722569   -114.84524   -853.32705    4.2726786    4.2726786    4.2726786   -853.32705   -5665.8526    3277.7265   -171.85509    1589.5775    386.09877    224.43042    78.001092 
   17300    87.631528   -114.92472  0.079290848   -114.84543   -697.28356    4.2738134    4.2738134    4.2738134   -697.28356   -6293.7187    2692.8091    1509.0589    321.22597   -334.75741    624.19796    78.063256 
   17400    107.82633   -114.94303  0.097563529   -114.84547   -1744.8433    4.2733556    4.2733556    4.2733556   -1744.8433   -4930.9201     234.7776   -538.38747   -590.67669    828.75961    645.71979    78.038173 
   17500    89.136863   -114.92608  0.080652907   -114.84542    788.44468    4.2728892    4.2728892    4.2728892    788.44468   -5551.2117    2260.5487     5655.997    1126.0218   -1163.6907   -555.81896    78.012625 
   17600    106.87027   -114.94201  0.096698469   -114.84532   -925.89783    4.2735259    4.2735259    4.2735259   -925.89783   -5363.8506    2093.4844    492.67275    889.87596    433.32897    235.35068    78.047502 
   17700    108.67321   -114.94358  0.098329803   -114.84525   -1044.5191    4.2730311    4.2730311    4.2730311   -1044.5191    -4458.744    1595.9316   -270.74502    -212.8438   -744.23287    1100.2947    78.020397 
   17800    104.46557   -114.93987  0.094522646   -114.84535    827.37553    4.2733609    4.2733609    4.2733609    827.37553   -4188.0651    5389.6259    1280.5658   -906.50526    445.45646    419.15782    78.038465 
   17900     101.7973   -114.93741  0.092108339    -114.8453    1851.0736    4.2726458    4.2726458    4.2726458    1851.0736   -3552.7033    3565.5731     5540.351    1048.0785   -494.03999   -636.55955    77.999296 
   18000    105.10848   -114.94038  0.095104358   -114.84527    470.81987    4.2729973    4.2729973    4.2729973    470.81987   -4826.6661    4095.6288    2143.4969     986.1957    184.37885   -176.10951    78.018544 
   18100    102.93031   -114.93847  0.093133512   -114.84534    70.602984    4.2736903    4.2736903    4.2736903    70.602984   -3724.5222    3551.6019    384.72933   -230.12939    250.60269    628.92141    78.056511 
   18200    129.21981   -114.96216    0.1169208   -114.84524   -1521.0514    4.2729591    4.2729591    4.2729591   -1521.0514   -3706.7317    983.72224   -1840.1449   -556.40359   -212.08036    588.29623    78.016456 
   18300    92.487913   -114.92914  0.083685008   -114.84546    142.59633    4.2734695    4.2734695    4.2734695    142.59633   -5858.8755    1009.5005     5277.164    2046.3005   -289.87207   -584.73208    78.044416 
   18400    103.50051   -114.93913  0.093649435   -114.84548   -892.15341    4.2735138    4.2735138    4.2735138   -892.15341   -3904.3174    454.90854    772.94865    378.84837   -533.42684    399.04346    78.046841 
   18500    117.76099   -114.95195   0.10655262    -114.8454   -1007.4379    4.2729178    4.2729178    4.2729178   -1007.4379   -3506.6028    514.93708   -30.647859   -181.19846    477.96627    594.16866    78.014192 
   18600    110.48931    -114.9454  0.099973048   -114.84542    26.131523    4.2734875    4.2734875    4.2734875    26.131523   -4299.0716    3921.6263    455.83991   -637.73092   -158.32056    284.55443      78.0454 
   18700    123.77376   -114.95729    0.1119931    -114.8453   -357.19825    4.2730399    4.2730399    4.2730399   -357.19825   -3810.5321    1077.2316    1661.7057    1241.0378    211.73405   -442.15087    78.020881 
   18800    95.306212   -114.93164  0.086235064   -114.84541    2220.5598    4.2729708    4.2729708    4.2729708    2220.5598   -2447.9764    6132.7165    2976.9392    259.45692   -700.91638     192.2895    78.017093 
   18900    113.56342   -114.94801   0.10275457   -114.84526    988.31667     4.273096     4.273096     4.273096    988.31667   -3058.7834    3104.8464     2918.887    -361.2338    52.621821    850.67139    78.023951 
   19000    124.52965   -114.95782   0.11267705   -114.84515   -419.55187    4.2730224    4.2730224    4.2730224   -419.55187   -2378.8607    1637.2178   -517.01274     58.67398    24.735916   -71.184511     78.01992 
   19100    114.69772   -114.94896   0.10378091   -114.84518   -303.48408    4.2736456    4.2736456    4.2736456   -303.48408   -3898.6846    2574.9844    413.24805    1351.8584    251.58804     40.06766    78.054063 
   19200    108.58869   -114.94363  0.098253326   -114.84538   -5.9987929    4.2727833    4.2727833    4.2727833   -5.9987929   -1269.0872    352.67324    898.41757    308.22869     157.2869   -334.75824    78.006824 
   19300    106.59991   -114.94188  0.096453839   -114.84542   -476.37854    4.2733408    4.2733408    4.2733408   -476.37854   -3718.4524   -1173.9927    3463.3095    200.60788    2.2983697    1186.9479    78.037363 
   19400    112.11325   -114.94681   0.10144242   -114.84537   -644.01278     4.273626     4.273626     4.273626   -644.01278   -4017.8963    2687.8359   -601.97786   -622.62635    312.17616   -242.60444     78.05299 
   19500    137.27039   -114.96943   0.12420514   -114.84522   -1400.1555    4.2727493    4.2727493    4.2727493   -1400.1555   -1610.1385   -16.117963   -2574.2101    694.42188   -343.14254    949.33947    78.004965 
   19600    92.519843   -114.92929  0.083713899   -114.84557    1667.3999    4.2734177    4.2734177    4.2734177    1667.3999   -3133.0043    4599.4753    3535.7286    530.91008   -411.14188   -309.90689    78.041576 
   19700    115.95352   -114.95035   0.10491718   -114.84543    244.78982    4.2731049    4.2731049    4.2731049    244.78982   -3739.3172    1999.4534    2474.2334    288.69037    415.83698    512.82831    78.024438 
   19800    112.65789   -114.94731   0.10193523   -114.84538    975.01949    4.2728333    4.2728333    4.2728333    975.01949   -2470.2046    3532.8711    1862.3919   -553.51416    410.25766   -178.13674    78.009564 
   19900    118.03169   -114.95206   0.10679756   -114.84526   -68.062137    4.2735901    4.2735901    4.2735901   -68.062137   -2539.7133    2641.0361   -305.50917    438.43355    373.69114    238.77737    78.051022 
   20000    116.79563   -114.95106   0.10567914   -114.84538   -949.42088     4.272919     4.272919     4.272919   -949.42088   -2715.4705    165.26668   -298.05883    1344.9319   -896.55123   -48.297313    78.014255 
   20100    99.438563   -114.93541  0.089974101   -114.84543    278.06019    4.2733991    4.2733991    4.2733991    278.06019   -2448.9966    639.58457    2643.5926    402.45014    618.01121    494.05065    78.040557 
   20200    105.55832   -114.94093  0.095511388   -114.84541    384.45645    4.2729615    4.2729615    4.2729615    384.45645     -3178.05    1902.4435    2428.9758   -1025.6407    280.20399    265.96805    78.016585 
   20300    123.29375   -114.95699   0.11155878   -114.84543   -1438.6176    4.2731942    4.2731942    4.2731942   -1438.6176   -1195.4189   -1789.4154   -1331.0184    612.00391    358.26475    635.75767    78.029334 
   20400    96.765057   -114.93304  0.087555057   -114.84548    77.245018    4.2738564    4.2738564    4.2738564    77.245018   -4610.1805    4931.4762   -89.560631    1515.6162   -858.89278   -518.54321    78.065612 
   20500     121.7157   -114.95532   0.11013093   -114.84519   -130.67544    4.2724467    4.2724467    4.2724467   -130.67544   -2343.8391      665.527    1286.2857   -346.70059    475.80338    867.49886    77.988393 
   20600    88.639191   -114.92548  0.080202603   -114.84528    2154.6607    4.2731442    4.2731442    4.2731442    2154.6607   -3004.1711    3817.1595    5650.9938    -762.7746    739.36209   -214.79455    78.026596 
   20700    111.09242   -114.94573   0.10051876   -114.84521   -908.96522    4.2736821    4.2736821    4.2736821   -908.96522   -4060.5863    2329.5982   -995.90764    556.93123   -80.793307    765.34895    78.056064 
   20800    104.44012   -114.93974  0.094499619   -114.84524   -492.30299    4.2724099    4.2724099    4.2724099   -492.30299   -4089.9737    1530.9419    1082.1228    2670.3129   -414.07941   -639.36547    77.986377 
   20900    109.09755   -114.94388  0.098713755   -114.84516   -548.83165    4.2739567    4.2739567    4.2739567   -548.83165   -3715.7949    387.89963    1681.4003   -892.39342   -346.13277    923.68427    78.071109 
   21000    93.787581   -114.93028  0.084860974   -114.84542   -128.16207    4.2729674    4.2729674    4.2729674   -128.16207   -3938.0671    1477.2326    2076.3482    -77.69631    1601.5956   -939.38136     78.01691 
   21100    93.778385   -114.93045  0.084852654    -114.8456   -785.67348    4.2729144    4.2729144    4.2729144   -785.67348   -2830.1152   -1426.0228    1899.1176    1321.0029   -125.29877    889.25018    78.014003 
   21200    89.427274    -114.9264  0.080915677   -114.84548    378.33615    4.2737431    4.2737431    4.2737431    378.33615   -4528.0873    4083.6347     1579.461    1441.4099    451.24086   -326.79963    78.059404 
   21300    130.11844   -114.96295    0.1177339   -114.84521     -1432.65    4.2728185    4.2728185    4.2728185     -1432.65   -3245.1617    589.55171   -1642.3401   -1220.4499    -875.4124    1278.5907    78.008753 
   21400    66.242073   -114.90558  0.059937219   -114.84565    2022.6186    4.2732681    4.2732681    4.2732681    2022.6186   -2952.0401    5614.0556    3405.8404    207.58728    780.85893   -643.18666    78.033383 
   21500    97.068179   -114.93321  0.087829328   -114.84538   -425.09894    4.2731864    4.2731864    4.2731864   -425.09894   -5219.1999    1114.2835    2829.6195    1384.5046   -26.151646    520.68829    78.028903 
   21600    87.040425     -114.924  0.078756006   -114.84525    1026.7412    4.2726372    4.2726372    4.2726372    1026.7412   -4071.8773    2918.2827    4233.8182    1186.8883    359.78548   -193.48295    77.998821 
   21700    109.51116   -114.94414  0.099087995   -114.84506   -1771.7306    4.2740624    4.2740624    4.2740624   -1771.7306   -4740.9299    1944.4851   -2518.7469   -1288.4802   -175.22374    519.98754    78.076904 
   21800    74.504476   -114.91292  0.067413216   -114.84551   -872.29177    4.2725855    4.2725855    4.2725855   -872.29177   -5411.5691    227.68582     2567.008    1695.8771     246.8243   -716.51193    77.995994 
   21900    86.151931   -114.92334  0.077952077   -114.84539   -1305.2274    4.2737355    4.2737355    4.2737355   -1305.2274   -6592.8431     -2068.29     4745.451    1897.0326    256.64808     430.8602    78.058986 
   22000    82.842705   -114.92025  0.074957821   -114.84529    162.79584    4.2735409    4.2735409    4.2735409    162.79584   -5161.4199    4040.9728    1608.8347    70.683226   -234.48307    180.84807    78.048326 
   22100    100.02725   -114.93581  0.090506762   -114.84531   -1551.8962    4.2723344    4.2723344    4.2723344   -1551.8962   -4117.0933    477.46174   -1016.0571   -176.48293    289.99146    668.94311    77.982239 
   22200    63.728753    -114.9032  0.057663115   -114.84554    430.22985    4.2739935    4.2739935    4.2739935    430.22985   -5691.4322    4084.7468    2897.3749    1167.5911   -32.865991   -1014.7486    78.073125 
   22300    101.84694   -114.93725  0.092153248    -114.8451   -172.44644     4.272911     4.272911     4.272911   -172.44644   -5141.3112    3120.8393    1503.1326    841.59565    727.26663    203.11156    78.013821 
   22400     67.05093   -114.90606  0.060669091   -114.84539    2488.6094    4.2721422    4.2721422    4.2721422    2488.6094   -3541.2172    5512.5777    5494.4678   -501.03655   -320.60995    252.09816     77.97172 
   22500    83.432211   -114.92098  0.075491218   -114.84549   -1192.4213    4.2741244    4.2741244    4.2741244   -1192.4213   -5461.0893    1725.8786    157.94677    296.44506   -20.857823    922.87235    78.080299 
   22600    81.704917    -114.9194  0.073928326   -114.84548   -1192.7075    4.2727533    4.2727533    4.2727533   -1192.7075   -6239.5726    457.04474    2204.4052    1788.9041    26.601698   -1435.5557    78.005182 
   22700    86.429707   -114.92341  0.078203415    -114.8452   -527.38612    4.2732796    4.2732796    4.2732796   -527.38612   -5021.8873    1549.5506    1890.1783    663.62501   -94.394336    659.81143    78.034013 
   22800    71.156919   -114.90985  0.064384275   -114.84546   -702.29684    4.2734174    4.2734174    4.2734174   -702.29684    -5965.615    546.55945     3312.165   -254.69481    156.43731   -530.37444    78.041561 
   22900    73.522503   -114.91215  0.066524706   -114.84562   -1915.5213     4.273202     4.273202     4.273202   -1915.5213   -7358.6046    -1363.913    2975.9538    1916.6444   -10.314903    1155.2205     78.02976 
   23000    76.929176   -114.91507  0.069607135   -114.84547   -435.77902    4.2737426    4.2737426    4.2737426   -435.77902   -6430.7994    4591.6959    531.76646    556.61166    658.81723   -1681.1248    78.059379 
   23100    108.13628   -114.94289  0.097843975   -114.84505   -1044.3961    4.2726174    4.2726174    4.2726174   -1044.3961   -4691.3842    2224.2664   -666.07056    170.56886   -329.12685    1423.2981    77.997739 
   23200    50.034339   -114.89074  0.045272121   -114.84547    1726.8156    4.2732348    4.2732348    4.2732348    1726.8156   -5930.1003    4373.4384    6737.1088   -130.08506   -613.67322    -365.0682    78.031558 
   23300    82.629192   -114.92009  0.074764629   -114.84533   -681.97972    4.2735451    4.2735451    4.2735451   -681.97972   -6454.5866    3408.4437    1000.2038    1590.1325   -89.087158    709.81509    78.048558 
   23400    82.210072   -114.91961  0.074385401   -114.84523    872.92001    4.2721025    4.2721025    4.2721025    872.92001   -3859.9543    3609.1711    2869.5432   -88.867832     425.2573   -1721.5821    77.969543 
   23500    103.42243   -114.93863  0.093578786   -114.84505   -1775.0533     4.274256     4.274256     4.274256   -1775.0533   -6218.4981    1389.4025   -496.06442   -119.63429    299.79986    619.44448    78.087512 
   23600    62.934551   -114.90252  0.056944505   -114.84557      -535.88    4.2731061    4.2731061    4.2731061      -535.88   -4701.6094   -238.59356    3332.5629    720.40869   -600.01767   -525.54598    78.024508 
   23700    73.258927    -114.9117  0.066286217   -114.84542   -342.45232    4.2725658    4.2725658    4.2725658   -342.45232   -5971.9159    514.84378    4429.7151    1857.5353    157.99119    460.41329    77.994911 
   23800     92.66369   -114.92899  0.083844054   -114.84514   -548.49077    4.2739879    4.2739879    4.2739879   -548.49077   -4878.1636    2034.1483     1198.543   -416.57828   -514.10197   -813.92783     78.07282 
   23900    105.48126   -114.94067  0.095441657   -114.84523   -1980.2371    4.2729986    4.2729986    4.2729986   -1980.2371   -5973.2047    87.232761   -54.739276    736.53396    433.77033    315.83504    78.018616 
   24000    58.481458   -114.89884  0.052915252   -114.84592    906.29777    4.2729637    4.2729637    4.2729637    906.29777    -5702.979    4786.7542    3635.1181    755.56525   -533.89684   -635.69079    78.016706 
   24100    106.90732   -114.94217   0.09673199   -114.84544   -514.47054    4.2733134    4.2733134    4.2733134   -514.47054   -5802.9026     2922.565     1336.926     629.1807    813.18153    390.22282    78.035862 
   24200    79.161994   -114.91705  0.071627436   -114.84543    2080.8437    4.2726723    4.2726723    4.2726723    2080.8437   -3915.6744    4040.4411    6117.7645    -466.6372   -553.84736   -988.60484    78.000744 
   24300     102.3879   -114.93794  0.092642725    -114.8453     -1675.42    4.2736024    4.2736024    4.2736024     -1675.42   -6437.5544    3304.8716   -1893.5772     697.7638   -334.91031    974.64273    78.051698 
   24400    85.712852   -114.92317   0.07755479   -114.84561   -714.86795    4.2728373    4.2728373    4.2728373   -714.86795   -3930.5924   -87.367669    1873.3563    690.01714   -245.14315   -1095.8764    78.009785 
   24500    104.96214   -114.94019  0.094971954   -114.84522   -338.41086    4.2736434    4.2736434    4.2736434   -338.41086   -5534.5356    1272.9256    3246.3774   -137.16647     274.1211    683.47601     78.05394 
   24600    90.610298   -114.92741  0.081986102   -114.84543    481.95199    4.2730587    4.2730587    4.2730587    481.95199   -3418.4773    1091.1269    3773.2063    596.98175    249.29583   -1895.5392    78.021911 
   24700     92.94287   -114.92968  0.084096662   -114.84558   -1119.3183    4.2726809    4.2726809    4.2726809   -1119.3183   -3719.8471   -668.79438    1030.6867    1252.1863   -772.96329    718.21925    78.001216 
   24800    106.49136   -114.94189  0.096355618   -114.84554   -670.78513    4.2741037    4.2741037    4.2741037   -670.78513   -5424.9476    2652.7055    759.88672   -135.48549    498.60649    -735.2692    78.079168 
   24900    120.57084   -114.95424   0.10909503   -114.84514    758.64434     4.272667     4.272667     4.272667    758.64434    -2825.986    3605.0607    1496.8583    -374.6078    42.114686    583.88895    78.000455 
   25000    84.200399   -114.92169  0.076186291   -114.84551    1723.1212    4.2725904    4.2725904    4.2725904    1723.1212   -4253.9477    3884.2686    5539.0425    1425.5784    209.07074   -656.22441     77.99626 
   25100    105.16551   -114.94069   0.09515596   -114.84554   -1042.5441    4.2740265    4.2740265    4.2740265   -1042.5441    -5729.511    2970.3051   -368.42653    881.53048   -1231.4113    215.66845    78.074936 
   25200    122.27468   -114.95605    0.1106367   -114.84541   -89.050509    4.2727386    4.2727386    4.2727386   -89.050509   -3395.1686    949.63081    2178.3862   -938.30847    233.12438   -610.78742    78.004377 
   25300    114.61401   -114.94888   0.10370516   -114.84517    117.37198    4.2731196    4.2731196    4.2731196    117.37198   -3915.1372    4242.5522    24.700886   -478.22127    663.68261   -623.79722    78.025248 
   25400    106.10407    -114.9415  0.096005191   -114.84549   -1690.0719    4.2734799    4.2734799    4.2734799   -1690.0719   -5482.5249   -1867.5567    2279.8658    2798.8676    424.00998   -11.553235    78.044986 
   25500    97.232861   -114.93356  0.087978336   -114.84558     169.5311     4.273246     4.273246     4.273246     169.5311   -3163.4901   -463.88662      4135.97    215.12233   -754.78987   -197.17093    78.032172 
   25600    137.72988   -114.97006   0.12462089   -114.84544   -46.267866    4.2731025    4.2731025    4.2731025   -46.267866   -3602.2025    3197.3703    266.02851   -1305.5068   -796.85062    191.23199    78.024308 
   25700    119.97222   -114.95413   0.10855339   -114.84558    270.19218    4.2726164    4.2726164    4.2726164    270.19218   -1324.4345    1968.7251    166.28597    645.66536    838.02234   -1218.9567    77.997682 
   25800    103.24932   -114.93908  0.093422159   -114.84565    511.90818    4.2739034    4.2739034    4.2739034    511.90818   -4168.0785    2953.5777    2750.2254    2546.8648    535.37444   -73.272354     78.06819 
   25900    122.53791    -114.9562   0.11087488   -114.84532    1697.0149     4.272564     4.272564     4.272564    1697.0149   -2470.7697    4708.9711    2852.8434   -780.97232   -24.643729   -271.20759    77.994813 
   26000    128.38759    -114.9614   0.11616779   -114.84523    1133.8469    4.2725068    4.2725068    4.2725068    1133.8469   -1863.3686    2628.8284     2636.081   -1185.5862   -769.29478     140.6775    77.991684 
   26100    121.50457   -114.95537   0.10993989   -114.84543   -1531.3599    4.2744184    4.2744184    4.2744184   -1531.3599   -5538.7764    2377.2759   -1432.5793    1191.3423    449.24855   -759.52332    78.096412 
   26200    117.70934   -114.95213   0.10650589   -114.84563   -712.70302    4.2725271    4.2725271    4.2725271   -712.70302   -3468.7097   -362.21706    1692.8177    2986.0581    606.06042   -353.13381    77.992794 
   26300    118.07067   -114.95217   0.10683282   -114.84534     604.6741     4.273033     4.273033     4.273033     604.6741   -2998.5964    638.89021    4173.7285   -1900.0109   -634.02125    65.856445    78.020504 
   26400    136.89091   -114.96907   0.12386177   -114.84521   -1923.6651    4.2740024    4.2740024    4.2740024   -1923.6651    -5412.079    184.60108    -543.5174    163.90107   -436.67901   -158.95621    78.073613 
   26500    104.95154    -114.9405  0.094962355   -114.84553    189.15042    4.2727341    4.2727341    4.2727341    189.15042   -3003.0627     70.82358    3499.6904    2119.5414    229.14827   -1470.4373    78.004128 
   26600    133.84253   -114.96652   0.12110353   -114.84542     148.8298    4.2734722    4.2734722    4.2734722     148.8298   -3116.5761    4932.1941   -1369.1286    1515.4647    1459.6784   -173.42393    78.044564 
   26700    131.10221   -114.96401   0.11862403   -114.84539    1309.7439    4.2727957    4.2727957    4.2727957    1309.7439   -2616.5081    3621.7696    2923.9702   -1676.3711   -834.45421    647.01524    78.007502 
   26800    114.67011   -114.94923   0.10375592   -114.84547    1383.7627    4.2731653    4.2731653    4.2731653    1383.7627   -2019.0193    2880.3792    3289.9282    341.92313   -522.44463    642.17709    78.027748 
   26900    116.13447   -114.95052   0.10508091   -114.84543    962.93858    4.2731103    4.2731103    4.2731103    962.93858   -3432.4015    4865.1055    1456.1117    1780.7903   -79.466026   -1724.3273    78.024737 
   27000    132.78425   -114.96536   0.12014598   -114.84522    97.960432    4.2724228    4.2724228    4.2724228    97.960432   -2300.7073     2137.207    457.38159    536.80168    1169.9854    -220.0417    77.987082 
   27100    121.40364   -114.95513   0.10984857   -114.84528   -498.45425    4.2741766    4.2741766    4.2741766   -498.45425   -3894.0017    816.46547    1582.1734   -1408.6364    -165.2373   -135.67708    78.083162 
   27200    123.27379   -114.95709   0.11154071   -114.84555   -1389.5701    4.2727428    4.2727428    4.2727428   -1389.5701   -4622.1214    -782.9273    1236.3384    1694.5132   -787.40814    1245.5755    78.004608 
   27300    93.941286   -114.93063   0.08500005   -114.84563    874.99587    4.2726824    4.2726824    4.2726824    874.99587   -3186.7345   -70.099927     5881.822    1941.9538    561.28963   -2161.2272      78.0013 
   27400    145.47747   -114.97667   0.13163107   -114.84504   -2239.0186    4.2746867    4.2746867    4.2746867   -2239.0186   -5929.9073    3258.4544   -4045.6028   -232.41524    511.69507    74.623906    78.111119 
   27500    105.13791   -114.94054  0.095130988    -114.8454    1379.3869    4.2719805    4.2719805    4.2719805    1379.3869   -3132.9404    2506.9814    4764.1196    577.01514    215.28813   -324.99813    77.962862 
   27600    119.10837    -114.9532   0.10777176   -114.84543    106.76318    4.2733666    4.2733666    4.2733666    106.76318   -4348.5251     3809.368    859.44668    614.01452   -1283.9336    1133.9289    78.038775 
   27700    109.00281   -114.94415  0.098628032   -114.84552    965.72558    4.2735914    4.2735914    4.2735914    965.72558   -4040.8975    4092.2038    2845.8704    822.39224    981.64204   -1821.8541    78.051093 
   27800    113.24047   -114.94784   0.10246235   -114.84538    1307.4229    4.2720713    4.2720713    4.2720713    1307.4229   -2901.0422    4458.4704    2364.8405   -815.21386    650.90434   -458.69408    77.967834 
   27900    109.85249   -114.94476  0.099396837   -114.84537   -34.664419    4.2736583    4.2736583    4.2736583   -34.664419   -3493.7119    2982.4704    407.24826    897.67657    431.60211    446.45928    78.054759 
   28000    114.36944   -114.94871   0.10348387   -114.84523   -1616.0956    4.2731081    4.2731081    4.2731081   -1616.0956   -4729.3237   -1011.6276    892.66452    233.66379   -1208.0419    1360.7014    78.024618 
   28100    95.166946   -114.93136  0.086109053   -114.84525    221.96425    4.2732471    4.2732471    4.2732471    221.96425   -3597.7305   -185.17756    4448.8008    200.92587   -310.11602   -1388.7877    78.032228 
   28200    115.72498   -114.94996    0.1047104   -114.84525    -934.8989    4.2734998    4.2734998    4.2734998    -934.8989   -4821.9164    2361.6718   -344.45209    145.89609    953.40119   -935.94877    78.046074 
   28300    82.205815   -114.92002  0.074381549   -114.84564    610.40948    4.2725655    4.2725655    4.2725655    610.40948   -4707.4365    1433.9459    5104.7191    2114.5137    386.56651   -149.28729    77.994895 
   28400    119.32482   -114.95318   0.10796761   -114.84522   -1901.3806    4.2744291    4.2744291    4.2744291   -1901.3806   -5696.7343     2502.337   -2509.7446   -697.60691   -283.58386    1362.9377    78.096999 
   28500    99.814943   -114.93555  0.090314658   -114.84523    1118.5671     4.272384     4.272384     4.272384    1118.5671    -4445.177    3557.5959    4243.2823    221.02825   -718.48709   -783.77013     77.98496 
   28600    86.140842   -114.92322  0.077942044   -114.84527    1301.1345    4.2724922    4.2724922    4.2724922    1301.1345   -4974.7103    4606.0881    4272.0258    419.65593    730.40396     15.16764     77.99088 
   28700    98.243239   -114.93424  0.088892548   -114.84535   -1273.8821    4.2743858    4.2743858    4.2743858   -1273.8821   -6804.9341    3066.1488   -82.860987    976.63341    276.07932   -682.29847    78.094629 
   28800    91.531704   -114.92817   0.08281981   -114.84535   -39.211632    4.2719886    4.2719886    4.2719886   -39.211632   -3183.1726    770.84616    2294.6916   -1605.3481   -307.26885    1909.1843     77.96331 
   28900     103.5461   -114.93882  0.093690692   -114.84513   -1254.1103    4.2734869    4.2734869    4.2734869   -1254.1103   -6090.8344    446.22764    1882.2758   -20.281149    -473.3621   -1592.3819    78.045366 
   29000     77.53577   -114.91545  0.070155994    -114.8453   -775.39763    4.2739841    4.2739841    4.2739841   -775.39763   -4995.7575    360.66149    2308.9032    1169.7299    536.70325    755.99913    78.072613 
   29100    77.183328   -114.91513  0.069837097    -114.8453    17.746927    4.2723014    4.2723014    4.2723014    17.746927   -5215.1903    1018.7133    4249.7179    129.51974    772.42022     -1379.71    77.980432 
   29200    99.818736   -114.93552   0.09031809    -114.8452   -601.85443    4.2736959    4.2736959    4.2736959   -601.85443   -4202.8864    3426.3074   -1028.9843   -1151.5212   -735.59604    2034.9912    78.056818 
   29300    89.697107   -114.92647  0.081159827   -114.84531   -213.34129    4.2731316    4.2731316    4.2731316   -213.34129   -5781.7108    1014.7662    4126.9207     1214.612   -261.04796   -1091.5334    78.025904 
   29400     72.29252   -114.91086  0.065411792   -114.84545    831.80576    4.2728601    4.2728601    4.2728601    831.80576   -5028.6922    4721.6643    2802.4451    951.62216     -307.119    289.26552     78.01103 
   29500    87.227658   -114.92425  0.078925418   -114.84532      210.668    4.2731458    4.2731458    4.2731458      210.668    -5835.156    4949.9409    1517.2192   -951.28153    897.82407   -1314.7495    78.026681 
   29600    70.957421   -114.90947  0.064203765   -114.84527     605.5084    4.2726257    4.2726257    4.2726257     605.5084   -5118.8695    2206.4879    4728.9068   -914.71627   -275.85813    1557.7103    77.998192 
   29700    102.77664    -114.9381   0.09299446   -114.84511   -3153.8112    4.2741827    4.2741827    4.2741827   -3153.8112   -8216.3871    426.98986   -1672.0364    1116.9276   -14.720906   -336.49546    78.083497 
   29800    69.402232    -114.9083  0.062796598    -114.8455   -640.03959      4.27285      4.27285      4.27285   -640.03959   -4868.6837    391.36724    2557.1977    304.02924   -47.315374    787.21588    78.010476 
   29900    70.952868   -114.90963  0.064199646   -114.84543   -472.95489    4.2731253    4.2731253    4.2731253   -472.95489   -6661.5728    1181.4052    4061.3029     -2011.34    -478.4543   -1084.9261     78.02556 
   30000    81.362763   -114.91884  0.073618738   -114.84522   -1390.7432    4.2742557    4.2742557    4.2742557   -1390.7432   -6620.8379    1945.6795    502.92888     479.0369    51.010988    887.70883    78.087498 
   30100    82.561398   -114.91977  0.074703288   -114.84507   -395.78541    4.2723328    4.2723328    4.2723328   -395.78541   -4041.2891    439.57918    2414.3537     1161.613   -224.68088   -570.56078    77.982154 
   30200    83.439351   -114.92071  0.075497678   -114.84521    290.25165    4.2731531    4.2731531    4.2731531    290.25165   -5335.8506    4314.4875     1892.118   -351.44639    889.62941    910.67096    78.027081 
   30300    74.594363   -114.91284  0.067494548   -114.84534    866.53819    4.2734048    4.2734048    4.2734048    866.53819   -4784.2619    3756.8336    3627.0428   -1240.8761   -707.94135   -873.32748    78.040868 
   30400    64.927239   -114.90414   0.05874753   -114.84539    1470.0533    4.2721834    4.2721834    4.2721834    1470.0533   -4048.1708    4006.6093    4451.7215      1168.02     218.3988    1332.4279    77.973973 
   30500    102.92889   -114.93816  0.093132224   -114.84503    -1845.502    4.2735537    4.2735537    4.2735537    -1845.502   -6104.6502     2332.615   -1764.4708    337.08064   -509.58741   -804.82582    78.049027 
   30600    67.344892   -114.90628  0.060935073   -114.84535   -456.32752    4.2734451    4.2734451    4.2734451   -456.32752   -5215.8227   -430.43314    4277.2733   -1112.8351    468.26011    1553.9952    78.043077 
   30700    84.809297   -114.92203  0.076737234   -114.84529   -2128.4501    4.2733766    4.2733766    4.2733766   -2128.4501   -6989.9973    772.01355   -167.36643   -903.44485   -534.82369   -1249.8755    78.039323 
   30800    71.559786   -114.91016  0.064748798   -114.84541    -550.0013    4.2731485    4.2731485    4.2731485    -550.0013   -5999.3028    1957.3459     2391.953    2195.4562    126.97942     883.9684    78.026827 
   30900    83.857268   -114.92119  0.075875818   -114.84531   -1019.7265    4.2734123    4.2734123    4.2734123   -1019.7265   -5556.9998   -454.99419    2952.8146   -861.44438    332.66814   -711.42682    78.041283 
   31000    95.330208   -114.93159  0.086256776   -114.84533   -1612.2528    4.2736511    4.2736511    4.2736511   -1612.2528    -6193.947    2067.7664   -710.57763   -1182.4747   -293.15952    1367.9498    78.054363 
   31100    78.039045   -114.91595  0.070611368   -114.84533    1042.5073    4.2723375    4.2723375    4.2723375    1042.5073   -3506.6864    4136.8721    2497.3363    671.01125   -269.29535   -602.69508    77.982414 
   31200      77.4899   -114.91538   0.07011449   -114.84526     1912.912    4.2729857    4.2729857    4.2729857     1912.912   -3876.3707    4511.3092    5103.7975    1620.3812   -673.26286   -83.823818    78.017911 
   31300    101.76403   -114.93737  0.092078229   -114.84529   -622.20681    4.2735088    4.2735088    4.2735088   -622.20681   -5264.9324    3212.8146     185.4974   -1510.5512    884.18975   -555.15022    78.046565 
   31400    76.693139     -114.915  0.069393564    -114.8456      240.109    4.2725486    4.2725486    4.2725486      240.109    -1888.443   -64.668643    2673.4386   -1090.9408   -89.723641    1094.0059    77.993974 
   31500    108.23112   -114.94318  0.097929792   -114.84525   -1817.6836    4.2738142    4.2738142    4.2738142   -1817.6836   -5853.3151    2131.8841   -1731.6199    1261.4347    67.063049    502.49616    78.063299 
   31600    75.221115   -114.91337  0.068061646   -114.84531     488.9044    4.2733401    4.2733401    4.2733401     488.9044   -4402.0101    964.58402    4904.1393    1461.3713   -586.36091   -229.89334    78.037326 
   31700    94.192704   -114.93037  0.085227538   -114.84514   -1722.0895    4.2730677    4.2730677    4.2730677   -1722.0895   -4414.0142   -348.18901   -404.06538   -1987.7448    237.00485    10.978739    78.022404 
   31800    99.992795   -114.93569  0.090475582   -114.84522   -1509.1891    4.2734395    4.2734395    4.2734395   -1509.1891   -5541.3459     858.9389    154.83965   -221.07654   -120.55158    248.84524    78.042773 
   31900    104.94716   -114.94014  0.094958393   -114.84518    128.23448    4.2731024    4.2731024    4.2731024    128.23448   -4098.7797    2112.8434    2370.6396    1634.3094   -289.43265    803.28253    78.024303 
   32000    95.325101   -114.93158  0.086252155   -114.84533    958.55644    4.2730328    4.2730328    4.2730328    958.55644   -4248.0392    4756.5826    2367.1259    506.16833    6.6260082   -670.07587    78.020493 
   32100    90.458477   -114.92723  0.081848731   -114.84538     752.9313    4.2725775    4.2725775    4.2725775     752.9313   -3640.9831    4662.0614    1237.7156   -1329.9221     236.4323   -224.79501    77.995553 
   32200    105.44422   -114.94075  0.095408147   -114.84535    472.77031    4.2734102    4.2734102    4.2734102    472.77031   -3383.8774    768.95141    4033.2369   -326.17325    381.42052    806.45825    78.041166 
   32300    130.14236   -114.96282   0.11775554   -114.84506    -872.7335    4.2735884    4.2735884    4.2735884    -872.7335    -3575.869    3243.7674   -2286.0989    895.19534   -700.86343    697.59857    78.050928 
   32400    81.079779   -114.91903  0.073362688   -114.84566    935.76783    4.2723198    4.2723198    4.2723198    935.76783   -2703.0767     1488.151    4022.2292   -288.58944   -317.39811   -466.97246     77.98144 
   32500    105.11456   -114.94068  0.095109862   -114.84557   -1315.0726    4.2741094    4.2741094    4.2741094   -1315.0726   -3191.8391   -89.640373   -663.73834   -639.50272    525.42145   -1031.8516    78.079479 
   32600    117.65407   -114.95176   0.10645588   -114.84531   -310.30809    4.2732245    4.2732245    4.2732245   -310.30809   -4340.9983    266.70613    3143.3679    160.79342    471.42928    721.25271    78.030991 
   32700    118.30427   -114.95222   0.10704419   -114.84518   -381.49442    4.2724036    4.2724036    4.2724036   -381.49442   -1155.4828    536.36756   -525.36802    310.05685   -22.434963    1022.4667     77.98603 
   32800    108.41209    -114.9435  0.098093535   -114.84541   -724.91103    4.2739298    4.2739298    4.2739298   -724.91103   -5117.8371    2589.8953    353.20872   -238.47016   -1083.2332   -466.13397    78.069633 
   32900    105.27443   -114.94077   0.09525452   -114.84552      1512.18     4.272643     4.272643     4.272643      1512.18   -2920.5843     4037.729    3419.3954    639.21891    756.40366   -663.00991    77.999142 
   33000    120.78576   -114.95468   0.10928949   -114.84539    1390.6369      4.27279      4.27279      4.27279    1390.6369   -3235.7859    3408.5642    3999.1323   -617.46866    -156.3054    7.6093358    78.007189 
   33100    131.40611   -114.96413   0.11889901   -114.84523   -1297.0683    4.2736323    4.2736323    4.2736323   -1297.0683   -3671.6277    2231.9981   -2451.5752   -274.97279    124.01525    1028.0272    78.053337 
   33200     95.36406   -114.93181  0.086287406   -114.84552    740.02862    4.2729386    4.2729386    4.2729386    740.02862   -4299.4754    1078.6057    5440.9556   -647.10643   -801.15231   -712.41639    78.015331 
   33300    130.19349   -114.96289   0.11780181   -114.84509   -449.16908    4.2735391    4.2735391    4.2735391   -449.16908   -2594.7436    2288.1759   -1040.9395     814.4597    831.07216    311.16364     78.04823 
   33400    109.83946   -114.94461  0.099385051   -114.84523    496.96455    4.2725847    4.2725847    4.2725847    496.96455   -3407.9008    664.32431    4234.4702   -1665.2407    630.04118   -417.19127    77.995947 
   33500    124.86529   -114.95835   0.11298074   -114.84536   -2073.2779    4.2736729    4.2736729    4.2736729   -2073.2779   -3026.3322   -2441.6365    -751.8649   -768.53338   -480.36084    1382.5274    78.055559 
   33600    116.28496   -114.95061   0.10521708    -114.8454    -1.839169    4.2735337    4.2735337    4.2735337    -1.839169   -3248.7823    1912.5381    1330.7267    510.99618   -469.22288    -821.1603     78.04793 
   33700    118.99289   -114.95289   0.10766727   -114.84522    1815.3903    4.2718489    4.2718489    4.2718489    1815.3903   -1545.5855    4978.4539    2013.3025    913.77055    -139.5462   -97.546764     77.95566 
   33800    120.68659    -114.9544   0.10919976    -114.8452    391.60972    4.2739045    4.2739045    4.2739045    391.60972   -3953.4228    2621.5967    2506.6552   -1857.0203    1324.3861    -506.3995     78.06825 
   33900    116.32812   -114.95071   0.10525613   -114.84546    271.23125    4.2732281    4.2732281    4.2732281    271.23125   -3529.7294    2586.1256    1757.2976   -96.179137    -718.6073    708.68885    78.031189 
   34000    116.62416   -114.95119   0.10552399   -114.84566    1219.7174    4.2722622    4.2722622    4.2722622    1219.7174   -2963.5557      2850.57    3772.1379    524.48343    342.62003    249.66943    77.978289 
   34100    139.18043   -114.97129   0.12593338   -114.84536   -1174.9871    4.2742758    4.2742758    4.2742758   -1174.9871   -5069.7578    3594.6886    -2049.892   -162.91937   -494.92034   -461.70613    78.088599 
   34200    87.860844   -114.92516  0.079498338   -114.84566    1091.6153    4.2726096    4.2726096    4.2726096    1091.6153   -4526.0385     920.0971    6880.7873   -2667.9775    1065.0104   -263.91563    77.997312 
   34300    122.00928   -114.95577   0.11039656   -114.84538   -1719.8053    4.2731329    4.2731329    4.2731329   -1719.8053   -4535.1227   -771.24986     146.9565   -356.81045   -766.50918    95.803851    78.025977 
   34400    127.15888   -114.96027   0.11505603   -114.84522   -1326.4784    4.2737996    4.2737996    4.2737996   -1326.4784   -4753.9017    267.11159    507.35483    1244.3155    399.58978    310.65171    78.062503 
   34500    114.12831   -114.94864   0.10326569   -114.84537   -26.981001    4.2727557    4.2727557    4.2727557   -26.981001    -4301.818    2041.8536    2179.0214   -1509.5842     340.4803    36.785979    78.005316 
   34600    101.47667   -114.93734  0.091818221   -114.84552    354.84926    4.2734796    4.2734796    4.2734796    354.84926   -4689.8838    3504.5948    2249.8368   -1392.7776    470.37013   -334.97722     78.04497 
   34700    103.02968   -114.93862   0.09322342    -114.8454    1293.1176    4.2727027    4.2727027    4.2727027    1293.1176   -2700.6551    3392.1699    3187.8379    465.84898   -199.90431    24.652579    78.002412 
   34800    136.60877   -114.96871   0.12360649    -114.8451   -94.219271    4.2732159    4.2732159    4.2732159   -94.219271   -4560.4496    2098.5571    2179.2347    869.60845   -735.05956   -195.50251    78.030519 
   34900    101.61226   -114.93737  0.091940909   -114.84543    1174.1557     4.273362     4.273362     4.273362    1174.1557   -3886.7677    5306.1262    2103.1085   -1701.2699    431.23482    379.04561    78.038524 
   35000    89.917595   -114.92698  0.081359329   -114.84562    714.97246    4.2722786    4.2722786    4.2722786    714.97246    -4126.329      2050.41    4220.8364   -978.98899    279.70798   -943.53621    77.979188 
   35100    114.21349   -114.94875   0.10334277    -114.8454   -910.69971    4.2738854    4.2738854    4.2738854   -910.69971   -5803.6503    1792.0499    1279.5012    141.52379    558.36476    186.67268      78.0672 
   35200     115.3698    -114.9497   0.10438902   -114.84532   -911.55593    4.2731709    4.2731709    4.2731709   -911.55593   -5332.7831   -797.68654    3395.8019    203.94058    -374.7646   -89.351989    78.028055 
   35300    88.009565   -114.92516  0.079632904   -114.84552   -820.33796    4.2725723    4.2725723    4.2725723   -820.33796    -5887.136    1042.9006    2383.2215   -2545.5433    247.54684    719.70204     77.99527 
   35400    106.43998    -114.9416  0.096309129   -114.84529   -2380.8788     4.274435     4.274435     4.274435   -2380.8788   -7579.7196    1169.2062   -732.12316    570.06425    74.391589      -842.87    78.097322 
   35500    86.159507   -114.92329  0.077958932   -114.84533    1746.8647    4.2725437    4.2725437    4.2725437    1746.8647   -4652.2605    4088.9498    5803.9047   -114.72918    283.93024   -426.92913    77.993704 
   35600    118.67944   -114.95272   0.10738365   -114.84533   -900.85992     4.273049     4.273049     4.273049   -900.85992   -6047.3935    1608.0411    1736.7726   -472.56897    14.214693    74.286678    78.021381 
   35700     75.60825   -114.91408  0.068411934   -114.84567    325.56826    4.2736939    4.2736939    4.2736939    325.56826   -5697.4593    3660.6601    3013.5039   -1076.6218    138.95181    397.55683    78.056707 
   35800    107.20254   -114.94237  0.096999112   -114.84537    67.859909    4.2726528    4.2726528    4.2726528    67.859909   -3828.0817    2370.6652    1660.9962    934.84271    439.79271    88.299977    77.999678 
   35900    89.200701   -114.92603  0.080710669   -114.84532    2007.6979    4.2728321    4.2728321    4.2728321    2007.6979   -5456.2726    6455.4219    5023.9443   -300.40257   -87.207982   -568.34301    78.009497 
   36000    89.524661   -114.92641  0.081003794   -114.84541   -1005.8386    4.2731072    4.2731072    4.2731072   -1005.8386   -4498.2051   -1920.1972    3400.8865   -1157.3783    -289.9464    -79.93353    78.024569 
   36100    83.107312   -114.92064  0.075197243   -114.84545   -1472.1157     4.273529     4.273529     4.273529   -1472.1157   -6702.7644   -37.073624    2323.4909   -939.08674   -174.34649    115.05035    78.047676 
   36200    110.99326   -114.94554   0.10042903   -114.84511   -1170.7701    4.2733162    4.2733162    4.2733162   -1170.7701   -5332.0219    2003.1019   -183.39037    1117.9441    229.36921    361.83905    78.036015 
   36300    64.203349   -114.90355  0.058092539   -114.84546    1526.1753    4.2724197    4.2724197    4.2724197    1526.1753   -6123.9852    4184.6526    6517.8586   -926.65517    971.60522   -506.13847    77.986915 
   36400    101.41633     -114.937  0.091763626   -114.84523   -3326.5384    4.2743898    4.2743898    4.2743898   -3326.5384   -8419.6044   -811.72998   -748.28077   -924.38548     -324.857   -361.01117    78.094848 
   36500    65.230256   -114.90439  0.059021706   -114.84536    1373.3951    4.2727393    4.2727393    4.2727393    1373.3951   -5810.2757    4329.1057    5601.3554    497.01443    188.73327     349.4275    78.004415 
   36600    124.34405   -114.95767   0.11250911   -114.84516   -1081.6335    4.2727244    4.2727244    4.2727244   -1081.6335   -5024.8085    2174.8439   -394.93603    250.82881   -830.67049     217.5019    78.003599 
   36700    58.317523   -114.89855  0.052766921   -114.84578    975.72502     4.273747     4.273747     4.273747    975.72502    -8088.839    5995.4444    5020.5697    -496.3449    749.31467   -546.23699    78.059621 
   36800    83.771582   -114.92142  0.075798288   -114.84562   -1003.4284    4.2726158    4.2726158    4.2726158   -1003.4284   -4062.9387   -1077.3542    2130.0077   -899.96032   -200.45977   -747.19077    77.997654 
   36900    86.528083   -114.92354  0.078292428   -114.84525    671.11562    4.2729247    4.2729247    4.2729247    671.11562    -5043.261    2734.3344    4322.2734    659.27829    641.80447    671.16177    78.014572 
   37000    109.17674   -114.94384  0.098785409   -114.84505    -1898.823    4.2737605    4.2737605    4.2737605    -1898.823   -5787.6664   -475.75147    566.94882   -656.75293   -519.53997    436.77316    78.060361 
   37100    52.170862   -114.89278  0.047205292   -114.84558    495.74002    4.2728871    4.2728871    4.2728871    495.74002   -5261.8266    2618.7061    4130.3405   -781.11088    123.04527    -84.41403    78.012508 
   37200    103.18287   -114.93855  0.093362031   -114.84519   -1641.6359     4.273589     4.273589     4.273589   -1641.6359   -5551.5263    1920.2626   -1293.6441   -278.31629    108.91206   -1072.7927    78.050964 
   37300    67.572996    -114.9064  0.061141467   -114.84526    2265.2349    4.2726177    4.2726177    4.2726177    2265.2349   -4425.7001    3759.7244    7461.6805    798.49111   -227.07484     159.3141    77.997757 
   37400    123.87697   -114.95711   0.11208649   -114.84503   -3218.9074    4.2738349    4.2738349    4.2738349   -3218.9074   -6494.3924   -638.79666   -2523.5331   -1102.7274    211.37592    605.99601    78.064434 
   37500    46.153751   -114.88738  0.041760884   -114.84562    1874.9686    4.2727998    4.2727998    4.2727998    1874.9686   -5883.3143    6905.7441    4602.4759    85.890489   -578.54348   -2.3035703    78.007727 
   37600    109.34413   -114.94423  0.098936863   -114.84529   -947.33254    4.2726021    4.2726021    4.2726021   -947.33254   -3944.8476    688.42075    414.42923   -341.45425    1165.2396   -572.12704      77.9969 
   37700    81.872412   -114.91941  0.074079879   -114.84533     221.8695    4.2739275    4.2739275    4.2739275     221.8695   -6433.4912    2797.9445    4301.1552    518.24346   -876.28608   -149.24012    78.069509 
   37800    95.295747   -114.93162  0.086225595   -114.84539   -1997.4064     4.272751     4.272751     4.272751   -1997.4064   -4959.7011   -2024.7754    992.25728   -1413.6179    253.63189     906.1671    78.005057 
   37900    76.844672   -114.91505  0.069530675   -114.84552    -62.73862    4.2729562    4.2729562    4.2729562    -62.73862   -4034.0686    2191.4584    1654.3943   -216.75647   -1067.7903   -269.49827    78.016293 
   38000    108.40043   -114.94314  0.098082988   -114.84505   -1068.0181    4.2742361    4.2742361    4.2742361   -1068.0181   -4974.8833    1680.2169    90.612163   -516.35253    948.84638   -520.52746    78.086421 
   38100    71.922883    -114.9104  0.065077336   -114.84532    1561.6399    4.2721039    4.2721039    4.2721039    1561.6399   -3454.2175    2979.0729    5160.0642   -463.96032    -189.0072   -194.08223    77.969618 
   38200    115.24983   -114.94955   0.10428047   -114.84527   -1936.2327    4.2736114    4.2736114    4.2736114   -1936.2327   -3799.1211   -433.59056   -1575.9864   -467.39627     142.7791    632.82653    78.052189 
   38300    73.009618   -114.91163  0.066060637   -114.84557    2038.7529    4.2731403    4.2731403    4.2731403    2038.7529   -3544.4336    5662.8352    3997.8571    117.64807    -357.4307    72.160315    78.026381 
   38400     120.3404   -114.95407   0.10888652   -114.84519   -623.57177    4.2725289    4.2725289    4.2725289   -623.57177   -2453.5744    2112.7271   -1529.8681    -899.1904     135.5521   -626.05475     77.99289 
   38500    76.145257   -114.91426  0.068897829   -114.84537    980.34419    4.2733844    4.2733844    4.2733844    980.34419   -4800.5479    4779.6777    2961.9028   -225.17809   -176.49546   -50.494101    78.039754 
   38600    103.41064   -114.93891  0.093568123   -114.84534   -1566.7907    4.2730029    4.2730029    4.2730029   -1566.7907   -3788.3669   -3016.4794    2104.4743    73.901402   -637.07547   -94.996862    78.018852 
   38700    103.37996   -114.93869  0.093540363   -114.84515   -992.11853     4.273719     4.273719     4.273719   -992.11853   -3918.8128    1161.7264   -219.26916   -282.84309    423.48724    1093.8562    78.058085 
   38800    102.32254   -114.93767  0.092583581   -114.84509    -743.7229    4.2733295    4.2733295    4.2733295    -743.7229   -4440.4087    2202.0308    7.2092009   -1742.7111     153.7334   -433.65476    78.036747 
   38900     88.00777   -114.92496   0.07963128   -114.84533    8.3498854     4.272587     4.272587     4.272587    8.3498854   -3966.0326    1864.1999    2126.8824   -1054.5477    80.321014    374.44931    77.996075 
   39000    113.19368   -114.94755   0.10242002   -114.84513   -1075.6574    4.2743643    4.2743643    4.2743643   -1075.6574   -3794.7592   -248.55144    816.33838    1041.6865   -952.50056   -645.93453    78.093446 
   39100    98.700682   -114.93447  0.089306451   -114.84516    1451.4704     4.272182     4.272182     4.272182    1451.4704   -1784.2565    4899.9536    1238.7141   -898.72504   -96.981537    841.05643    77.973896 
   39200    119.93065   -114.95368   0.10851577   -114.84516    -342.8068    4.2727494    4.2727494    4.2727494    -342.8068   -2904.2258    2828.8661   -953.06075   -1546.4978    482.38835   -36.969408     78.00497 
   39300    80.408432   -114.91832  0.072755239   -114.84556    1635.9881    4.2739622    4.2739622    4.2739622    1635.9881   -2803.2692    5441.6748    2269.5587   -64.020133   -10.452319   -128.39493    78.071409 
   39400    119.78704   -114.95386   0.10838583   -114.84548    -518.0069    4.2720465    4.2720465    4.2720465    -518.0069   -954.80388   -715.45069    116.23386    1224.0434   -210.05992   -429.47772    77.966476 
   39500    113.67725   -114.94816   0.10285756    -114.8453   -615.99938    4.2735505    4.2735505    4.2735505   -615.99938   -2444.1706    1728.5566   -1132.3841    -1130.041   -274.55043    944.30219     78.04885 
   39600    95.262196   -114.93163  0.086195237   -114.84543   -208.27637     4.273747     4.273747     4.273747   -208.27637   -4154.0574    629.78899    2899.4393   -1711.0634    197.68761    255.71989    78.059617 
   39700    109.47012   -114.94444  0.099050863   -114.84539   -780.62377    4.2726355    4.2726355    4.2726355   -780.62377   -2329.7725    1954.8536   -1966.9525   -50.588229   -248.84601   -139.49594    77.998731 
   39800    111.20111   -114.94588    0.1006171   -114.84527   -226.09683    4.2737037    4.2737037    4.2737037   -226.09683   -3046.1767    1762.1216    605.76461    1110.6376   -718.73394   -892.63904    78.057244 
   39900    111.55685   -114.94622   0.10093898   -114.84528    53.523514    4.2727293    4.2727293    4.2727293    53.523514   -3280.6216    1504.8952    1936.2969   -1960.2895    264.83468    1367.4809     78.00387 
   40000     111.2658   -114.94589   0.10067564   -114.84522   -6.8048908    4.2732298    4.2732298    4.2732298   -6.8048908   -3936.5462    2861.6053    1054.5263    -821.4146    357.79292    60.453219     78.03128 
   40100    97.386941   -114.93334  0.088117751   -114.84522    1333.5616    4.2730192    4.2730192    4.2730192    1333.5616   -1388.4514    7259.9824   -1870.8461    528.52264     674.7744    206.35402    78.019748 
   40200    122.14856   -114.95568   0.11052258   -114.84516   -397.94844    4.2725042    4.2725042    4.2725042   -397.94844   -2784.4273    994.63044    595.95151    827.87698   -1218.6944   -1667.2861    77.991538 
   40300    107.56852   -114.94253  0.097330253    -114.8452   -293.51772    4.2742253    4.2742253    4.2742253   -293.51772   -3442.7425     1197.689    1364.5003   -1557.3542   -31.900035    1443.9748    78.085828 
   40400    105.13309   -114.94042  0.095126625   -114.84529   -233.58553    4.2727146    4.2727146    4.2727146   -233.58553   -1767.6716    486.94139     579.9736    -523.3743   -128.96862   -432.12473    78.003065 
   40500    112.00335   -114.94659   0.10134298   -114.84525   -631.43104    4.2729485    4.2729485    4.2729485   -631.43104   -1714.8638    3204.6821   -3384.1114    670.30254    1061.4214    951.67016    78.015873 
   40600    98.944717   -114.93477  0.089527259   -114.84524    344.77479    4.2741888    4.2741888    4.2741888    344.77479   -3899.7014    1036.3081    3897.7176    274.07024   -566.72359   -1478.7892    78.083828 
   40700    122.87044    -114.9563   0.11117576   -114.84512   -880.21815    4.2722769    4.2722769    4.2722769   -880.21815    -2285.132    355.96926   -711.49175   -1570.8292   -280.92912    1367.2107    77.979095 
   40800    104.60528   -114.93994  0.094649055   -114.84529    376.39508    4.2731745    4.2731745    4.2731745    376.39508    -3024.731    2573.9269    1579.9894   -100.13561    190.27651   -53.225144    78.028251 
   40900    101.32363   -114.93719  0.091679746   -114.84551     1062.519    4.2733744    4.2733744    4.2733744     1062.519   -2991.0553    5897.0919    281.52041    384.97391    175.15732    465.06339    78.039206 
   41000    112.92615   -114.94764   0.10217795   -114.84546    236.06269    4.2723943    4.2723943    4.2723943    236.06269   -4279.1188    3403.5569      1583.75    291.01263    6.7536004   -1438.5656    77.985522 
   41100    103.16143   -114.93862  0.093342633   -114.84528   -226.82322    4.2735738    4.2735738    4.2735738   -226.82322   -3655.1352    3199.7321   -225.06653   -739.49108   -773.62498     983.0819    78.050127 
   41200    111.94176   -114.94661   0.10128726   -114.84532   -1177.6596    4.2732621    4.2732621    4.2732621   -1177.6596   -3755.4158   -181.37561    403.81266   -207.14076    1387.5796   -205.48477    78.033052 
   41300    102.36005   -114.93801  0.092617528   -114.84539   -380.27246    4.2733359    4.2733359    4.2733359   -380.27246   -4338.4176     3198.869   -1.2687706    498.49971   -169.24382    605.19634    78.037098 
   41400    89.341396   -114.92623  0.080837972   -114.84539    363.55591    4.2731612    4.2731612    4.2731612    363.55591   -4067.2254    2744.8023    2413.0908   -256.12313    234.95881   -1355.6707    78.027524 
   41500     122.1367    -114.9556   0.11051186   -114.84509   -1865.7724    4.2729692    4.2729692    4.2729692   -1865.7724   -2750.8297   -167.13386   -2679.3535   -292.68414   -1263.0055    1027.9835    78.017009 
   41600     93.47437    -114.9298  0.084577575   -114.84522     830.5466    4.2735573    4.2735573    4.2735573     830.5466   -3789.5119    1268.0492    5013.1025   -703.24895    868.09567   -45.961624    78.049225 
   41700    107.25823   -114.94221    0.0970495   -114.84516    581.43241    4.2724578    4.2724578    4.2724578    581.43241    -3065.973    4871.2973   -61.027007   -20.989309     271.7256    533.02516    77.988997 
   41800     91.68455   -114.92817  0.082958108   -114.84521    1206.3299     4.272764     4.272764     4.272764    1206.3299   -4105.5292    5312.0335    2412.4854    178.48509    253.98219   -809.10833    78.005769 
   41900    105.86496   -114.94097  0.095788841   -114.84518   -186.30562    4.2738571    4.2738571    4.2738571   -186.30562   -4382.3267    3797.9653    25.444497    89.358377   -240.06408    595.67226    78.065652 
   42000    105.83228   -114.94106  0.095759269    -114.8453   -404.89808    4.2725877    4.2725877    4.2725877   -404.89808   -3839.0301     780.5819     1843.754   -628.01073    95.687268   -782.21264    77.996113 
   42100    93.818448   -114.93019  0.084888903    -114.8453   -504.33166    4.2733887    4.2733887    4.2733887   -504.33166   -6224.6097    3746.8068    964.80797    396.86425    558.32153    377.75398    78.039989 
   42200    90.497967   -114.92713  0.081884462   -114.84525   -500.84953    4.2736158    4.2736158    4.2736158   -500.84953   -5520.8213    2683.1893    1335.0834   -285.70548   -420.85823   -1197.1499    78.052432 
   42300    108.90855   -114.94377  0.098542741   -114.84523   -1551.5105    4.2729451    4.2729451    4.2729451   -1551.5105   -4584.5908    1493.4786   -1563.4194    238.56952    455.02876     369.2837    78.015687 
   42400    82.892433    -114.9206  0.075002816   -114.84559    89.334012    4.2732023    4.2732023    4.2732023    89.334012   -5483.4228    773.60818    4977.8167   -1511.4275    99.599135   -148.42557    78.029773 
   42500    119.50146    -114.9535   0.10812744   -114.84537    -1691.909    4.2732359    4.2732359    4.2732359    -1691.909   -5377.6363    1198.2448    -896.3356    68.305967    612.53862    287.41671    78.031617 
   42600    73.216288   -114.91179  0.066247636   -114.84554    2436.9167    4.2728796    4.2728796    4.2728796    2436.9167   -3634.1138     5858.678    5086.1857   -163.30483   -336.93016   -536.26273      78.0121 
   42700    101.69985   -114.93735   0.09202016   -114.84533    37.953292    4.2728389    4.2728389    4.2728389    37.953292   -4364.8485    5023.9763     -545.268   -205.29372   -184.75271    345.14693    78.009869 
   42800    99.072923   -114.93493  0.089643263   -114.84529   -381.42302    4.2732361    4.2732361    4.2732361   -381.42302   -4919.2447    1161.3917     2613.584   -753.59726    175.74123   -153.25945    78.031627 
   42900    101.27241   -114.93675  0.091633402   -114.84512    -91.62388    4.2736351    4.2736351    4.2736351    -91.62388   -5732.6859     3331.314    2126.5002    580.46011    37.858637   -226.93407    78.053487 
   43000    86.677663   -114.92377  0.078427771   -114.84534    528.79381     4.272483     4.272483     4.272483    528.79381   -3796.4587    3499.0313    1883.8088   -167.80687    513.54326   -1123.3762    77.990378 
   43100    88.202491   -114.92519  0.079807467   -114.84538   -1087.6234    4.2734772    4.2734772    4.2734772   -1087.6234   -6044.5529    3186.3828   -404.70017   -160.17517    142.64765    184.74969    78.044835 
   43200    99.323682   -114.93517  0.089870155    -114.8453   -1203.9601    4.2735847    4.2735847    4.2735847   -1203.9601   -6982.5148    87.958874    3282.6756   -1203.1206    304.49313    282.50294    78.050724 
   43300    110.97928   -114.94554   0.10041639   -114.84512   -973.56537    4.2725966    4.2725966    4.2725966   -973.56537   -4536.4514    1393.7238    222.03146    125.43794   -322.88483   -1113.7267    77.996598 
   43400    74.083323   -114.91254  0.067032147   -114.84551    487.71963    4.2733687    4.2733687    4.2733687    487.71963   -5637.4965    3204.2634    3896.3919   -231.70828   -268.65653   -281.05937    78.038889 
   43500    97.443871    -114.9337  0.088169262   -114.84553   -688.23643    4.2732412    4.2732412    4.2732412   -688.23643   -6718.5079    4165.6571    488.14157   -883.58518    313.41576    646.74581    78.031906 
   43600    104.11842   -114.93959  0.094208536   -114.84538    565.18957    4.2728903    4.2728903    4.2728903    565.18957   -4387.4057    2896.7326    3186.2418    -88.21733    408.28224    301.83447    78.012684 
   43700    95.771244    -114.9319  0.086655835   -114.84524    361.50564    4.2731513    4.2731513    4.2731513    361.50564   -4302.5113    3019.0053     2368.023    -341.4435    405.24112    -784.9796    78.026985 
   43800    98.307967   -114.93425  0.088951115    -114.8453   -1170.4463    4.2732229    4.2732229    4.2732229   -1170.4463   -5063.0813    976.43855     575.3039    200.18357   -1012.3939   -909.29821    78.030904 
   43900    77.150292    -114.9152  0.069807206    -114.8454    1384.0892    4.2732505    4.2732505    4.2732505    1384.0892   -4928.0066    5288.8099    3791.4642   -148.37327    450.14913    685.13053    78.032416 
   44000    118.00745   -114.95216   0.10677562   -114.84538   -868.50625    4.2726624    4.2726624    4.2726624   -868.50625   -4231.7131    1277.4874    348.70695    132.28508   -197.49328    -264.8377    78.000204 
   44100    95.050216   -114.93162  0.086003433   -114.84562   -1239.8766     4.273387     4.273387     4.273387   -1239.8766   -4271.8219   -66.252889    618.44482   -569.02123    563.28868   -1692.5568    78.039896 
   44200    90.936652   -114.92798  0.082281393    -114.8457   -615.59331    4.2736869    4.2736869    4.2736869   -615.59331   -5686.4625    1193.6849    2645.9976   -313.19137   -1085.4012   -458.50595    78.056326 
   44300    98.671448    -114.9347  0.089279999   -114.84542    1292.2824    4.2720523    4.2720523    4.2720523    1292.2824   -4807.4293    5445.8556     3238.421   -503.97939    509.67516     677.7677    77.966794 
   44400    107.74293   -114.94264  0.097488064   -114.84515   -448.44331    4.2737171    4.2737171    4.2737171   -448.44331   -4573.5356    2322.5933    905.61236    650.46311    480.00585    526.13309    78.057982 
   44500    91.304775   -114.92793  0.082614479   -114.84531   -641.25625    4.2735543    4.2735543    4.2735543   -641.25625   -5571.2003    1467.8984     2179.533   -1420.2397   -119.41727   -1227.4501    78.049058 
   44600    117.09789   -114.95123   0.10595263   -114.84528   -728.26708    4.2725249    4.2725249    4.2725249   -728.26708   -4442.0379    717.25097    1539.9857    76.497806    -918.1212   -514.83473    77.992672 
   44700    79.359127    -114.9171  0.071805806    -114.8453    2364.9162    4.2733364    4.2733364    4.2733364    2364.9162   -3937.5684    5128.5358    5903.7814    431.68304   -492.27195    719.28621    78.037121 
   44800      125.418   -114.95862   0.11348084   -114.84514   -2598.4029    4.2732817    4.2732817    4.2732817   -2598.4029   -4015.6041   -569.90947   -3209.6952    877.12721    1442.2695    514.41223    78.034124 
   44900    77.264984   -114.91538  0.069910981   -114.84547    637.43923    4.2729137    4.2729137    4.2729137    637.43923   -3296.4465    1629.6527    3579.1115    -684.0813    -120.6763   -1932.5964     78.01397 
   45000    131.93012   -114.96474   0.11937315   -114.84536   -1395.0943    4.2734273    4.2734273    4.2734273   -1395.0943   -4083.9516   -806.99735    705.66594   -565.68424   -465.70931   -225.73391    78.042104 
   45100    94.415828   -114.93109  0.085429426   -114.84566    1285.0796    4.2726712    4.2726712    4.2726712    1285.0796   -2928.6378    3509.3264    3274.5502    452.04798   -913.35141    96.486589    78.000688 
   45200    98.415725   -114.93465  0.089048616    -114.8456   -173.24415    4.2736064    4.2736064    4.2736064   -173.24415    -3128.473    2682.8912   -74.150653    698.60822    857.37751    798.56964    78.051912 
   45300    101.17904   -114.93694  0.091548923   -114.84539    762.59876     4.272592     4.272592     4.272592    762.59876   -3480.5062    2737.1858    3031.1167   -1029.9938   -76.662443   -1339.9868    77.996346 
   45400    138.04917   -114.96986   0.12490979   -114.84495   -964.33585    4.2732786    4.2732786    4.2732786   -964.33585   -4006.0739   -385.24914    1498.3155   -491.41901   -492.34533   -172.22265    78.033954 
   45500    79.522998   -114.91731  0.071954079   -114.84536    1718.1705    4.2734785    4.2734785    4.2734785    1718.1705   -3115.8838    4303.1682    3967.2272     463.0604    10.205946    202.59611    78.044906 
   45600    118.91996   -114.95299   0.10760128   -114.84539   -1714.2351    4.2723738    4.2723738    4.2723738   -1714.2351   -3459.2335   -186.15081   -1497.3209    777.74647    641.37819    1021.8644    77.984398 
   45700    86.092398   -114.92339  0.077898211   -114.84549    1057.8572    4.2735334    4.2735334    4.2735334    1057.8572   -3601.5354    1935.9614    4839.1456    67.449912    58.878042   -1658.3543    78.047917 
   45800    152.74053   -114.98325   0.13820284   -114.84505   -3275.9178     4.273744     4.273744     4.273744   -3275.9178   -3422.7702   -2991.0082    -3413.975   -822.28006   -1025.4832   -186.56431    78.059454 
   45900    75.285516   -114.91372  0.068119917    -114.8456    1428.9907    4.2721346    4.2721346    4.2721346    1428.9907   -1273.1657    2227.8264    3332.3113    778.97497    109.17845   -1181.4904      77.9713 
   46000    111.00543   -114.94576   0.10044004   -114.84532   -953.69006    4.2740304    4.2740304    4.2740304   -953.69006   -4007.4358    659.67126    486.69441    499.46291    757.62589    1460.9614    78.075148 
   46100    110.97299   -114.94562    0.1004107   -114.84521    1126.3958    4.2727897    4.2727897    4.2727897    1126.3958   -2053.5036    3228.9832    2203.7077   -201.28048    267.56126   -1289.8316    78.007177 
   46200    130.91453   -114.96359   0.11845422   -114.84514   -191.01621     4.272824     4.272824     4.272824   -191.01621   -1182.1623    1270.8139   -661.70018   -863.50435   -506.38478   -231.29102    78.009056 
   46300    85.722531   -114.92309  0.077563547   -114.84552    1368.8537    4.2732839    4.2732839    4.2732839    1368.8537   -2131.6411    2927.3673    3310.8348    309.46563   -614.33251   -514.93824    78.034246 
   46400    118.42561   -114.95236   0.10715398    -114.8452   -319.37676    4.2727889    4.2727889    4.2727889   -319.37676   -2736.4423   -37.529912    1815.8419    502.89626    861.77534    1771.6824    78.007129 
   46500     95.00931   -114.93113   0.08596642   -114.84516    1842.7821    4.2731513    4.2731513    4.2731513    1842.7821   -2492.6559    5352.2017    2668.8004    55.114733    -245.5678   -969.69699    78.026984 
   46600    140.23003   -114.97214   0.12688308   -114.84526   -3269.3373    4.2731809    4.2731809    4.2731809   -3269.3373   -2041.4689   -3836.1728   -3930.3702   -988.66991    265.32636    11.724594    78.028601 
   46700    72.132414    -114.9112  0.065266924   -114.84594    108.92208    4.2732828    4.2732828    4.2732828    108.92208   -3295.6389   -562.22036    4184.6255    1116.2628   -304.76068   -1171.9945    78.034188 
   46800    124.25347   -114.95785   0.11242715   -114.84542   -1559.9177    4.2738633    4.2738633    4.2738633   -1559.9177   -3591.4361    62.642431   -1150.9594     478.8058    1341.1086    1655.9267     78.06599 
   46900    98.714211   -114.93477  0.089318693   -114.84546    1352.2429     4.272078     4.272078     4.272078    1352.2429   -1141.3157    4020.9012    1177.1434   -279.78815    -271.0409   -1355.5474      77.9682 
   47000    111.32381   -114.94601   0.10072812   -114.84528   -1426.7074    4.2739143    4.2739143    4.2739143   -1426.7074   -3083.6909   -1460.8046    264.37334   -1155.9531   -458.89964    109.54583    78.068786 
   47100    94.480147   -114.93078  0.085487622   -114.84529    596.10832    4.2733304    4.2733304    4.2733304    596.10832   -2697.8398    3266.2956    1219.8692    635.90162    -493.0112   -1149.0608    78.036792 
   47200    127.89621   -114.96071   0.11572318   -114.84498     916.3447    4.2719485    4.2719485    4.2719485     916.3447   -446.79914    1895.3429    1300.4903    696.22042    875.36121    1498.3974    77.961114 
   47300    73.592236     -114.912  0.066587802   -114.84542    2863.8397    4.2734006    4.2734006    4.2734006    2863.8397   -2246.1644    6789.8154    4047.8682   -837.07474      1122.41   -896.89153    78.040642 
   47400    118.60749    -114.9526   0.10731855   -114.84528   -2713.4291     4.273335     4.273335     4.273335   -2713.4291   -2318.7676   -4066.9288   -1754.5908   -975.36433   -813.21505    770.89668    78.037045 
   47500    82.751142   -114.92017  0.074874972    -114.8453    969.40037    4.2726934    4.2726934    4.2726934    969.40037   -2576.9569    3188.6346    2296.5234    1129.6985     79.19828    -1244.487    78.001901 
   47600    141.04641   -114.97254   0.12762176   -114.84492   -2600.0731    4.2738413    4.2738413    4.2738413   -2600.0731   -3693.7372   -2140.2215   -1966.2605    859.75891   -416.78995    1035.1782    78.064788 
   47700    53.035062   -114.89382  0.047987238   -114.84583    1347.6077    4.2727695    4.2727695    4.2727695    1347.6077   -2421.9378    2780.9044    3683.8564   -632.58523    1519.8242    -733.1885    78.006069 
   47800    104.83593   -114.94041  0.094857749   -114.84555   -2387.0399     4.273712     4.273712     4.273712   -2387.0399   -4502.5986   -683.57878   -1974.9424   -1178.4433   -654.18373    469.85099    78.057704 
   47900    104.86093   -114.94009  0.094880372   -114.84521     449.6685    4.2726556    4.2726556    4.2726556     449.6685    -2570.741    4352.7985    -433.0521    453.74642    551.37779   -695.08513    77.999829 
   48000    114.53551   -114.94868   0.10363413   -114.84504   -388.53495    4.2731313    4.2731313    4.2731313   -388.53495   -3071.4004   -590.16317    2495.9588     745.1572   -141.98705     125.8992    78.025888 
   48100    55.258752   -114.89557   0.04999928   -114.84557    1716.5919    4.2732887    4.2732887    4.2732887    1716.5919   -3894.2496    7803.6249    1240.4004   -778.28121    532.52915   -173.37065     78.03451 
   48200      113.108   -114.94763    0.1023425   -114.84529   -932.10657    4.2722858    4.2722858    4.2722858   -932.10657   -2537.6902   -250.84666   -7.7828361   -618.08443   -396.12034    925.66207    77.979578 
   48300    82.691301   -114.92013  0.074820827   -114.84531    2087.1695    4.2733732    4.2733732    4.2733732    2087.1695   -2879.6986    5322.5185    3818.6885    213.10413   -59.984682   -633.87751     78.03914 
   48400    124.89098   -114.95825   0.11300398   -114.84525   -3451.5626    4.2737609    4.2737609    4.2737609   -3451.5626   -4118.9266   -3131.8452   -3103.9159    818.25207    520.02358   -129.22604     78.06038 
   48500    37.427047   -114.87972  0.033864779   -114.84585    1494.3684    4.2722643    4.2722643    4.2722643    1494.3684   -2340.8602    4223.8456    2600.1197    74.792469    278.70043   -651.62764    77.978404 
   48600    119.06573   -114.95282   0.10773317   -114.84508   -2242.9082    4.2741406    4.2741406    4.2741406   -2242.9082   -6092.0748   -454.34309   -182.30661   -572.50432    308.55458    1261.1719     78.08119 
   48700    82.967544   -114.92026  0.075070777   -114.84519    757.19715    4.2728009    4.2728009    4.2728009    757.19715    -2849.167    3865.3047    1255.4537    -372.6459   -231.30322   -432.27664    78.007791 
   48800    94.507574   -114.93079  0.085512439   -114.84528   -2208.2691    4.2731376    4.2731376    4.2731376   -2208.2691   -3999.5294   -1040.5306   -1584.7473    450.48925     352.9319   -676.77658    78.026234 
   48900    68.828094    -114.9078  0.062277106   -114.84552    414.80194    4.2733387    4.2733387    4.2733387    414.80194   -5554.5923      6819.69   -20.691916   -41.397165    -383.0603   -442.54473    78.037249 
   49000    100.97207   -114.93638  0.091361654   -114.84502    736.87594    4.2726691    4.2726691    4.2726691    736.87594   -4049.5353    1668.2877    4591.8755    91.740383     64.87586    1289.5954    78.000572 
   49100    78.736395   -114.91637  0.071242345   -114.84513    537.18472    4.2733327    4.2733327    4.2733327    537.18472   -4979.1802    6537.1486    53.585701   -943.84276    433.23586    5.8478642     78.03692 
   49200    94.560981   -114.93087  0.085560763    -114.8453     -2755.56    4.2732209    4.2732209    4.2732209     -2755.56   -4983.9412   -2150.2684   -1132.4703    788.72744     294.5554   -701.41992    78.030794 
   49300    67.770367   -114.90692  0.061320053    -114.8456    1036.9604    4.2732138    4.2732138    4.2732138    1036.9604   -4143.5457    4155.3325    3099.0945    450.57098   -99.538229   -430.07286    78.030408 
   49400    111.01952   -114.94564   0.10045279   -114.84519   -787.37853    4.2734857    4.2734857    4.2734857   -787.37853   -5058.0175    2340.0407    355.84116    267.72549   -713.86615    1330.7256    78.045304 
   49500    56.784125   -114.89702   0.05137947   -114.84564    511.47192    4.2721883    4.2721883    4.2721883    511.47192   -3293.7003    3593.7683    1234.3477   -261.84075     191.9905   -38.203395     77.97424 
   49600    94.113864   -114.93047  0.085156202   -114.84531   -2480.8629    4.2741203    4.2741203    4.2741203   -2480.8629   -6519.0519    -1723.986    800.44913    226.53313    322.10325   -1106.7289    78.080074 
   49700    98.249203   -114.93392  0.088897944   -114.84502      530.363    4.2729683    4.2729683    4.2729683      530.363   -5048.9109    6952.1895   -312.18963   -90.438553    97.298259   -475.99304    78.016957 
   49800    84.305104    -114.9215   0.07628103   -114.84522    987.70672    4.2720965    4.2720965    4.2720965    987.70672   -3393.8192    3339.8265    3017.1129     196.7815     282.8178    1015.4785    77.969216 
   49900    66.870787   -114.90601  0.060506094    -114.8455   -678.03852    4.2740443    4.2740443    4.2740443   -678.03852   -6820.3314     5647.084   -860.86818   -322.61413   -561.74866     482.7818    78.075913 
   50000    91.802737   -114.92835  0.083065046   -114.84529    -675.2103    4.2729347    4.2729347    4.2729347    -675.2103    -5951.189    -502.4427    4428.0008    647.54425    238.33122   -749.49176    78.015119 
   50100     103.3533   -114.93855  0.093516242   -114.84503    78.460744    4.2728545    4.2728545    4.2728545    78.460744   -4934.2391    6052.5341   -882.91284   -325.32547   -693.82613     -568.004    78.010726 
   50200    91.499013     -114.928   0.08279023   -114.84521   -1587.5702    4.2737007    4.2737007    4.2737007   -1587.5702   -6818.7411    1014.7028    1041.3277    371.16983     668.0869    657.20366    78.057085 
   50300    55.836174   -114.89612  0.050521744    -114.8456    494.87035    4.2728101    4.2728101    4.2728101    494.87035   -4844.2347    3429.6524    2899.1934    1112.1322   -580.22023    616.73537    78.008294 
   50400    113.89037   -114.94829    0.1030504   -114.84524   -621.01316    4.2733085    4.2733085    4.2733085   -621.01316   -5587.7774    950.13466    2774.6033    1.4654796    610.20857   -433.03192    78.035596 
   50500     101.0878   -114.93666  0.091466362   -114.84519    318.96048    4.2725536    4.2725536    4.2725536    318.96048     -4163.97    5741.2765   -620.42505   -375.68476   -512.47115   -711.60358    77.994246 
   50600    82.022931    -114.9197  0.074216071   -114.84548   -811.56855    4.2734799    4.2734799    4.2734799   -811.56855     -6305.93    1062.9737    2808.2506   -115.92023    235.50729      475.868    78.044987 
   50700    87.577698   -114.92464  0.079242141    -114.8454    169.56434    4.2734953    4.2734953    4.2734953    169.56434   -5786.8286    7163.5852    -868.0636    689.98231   -392.97202    619.96383    78.045828 
   50800    103.96355   -114.93934  0.094068408   -114.84527    1004.8384    4.2721019    4.2721019    4.2721019    1004.8384   -4014.2797    1496.5824    5532.2124   -201.75095   -473.83335    -191.3957     77.96951 
   50900    103.89531   -114.93939  0.094006661   -114.84538   -1414.8527    4.2741451    4.2741451    4.2741451   -1414.8527   -5943.7355    3688.3913   -1989.2139   -748.33514    312.49836   -1113.2074    78.081437 
   51000    87.870318   -114.92508   0.07950691   -114.84557   -1152.7236     4.273338     4.273338     4.273338   -1152.7236   -6135.8815   -45.059701    2722.7705    460.20224   -350.27336    549.86724    78.037212 
   51100    94.242775   -114.93064  0.085272843   -114.84537    804.38589    4.2722495    4.2722495    4.2722495    804.38589   -4312.9334    5779.9633    946.12772     1204.185    753.36743    525.52618     77.97759 
   51200     128.2612     -114.961   0.11605343   -114.84495   -1321.7194    4.2740794    4.2740794    4.2740794   -1321.7194   -6263.1969   -465.36027    2763.3991   -656.41605   -1034.2055     53.80666    78.077835 
   51300    83.738575   -114.92121  0.075768423   -114.84544    460.32206    4.2727143    4.2727143    4.2727143    460.32206    -4304.349    3432.0671    2253.2481     332.5405    76.192045   -1138.3707    78.003045 
   51400    106.24146    -114.9416  0.096129502   -114.84547   -387.15125    4.2729408    4.2729408    4.2729408   -387.15125   -4267.5879    921.90425    2184.2299      304.839   -783.67619   -143.47927     78.01545 
   51500    114.19568   -114.94845   0.10332665   -114.84513    961.78855    4.2733712    4.2733712    4.2733712    961.78855   -4571.2799    8209.7308   -753.08525    151.07155    960.32265    608.29065    78.039031 
   51600    114.32794   -114.94866   0.10344632   -114.84521     278.4292    4.2728399    4.2728399    4.2728399     278.4292    -4620.775    530.35138    4925.7112   -1126.7631    16.167346   -54.204075    78.009927 
   51700    101.24437   -114.93709  0.091608031   -114.84548   -523.00781    4.2735363    4.2735363    4.2735363   -523.00781   -5408.2694    4167.4803    -328.2344   -79.370964   -70.296814   -522.80168    78.048076 
   51800    112.14404   -114.94689   0.10147028   -114.84542   -246.30825    4.2729226    4.2729226    4.2729226   -246.30825   -3524.5378   -398.06353    3183.6766    858.63475   -934.17706   -188.95086    78.014455 
   51900    121.24329   -114.95488   0.10970348   -114.84518    33.795022    4.2733276    4.2733276    4.2733276    33.795022    -4339.685    5408.7723   -967.70219    -646.8235   -184.62038    533.70221    78.036642 
   52000    118.71488   -114.95281   0.10741572   -114.84539   -850.12701    4.2733305    4.2733305    4.2733305   -850.12701   -3941.9628   -1130.7211    2522.3028   -1107.4971    442.87637    50.518756    78.036798 
   52100    88.112201   -114.92538  0.079725771   -114.84565    956.48509    4.2722101    4.2722101    4.2722101    956.48509   -3516.9948    2730.4249    3656.0252     1225.014   -360.74721   -644.24945    77.975437 
   52200    150.81251   -114.98158   0.13645833   -114.84512   -1820.3038    4.2741086    4.2741086    4.2741086   -1820.3038   -5029.2906   -685.95177    254.33099    902.26985      204.248    95.701782    78.079437 
   52300    107.48532   -114.94261  0.097254978   -114.84535    2381.0782    4.2726399    4.2726399    4.2726399    2381.0782   -2981.4204    7818.2196    2306.4355   -736.44829   -347.70517    177.23217    77.998973 
   52400    116.91007    -114.9514   0.10578268   -114.84561    147.58858     4.272501     4.272501     4.272501    147.58858   -2811.8858    676.51115    2578.1404   -1224.9083    225.95701    347.31892    77.991366 
   52500    108.84116   -114.94411  0.098481769   -114.84563    349.06004    4.2740466    4.2740466    4.2740466    349.06004   -4411.2924    4687.6732    770.79933    577.50064   -447.22364    -718.0085    78.076034 
   52600     141.0297   -114.97287   0.12760664   -114.84526     87.87752    4.2726199    4.2726199    4.2726199     87.87752   -2791.2744   -415.47934    3470.3863    634.22064   -28.583148    388.58269    77.997878 
   52700    112.33649   -114.94696   0.10164442   -114.84532    707.64011    4.2728512    4.2728512    4.2728512    707.64011   -4046.2915    5743.5705    425.64134   -1474.5886     369.2776   -409.58299    78.010543 
   52800    120.26902   -114.95413   0.10882194   -114.84531   -2025.7572    4.2738858    4.2738858    4.2738858   -2025.7572   -3854.8552   -2607.9335    385.51699    -565.8349   -174.20083    403.74595    78.067223 
   52900    104.59408   -114.93988  0.094638919   -114.84524    891.93632    4.2727377    4.2727377    4.2727377    891.93632   -2425.5546    2775.7082    2325.6554    741.97281   -111.48849   -111.10174    78.004329 
   53000    155.55993    -114.9857   0.14075389   -114.84495   -1253.7111    4.2732805    4.2732805    4.2732805   -1253.7111   -2914.5839   -2023.2295      1176.68    380.23051   -165.65719    337.20927    78.034063 
   53100    84.349438   -114.92202  0.076321144    -114.8457     1983.731    4.2727042    4.2727042    4.2727042     1983.731    -2832.994    4184.1729     4600.014   -399.38822    165.95252   -484.12861     78.00249 
   53200     142.8588   -114.97456   0.12926164    -114.8453   -2265.3375    4.2738491    4.2738491    4.2738491   -2265.3375   -4224.1167   -123.26474   -2448.6309   -143.18804   -381.09278   -377.06141    78.065211 
   53300    106.09353   -114.94131  0.095995655   -114.84531    2920.8018    4.2727857    4.2727857    4.2727857    2920.8018   -2128.9735     6790.618    4100.7609    21.135322    -154.0008     450.2388    78.006954 
   53400    136.72282   -114.96904   0.12370968   -114.84533    142.14103    4.2724948    4.2724948    4.2724948    142.14103   -1727.3124   -1296.3531    3450.0886    -83.13052    762.56078    15.354839    77.991026 
   53500    90.392837    -114.9276  0.081789339   -114.84581    401.16239    4.2740217    4.2740217    4.2740217    401.16239   -4279.8708    4605.8069      877.551   -677.18799    470.26587   -352.85399     78.07467 
   53600    131.09264   -114.96399   0.11861537   -114.84538   -1102.2943    4.2727751    4.2727751    4.2727751   -1102.2943   -2100.9832   -1182.6136   -23.286115    271.12859   -154.60846   -34.662113    78.006376 
   53700    110.00713   -114.94483  0.099536763    -114.8453    1226.0443    4.2723767    4.2723767    4.2723767    1226.0443   -3200.5489    3877.8406    3000.8412   -469.17405   -1389.5452    410.39618    77.984557 
   53800    133.72278   -114.96613   0.12099519   -114.84513    -3220.641    4.2745382    4.2745382    4.2745382    -3220.641     -4870.19   -4828.4432    36.710306   -49.124929    759.18663    205.22541    78.102978 
   53900     67.70646   -114.90691  0.061262228   -114.84565    1629.7658    4.2723947    4.2723947    4.2723947    1629.7658   -1809.0864    2468.4469    4229.9371     310.7265    94.000616   -684.06215    77.985546 
   54000    150.35699   -114.98108   0.13604616   -114.84503   -1607.0033    4.2731805    4.2731805    4.2731805   -1607.0033   -2438.8629   -455.62866   -1926.5184   -143.74376    755.65829   -9.9360219    78.028582 
   54100    83.350966   -114.92101  0.075417705   -114.84559    2504.4609    4.2733008    4.2733008    4.2733008    2504.4609   -3554.9815    6038.9755    5029.3886    -149.0023   -1182.0044    375.99762    78.035173 
   54200    127.40811   -114.96061   0.11528154   -114.84532    -1966.265     4.273074     4.273074     4.273074    -1966.265   -3641.7256   -2169.9923   -87.077147    211.56592    160.73534    397.01577    78.022748 
   54300    78.693127   -114.91662  0.071203195   -114.84542     2584.016     4.272839     4.272839     4.272839     2584.016   -3016.3123    6675.9262     4092.434   -49.672561    253.16217   -459.91551    78.009878 
   54400    131.02895   -114.96349   0.11855775   -114.84493   -457.75902    4.2728557    4.2728557    4.2728557   -457.75902   -2204.7231   -1146.7142    1978.1602   -784.78385    365.19485   -248.42779    78.010793 
   54500    78.521327   -114.91643  0.071047747   -114.84539    635.03008    4.2733544    4.2733544    4.2733544    635.03008   -4514.6254    5342.5495    1077.1661   -523.19977   -141.68352    232.58665    78.038111 
   54600    112.40954   -114.94697   0.10171051   -114.84526   -2603.3007     4.273274     4.273274     4.273274   -2603.3007   -3507.4572   -4165.9545   -136.49046     1006.872   -587.92508    511.47012    78.033701 
   54700    78.760033   -114.91675  0.071263733   -114.84549    1141.9694    4.2724705    4.2724705    4.2724705    1141.9694   -3330.9115    1448.4547    5308.3649   -53.772882    847.60131    323.63731    77.989692 
   54800    130.55895   -114.96316   0.11813248   -114.84503   -3125.6107    4.2745509    4.2745509    4.2745509   -3125.6107   -5903.1275   -2178.8786   -1294.8261   -1477.0135   -96.934588   -587.76589    78.103677 
   54900     48.92769   -114.88994  0.044270802   -114.84567    1904.8762    4.2723824    4.2723824    4.2723824    1904.8762   -2742.5812    4816.2562    3640.9536    357.02356    201.23787    449.52781    77.984868 
   55000    126.16274   -114.95942    0.1141547   -114.84526   -2207.4767    4.2730166    4.2730166    4.2730166   -2207.4767   -3276.8078   -2245.6368   -1099.9855     1360.864    -1233.406   -246.01082    78.019606 
   55100    66.839935   -114.90604  0.060478178   -114.84556    2607.9907    4.2737225    4.2737225    4.2737225    2607.9907   -4460.6238    6677.9001     5606.696   -569.80092    612.17884    568.52884    78.058274 
   55200    107.86545   -114.94295  0.097598924   -114.84535   -1054.0608    4.2722804    4.2722804    4.2722804   -1054.0608   -3974.9379   -1677.0725    2489.8279   -1856.2753    194.81698   -923.73714    77.979286 
   55300    62.916162   -114.90244  0.056927866   -114.84551    1063.3606    4.2729527    4.2729527    4.2729527    1063.3606   -4647.5507    6699.3497    1138.2829    79.401597      545.082    579.28874    78.016105 
   55400    109.53913   -114.94411  0.099113311   -114.84499   -2001.1275    4.2738793    4.2738793    4.2738793   -2001.1275   -4257.4254   -3082.2323    1336.2752     1416.877   -477.93996   -4.7113274     78.06687 
   55500    60.624217   -114.90017  0.054854066   -114.84531      1062.56    4.2724722    4.2724722    4.2724722      1062.56   -3717.0164    3355.0653     3549.631   -1229.0826   -226.19675    1087.6184    77.989787 
   55600    101.85366   -114.93731   0.09215933   -114.84516   -3152.0713      4.27374      4.27374      4.27374   -3152.0713   -5930.7997   -3901.3563    375.94211   -1529.7943    20.649799   -989.94859    78.059237 
   55700    48.318919   -114.88928  0.043719974   -114.84556    1063.9347    4.2729759    4.2729759    4.2729759    1063.9347   -4408.9259    3113.8561    4486.8739    931.51027   -239.51961     479.7985    78.017377 
   55800    123.78319   -114.95694   0.11200163   -114.84494   -3121.5968    4.2738156    4.2738156    4.2738156   -3121.5968   -5804.8128   -1179.1654   -2380.8122    618.79011    365.44828   -211.99989    78.063379 
   55900    45.541924   -114.88657   0.04120729   -114.84537    2231.7771    4.2726481    4.2726481    4.2726481    2231.7771   -3811.4798    5810.2408    4696.5703   -850.85586    122.88903    1421.7533    77.999421 
   56000    97.844705   -114.93362  0.088531945   -114.84508   -1496.7145    4.2727485    4.2727485    4.2727485   -1496.7145   -4492.0893   -3045.9655    3047.9114   -800.49422   -201.49667   -622.57696    78.004917 
   56100    51.745884    -114.8922  0.046820764   -114.84537    2177.3776    4.2736513    4.2736513    4.2736513    2177.3776   -4878.7657    8051.9899    3358.9086    431.38451    -576.7103   -109.48008    78.054377 
   56200    104.49037    -114.9397  0.094545081   -114.84516   -1716.5352    4.2725095    4.2725095    4.2725095   -1716.5352     -4887.42   -1293.5067    1031.3212   -627.14686    31.788401   -251.76816    77.991828 
   56300    62.065459   -114.90162  0.056158131   -114.84546    -363.9932    4.2729895    4.2729895    4.2729895    -363.9932   -6036.7096    3052.6064    1892.1236   -1531.4379    724.42412    1037.1392    78.018118 
   56400    86.604631   -114.92359   0.07836169   -114.84523    -2245.791    4.2745373    4.2745373    4.2745373    -2245.791    -6570.414   -3419.4447    3252.4857    333.54789   -238.70937   -449.12356    78.102931 
   56500    50.319103   -114.89093  0.045529782    -114.8454    1314.5395     4.272052     4.272052     4.272052    1314.5395   -3215.0469    3366.5474    3792.1179    355.84271   -21.981039    449.08594     77.96678 
   56600    112.15997    -114.9466    0.1014847   -114.84512    -3759.461    4.2737228    4.2737228    4.2737228    -3759.461   -6732.3867   -2654.5869   -1891.4094   -1442.5795    -256.6443   -540.15563    78.058294 
   56700    41.823492    -114.8836  0.037842774   -114.84576    1328.9035    4.2735268    4.2735268    4.2735268    1328.9035   -5810.2138    4474.9644    5321.9598   -386.72086    726.48293    1538.5165    78.047554 
   56800    113.06355   -114.94755   0.10230228   -114.84525   -1790.4108    4.2725557    4.2725557    4.2725557   -1790.4108   -4559.8758   -1859.0324    1047.6758    806.60138   -807.36957   -1078.8041     77.99436 
   56900    48.772051   -114.88958  0.044129977   -114.84545    2781.7473     4.272827     4.272827     4.272827    2781.7473   -4395.2301    8109.6904    4630.7816    -149.6255   -47.510819    597.75366    78.009218 
   57000    96.042799   -114.93202  0.086901543   -114.84512   -1385.9341     4.273204     4.273204     4.273204   -1385.9341   -5153.5285   -2130.4666    3126.1927   -1754.3622    30.389152   -1010.6862    78.029871 
   57100    63.460633   -114.90273  0.057420514   -114.84531    1059.3506     4.273032     4.273032     4.273032    1059.3506   -5096.6092    6611.0669    1663.5941    -595.6356    763.89364    1667.2249    78.020448 
   57200    108.73454   -114.94343  0.098385298   -114.84504   -2088.4328    4.2732054    4.2732054    4.2732054   -2088.4328     -5338.01   -2220.2804    1292.9921    830.05075     73.06746   -576.45236    78.029947 
   57300    55.586467    -114.8958  0.050295804   -114.84551    386.46786    4.2729001    4.2729001    4.2729001    386.46786   -6002.4316    1329.2282     5832.607   -1178.1369   -679.89959    880.82635     78.01322 
   57400    100.53523   -114.93615  0.090966392   -114.84519   -2862.9398    4.2743334    4.2743334    4.2743334   -2862.9398   -7121.7324   -2316.1021    849.01498   -1410.7883    409.70053   -1169.1311    78.091756 
   57500     65.22449   -114.90431  0.059016489    -114.8453    1126.4674    4.2722543    4.2722543    4.2722543    1126.4674   -3088.5371    4089.0932    2378.8461    368.60283   -354.95589     1346.551    77.977858 
   57600     124.3608   -114.95743   0.11252426   -114.84491    -2937.677    4.2732912    4.2732912    4.2732912    -2937.677   -5135.7833   -3111.9859   -565.26175   -71.393157    774.02624    132.89917    78.034648 
   57700    46.512966   -114.88772  0.042085909   -114.84564    2592.9234    4.2735675    4.2735675    4.2735675    2592.9234   -6028.9527      6335.99    7471.7329   -590.26962   -249.29084    756.84623    78.049786 
   57800    116.47235   -114.95073   0.10538663   -114.84534   -672.08291    4.2720798    4.2720798    4.2720798   -672.08291   -3792.0631   -808.21417    2584.0285   -514.34296    706.87654   -666.72117    77.968303 
   57900     83.62512   -114.92103  0.075665766   -114.84537    1467.3536    4.2731671    4.2731671    4.2731671    1467.3536   -3806.4337    7597.5041    610.99046    199.91309   -773.87438    404.20939    78.027847 
   58000     111.2211   -114.94577   0.10063519   -114.84514   -1416.5269    4.2738397    4.2738397    4.2738397   -1416.5269   -4911.9339   -2046.3241    2708.6775   -946.76342     -2.95015    99.503204    78.064697 
   58100    71.489018   -114.91027  0.064684766   -114.84559    1392.8414     4.272331     4.272331     4.272331    1392.8414   -3908.5041    3315.9793     4771.049   -1117.3786    128.37823    482.14624    77.982055 
   58200     119.9242   -114.95366   0.10850994   -114.84515   -1961.0789    4.2736457    4.2736457    4.2736457   -1961.0789   -5462.6069   -1931.5294    1510.8997   -12.106041    1048.0176    -753.7812     78.05407 
   58300    81.983804   -114.91979  0.074180668   -114.84561    303.74989    4.2731475    4.2731475    4.2731475    303.74989   -4345.0563    1148.9227    4107.3833   -168.99738    28.802471    1182.8766    78.026772 
   58400    132.19201   -114.96492    0.1196101   -114.84531   -3479.7512     4.273598     4.273598     4.273598   -3479.7512   -5924.7196   -3302.2397   -1212.2944   -1678.9563   -809.69919   -54.390148    78.051456 
   58500    71.830159   -114.91071  0.064993437   -114.84571    1928.0123    4.2727012    4.2727012    4.2727012    1928.0123   -3283.8177    4047.7058    5020.1488    255.27657    40.570635    1181.8133    78.002328 
   58600    130.79099   -114.96337   0.11834244   -114.84503    -864.6225    4.2729711    4.2729711    4.2729711    -864.6225   -3691.0473   -1908.9948    3006.1745    296.04174    530.79982   -1116.1706    78.017111 
   58700    88.175668   -114.92506  0.079783197   -114.84528    2031.8705    4.2734062    4.2734062    4.2734062    2031.8705   -3999.2683    6402.2652    3692.6145   -801.26259    725.21314    798.26142    78.040948 
   58800    127.08913   -114.96026   0.11499291   -114.84527   -743.07408    4.2724786    4.2724786    4.2724786   -743.07408   -3947.6003     120.0384    1598.3397   -1015.5194   -1031.9176   -281.91692    77.990137 
   58900    109.96047   -114.94502  0.099494542   -114.84552    828.51104    4.2732118    4.2732118    4.2732118    828.51104   -2811.9299    3640.1979    1657.2651    347.36819   -57.879088    1511.6581    78.030298 
   59000    117.37941   -114.95141   0.10620735   -114.84521    490.40114    4.2737649    4.2737649    4.2737649    490.40114   -3529.1828   -105.00317    5105.3894   -210.33591    932.86397   -1087.7911      78.0606 
   59100    95.939053   -114.93226  0.086807672   -114.84545    917.28997    4.2719709    4.2719709    4.2719709    917.28997    -2053.598    739.70634    4065.7616   -1973.0907    727.55527    774.12492    77.962338 
   59200     136.8142   -114.96897   0.12379236   -114.84518    -2867.904     4.273993     4.273993     4.273993    -2867.904   -5147.0205   -2493.9378   -962.75382   -510.40201   -826.17359   -287.09392      78.0731 
   59300       114.89   -114.94961   0.10395488   -114.84565    181.94137    4.2733424    4.2733424    4.2733424    181.94137   -3233.0295    948.16133    2830.6923    1108.3251   -1077.7996    1411.2089     78.03745 
   59400     132.7672   -114.96568   0.12013055   -114.84555   -654.74767    4.2723863    4.2723863    4.2723863   -654.74767   -2873.7254    -2277.449    3186.9314   -1385.6839    1477.9994   -264.56833    77.985083 
   59500    88.521618   -114.92581   0.08009622   -114.84571    1241.8764     4.273547     4.273547     4.273547    1241.8764   -3565.9618     3341.934     3949.657   -1650.1783    980.53292    395.96085    78.048663 
   59600    135.94476   -114.96816   0.12300568   -114.84515   -282.49238    4.2730737    4.2730737    4.2730737   -282.49238   -2828.7212   -256.03077    2237.2748    962.63707   -226.05984    527.18527     78.02273 
   59700    139.99655   -114.97177   0.12667182   -114.84509    883.26622    4.2729116    4.2729116    4.2729116    883.26622   -1989.4762    4375.5442    263.73065    807.30686   -1704.9786    413.40964     78.01385 
   59800    110.70784   -114.94562   0.10017078   -114.84545    1002.6255    4.2729797    4.2729797    4.2729797    1002.6255   -3396.7548    1522.7599    4881.8714   -2172.5324    643.16459    -84.48038    78.017581 
   59900    112.55264   -114.94746   0.10183999   -114.84562     285.5278    4.2729432    4.2729432    4.2729432     285.5278   -3311.9989     5.249456    4163.3329   -1745.5324    1159.5767   -221.65372    78.015585 
   60000    131.41306   -114.96419    0.1189053   -114.84529    584.19301    4.2734882    4.2734882    4.2734882    584.19301   -1872.9243    782.49407    2843.0092    1382.2507   -78.247961    600.51778    78.045439 
   60100     133.9167   -114.96645   0.12117064   -114.84528   -570.49849    4.2724208    4.2724208    4.2724208   -570.49849   -1449.8287    -933.1426    671.47582    150.14338   -762.29166     744.2527    77.986973 
   60200     111.4436   -114.94626   0.10083651   -114.84542   -1404.5769    4.2736164    4.2736164    4.2736164   -1404.5769   -3978.5694   -2687.0321    2451.8707   -2916.7514   -73.162733    667.39174    78.052461 
   60300    118.83956   -114.95292   0.10752853    -114.8454    35.873927    4.2736932    4.2736932    4.2736932    35.873927   -4116.8639   -169.88759    4394.3733   -841.57202    1091.7333   -329.40506    78.056673 
   60400    128.58666    -114.9617   0.11634791   -114.84536    1442.4711    4.2717602    4.2717602    4.2717602    1442.4711    -1037.485    801.84627    4563.0519    1570.1852   -932.30437    422.59656    77.950802 
   60500    132.86746   -114.96558   0.12022127   -114.84536   -1528.1961    4.2741558    4.2741558    4.2741558   -1528.1961   -3946.0757    734.11531   -1372.6278   -631.27007   -186.98644    557.40673    78.082022 
   60600    97.613628   -114.93387  0.088322862   -114.84555    1085.5724    4.2732721    4.2732721    4.2732721    1085.5724   -3117.0432    1729.5499    4644.2107   -2031.1683   -145.02362     396.1647    78.033599 
   60700    144.36565    -114.9758   0.13062507   -114.84517    901.17356    4.2719406    4.2719406    4.2719406    901.17356   -1913.7579    1331.4515    3285.8271   -473.57776    1285.3279   -47.201772    77.960678 
   60800    103.61268   -114.93925  0.093750927    -114.8455    1887.4644     4.273587     4.273587     4.273587    1887.4644   -3169.2506    3442.6282    5389.0158    968.12196   -752.75344    545.50583    78.050854 
   60900    124.16487   -114.95798   0.11234698   -114.84563    -2125.539    4.2731494    4.2731494    4.2731494    -2125.539   -4111.8655   -3279.1939    1014.4425   -1486.4256   -260.75449    561.31194    78.026877 
   61000    112.25648   -114.94724   0.10157203   -114.84567    79.833018    4.2729067    4.2729067    4.2729067    79.833018   -2311.9558    520.02114    2031.4338   -1694.5606    118.18937    505.86208    78.013586 
   61100    130.12033   -114.96304   0.11773561    -114.8453   -264.03275    4.2733546    4.2733546    4.2733546   -264.03275   -2509.0401   -1433.3888    3150.3307   -216.50062    493.10398   -658.39033    78.038121 
   61200    91.670981   -114.92849   0.08294583   -114.84555     337.7364    4.2729219    4.2729219    4.2729219     337.7364   -3428.0796   -814.65811    5255.9469   -371.11304   -330.60774    1588.1008    78.014414 
   61300    124.52416   -114.95789   0.11267207   -114.84522   -2115.3202     4.273873     4.273873     4.273873   -2115.3202   -5004.1579   -2176.1416    834.33886   -817.51625   -502.95173   -172.91032    78.066523 
   61400    102.63795   -114.93813  0.092868978   -114.84527    1991.6563    4.2722382    4.2722382    4.2722382    1991.6563   -1864.1397    3776.6774    4062.4312   -188.47913    705.41845    1876.5634    77.976975 
   61500    143.24447   -114.97457   0.12961061   -114.84496   -1193.1777    4.2734264    4.2734264    4.2734264   -1193.1777   -3614.7771   -296.02921    331.27328   -674.91234    215.01575   -1594.3335    78.042052 
   61600    57.255539   -114.89755  0.051806015   -114.84575    2931.9164     4.273213     4.273213     4.273213    2931.9164   -3492.6485    4239.7873    8048.6104   -1159.9261   -542.63162    1297.9836    78.030361 
   61700    129.22875   -114.96214   0.11692889   -114.84522   -1273.2644    4.2720558    4.2720558    4.2720558   -1273.2644   -3660.0808   -2561.1277    2401.4153   -443.79271   -803.77098   -892.18543    77.966986 
   61800    102.22787   -114.93759  0.092497928   -114.84509    809.47842    4.2737786    4.2737786    4.2737786    809.47842   -4195.7107    4105.8343    2518.3117     215.9314    868.51007    2008.1053    78.061348 
   61900     123.7982   -114.95717   0.11201522   -114.84515   -2399.1773    4.2735494    4.2735494    4.2735494   -2399.1773   -4778.0318   -3440.0483    1020.5482   -1481.1519    831.61387   -1261.2697     78.04879 
   62000    61.767575   -114.90178    0.0558886    -114.8459    1177.9544     4.271971     4.271971     4.271971    1177.9544   -3289.7422    413.68508    6409.9204   -2024.2381   -528.72048    1130.2615    77.962344 
   62100    115.17309   -114.94951   0.10421103    -114.8453   -1656.6793    4.2743283    4.2743283    4.2743283   -1656.6793   -4916.4598   -2914.4982      2860.92    568.76396   -784.44813   -412.35644    78.091473 
   62200    92.738721   -114.92924  0.083911943   -114.84533     769.1578    4.2726359    4.2726359    4.2726359     769.1578   -2956.5863    2657.4452    2606.6144    211.15684   -274.04697    1504.9794    77.998753 
   62300    120.65119   -114.95441   0.10916773   -114.84524   -2219.4299    4.2729156    4.2729156    4.2729156   -2219.4299    -5136.193   -1896.9994    374.90272    -2085.213    1303.8325    -993.6871    78.014072 
   62400    45.837975   -114.88725  0.041475163   -114.84578    2788.6926    4.2731973    4.2731973    4.2731973    2788.6926   -4326.9429    5201.9277     7491.093   -860.49469   -287.04575     779.9419      78.0295 
   62500     128.6428   -114.96153   0.11639871   -114.84513   -1131.9475    4.2727359    4.2727359    4.2727359   -1131.9475   -4456.0721   -1103.3218    2163.5515    800.57744   -137.14104    256.52798    78.004229 
   62600    68.574985   -114.90753  0.062048088   -114.84548    2148.4803    4.2729865    4.2729865    4.2729865    2148.4803   -3572.4055    5884.7836    4133.0628   -200.40949   -348.47675    1182.9167    78.017957 
   62700     104.3147    -114.9397  0.094386136   -114.84531   -2875.6618    4.2731676    4.2731676    4.2731676   -2875.6618   -6127.5101   -3970.4975    1471.0221   -2497.9514    872.28135   -950.78466    78.027875 
   62800     62.17434   -114.90167   0.05625665   -114.84541    369.72431    4.2733416    4.2733416    4.2733416    369.72431   -5916.3782    2959.5273    4066.0239   -523.99033    326.01093    527.70902    78.037406 
   62900    116.74373   -114.95043   0.10563218    -114.8448   -2001.6169    4.2736897    4.2736897    4.2736897   -2001.6169   -5829.1649   -3001.3057    2825.6199    671.09964   -772.88161   -145.09058    78.056478 
   63000    54.859669   -114.89507  0.049638182   -114.84543    883.54944    4.2720143    4.2720143    4.2720143    883.54944    -3742.507    953.00979    5440.1455   -1696.8555    303.87526    1486.3242    77.964714 
   63100    101.20609   -114.93674    0.0915734   -114.84517   -3658.9093     4.274535     4.274535     4.274535   -3658.9093   -7313.1734   -3872.9861    209.43148   -1669.4913    152.22685   -725.86307    78.102805 
   63200     61.51892   -114.90099  0.055663612   -114.84533    2071.1376    4.2727629    4.2727629    4.2727629    2071.1376   -3999.1887    6232.7805     3979.821    860.86275    944.30853    841.57697    78.005707 
   63300    115.95642   -114.94991   0.10491981   -114.84499   -748.30185    4.2719955    4.2719955    4.2719955   -748.30185   -4317.8063   -1326.7901    3399.6908   -11.117245   -1025.0732   -677.32014    77.963684 
   63400    36.108376   -114.87828  0.032671617    -114.8456    1813.8183    4.2740291    4.2740291    4.2740291    1813.8183   -6401.1875    4985.4722    6857.1701   -1915.9985    197.87357    970.24958    78.075076 
   63500    105.94582   -114.94112  0.095862007   -114.84526   -2456.9973    4.2730386    4.2730386    4.2730386   -2456.9973   -5223.7551   -1506.6636   -640.57326   -827.45107   -395.66015   -1010.6231    78.020809 
   63600    72.963359   -114.91136  0.066018781   -114.84534    1727.0518    4.2722586    4.2722586    4.2722586    1727.0518   -3993.8631     6477.881    2697.1375    1009.4028    1250.3048    976.28356    77.978091 
   63700    87.992742   -114.92496  0.079617682   -114.84534   -1734.4754    4.2740168    4.2740168    4.2740168   -1734.4754   -6531.1667    -3619.496    4947.2364   -837.91776   -156.59866   -413.49679    78.074404 
   63800    47.274388   -114.88854   0.04277486   -114.84577   -670.63182    4.2728626    4.2728626    4.2728626   -670.63182   -6916.3957    725.44521    4179.0551   -2590.5576    660.41163    1004.9026    78.011167 
   63900     109.8506   -114.94447  0.099395129   -114.84508    -2767.471    4.2734085    4.2734085    4.2734085    -2767.471   -5911.8419   -2784.9647    394.39359    32.843426   -552.21629   -808.95902    78.041073 
   64000    66.619261   -114.90564  0.060278507   -114.84536    1330.7899     4.272631     4.272631     4.272631    1330.7899   -4393.5708    4158.4509    4227.4897    483.26014   -298.57188    700.16051    77.998484 
   64100     92.67298    -114.9291   0.08385246   -114.84525   -2323.8493    4.2735255    4.2735255    4.2735255   -2323.8493   -5928.6234    -2769.692    1726.7674   -1643.5599    299.01436    105.27416    78.047484 
   64200    39.085303   -114.88095  0.035365203   -114.84558    2251.8428    4.2729446    4.2729446    4.2729446    2251.8428   -5597.0571     6620.321    5732.2645   -999.66878    620.42581    197.97927     78.01566 
   64300    122.47594   -114.95567    0.1108188   -114.84485    -1072.542    4.2722543    4.2722543    4.2722543    -1072.542   -3344.7437   -1262.8409    1389.9588    470.48827    353.91107    -28.72748    77.977855 
   64400    67.744857   -114.90645   0.06129697   -114.84516    1105.1691     4.273882     4.273882     4.273882    1105.1691   -6304.4486    6446.0356    3173.9204    67.488991   -793.73024     369.5299    78.067014 
   64500    84.567422   -114.92168  0.076518381   -114.84516   -1782.3421    4.2732846    4.2732846    4.2732846   -1782.3421   -5107.5178   -988.34177    748.83333   -1857.2235    264.06668    267.98093    78.034286 
   64600     61.70139   -114.90122  0.055828714   -114.84539    1166.1444    4.2719941    4.2719941    4.2719941    1166.1444   -4348.9158    3398.6597    4448.6893    -575.3397    623.54802   -869.11512    77.963608 
   64700     110.8985    -114.9453   0.10034329   -114.84496   -1978.8169     4.274508     4.274508     4.274508   -1978.8169   -5794.1545   -3321.3839    3179.0877    324.30201    203.79708   -127.59317    78.101325 
   64800    71.158886   -114.90986  0.064386055   -114.84548    -676.2682    4.2726898    4.2726898    4.2726898    -676.2682   -5818.6955    2469.4569     1320.434   -1486.1587   -626.81986    818.01223    78.001706 
   64900    95.191111   -114.93151  0.086130918   -114.84537   -2369.3417    4.2729192    4.2729192    4.2729192   -2369.3417   -5295.8591   -2112.3988    300.23295    -1544.457    310.27319     281.1256    78.014271 
   65000    66.471013   -114.90565   0.06014437    -114.8455    1920.3606    4.2736286    4.2736286    4.2736286    1920.3606   -5055.5055    4747.9729    6068.6145    448.54062    727.87559   -375.02266    78.053129 
   65100    121.62152    -114.9552    0.1100457   -114.84515   -1208.9037    4.2727641    4.2727641    4.2727641   -1208.9037   -3400.8599   -1274.1338    1048.2824   -121.42987   -119.77396   -756.24045    78.005775 
   65200    60.619671    -114.9005  0.054849952   -114.84565    1464.6548    4.2729083    4.2729083    4.2729083    1464.6548   -4746.0655    6125.4977    3014.5324   -1537.4818   -654.35405    903.52265     78.01367 
   65300    114.72982   -114.94917   0.10380995   -114.84536   -1562.6764    4.2732645    4.2732645    4.2732645   -1562.6764   -4519.5916   -672.83525    504.39763   -827.37027   -67.712791   -358.80022    78.033183 
   65400    87.796969   -114.92486  0.079440543   -114.84542    1833.4502    4.2729348    4.2729348    4.2729348    1833.4502   -3297.2126    5715.1108    3082.4525    313.68016    889.23738   -46.961679    78.015125 
   65500    106.65084   -114.94173   0.09649992   -114.84523   -959.90453    4.2731896    4.2731896    4.2731896   -959.90453   -3967.9393   -1530.0466    2618.2723    -308.8881    350.40836   -594.09812    78.029082 
   65600     72.30264   -114.91096  0.065420948   -114.84554    76.230713    4.2723952    4.2723952    4.2723952    76.230713   -3423.5049    933.19044    2719.0066   -1670.8002   -412.36902    711.43826    77.985568 
   65700    128.81593   -114.96154   0.11655536   -114.84498    -2492.605    4.2742624    4.2742624    4.2742624    -2492.605   -4981.7335   -2014.5926   -481.48878   -498.10715    263.95875    403.31264    78.087862 
   65800    88.361798   -114.92523  0.079951612   -114.84528    1705.3729    4.2724917    4.2724917    4.2724917    1705.3729   -3354.3658    5527.0185    2943.4659   -551.59726    -517.1268   -562.95087    77.990855 
   65900    113.64435   -114.94807   0.10282779   -114.84524   -1423.2944    4.2724944    4.2724944    4.2724944   -1423.2944    -4015.998   -2364.9513    2111.0661   -1245.5728    602.26529   -146.02662    77.991001 
   66000    79.788989   -114.91762  0.072194754   -114.84542    899.12786    4.2743308    4.2743308    4.2743308    899.12786    -5262.734    3320.5131    4639.6045   -105.78721   -696.21572    -206.1657    78.091615 
   66100    141.56908   -114.97296   0.12809468   -114.84487   -618.10986    4.2725059    4.2725059    4.2725059   -618.10986   -2008.4573    1864.9375   -1710.8098   -311.79743    821.23035    1346.5946    77.991632 
   66200    93.376738   -114.92977  0.084489235   -114.84528    1920.0387    4.2724356    4.2724356    4.2724356    1920.0387   -2677.7228    6165.4398    2272.3992   -848.17755   -600.39669   -928.61676    77.987785 
   66300    111.56324   -114.94639   0.10094477   -114.84545   -1370.5978    4.2741562    4.2741562    4.2741562   -1370.5978   -5423.4203   -1751.3782    3063.0052   -963.78281    457.56146   -371.07204    78.082044 
   66400    102.91898   -114.93875  0.093123252   -114.84562    939.13825    4.2723243    4.2723243    4.2723243    939.13825   -2281.4029    2849.2434    2249.5743    362.37531    -577.9685   -1079.3384    77.981686 
   66500    135.96588   -114.96813   0.12302478   -114.84511   -837.80043    4.2731393    4.2731393    4.2731393   -837.80043   -1946.3126   -429.31024   -137.77845   -760.16325    313.18937    1238.2518    78.026327 
   66600    100.29902   -114.93631  0.090752657   -114.84555   -252.82056    4.2732884    4.2732884    4.2732884   -252.82056    -4023.274    1649.8471    1614.9652   -1919.6983     130.8112    -254.7192     78.03449 
   66700    118.88641   -114.95303   0.10757092   -114.84546   -1198.0152    4.2733634    4.2733634    4.2733634   -1198.0152   -3479.0425   -1375.9146    1260.9115   -663.92624    232.39059   -532.96787      78.0386 
   66800    102.77317   -114.93845  0.092991328   -114.84546    2079.7495    4.2728413    4.2728413    4.2728413    2079.7495   -2880.6062    4847.4408    4272.4139    996.74273    -237.4621   -615.98694    78.010001 
   66900    144.59924   -114.97608   0.13083643   -114.84524   -1004.7341    4.2726495    4.2726495    4.2726495   -1004.7341   -2506.4998   -671.93335    164.23091   -1356.9111   -540.78375    850.02365    77.999496 
   67000    100.98513   -114.93689  0.091373467   -114.84552    618.95055    4.2739715    4.2739715    4.2739715    618.95055   -4802.7632    4237.8867    2421.7282    -1710.597    872.74177   -45.149103    78.071919 
   67100    120.15834   -114.95401   0.10872179   -114.84528    594.80893    4.2725508    4.2725508    4.2725508    594.80893   -2238.6357    2982.1154    1040.9471    445.88842    -382.0769   -770.60011    77.994094 
   67200    119.82564   -114.95357   0.10842076   -114.84515    1152.4455    4.2722141    4.2722141    4.2722141    1152.4455   -2269.1325    3533.0937    2193.3752    661.97518    301.91691   -889.69331    77.975655 
   67300    125.88009   -114.95908   0.11389895   -114.84518   -1291.5931    4.2744983    4.2744983    4.2744983   -1291.5931   -4759.2058   -1731.6234    2616.0499   -1551.1772     -915.198    970.88962    78.100795 
   67400    112.45939   -114.94721   0.10175562   -114.84545   -405.55947    4.2722909    4.2722909    4.2722909   -405.55947   -3263.2364    2069.3495   -22.791483   -1610.4709    1870.3353    37.590652    77.979858 
   67500    126.57227   -114.95972   0.11452525   -114.84519   -376.65037    4.2729359    4.2729359    4.2729359   -376.65037    -2004.088    1134.4045   -260.26771    979.62933    45.414756   -454.09015    78.015182 
   67600    114.74156   -114.94903   0.10382058   -114.84521    347.14896    4.2740716    4.2740716    4.2740716    347.14896   -3572.9117     1349.044    3265.3146   -247.66621   -469.12396   -1336.1833    78.077405 
   67700    119.86175   -114.95378   0.10845343   -114.84533    122.73234    4.2723086    4.2723086    4.2723086    122.73234   -2677.4464   -387.58304    3433.2265   -2423.5353   -912.53588    963.05482    77.980826 
   67800    110.65052   -114.94547   0.10011892   -114.84535    1119.2476     4.273125     4.273125     4.273125    1119.2476   -2674.5599    4514.5103    1517.7923   -348.00296    1107.4606   -29.408786    78.025543 
   67900    140.27846    -114.9721    0.1269269   -114.84517   -469.22294    4.2732833    4.2732833    4.2732833   -469.22294   -3651.6397    2328.1611   -84.190278    1219.9195    615.06073    281.32012    78.034212 
   68000    106.97309   -114.94228  0.096791502   -114.84549    1667.8223    4.2726385    4.2726385    4.2726385    1667.8223   -2594.8683    4241.7643     3356.571   -279.31631    -488.0263   -1688.0707    77.998892 
   68100    106.89158   -114.94216  0.096717749   -114.84544    430.57532    4.2731096    4.2731096    4.2731096    430.57532   -4291.9748    979.09462    4604.6061   -2221.1512   -575.10236    643.62967    78.024699 
   68200    121.44679   -114.95513   0.10988761   -114.84524    -1116.692      4.27281      4.27281      4.27281    -1116.692   -3472.3237    1449.6116   -1327.3638   -139.17739    837.86738   -767.90364    78.008288 
   68300    122.71037    -114.9562   0.11103093   -114.84517   -1171.3447    4.2739516    4.2739516    4.2739516   -1171.3447   -4918.3568    317.85466     1086.468    1053.3624    582.87749    475.15815    78.070832 
   68400    108.51082   -114.94365  0.098182874   -114.84546    -352.0279    4.2727268    4.2727268    4.2727268    -352.0279   -3971.4283    1476.6364    1438.7082   -1033.1458   -27.412877   -1007.4907     78.00373 
   68500    105.73465    -114.9412  0.095670933   -114.84552   -448.33101    4.2727397    4.2727397    4.2727397   -448.33101   -4411.8654     277.5463     2789.326   -1630.9572    325.16028    193.31885    78.004436 
   68600    112.47366   -114.94707   0.10176853    -114.8453   -43.010111    4.2743339    4.2743339    4.2743339   -43.010111   -3590.6331    1504.6318     1956.971   -34.107853    547.73524   -409.40782    78.091784 
   68700    115.63507   -114.94982   0.10462904   -114.84519    1066.4999    4.2719107    4.2719107    4.2719107    1066.4999   -2609.9118    3025.1316    2784.2799     243.7458    131.05092    474.76569    77.959045 
   68800    108.52059   -114.94339  0.098191711    -114.8452    598.47474     4.272838     4.272838     4.272838    598.47474   -3680.1888    4270.7387    1204.8743   -749.36103    20.403852   -486.43648    78.009823 
   68900    100.06344   -114.93581  0.090539503   -114.84527    531.65293    4.2739329    4.2739329    4.2739329    531.65293   -5026.7486    2468.3413    4153.3661   -687.94574   -43.478007   -841.12211    78.069806 
   69000    111.17269   -114.94592   0.10059139   -114.84533    626.08819     4.271867     4.271867     4.271867    626.08819   -2593.7686    2187.9824    2284.0508   -309.65289    399.03608   -403.23596    77.956651 
   69100    98.077609   -114.93412  0.088742681   -114.84538    -127.6179    4.2734582    4.2734582    4.2734582    -127.6179   -5091.1923    1200.5542    3507.7845    284.19792    445.38566    674.30919    78.043796 
   69200    112.58347   -114.94704   0.10186789   -114.84517   -2908.7896    4.2739621    4.2739621    4.2739621   -2908.7896   -6882.2828    594.48208    -2438.568   -762.88718    491.30947   -332.23291    78.071404 
   69300    87.883558   -114.92482   0.07951889    -114.8453   -88.943351    4.2727112    4.2727112    4.2727112   -88.943351   -4733.6506    1349.9323    3116.8882    92.645045    978.79312   -1418.4209    78.002878 
   69400    105.24383   -114.94046  0.095226829   -114.84523   -658.15896    4.2733532    4.2733532    4.2733532   -658.15896   -5633.8445    500.50723    3158.8604   -1421.5339   -563.97181   -507.71404    78.038044 
   69500    90.464464   -114.92728  0.081854148   -114.84543   -387.75227    4.2729459    4.2729459    4.2729459   -387.75227   -5545.9349    1378.0497    3004.6284   -762.03221    736.83404    1138.6623    78.015732 
   69600    105.04673   -114.94028   0.09504849   -114.84523   -589.42844    4.2735034    4.2735034    4.2735034   -589.42844   -5176.9051    3303.6861    104.93368    244.37594    44.120487   -292.30354     78.04627 
   69700    89.968895   -114.92667  0.081405747   -114.84527    1973.4913    4.2723159    4.2723159    4.2723159    1973.4913   -2833.8869    4561.8961    4192.4647    124.85949    1114.4647    -660.1814    77.981231 
   69800    99.452693   -114.93516  0.089986887   -114.84517     367.0974    4.2726067    4.2726067    4.2726067     367.0974   -4790.5765    2301.8489    3590.0198   -956.26523   -495.82697   -1160.8362    77.997152 
   69900    75.719345   -114.91386  0.068512455   -114.84535    794.02914    4.2738347    4.2738347    4.2738347    794.02914   -5900.8096    2671.4045    5611.4925    -555.1785    912.43744    1035.5321    78.064423 
   70000    108.96932   -114.94382  0.098597729   -114.84523   -1055.3784    4.2721434    4.2721434    4.2721434   -1055.3784   -3541.4027    1052.6619   -677.39443     423.2964   -509.33072   -795.36527    77.971786 
   70100    81.322207   -114.91898  0.073582042    -114.8454   -285.97623    4.2732795    4.2732795    4.2732795   -285.97623   -5488.3391    2426.4421    2203.9683   -109.35345    741.94137   -796.91161    78.034005 
   70200    93.074604    -114.9295  0.084215858   -114.84528   -2306.0032    4.2743805    4.2743805    4.2743805   -2306.0032   -7475.8143   -896.10212    1453.9069   -1373.3377   -118.79523   -733.68465    78.094336 
   70300    71.246715   -114.90973  0.064465525   -114.84527     402.2606    4.2718705    4.2718705    4.2718705     402.2606    -5320.273    1443.2469    5083.8078   -566.60576    1548.2317      411.141    77.956841 
   70400    98.744235   -114.93436  0.089345859   -114.84501   -1161.6374    4.2735303    4.2735303    4.2735303   -1161.6374   -5760.1422     1423.352    851.87808    403.12807    397.65792   -2.8256851    78.047745 
   70500    87.003458   -114.92394  0.078722557   -114.84521   -758.84619     4.273537     4.273537     4.273537   -758.84619   -6853.9674    3281.7812    1295.6476   -910.54655   -374.21175   -878.57216    78.048112 
   70600     86.18336   -114.92335  0.077980515   -114.84537     321.6556    4.2722607    4.2722607    4.2722607     321.6556   -4454.5301    2786.1593    2633.3376   -696.73368    697.82991     -401.956    77.978206 
   70700    77.367064   -114.91536  0.070003345   -114.84536    1353.4199    4.2731094    4.2731094    4.2731094    1353.4199   -5429.7437    3216.8018    6273.2015    50.199158    131.32705   -121.97653    78.024688 
   70800    88.417907   -114.92517   0.08000238   -114.84516   -519.46092    4.2732175    4.2732175    4.2732175   -519.46092   -4104.3813    1091.9921    1454.0065    34.399695    627.37114    39.123765    78.030611 
   70900    78.165925   -114.91591  0.070726171   -114.84518   -380.32466    4.2732344    4.2732344    4.2732344   -380.32466   -5842.2875    2560.7486    2140.5649   -472.39048   -712.51081   -743.46898    78.031533 
   71000    101.42666   -114.93692  0.091772971   -114.84514   -1445.1266    4.2729116    4.2729116    4.2729116   -1445.1266   -4199.5587   -713.08708    577.26605   -403.72751    1115.8099      -272.32    78.013852 
   71100    65.284238   -114.90446  0.059070551   -114.84539    363.50125    4.2731443    4.2731443    4.2731443    363.50125    -4816.051    1747.3247    4159.2301    334.21326   -8.8849505   -985.74629    78.026601 
   71200    85.285044   -114.92244    0.0771677   -114.84528   -1525.2538    4.2739318    4.2739318    4.2739318   -1525.2538   -5978.2108   -983.05516    2385.5045     -1001.45    407.86036    144.82879    78.069746 
   71300    80.638942   -114.91822   0.07296381   -114.84526    98.473758    4.2720095    4.2720095    4.2720095    98.473758   -4523.1009    2534.8108    2283.7114   -1286.6457   -531.63671   -26.561054    77.964451 
   71400    101.42235   -114.93684  0.091769072   -114.84507   -1191.2861    4.2734928    4.2734928    4.2734928   -1191.2861   -5586.0277    1667.8054    344.36407    490.17536    1190.1624   -430.93327    78.045692 
   71500    73.083736   -114.91146    0.0661277   -114.84533    350.15668    4.2736085    4.2736085    4.2736085    350.15668   -5546.1365    3972.4176     2624.189   -171.91507   -127.96065   -723.98633    78.052027 
   71600    86.678987   -114.92388  0.078428969   -114.84546    131.29279    4.2717948    4.2717948    4.2717948    131.29279   -3627.7027   -335.48383    4357.0649   -825.75721    204.61477    -141.2535    77.952699 
   71700    78.017525   -114.91602  0.070591896   -114.84543    621.16835    4.2736288    4.2736288    4.2736288    621.16835   -5195.2584    3281.0183    3777.7451   -486.34445    104.10396    119.24571    78.053144 
   71800    109.24769   -114.94394  0.098849605   -114.84509   -2314.4879    4.2738183    4.2738183    4.2738183   -2314.4879   -4987.5086   -43.443975   -1912.5112    963.06168    436.72788   -795.22571    78.063524 
   71900    69.054418   -114.90778  0.062481889    -114.8453    399.56864    4.2722099    4.2722099    4.2722099    399.56864    -2105.603    1362.2043    1942.1046   -452.46568   -451.33556   -1250.7372    77.975423 
   72000    100.77993   -114.93624    0.0911878   -114.84505   -1235.1513    4.2734785    4.2734785    4.2734785   -1235.1513   -5331.7403   -2591.1183    4217.4046    -1133.568   -301.74275    385.62549    78.044906 
   72100    72.350394   -114.91073  0.065464157   -114.84526     1193.832    4.2729446    4.2729446    4.2729446     1193.832    -2667.673    3303.2414    2945.9276   -119.42232    661.62842   -388.04161    78.015659 
   72200    106.81497   -114.94181  0.096648433   -114.84516   -1529.7522     4.273108     4.273108     4.273108   -1529.7522   -3659.9773    181.31759    -1110.597    992.85655    778.79701   -271.31804     78.02461 
   72300    86.962823   -114.92403   0.07868579   -114.84534    221.81422     4.272707     4.272707     4.272707    221.81422   -2956.6224    2662.3551    959.70999   -1431.4732   -474.95409   -993.79071    78.002647 
   72400    98.480447   -114.93429  0.089107178   -114.84518    260.00736    4.2732456    4.2732456    4.2732456    260.00736   -4249.1997    464.19738    4565.0244   -1120.8907   -196.66327    589.55366     78.03215 
   72500    80.445695   -114.91807  0.072788955   -114.84528    1321.9981    4.2732137    4.2732137    4.2732137    1321.9981   -3849.2561    4923.4016    2891.8488     618.4086    168.88181   -710.47923    78.030398 
   72600    107.74762   -114.94277  0.097492314   -114.84528   -1523.5437    4.2723309    4.2723309    4.2723309   -1523.5437    -2740.103   -2336.1843    505.65621    689.16815      576.009    38.674258    77.982051 
   72700    87.292503   -114.92441  0.078984091   -114.84542   -380.24692    4.2738598    4.2738598    4.2738598   -380.24692   -4243.4233     1941.881    1160.8015   -656.47954   -299.67925   -1421.5338    78.065801 
   72800    120.67759   -114.95432   0.10919162   -114.84513   -1835.6344    4.2737497    4.2737497    4.2737497   -1835.6344   -4458.4063   -1528.9044    480.40745   -1162.0443   -125.26077    663.01138    78.059769 
   72900    73.336552   -114.91174  0.066356453   -114.84538    1361.9892    4.2716069    4.2716069    4.2716069    1361.9892    -1107.011    1779.5507    3413.4279    1101.4543    158.78375   -1566.6461     77.94241 
   73000    105.72019   -114.94086  0.095657853    -114.8452   -1634.9917    4.2740991    4.2740991    4.2740991   -1634.9917   -3682.1741   -3427.1995    2204.3985    25.533879  -0.89804405    339.65863    78.078914 
   73100    103.67928   -114.93898  0.093811189   -114.84517    200.35256    4.2731727    4.2731727    4.2731727    200.35256   -3120.8466    4320.0521   -598.14779   -1028.1866    254.73467   -959.70386    78.028157 
   73200    119.88484   -114.95372   0.10847432   -114.84525    19.463116    4.2721207    4.2721207    4.2721207    19.463116   -437.91027   -105.24218     601.5418   -789.21259   -623.94886    394.48112     77.97054 
   73300    82.669421   -114.92032   0.07480103   -114.84552    1252.1187     4.273567     4.273567     4.273567    1252.1187   -3152.5928    3049.0056    3859.9435    642.60561    418.92697   -936.41141    78.049755 
   73400    103.35457    -114.9388  0.093517386   -114.84528    337.88219    4.2730916    4.2730916    4.2730916    337.88219   -2289.0482   -727.86161    4030.5564    281.15994   -118.81976    387.31261     78.02371 
   73500    108.70132   -114.94339  0.098355235   -114.84503    893.26594    4.2726421    4.2726421    4.2726421    893.26594   -2009.9397    4688.1171    1.6204067   -529.78379    1142.0669   -821.05354    77.999093 
   73600     131.8089   -114.96416   0.11926346   -114.84489   -2260.3453    4.2732268    4.2732268    4.2732268   -2260.3453   -2902.4657   -3242.7928   -635.77742   -791.49317   -1336.6817   -46.641454    78.031121 
   73700    72.693299   -114.91128  0.065774425    -114.8455    732.53676    4.2732318    4.2732318    4.2732318    732.53676   -2763.9758    1504.6519    3456.9341    381.17902    123.38494   -1557.3501    78.031394 
   73800    122.25479   -114.95582    0.1106187    -114.8452   -1281.8695    4.2734105    4.2734105    4.2734105   -1281.8695   -3769.5989     -2870.55    2794.5403    500.03514   -184.22767    617.63512    78.041184 
   73900    102.88043   -114.93837  0.093088379   -114.84528    585.00584    4.2721027    4.2721027    4.2721027    585.00584   -1586.1513    3335.5004    5.6685149   -46.158067    1510.2414   -1031.3377    77.969554 
   74000    126.79537   -114.95993   0.11472712   -114.84521    -2396.792    4.2740701    4.2740701    4.2740701    -2396.792   -3432.4645   -3530.8033   -227.10829   -995.73942    -702.9775   -339.40875    78.077322 
   74100    89.475729   -114.92647   0.08095952   -114.84551    1356.0971    4.2731753    4.2731753    4.2731753    1356.0971    -2130.038    5009.5367    1188.7927   -645.16146   -107.33499   -1010.9717    78.028298 
   74200    124.66027   -114.95804   0.11279523   -114.84525    1005.9127    4.2716582    4.2716582    4.2716582    1005.9127   -1163.9933   -927.11549    5108.8468    639.22689    323.61113    967.70131    77.945221 
   74300    92.699043    -114.9293  0.083876042   -114.84543    1985.2591    4.2738414    4.2738414    4.2738414    1985.2591   -1577.7148    4543.1438    2990.3484    140.79336    483.90928   -1158.7244     78.06479 
   74400    132.93824   -114.96552   0.12028531   -114.84523   -1928.1354    4.2733898    4.2733898    4.2733898   -1928.1354   -3115.8725   -1853.7127   -814.82102   -1373.6537   -617.24169    18.262634    78.040048 
   74500    91.656813   -114.92836  0.082933011   -114.84543    1880.9412    4.2717703    4.2717703    4.2717703    1880.9412    117.38417    3866.5058    1658.9335   -70.815201   -302.58882   -1350.1472    77.951357 
   74600    134.22812   -114.96635   0.12145242    -114.8449   -1388.4214    4.2740452    4.2740452    4.2740452   -1388.4214   -4718.7809   -3451.9556    4005.4724    1048.3356    1275.6063    1121.5891    78.075961 
   74700    82.313113   -114.91987  0.074478634   -114.84539    914.64604    4.2728382    4.2728382    4.2728382    914.64604   -2113.2837    2560.5047    2296.7171    649.12024    301.68742   -2016.1668    78.009834 
   74800    126.91272    -114.9601   0.11483329   -114.84526   -2583.7963     4.273086     4.273086     4.273086   -2583.7963   -3768.2851   -3708.2226   -274.88116   -1794.3369   -421.89811    -500.6156    78.023403 
   74900    110.30575   -114.94514  0.099806959   -114.84533   -244.32764    4.2734411    4.2734411    4.2734411   -244.32764   -3403.5558    3522.0623   -851.48945   -800.91315   -682.15452   -463.72387     78.04286 
   75000    122.63817    -114.9561    0.1109656   -114.84513   -211.10657    4.2731061    4.2731061    4.2731061   -211.10657   -3782.3594   -1576.2728    4725.3125    1241.5282    1615.9642    702.03142    78.024505 
   75100    83.101973    -114.9206  0.075192412   -114.84541    1962.2232    4.2728859    4.2728859    4.2728859    1962.2232   -2446.1189    5316.2217    3016.5667    -9.174049    287.42513   -1235.0593    78.012444 
   75200    123.18827    -114.9566   0.11146334   -114.84513   -554.91584    4.2725513    4.2725513    4.2725513   -554.91584   -2510.2008   -1192.4553    2037.9086   -1390.0266   -106.04772   -497.31453    77.994121 
   75300    116.56608   -114.95069   0.10547144   -114.84521    904.06753    4.2733902    4.2733902    4.2733902    904.06753   -2824.1891    4463.3637     1073.028   -562.02938   -180.37829   -301.91427    78.040069 
   75400    124.04093   -114.95748   0.11223484   -114.84525   -296.37824     4.273236     4.273236     4.273236   -296.37824   -2652.4313   -596.12196    2359.4185    1106.1721    628.85541    343.04667    78.031625 
   75500    74.684032   -114.91326  0.067575682   -114.84568    1463.5622    4.2718462    4.2718462    4.2718462    1463.5622   -2126.6814    2368.4341    4148.9339    89.206937    189.24592   -1418.0692    77.955512 
   75600    119.79653   -114.95353   0.10839442   -114.84514   -1492.0972    4.2742281    4.2742281    4.2742281   -1492.0972   -4216.3468   -3260.5628    3000.6181   -913.58276   -346.10456   -756.60253    78.085984 
   75700     125.7967   -114.95895    0.1138235   -114.84513   -774.80532     4.273144     4.273144     4.273144   -774.80532   -4291.8555    3415.0182   -1447.5787   -550.01654    296.95406   -182.00536    78.026583 
   75800    102.00224    -114.9378  0.092293769    -114.8455   -711.35694    4.2722722    4.2722722    4.2722722   -711.35694   -2736.8895   -1918.3229    2521.1416    867.33711    1023.9627   -667.11622    77.978834 
   75900    85.968425   -114.92345  0.077786038   -114.84567   -211.15325    4.2742054    4.2742054    4.2742054   -211.15325   -6295.5294    2251.3709    3410.6988   -545.75493    231.11346   -639.53071     78.08474 
   76000    117.22926   -114.95123    0.1060715   -114.84516    637.47649    4.2726448    4.2726448    4.2726448    637.47649   -3595.2174    518.90875    4988.7382    -446.5865    47.383239   -384.31678    77.999239 
   76100    116.78188   -114.95076    0.1056667    -114.8451    577.45591    4.2723314    4.2723314    4.2723314    577.45591   -3812.2524    5020.1796     524.4405   -649.89881     -319.171   -174.45554    77.982078 
   76200    95.360424   -114.93158  0.086284116    -114.8453   -652.81293    4.2737639    4.2737639    4.2737639   -652.81293   -4343.1814    146.53067    2238.2119   -183.45209    861.63235   -53.717537    78.060544 
   76300      100.399   -114.93612  0.090843123   -114.84528    408.54748    4.2728225    4.2728225    4.2728225    408.54748   -4228.4353     1470.322    3983.7558    264.18168    202.22606    -557.8554    78.008974 
   76400    107.47377   -114.94236  0.097244524   -114.84512    1492.4605    4.2727123    4.2727123    4.2727123    1492.4605   -3220.0021    1479.4414    6217.9423   -42.387132    517.59119   -422.22089    78.002936 
   76500     105.6101   -114.94089   0.09555824   -114.84533   -1436.3469    4.2731983    4.2731983    4.2731983   -1436.3469   -4031.6256    1104.4173   -1381.8323    -162.3351   -556.52393   -1031.2606    78.029559 
   76600    91.722398   -114.92843  0.082992353   -114.84544   -1682.9294     4.273684     4.273684     4.273684   -1682.9294   -4720.9584   -2529.0927    2201.2628   -381.77141    581.30016   -910.37688    78.056169 
   76700    111.64542   -114.94623   0.10101912   -114.84521     188.6409    4.2729838    4.2729838    4.2729838     188.6409   -4194.2943    2789.0561    1971.1608   -40.320136   -163.75458    337.29758    78.017808 
   76800    94.349506   -114.93073  0.085369415   -114.84536    1329.3061     4.272106     4.272106     4.272106    1329.3061   -4008.5548    1009.2744    6987.1988    236.94944     460.2551   -955.98702    77.969737 
   76900    91.637357   -114.92843  0.082915406   -114.84551   -1317.0026    4.2740599    4.2740599    4.2740599   -1317.0026   -5815.3269    1092.4144     771.9047   -638.90549   -248.61449   -669.49687    78.076765 
   77000     101.1642    -114.9369  0.091535492   -114.84536   -209.05775    4.2729268    4.2729268    4.2729268   -209.05775   -4940.2149     1712.673    2600.3687   -805.51111    599.36696   -613.05674    78.014685 
   77100    114.44929    -114.9487   0.10355612   -114.84515    875.19737    4.2720028    4.2720028    4.2720028    875.19737   -3629.5531     3321.007    2934.1382    147.16525    414.94425    888.11678    77.964082 
   77200    75.635363   -114.91381  0.068436466   -114.84538      792.314    4.2739509    4.2739509    4.2739509      792.314   -6477.3319    2249.8636    6604.4103   -57.044057   -426.79325   -1080.1356    78.070793 
   77300     99.15864   -114.93509  0.089720821   -114.84537   -1960.0856    4.2730659    4.2730659    4.2730659   -1960.0856   -4427.7294    -1984.008    531.48058   -142.27359   -137.93898   -622.84371    78.022304 
   77400    87.756808   -114.92469  0.079404204   -114.84529    847.81034    4.2724544    4.2724544    4.2724544    847.81034   -3745.1532    1930.9239    4357.6603   -259.25975   -38.832393   -1540.3556    77.988813 
   77500    128.48658   -114.96132   0.11625736   -114.84506   -2271.4507    4.2740002    4.2740002    4.2740002   -2271.4507   -5596.0109    666.36294   -1884.7041    82.180602    749.24743    1137.1849    78.073492 
   77600    56.060699   -114.89641  0.050724899   -114.84568    998.79219    4.2726928    4.2726928    4.2726928    998.79219   -3805.1063   -234.64899    7036.1318    280.09669    -571.1748   -1895.0097    78.001867 
   77700    101.69122   -114.93735  0.092012357   -114.84534   -1154.4296    4.2728967    4.2728967    4.2728967   -1154.4296   -4456.7393   -878.18396    1871.6345   -263.33827    356.09383   -191.36188    78.013034 
   77800    92.969084   -114.92921  0.084120381   -114.84509    1285.4302    4.2729676    4.2729676    4.2729676    1285.4302   -3839.3772    3641.5612    4054.1066   -317.82569   -288.08676   -939.79506    78.016922 
   77900    121.35928   -114.95474   0.10980843   -114.84493   -1874.6548     4.273442     4.273442     4.273442   -1874.6548   -5606.5756     226.8043   -244.19311   -358.07346    376.49232    850.65206    78.042909 
   78000     49.15245   -114.89019   0.04447417   -114.84572    2040.0098    4.2726756    4.2726756    4.2726756    2040.0098   -3914.4705    2903.2292    7131.2706   -691.18667   -482.90894   -801.59691    78.000926 
   78100    115.22972   -114.94955   0.10426227   -114.84529   -1379.3715    4.2728744    4.2728744    4.2728744   -1379.3715   -5125.5318   -1856.4337     2843.851    560.02851    439.17397   -310.25673    78.011814 
   78200    79.384058   -114.91714  0.071828364   -114.84531    1175.0544     4.273571     4.273571     4.273571    1175.0544   -4791.2626    3961.4573    4354.9686   -168.53805    430.40428    -987.6592    78.049978 
   78300    122.26348   -114.95583   0.11062656    -114.8452   -3445.0554    4.2731553    4.2731553    4.2731553   -3445.0554   -5454.9543   -2712.8862   -2167.3257   -405.90188   -284.24301    438.77397    78.027203 
   78400    45.514121   -114.88702  0.041182133   -114.84583    1467.4077    4.2724319    4.2724319    4.2724319    1467.4077   -2717.7164    867.41955    6252.5201   -262.62437   -391.73217   -1684.0075    77.987581 
   78500    123.75443   -114.95714    0.1119756   -114.84517   -2269.4291    4.2741369    4.2741369    4.2741369   -2269.4291   -6268.5807   -1135.0433    595.33673    627.37851    401.53364     263.0629    78.080986 
   78600    76.167564   -114.91424  0.068918013   -114.84532     1655.048    4.2723046    4.2723046    4.2723046     1655.048   -2314.7013    2412.6247    4867.2205    212.88615    457.04718   -1529.1524    77.980607 
   78700     108.5617   -114.94341  0.098228912   -114.84518   -2198.8456    4.2729902    4.2729902    4.2729902   -2198.8456   -3725.0911    -2637.698   -233.74764   -860.01349   -388.36895    133.60619    78.018155 
   78800    64.512087    -114.9038  0.058371892   -114.84543    1766.2371    4.2735593    4.2735593    4.2735593    1766.2371   -3909.8287    5049.6477    4158.8924    -431.3841   -228.79162   -954.55527    78.049332 
   78900     129.0954   -114.96164   0.11680824   -114.84484   -560.58101    4.2727323    4.2727323    4.2727323   -560.58101    -3173.973   -1456.9726    2949.2026    636.75364    845.39627    893.30787     78.00403 
   79000    60.417642   -114.90001  0.054667153   -114.84534     2517.481    4.2725452    4.2725452    4.2725452     2517.481   -3201.8055    3341.2844    7412.9641   -172.33003   -104.22675   -1351.7023    77.993785 
   79100    116.06047   -114.95018   0.10501395   -114.84517   -3322.0086     4.273767     4.273767     4.273767   -3322.0086   -4392.3784   -3795.9831   -1777.6644   -1145.4072   -428.94621    191.16354    78.060712 
   79200     73.96112   -114.91243  0.066921575   -114.84551    1300.3883    4.2729364    4.2729364    4.2729364    1300.3883   -3536.5142      4015.24    3422.4392     229.9992   -619.95671   -1335.2072    78.015211 
   79300    121.99742    -114.9554   0.11038583   -114.84501    -1427.423     4.272811     4.272811     4.272811    -1427.423   -3374.9562   -2460.6279    1553.3152     474.0506    1576.5732    1189.5678    78.008343 
   79400    64.594908   -114.90397  0.058446831   -114.84553    136.21902     4.272971     4.272971     4.272971    136.21902   -3916.2854   -876.12228    5201.0648    438.41283    205.76384   -2084.7368    78.017106 
   79500    107.60014    -114.9426   0.09735887   -114.84524   -2437.7876    4.2740218    4.2740218    4.2740218   -2437.7876    -3575.083   -1658.0435   -2080.2363   -978.06978   -170.85274    -271.5208    78.074679 
   79600    99.282499   -114.93508  0.089832892   -114.84525    1325.3546    4.2722815    4.2722815    4.2722815    1325.3546   -2800.8406    4738.0722    2038.8321    144.74515   -678.70742   -549.57165    77.979345 
   79700    110.06313   -114.94487   0.09958743   -114.84528   -128.68948    4.2727685    4.2727685    4.2727685   -128.68948   -1697.6318   -2492.2532    3803.8166    289.88178    970.06327    729.47676    78.006013 
   79800    61.846491   -114.90159  0.055960005   -114.84563    1437.0143    4.2737722    4.2737722    4.2737722    1437.0143    -3772.208    4089.7988     3993.452   -515.28916    468.17654   -1330.1337    78.060999 
   79900    129.46394   -114.96228   0.11714169   -114.84513   -1093.8877    4.2724001    4.2724001    4.2724001   -1093.8877   -1155.8113   -3238.2341    1112.3824   -713.08648   -287.54112    201.68186    77.985841 
   80000    87.993131   -114.92492  0.079618035    -114.8453    2258.8648    4.2725595    4.2725595    4.2725595    2258.8648   -1666.0769    4135.1563    4307.5149    97.457926   -63.992238   -747.28715    77.994571 
   80100    117.84015   -114.95181   0.10662424   -114.84519   -2597.0064    4.2740655    4.2740655    4.2740655   -2597.0064   -4175.3464   -2712.5834   -903.08936    478.48879    547.07263     284.3982    78.077072 
   80200    63.711654   -114.90322  0.057647644   -114.84557    1018.3696    4.2723973    4.2723973    4.2723973    1018.3696    -1572.545    1243.4161    3384.2378    33.835247    994.41055   -1622.4311    77.985688 
   80300    130.59366   -114.96303   0.11816389   -114.84487   -1959.3137    4.2732378    4.2732378    4.2732378   -1959.3137   -2875.9213   -3938.3092    936.28937    -713.4298   -803.02904    153.47784     78.03172 
   80400    98.207225   -114.93399  0.088859961   -114.84513   -317.39918    4.2734845    4.2734845    4.2734845   -317.39918   -3629.7555    2548.4857    129.07227    36.314479    539.99685   -784.44839    78.045234 
   80500    102.51376   -114.93799  0.092756602   -114.84523   -1641.0439    4.2733994    4.2733994    4.2733994   -1641.0439   -3111.9773   -985.08385   -826.07059    583.22803   -100.97751   -845.43605    78.040573 
   80600    80.707279   -114.91841  0.073025642   -114.84538    1598.5078    4.2726612    4.2726612    4.2726612    1598.5078   -1760.9823     3695.666    2860.8397    45.810853    1869.9176   -425.44027    78.000139 
   80700    135.96552   -114.96793   0.12302446    -114.8449   -673.87423    4.2730285    4.2730285    4.2730285   -673.87423   -2703.3476   -3390.0025    4071.7274   -747.50496   -556.52385    668.37153    78.020253 
   80800    84.009242   -114.92147  0.076013327   -114.84546    1660.5748    4.2733369    4.2733369    4.2733369    1660.5748   -1974.4266    5962.3564    993.79439   -488.31157   -141.12399   -837.13685    78.037152 
   80900    115.07364   -114.94954   0.10412104   -114.84542   -1279.6329    4.2725789    4.2725789    4.2725789   -1279.6329   -1670.5713   -2427.8019    259.47458    478.85558    -199.1534   -349.02465    77.995628 
   81000    87.188629   -114.92433  0.078890103   -114.84544    1697.2778    4.2727079    4.2727079    4.2727079    1697.2778   -875.74144    1751.4713    4216.1034    451.37714    1126.7171   -402.15483    78.002696 
   81100    131.97583   -114.96447   0.11941451   -114.84506   -1496.2018    4.2740661    4.2740661    4.2740661   -1496.2018   -3610.6402   -1546.7623      668.797   -1100.7695   -27.991004    979.86818    78.077107 
   81200    85.222533   -114.92265  0.077111139   -114.84554    218.14916    4.2721898    4.2721898    4.2721898    218.14916    -1463.604     1560.404     557.6474   -273.42812   -155.62428   -1477.4361    77.974326 
   81300    110.75863   -114.94554   0.10021674   -114.84532   -1747.2234    4.2733727    4.2733727    4.2733727   -1747.2234   -2150.6232   -2864.4803    -226.5668    955.14239    318.61135   -1391.0032    78.039109 
   81400    106.69048    -114.9418  0.096535791   -114.84526    472.76562    4.2737283    4.2737283    4.2737283    472.76562   -3917.8549    5915.4346   -579.28286    530.08986    935.04271    232.20667    78.058593 
   81500    116.80266   -114.95093   0.10568551   -114.84525    128.88766    4.2721629    4.2721629    4.2721629    128.88766   -1912.3236   -1006.6554     3305.642   -979.74515    -52.47656    650.39518     77.97285 
   81600    82.983549   -114.92058  0.075085259    -114.8455    873.56022    4.2730796    4.2730796    4.2730796    873.56022    -3172.068    3498.3107     2294.438   -1201.1585   -588.04222   -837.91506    78.023056 
   81700    127.32062   -114.96024   0.11520237   -114.84503   -1162.4569    4.2735032    4.2735032    4.2735032   -1162.4569   -2660.8233   -832.60945     6.062073    998.16861    709.85729   -1336.0273    78.046263 
   81800    99.458032   -114.93516  0.089991717   -114.84517    2413.8621    4.2722658    4.2722658    4.2722658    2413.8621   -2472.3416    7539.1054    2174.8224    216.63936    878.10153    467.80477    77.978484 
   81900     108.6371   -114.94354  0.098297129   -114.84524   -389.34532    4.2729839    4.2729839    4.2729839   -389.34532   -1777.1002   -1899.5318     2508.596   -867.87748   -89.072974    552.02745    78.017812 
   82000    94.013867   -114.93048  0.085065722   -114.84541   -943.12503     4.273399     4.273399     4.273399   -943.12503   -3428.3194   -1409.4134    2008.3577   -736.68392   -924.06626   -440.44221    78.040553 
   82100    118.65692   -114.95237   0.10736328   -114.84501   -552.93812    4.2735609    4.2735609    4.2735609   -552.93812   -2095.4759    1417.2068    -980.5453    748.67217    225.99897   -1892.2119    78.049424 
   82200    108.33842   -114.94311   0.09802688   -114.84508    442.41458    4.2724521    4.2724521    4.2724521    442.41458   -3297.5118    5219.8278   -595.07225    288.87988    736.53285    575.16881    77.988687 
   82300    99.008308   -114.93496  0.089584797   -114.84537   -1087.0877    4.2732853    4.2732853    4.2732853   -1087.0877   -2924.1339   -2420.0876    2082.9584   -432.61446    271.17231   -363.19551    78.034321 
   82400    96.021217   -114.93235  0.086882015   -114.84547    317.08726    4.2737562    4.2737562    4.2737562    317.08726   -4193.7979    5563.3836   -418.32388   -647.48521   -598.86284    150.56011    78.060124 
   82500    128.33907   -114.96124   0.11612388   -114.84511    269.70991    4.2719312    4.2719312    4.2719312    269.70991   -2492.9933    1020.3303    2281.7928    349.86116    626.85037   -1177.8957    77.960167 
   82600    91.584567   -114.92824  0.082867641   -114.84537    742.14497    4.2731805    4.2731805    4.2731805    742.14497   -4450.2404    5707.6476     969.0278   -499.51686   -18.030413    43.524941    78.028579 
   82700    109.02872   -114.94399  0.098651479   -114.84533   -1672.8311    4.2740891    4.2740891    4.2740891   -1672.8311   -5082.6199   -71.205073    135.33185   -360.94115    382.07127   -9.2689376    78.078365 
   82800    91.163771   -114.92784  0.082486896   -114.84536    1716.3862    4.2718139    4.2718139    4.2718139    1716.3862   -2136.5892    3905.4958    3380.2518   -166.29348   -984.93436    529.09711    77.953745 
   82900    123.36067   -114.95668   0.11161933   -114.84506   -1062.3241    4.2734815    4.2734815    4.2734815   -1062.3241   -4783.0509   -652.39897    2248.4776   -242.72172    666.96316   -995.43393    78.045073 
   83000    92.705455   -114.92925  0.083881844   -114.84537   -990.31378    4.2737872    4.2737872    4.2737872   -990.31378   -4432.9856    2367.3267   -905.28245   -1.2170015   -286.11137   -551.91562    78.061819 
   83100    97.921702    -114.9339  0.088601614    -114.8453   -162.55464    4.2725426    4.2725426    4.2725426   -162.55464   -3379.3211    1975.6627    915.99455    5.5142659    730.64656   -796.21474    77.993643 
   83200    105.55203   -114.94064  0.095505699   -114.84514    685.02969    4.2729136    4.2729136    4.2729136    685.02969   -3298.1618     5269.754    83.496814   0.45775454   -1071.0435    1357.4145    78.013961 
   83300    112.43878    -114.9468   0.10173697   -114.84506    -942.1818    4.2733001    4.2733001    4.2733001    -942.1818   -5413.5024   -1030.4614    3617.4184   -447.06086    259.12471   -939.79328    78.035132 
   83400    81.580097   -114.91926  0.073815386   -114.84544    792.56136    4.2729352    4.2729352    4.2729352    792.56136   -3652.6715    7011.4383    -981.0827   -612.37788    -353.1393   -1267.7566    78.015147 
   83500    110.94348   -114.94572   0.10038399   -114.84534   -145.08921    4.2725149    4.2725149    4.2725149   -145.08921   -4351.3336     3003.807    912.25888    169.35376    649.70898   -691.70775    77.992128 
   83600    100.27609   -114.93597  0.090731914   -114.84524    19.491328    4.2733353    4.2733353    4.2733353    19.491328   -5168.2659    3374.1152    1852.6246   -122.01975      11.2172    1985.7631    78.037063 
   83700     100.5694   -114.93617  0.090997308   -114.84517   -843.43012    4.2737215    4.2737215    4.2737215   -843.43012    -6551.181    294.33753    3726.5531   -536.82065   -474.49337   -671.71008    78.058222 
   83800    88.584065   -114.92546  0.080152724   -114.84531     361.4079    4.2720885    4.2720885    4.2720885     361.4079   -3378.4792    3368.6537    1094.0493   -300.43276    139.66639   -1086.1236    77.968776 
   83900    106.06036   -114.94106  0.095965645   -114.84509   -903.63029    4.2735519    4.2735519    4.2735519   -903.63029   -5673.2927    1941.5058    1020.8961   -127.52106   -575.54298   -1188.8107     78.04893 
   84000    100.09555   -114.93572  0.090568557   -114.84515   -369.66224    4.2736127    4.2736127    4.2736127   -369.66224   -5747.8816    4521.4146    117.48034    142.87936    541.55282    2242.3406    78.052258 
   84100    90.567097   -114.92727  0.081947013   -114.84533    503.39648    4.2719314    4.2719314    4.2719314    503.39648   -3683.2405    150.67703    5042.7529   -70.753728   -899.55121   -902.87865    77.960179 
   84200    95.171661   -114.93139  0.086113319   -114.84528   -220.16482     4.273508     4.273508     4.273508   -220.16482    -5362.697    5820.6413   -1118.4387   -201.96645    900.94922   -1233.0337    78.046523 
   84300    103.12031   -114.93842  0.093305423   -114.84511   -223.19423    4.2733986    4.2733986    4.2733986   -223.19423    -4933.119    2586.7459    1676.7904   -232.44809   -787.87713   -836.61129    78.040532 
   84400    92.555996   -114.92899   0.08374661   -114.84525    755.41229    4.2722575    4.2722575    4.2722575    755.41229   -4642.7053    6069.5582    839.38391   -472.47621    426.02857    1758.0623    77.978032 
   84500    94.287808   -114.93068   0.08531359   -114.84537   -478.95311    4.2733236    4.2733236    4.2733236   -478.95311   -4959.9452    1138.1181    2384.9678   -294.39109   -817.39605     -434.675    78.036424 
   84600    97.514239   -114.93357  0.088232933   -114.84534   -1005.7738    4.2736069    4.2736069    4.2736069   -1005.7738    -5604.953    808.89715    1778.7346   -190.48174    764.61207    -1024.661    78.051943 
   84700    93.141983   -114.92947  0.084276823    -114.8452    338.04126    4.2728836    4.2728836    4.2728836    338.04126   -5349.8034     2778.816    3585.1112   -786.09308   -650.65771   -767.45501    78.012316 
   84800    101.21615    -114.9367  0.091582496   -114.84512   -516.72276    4.2727018    4.2727018    4.2727018   -516.72276   -5350.9626    3822.2883   -21.493942    526.52652    136.18247    1031.5106    78.002364 
   84900    91.171215   -114.92766  0.082493631   -114.84517   -696.29416    4.2735242    4.2735242    4.2735242   -696.29416   -5080.2108    72.138705    2919.1896   -52.653169   -205.21326     -170.239    78.047413 
   85000    94.254309   -114.93058   0.08528328   -114.84529    257.51616    4.2730981    4.2730981    4.2730981    257.51616   -5004.3067    4377.3698    1399.4854    -175.7653    471.35194    -641.0511    78.024068 
   85100    104.34859   -114.93974  0.094416797   -114.84532    265.57163    4.2721419    4.2721419    4.2721419    265.57163   -4758.1429    1680.5183    3874.3395   -759.96503   -491.21531   -811.87008    77.971702 
   85200    88.289469   -114.92517  0.079886167   -114.84528   -323.51653    4.2738593    4.2738593    4.2738593   -323.51653   -5358.9754    6154.5111   -1766.0853    285.11547   -579.94169    202.74189     78.06577 
   85300    104.41591   -114.93954  0.094477706   -114.84506   -1161.8318    4.2733984    4.2733984    4.2733984   -1161.8318   -4636.1621    469.24205    681.42462    11.699215    455.97069    17.243648    78.040516 
   85400    91.133412   -114.92763  0.082459426   -114.84518    1092.3901    4.2719715    4.2719715    4.2719715    1092.3901   -2761.8907    2366.6564    3672.4046   -860.79729    469.29043    138.21753    77.962369 
   85500    103.34944   -114.93859  0.093512748   -114.84508     -895.441    4.2738459    4.2738459    4.2738459     -895.441   -6428.6811    1205.3242    2537.0339   -496.83414   -33.640659   -1209.8946    78.065038 
   85600    90.215602   -114.92685  0.081628972   -114.84522   -368.69493    4.2731841    4.2731841    4.2731841   -368.69493   -3396.7234    1638.4459    652.19269    650.33759   -636.41103   -63.021083     78.02878 
   85700    107.91476   -114.94274  0.097643545    -114.8451   -318.10852      4.27244      4.27244      4.27244   -318.10852   -3731.0623    254.18939    2522.5473   -210.52483    114.45657    193.91017    77.988023 
   85800    96.848806   -114.93278  0.087630835   -114.84515    478.88351    4.2732276    4.2732276    4.2732276    478.88351   -4797.3219    3217.5935    3016.3789   -1078.8571     10.54922    706.45067    78.031164 
   85900    101.40842   -114.93692  0.091756468   -114.84516   -351.33956    4.2731422    4.2731422    4.2731422   -351.33956   -4728.3379   -248.94103    3923.2603    161.77656    174.24341   -1516.5297    78.026481 
   86000    89.420737   -114.92626  0.080909762   -114.84535    839.37805    4.2727258    4.2727258    4.2727258    839.37805   -2664.4396    4638.1621    544.41161    640.07544   -201.64138   -614.02969    78.003677 
   86100    117.64064   -114.95178   0.10644372   -114.84534   -1045.8155    4.2729336    4.2729336    4.2729336   -1045.8155   -4892.0307    1644.7964     109.7878   -233.70128     756.5948    450.84957     78.01506 
   86200    93.285299   -114.92987  0.084406499   -114.84547   -193.89056    4.2736801    4.2736801    4.2736801   -193.89056   -4987.7211     2121.151    2284.8984   -1433.7314   -366.32383    750.69491    78.055953 
   86300    107.91888   -114.94285  0.097647268   -114.84521   -953.80057    4.2731588    4.2731588    4.2731588   -953.80057   -3486.9748    -1152.079    1777.6521    168.72369    257.88144   -1601.5062    78.027394 
   86400    91.362153   -114.92787  0.082666396   -114.84521    779.59513    4.2721836    4.2721836    4.2721836    779.59513   -2033.9572    1059.1398    3313.6027    354.46881   -436.64971   -862.73746    77.973985 
   86500    114.03371    -114.9482    0.1031801   -114.84502   -1270.8809    4.2740618    4.2740618    4.2740618   -1270.8809   -4697.6816    1215.6273   -330.58847   -1009.2604    876.29703    882.86799    78.076872 
   86600    100.20782   -114.93591  0.090670145   -114.84524    312.05552    4.2728153    4.2728153    4.2728153    312.05552   -3374.3615    591.15926    3719.3688   -497.46548   -378.94606     334.5543    78.008577 
   86700    113.35734   -114.94777    0.1025681   -114.84521     88.93119    4.2722608    4.2722608    4.2722608     88.93119   -1021.7484   -2162.8778    3451.4198    546.48603    581.15718   -968.23989    77.978209 
   86800    88.029187   -114.92494  0.079650658   -114.84529    1214.1351    4.2739298    4.2739298    4.2739298    1214.1351   -4627.3265     4530.555    3739.1767    269.24636   -586.62269   -776.44137    78.069636 
   86900     117.8428   -114.95168   0.10662664   -114.84506   -516.36992    4.2727626    4.2727626    4.2727626   -516.36992   -3014.3746    824.29206    640.97275   -944.46207    871.98105    997.85143    78.005691 
   87000     102.0593   -114.93745  0.092345399    -114.8451    783.97043    4.2725135    4.2725135    4.2725135    783.97043   -2687.9362    2082.7239    2957.1236   -518.45499   -471.84087    -284.9616    77.992049 
   87100    113.68662     -114.948   0.10286605   -114.84513   -1171.0361    4.2738282    4.2738282    4.2738282   -1171.0361   -3331.3536    41.612564   -223.36731    609.84785    521.02224   -853.62577    78.064068 
   87200    89.484199   -114.92636  0.080967184    -114.8454    189.50631     4.272904     4.272904     4.272904    189.50631   -4425.7174    168.26219    4825.9742   -725.28153    91.851873   -565.25458    78.013435 
   87300    118.43338   -114.95226   0.10716101    -114.8451   -1077.4958    4.2730211    4.2730211    4.2730211   -1077.4958   -2570.8461   -391.50526   -270.13618    -1025.578    528.36511    333.37072     78.01985 
   87400     102.4709   -114.93793  0.092717828   -114.84522    5.3260129    4.2729032    4.2729032    4.2729032    5.3260129   -2417.2635    -395.9609    2829.2024   -236.32384    536.16245    -324.7309    78.013393 
   87500    112.55797   -114.94698   0.10184482   -114.84514   -1033.9893    4.2734255    4.2734255    4.2734255   -1033.9893   -2380.5551   -654.85458   -66.558287    260.91016   -483.04209    -467.3777    78.042003 
   87600    93.050353   -114.92966  0.084193915   -114.84546    1360.6309    4.2727545    4.2727545    4.2727545    1360.6309   -2816.0036    80.795428    6817.1008   -662.77095    8.7009598   -29.105062    78.005246 
   87700    124.79555   -114.95828   0.11291764   -114.84536    22.185168    4.2724052    4.2724052    4.2724052    22.185168   -1572.4305   -412.35661    2051.3426   -460.20308   -60.539772    -331.8175    77.986121 
   87800    91.530981   -114.92829  0.082819155   -114.84547    1287.8328    4.2738576    4.2738576    4.2738576    1287.8328   -2559.1464     4593.839    1828.8059   -66.549198    1514.1054   -398.29841     78.06568 
   87900    120.47083   -114.95415   0.10900454   -114.84514   -1044.9613    4.2728155    4.2728155    4.2728155   -1044.9613   -2448.2863   -476.91783   -209.67963    243.46149   -681.98987   -27.743556    78.008589 
   88000    89.284481   -114.92606  0.080786475   -114.84527    1542.8933    4.2720916    4.2720916    4.2720916    1542.8933   -2332.6067   -526.68356    7487.9703   -736.67298    393.43635    166.77507     77.96895 
   88100    120.38347   -114.95392    0.1089255   -114.84499   -1560.6885    4.2743998    4.2743998    4.2743998   -1560.6885   -4243.3178    1398.9843   -1837.7321    -652.4706   -674.72636   -548.23028    78.095396 
   88200    90.103449    -114.9268  0.081527494   -114.84528   -278.64645    4.2725139    4.2725139    4.2725139   -278.64645   -2577.0028   -307.44671    2048.5102   -531.36041    2066.3374   -1226.6461     77.99207 
   88300    115.37539   -114.94949   0.10439408   -114.84509   -1931.1136    4.2729549    4.2729549    4.2729549   -1931.1136   -3630.4353   -1995.0243   -167.88131   -735.97383   -375.72349    842.73698    78.016223 
   88400    97.286824   -114.93323  0.088027163   -114.84521    201.19255    4.2739043    4.2739043    4.2739043    201.19255   -3683.3419   -1404.7376    5691.6572    419.29231    263.26017   -198.97097    78.068241 
   88500    108.41509   -114.94328  0.098096247   -114.84519   -53.965195    4.2724903    4.2724903    4.2724903   -53.965195   -1776.9993    631.70055    983.40317   -494.57355   -241.27377   -341.53323    77.990779 
   88600    90.744977   -114.92745  0.082107962   -114.84534     653.6896    4.2729705    4.2729705    4.2729705     653.6896   -2631.5596    731.96988    3860.6585   -869.89341    1014.5285   -1326.5617    78.017079 
   88700    115.87553   -114.95004   0.10484662    -114.8452   -498.57958    4.2733001    4.2733001    4.2733001   -498.57958   -3540.4907     794.3434    1250.4085   -521.68002    39.555217    1249.6717    78.035136 
   88800    97.348616   -114.93346  0.088083074   -114.84537      1531.23    4.2728539    4.2728539    4.2728539      1531.23   -2397.7791    2232.0775    4759.3916    555.01667   -462.27186   -307.77236    78.010692 
   88900    99.887897   -114.93574  0.090380668   -114.84536    63.733785    4.2729546    4.2729546    4.2729546    63.733785   -1899.6719    1112.2049    978.66839   -352.11159    41.007376   -673.63763    78.016209 
   89000    85.891785    -114.9231  0.077716692   -114.84539   -162.16398    4.2725947    4.2725947    4.2725947   -162.16398   -4021.2001   -1421.7786    4956.4868   -1490.3396    836.02142   -1001.5785    77.996497 
   89100    110.55028   -114.94509   0.10002822   -114.84507   -1387.5256    4.2738856    4.2738856    4.2738856   -1387.5256   -4811.4501    2864.8082   -2215.9348   -478.81294    541.41857    918.33546    78.067213 
   89200    102.05906   -114.93767  0.092345179   -114.84532   -631.51846    4.2727461    4.2727461    4.2727461   -631.51846   -3426.2207   -1650.1999    3181.8652    781.86635   -189.83404   -319.47591     78.00479 
   89300    79.760827   -114.91779  0.072169272   -114.84562   -463.05339    4.2726017    4.2726017    4.2726017   -463.05339    -3150.937   -1601.9492     3363.726   -1053.9459    158.72931   -741.04716    77.996881 
   89400    95.675156   -114.93197  0.086568892    -114.8454   -1067.5543    4.2744116    4.2744116    4.2744116   -1067.5543    -6655.757   -94.448302    3547.5424   -1368.9534    13.397681   -621.13691    78.096042 
   89500    100.04432   -114.93563  0.090522206   -114.84511    949.10483    4.2721199    4.2721199    4.2721199    949.10483   -1956.6301    3917.3215    886.62317    220.69263    397.57432    349.64083    77.970494 
   89600    99.290296   -114.93497  0.089839947   -114.84513    20.211664     4.272602     4.272602     4.272602    20.211664   -3906.6336    43.459369    3923.8093    663.19684    70.242295    34.368993    77.996894 
   89700    75.249517   -114.91342  0.068087345   -114.84533    194.40281    4.2740406    4.2740406    4.2740406    194.40281   -4889.8245    2084.2818    3388.7511   -913.92323    311.69841   -140.04698    78.075709 
   89800    97.532486    -114.9334  0.088249443   -114.84516    400.15478    4.2721703    4.2721703    4.2721703    400.15478   -4135.7363    837.60538    4498.5952   -1096.8559   -183.46239    -645.3476    77.973259 
   89900      93.6154   -114.92976  0.084705182   -114.84505      369.766    4.2728624    4.2728624    4.2728624      369.766   -3070.0923    3949.8559     229.5344    381.07198     194.7329   -119.36371    78.011156 
   90000    91.371961   -114.92788   0.08267527    -114.8452   -2180.3667    4.2738255    4.2738255    4.2738255   -2180.3667   -5403.7283   -2724.7341    1587.3624   -188.12803   -132.07875   -306.89831    78.063921 
   90100    68.419386   -114.90731  0.061907298    -114.8454   -213.09433    4.2728149    4.2728149    4.2728149   -213.09433   -5618.9371     2234.537    2745.1171   -1702.2776    790.69112    344.73808    78.008554 
   90200    107.41676    -114.9423  0.097192939    -114.8451   -1100.2733    4.2731297    4.2731297    4.2731297   -1100.2733   -5291.0716   -1559.1055    3549.3572     -145.308   -474.42452   -872.10077    78.025797 
   90300    76.094857    -114.9143  0.068852226   -114.84544    154.45843    4.2729113    4.2729113    4.2729113    154.45843   -4255.2102    1845.3077    2873.2778    468.87131    852.50257   -232.49837    78.013834 
   90400    91.769639   -114.92847  0.083035098   -114.84543   -1927.8305    4.2738341    4.2738341    4.2738341   -1927.8305   -6610.7652    479.61879    347.65493   -721.59324   -623.58128   -156.60725    78.064394 
   90500    71.345547   -114.90997   0.06455495   -114.84542    1606.1055    4.2724661    4.2724661    4.2724661    1606.1055   -5166.2397    4632.9404    5351.6158   -1291.6483    781.47499    751.29528    77.989455 
   90600    100.53893   -114.93605  0.090969737   -114.84508    257.80976    4.2723894    4.2723894    4.2723894    257.80976   -3968.2228   -516.49242    5258.1445    295.73299   -1041.3871   -1154.0775    77.985251 
   90700     75.83584   -114.91395  0.068617862   -114.84533   -395.86171    4.2740442    4.2740442    4.2740442   -395.86171   -6824.4526    3925.1843    1711.6832    688.52062    601.29484   -336.05835    78.075906 
   90800     88.01893   -114.92508  0.079641378   -114.84543   -1308.4577    4.2725036    4.2725036    4.2725036   -1308.4577   -4339.0313     27.32586    386.33218    -1346.721   -682.63116    99.763123    77.991506 
   90900    74.669727   -114.91291  0.067562738   -114.84535    854.55008     4.272596     4.272596     4.272596    854.55008   -5483.5812    3445.1643    4602.0672   -942.19544    880.39317    753.57646    77.996565 
   91000    104.91085   -114.93999  0.094925539   -114.84506   -2185.1767    4.2743733    4.2743733    4.2743733   -2185.1767   -5740.7197   -3027.3791    2212.5687     178.6832   -398.44491   -1168.6115    78.093943 
   91100    52.339837   -114.89276  0.047358184    -114.8454    533.66079    4.2722239    4.2722239    4.2722239    533.66079   -5062.5875     2772.265    3891.3049    -196.1284    258.54784   -737.73771    77.976193 
   91200    112.39991   -114.94677    0.1017018   -114.84507   -2623.2283    4.2733042    4.2733042    4.2733042   -2623.2283   -6308.1642   -1301.5512   -259.96937   -1251.1745   -596.12818    674.41212    78.035359 
   91300    72.456526   -114.91078  0.065560187   -114.84522    1591.3929    4.2733963    4.2733963    4.2733963    1591.3929   -5571.1133    4532.8689    5812.4232   -120.07754   -18.931525    264.12846    78.040403 
   91400    97.878804    -114.9337  0.088562799   -114.84514   -595.04222     4.272625     4.272625     4.272625   -595.04222   -4287.8125   -212.16788    2714.8537   -173.94547    611.63272   -557.50034    77.998155 
   91500    59.711235   -114.89951   0.05402798   -114.84548    1167.7022    4.2728756    4.2728756    4.2728756    1167.7022   -6472.7972    4153.5902    5822.3135   -188.03374    -311.7208   -582.71784     78.01188 
   91600    112.69602   -114.94705   0.10196973   -114.84508   -1509.1122     4.273231     4.273231     4.273231   -1509.1122   -5492.4089   -347.67871    1312.7511   -635.18233    59.524672    940.29691    78.031351 
   91700    84.234692   -114.92135   0.07621732   -114.84513    709.22532    4.2731267    4.2731267    4.2731267    709.22532   -5601.2803    4596.6221    3132.3342    306.50645   -1159.9664   -324.56008    78.025633 
   91800    94.625693   -114.93093  0.085619316   -114.84531   -1668.2975    4.2730015    4.2730015    4.2730015   -1668.2975   -5145.5015   -1358.8778    1499.4868   -807.31256    939.73659   -883.42922    78.018779 
   91900    52.982837   -114.89362  0.047939984   -114.84568    967.81906    4.2727634    4.2727634    4.2727634    967.81906   -5059.6361     1229.569    6733.5243   -1082.8532   -631.45593   -195.85582    78.005734 
   92000    141.70917   -114.97325   0.12822143   -114.84503   -3520.5939    4.2742954    4.2742954    4.2742954   -3520.5939   -6492.1668   -2892.6892   -1176.9256    236.11657    599.95864    792.80165    78.089674 
   92100     65.68828   -114.90491  0.059436136   -114.84547    2146.9405    4.2721022    4.2721022    4.2721022    2146.9405   -2998.7372      4761.34    4678.2188   -9.3522348   -873.02487   -292.93312    77.969526 
   92200    108.69851   -114.94369  0.098352693   -114.84534   -1974.7146    4.2729944    4.2729944    4.2729944   -1974.7146   -5485.3838   -2082.1328    1643.3729   -1316.7842    716.60725   -1166.0101    78.018385 
   92300    69.318874   -114.90826  0.062721174   -114.84553    2046.2806    4.2736363    4.2736363    4.2736363    2046.2806   -5651.6774    3629.2091    8161.3103   -577.80686    -909.3542    414.04858    78.053551 
   92400    130.82411   -114.96344   0.11837241   -114.84507   -528.18966    4.2721884    4.2721884    4.2721884   -528.18966   -2801.9188    421.40348    795.94633    619.67352    290.07723    602.08932    77.974249 
   92500    88.166859   -114.92515  0.079775227   -114.84537    498.78217    4.2729951    4.2729951    4.2729951    498.78217   -5336.7759    3246.8071    3586.3153    79.764707   -537.60457   -443.09108    78.018429 
   92600     101.2864   -114.93691  0.091646065   -114.84527   -1437.7451    4.2738776    4.2738776    4.2738776   -1437.7451   -6120.8386   -112.81525    1920.4185   -1338.2954    518.07273    -767.6043    78.066774 
   92700    85.998523   -114.92307  0.077813271   -114.84525    1644.7258    4.2722212    4.2722212    4.2722212    1644.7258   -4170.4198    1804.8206    7299.7767   -114.03391   -468.43064    555.71744    77.976042 
   92800    138.04639   -114.96981   0.12490728    -114.8449   -2268.0427     4.273362     4.273362     4.273362   -2268.0427   -4190.0321   -1605.9818    -1008.114    488.21225    194.95899    620.42001    78.038526 
   92900    75.781963   -114.91416  0.068569112   -114.84559    127.16529    4.2732606    4.2732606    4.2732606    127.16529   -4930.3087    567.87212    4743.9324   -1131.5091    64.476974   -1057.5897    78.032968 
   93000    128.50443    -114.9615   0.11627351   -114.84523   -2150.7852    4.2734021    4.2734021    4.2734021   -2150.7852   -4110.5126   -2892.1905    550.34747   -1119.2407   -34.484755   -336.26803    78.040723 
   93100     90.37687   -114.92704  0.081774891   -114.84526    3033.3475    4.2724303    4.2724303    4.2724303    3033.3475   -3602.5862    3569.9771    9132.6516    618.69518   -523.13993    240.30281    77.987495 
   93200    124.36032   -114.95767   0.11252384   -114.84515   -356.69669    4.2728498    4.2728498    4.2728498   -356.69669   -2212.2172   -735.50157    1877.6287   -181.49621    347.59451    959.03824    78.010466 
   93300    105.20174   -114.94051  0.095188744   -114.84532   -222.98962    4.2737508    4.2737508    4.2737508   -222.98962   -5401.6811     68.11528     4664.597   -1233.4924    364.30835   -966.88936    78.059829 
   93400    119.13409   -114.95302   0.10779503   -114.84522    748.77524    4.2724203    4.2724203    4.2724203    748.77524   -1711.4167    2216.3874     1741.355   -38.444889    122.33594   -158.64778    77.986944 
   93500    116.11372   -114.95034   0.10506214   -114.84528    1122.9401    4.2727828    4.2727828    4.2727828    1122.9401   -4213.5128    281.57619    7300.7569    822.22422   -1049.6374   -254.38236      78.0068 
   93600    110.22741   -114.94521  0.099736075   -114.84547   -855.88041    4.2740009    4.2740009    4.2740009   -855.88041   -4571.5329    501.00707    1502.8846   -475.96622    253.29529    883.22467     78.07353 
   93700    104.00445    -114.9396  0.094105416   -114.84549   -480.20913    4.2724364    4.2724364    4.2724364   -480.20913   -3939.0507    -1998.604    4497.0273   -1872.0905     772.4685   -400.92872    77.987828 
   93800    151.06259   -114.98171   0.13668461   -114.84503   -1955.3671    4.2733128    4.2733128    4.2733128   -1955.3671   -3301.2979   -1940.7294   -624.07389    834.01047    133.81478   -215.71575    78.035832 
   93900    97.012266   -114.93325  0.087778737   -114.84547    1685.0472    4.2732935    4.2732935    4.2732935    1685.0472   -3941.9366    189.43293    8807.6452    365.64965   -343.62602   -388.35752    78.034774 
   94000      111.981   -114.94688   0.10132276   -114.84556   -359.27995    4.2725296    4.2725296    4.2725296   -359.27995   -2390.3137   -1919.1368    3231.6107    -1453.057   -147.16607    758.78392    77.992933 
   94100    123.65896   -114.95708   0.11188922   -114.84519    130.24383    4.2732567    4.2732567    4.2732567    130.24383   -3414.2553   -1375.2565    5180.2434   -1038.7905    1070.6457    56.473652    78.032755 
   94200    136.15932   -114.96816   0.12319981   -114.84496    930.05222    4.2729092    4.2729092    4.2729092    930.05222   -2126.9092    2475.2017    2441.8641    642.88211   -411.15856    -320.2449    78.013723 
   94300    113.59498   -114.94797   0.10278312   -114.84519    957.47172    4.2727442    4.2727442    4.2727442    957.47172   -2297.2965   -2110.8837    7280.5954   -41.070204    157.56417   -473.78354    78.004686 
   94400     101.4605   -114.93717  0.091803591   -114.84537    653.24436    4.2730301    4.2730301    4.2730301    653.24436   -3344.1951    2615.2539    2688.6743   -1034.5054   -725.28659    670.78956    78.020343 
   94500    126.86434   -114.95994   0.11478952   -114.84515    282.62973    4.2727405    4.2727405    4.2727405    282.62973    -2829.374   -1306.4164    4983.6796    3.7923277    2036.7825    560.10493    78.004483 
   94600    143.43055   -114.97475   0.12977898   -114.84497   -1412.3752    4.2736136    4.2736136    4.2736136   -1412.3752   -4147.6132    183.75889   -273.27122    810.37876   -505.89208   -780.94464    78.052309 
   94700    92.921725   -114.92948   0.08407753    -114.8454     60.94788    4.2728477    4.2728477    4.2728477     60.94788   -3344.7416   -3147.4558     6675.041   -815.02274    728.48116   -1189.1691     78.01035 
   94800    121.52357   -114.95523   0.10995708   -114.84527   -1167.0508    4.2730448    4.2730448    4.2730448   -1167.0508   -4322.7872   -2455.6233    3277.2581   -1051.3227   -1216.8527    621.86991     78.02115 
   94900    120.38209   -114.95401   0.10892425   -114.84508    791.78783    4.2735028    4.2735028    4.2735028    791.78783   -3211.5106   -555.53882    6142.4129     575.8526    1501.5671    1047.0594    78.046241 
   95000      122.552   -114.95613   0.11088762   -114.84524   -461.69178    4.2726554    4.2726554    4.2726554   -461.69178   -3167.4344   -475.18844    2257.5475   -398.58493    84.262999   -282.26309    77.999822 
   95100    113.66153   -114.94822   0.10284334   -114.84538   -918.50241    4.2733844    4.2733844    4.2733844   -918.50241   -3692.1566   -4882.6453    5819.2947    -1081.266    390.99081   -1457.4294    78.039754 
   95200    104.23901   -114.93966  0.094317647   -114.84534    2019.7069    4.2731363    4.2731363    4.2731363    2019.7069   -2948.4942    3476.7446    5530.8703     137.1174   -760.04751    538.71137    78.026159 
   95300    122.49093   -114.95598   0.11083236   -114.84514    1023.7698    4.2722948    4.2722948    4.2722948    1023.7698   -2521.7461   -496.15643     6089.212    345.04971    453.00584    676.71134    77.980074 
   95400    114.29665   -114.94872   0.10341801    -114.8453   -1155.0879    4.2735308    4.2735308    4.2735308   -1155.0879   -3610.6925      553.615   -408.18619   -622.04433    230.43023   -68.670238    78.047774 
   95500    97.964456   -114.93417  0.088640298   -114.84553    309.83408    4.2729749    4.2729749    4.2729749    309.83408   -4625.9384   -686.36594    6241.8066   -761.51064    56.470679   -1422.2289    78.017321 
   95600    118.66795   -114.95267   0.10737325    -114.8453    148.49082    4.2727881    4.2727881    4.2727881    148.49082   -3235.2392   -1156.0764    4836.7881    673.62426    236.66896     734.2491    78.007089 
   95700    103.94946    -114.9393  0.094055654   -114.84524   -519.99535    4.2734783    4.2734783    4.2734783   -519.99535   -5512.2729   -1552.3444    5504.6313    173.08657    352.91785    294.73001    78.044899 
   95800    103.32051   -114.93868  0.093486566    -114.8452   -1347.0031    4.2729251    4.2729251    4.2729251   -1347.0031   -4379.3369    -2243.165    2581.4927   -1564.7885    953.99784    177.81069     78.01459 
   95900    101.54829   -114.93701  0.091883029   -114.84513    304.25925    4.2730725    4.2730725    4.2730725    304.25925   -5044.5054   -818.37333    6775.6565    247.92393   -1067.6851   -1056.9812    78.022663 
   96000    108.88763   -114.94355  0.098523814   -114.84502     213.1372    4.2730279    4.2730279    4.2730279     213.1372   -3838.4009   -1061.9259    5539.7384    378.62895    302.96293    264.63754    78.020224 
   96100    95.565501   -114.93171  0.086469674   -114.84524   -39.643626    4.2726765    4.2726765    4.2726765   -39.643626   -5227.2013   -1836.1096      6944.38   -1034.7011   -127.98049    643.34922    78.000977 
   96200    99.820805   -114.93544  0.090319962   -114.84512   -229.83817    4.2733551    4.2733551    4.2733551   -229.83817    -3644.436    1862.2979    1092.6236   -1061.5826    1096.6347    57.258835    78.038145 
   96300    92.600232   -114.92888  0.083786636    -114.8451    1309.5459    4.2725987    4.2725987    4.2725987    1309.5459   -4239.7324    2534.1368    5634.2333    1110.8491   -854.48368   -388.24681    77.996714 
   96400    110.61644   -114.94505   0.10008808   -114.84497   -747.42675    4.2729983    4.2729983    4.2729983   -747.42675   -4468.9886   -1795.6339    4022.3422     335.9836    208.04251   -1098.4903    78.018601 
   96500    71.145141   -114.90976  0.064373619   -114.84538    972.16298    4.2731261    4.2731261    4.2731261    972.16298   -4931.2122     1766.609    6081.0922    -1204.676    -74.90323    383.03215    78.025604 
   96600    107.44896   -114.94247  0.097222077   -114.84525   -1443.8608    4.2729962    4.2729962    4.2729962   -1443.8608   -5133.0917   -2112.2133    2913.7227   -566.31112    447.50719    424.99878    78.018484 
   96700    89.821935   -114.92655  0.081272774   -114.84528   -301.74167    4.2733449    4.2733449    4.2733449   -301.74167   -5572.9901     323.0956    4344.6695    1335.9074   -634.54152    340.50165    78.037589 
   96800    93.917745   -114.93025   0.08497875   -114.84527   -924.22063    4.2730531    4.2730531    4.2730531   -924.22063   -5996.0895    -2553.263    5776.6905   -379.37129    401.30323   -1342.3147    78.021605 
   96900    62.180843   -114.90179  0.056262533   -114.84553    787.01082    4.2727137    4.2727137    4.2727137    787.01082   -5357.0262   -184.64966    7902.7084   -1706.2616    254.72422   -313.94562    78.003013 
   97000    117.64579   -114.95155   0.10644839   -114.84511   -3068.4083    4.2738885    4.2738885    4.2738885   -3068.4083   -6611.1426   -3472.0463     877.9641    639.88432    46.922778     704.9059    78.067372 
   97100    73.757593   -114.91224   0.06673742   -114.84551    982.53726    4.2725029    4.2725029    4.2725029    982.53726   -4996.5482    2664.8498    5279.3101    301.94806   -1166.8288    220.94144    77.991467 
   97200     92.58725   -114.92915   0.08377489   -114.84537   -572.92521     4.273065     4.273065     4.273065   -572.92521   -5661.3227    270.86608     3671.681   -949.84945    133.78948   -837.86328    78.022256 
   97300    61.230344   -114.90081  0.055402502   -114.84541    972.89192    4.2734119    4.2734119    4.2734119    972.89192   -4958.9993    2444.9165    5432.7586   -789.49617    310.26726   -718.51902    78.041257 
   97400    109.08007   -114.94361  0.098697939   -114.84492   -1463.4151    4.2727104    4.2727104    4.2727104   -1463.4151   -5423.2204   -1627.3918     2660.367    1076.3098    232.57075    1285.7641    78.002834 
   97500    77.633931   -114.91537  0.070244812   -114.84513    923.57168    4.2728885    4.2728885    4.2728885    923.57168   -4789.2388    3246.4783    4313.4755    152.33297   -827.23685    118.83523    78.012586 
   97600    85.500595    -114.9225  0.077362735   -114.84513    -881.6925     4.273408     4.273408     4.273408    -881.6925   -5928.5665   -1398.0307    4681.5197   -1157.1563    280.75901   -1114.8849    78.041048 
   97700    62.216871    -114.9016  0.056295132    -114.8453    540.73111    4.2726505    4.2726505    4.2726505    540.73111   -5510.6925   -693.68197    7826.5678    53.087286   -81.525822   -567.50044    77.999553 
   97800    108.96955   -114.94346  0.098597938   -114.84486   -1987.3118    4.2732402    4.2732402    4.2732402   -1987.3118   -5854.0191   -2294.0661    2186.1497    993.60665   -51.472139    1027.2088     78.03185 
   97900     71.41636   -114.90979  0.064619024   -114.84517    104.76998    4.2730554    4.2730554    4.2730554    104.76998   -5945.1735    495.46759    5764.0159   -1209.4665   -516.81511    1430.6155    78.021727 
   98000    92.771356     -114.929  0.083941472   -114.84505    -2157.122    4.2733289    4.2733289    4.2733289    -2157.122   -6565.7366   -2071.2144    2165.5849   -912.29833    291.90258   -1735.9494    78.036711 
   98100    60.866808   -114.90043  0.055073567   -114.84536    1281.5739    4.2727067    4.2727067    4.2727067    1281.5739   -5381.8245    3077.7606    6148.7858    687.65603    209.39731   -426.27935    78.002631 
   98200    99.090428   -114.93486  0.089659102    -114.8452    -470.3588    4.2729847    4.2729847    4.2729847    -470.3588    -5254.536    639.64084    3203.8187     156.0994   -590.05863   -215.60667    78.017856 
   98300    90.208022   -114.92693  0.081622114   -114.84531   -868.87368    4.2734648    4.2734648    4.2734648   -868.87368   -5518.9823    490.57246    2421.7888   -998.13661   -43.154034    1678.6052    78.044159 
   98400    77.925691   -114.91587  0.070508803   -114.84536    258.71443    4.2725955    4.2725955    4.2725955    258.71443   -4120.7376    1991.0408    2905.8401   -72.235029   -193.84408   -1593.4128    77.996541 
   98500    78.627581    -114.9165  0.071143888   -114.84536    1507.3979    4.2725628    4.2725628    4.2725628    1507.3979   -4929.9426    1775.4416    7676.6947    705.86246    625.45431    223.55248    77.994752 
   98600    102.16902   -114.93772  0.092444678   -114.84527   -950.08976    4.2736368    4.2736368    4.2736368   -950.08976   -5044.7473   -683.03174    2877.5098   -210.45778   -802.34864   -448.71123    78.053582 
   98700    72.214718   -114.91089  0.065341394   -114.84555   -159.37877    4.2726377    4.2726377    4.2726377   -159.37877   -4111.0354   -1504.4597    5137.3588   -863.58467    742.51938    1606.0674    77.998848 
   98800    111.41013    -114.9461   0.10080623   -114.84529   -2429.4987    4.2732685    4.2732685    4.2732685   -2429.4987   -5733.2656    -1891.898    336.66744    720.34928   -337.64053   -1583.8966    78.033404 
   98900     67.85417   -114.90676  0.061395879   -114.84536    1230.3043    4.2735161    4.2735161    4.2735161    1230.3043   -4712.6162    1122.3054    7281.2238   -111.08918    438.27792    453.94219    78.046966 
   99000    100.59171   -114.93609   0.09101749   -114.84508   -1486.4719    4.2727692    4.2727692    4.2727692   -1486.4719     -5654.14   -376.00963    1570.7341   -1306.9646   -1386.4636   -328.44867    78.006055 
   99100     87.72871   -114.92449  0.079378781   -114.84511   -701.96022    4.2730659    4.2730659    4.2730659   -701.96022   -4059.5343    203.05883    1750.5948    228.84266    1048.9714    1326.0416    78.022303 
   99200    107.25341   -114.94203  0.097045137   -114.84499   -780.16598    4.2735793    4.2735793    4.2735793   -780.16598   -5627.1628    1452.2777    1834.3871    528.76689    336.48673   -721.86115    78.050431 
   99300    85.821848   -114.92284  0.077653412   -114.84519    1501.9452    4.2724723    4.2724723    4.2724723    1501.9452    -2918.374    626.26111    6797.9484   -566.78046    251.48414   -34.687822    77.989794 
   99400     95.93177   -114.93188  0.086801082   -114.84508    181.23286    4.2727906    4.2727906    4.2727906    181.23286   -4438.7435    3376.6007    1605.8415   -797.61579   -853.35684   -802.10276    78.007227 
   99500    89.143961   -114.92579  0.080659329   -114.84513    620.94105     4.273115     4.273115     4.273115    620.94105    -2715.228   -1191.0875    5769.1387    1244.7883   -207.36631    1161.0306    78.024996 
   99600    130.75871   -114.96319   0.11831323   -114.84488   -1758.5261    4.2732639    4.2732639    4.2732639   -1758.5261   -4742.9758   -1186.1174    653.51496    382.21571    973.31486    22.819107     78.03315 
   99700     70.39771    -114.9092  0.063697327    -114.8455    1879.8852    4.2725951    4.2725951    4.2725951    1879.8852   -1358.2161    22.479362    6975.3924    -1334.288   -56.206577    707.84794    77.996518 
   99800     115.3856   -114.94984   0.10440332   -114.84543   -1892.8343    4.2732384    4.2732384    4.2732384   -1892.8343   -5022.5957   -1689.0258    1033.1185   -406.22997   -407.67169   -1451.1254    78.031754 
   99900    91.868988   -114.92857  0.083124991   -114.84544    193.78715    4.2734056    4.2734056    4.2734056    193.78715   -2681.1099   -731.67969     3994.151    1604.9226   -266.29202    787.26707    78.040913 
  100000    118.84651   -114.95265   0.10753482   -114.84511   -1065.9145    4.2727305    4.2727305    4.2727305   -1065.9145   -3308.9879    937.59287   -826.34842    -642.5768    1182.3565   -389.09605    78.003935 
Loop time of 22.8222 on 1 procs for 100000 steps with 8 atoms

Pair  time (%) = 7.37078 (32.2966)
Kspce time (%) = 5.48835 (24.0483)
Neigh time (%) = 0 (0)
Comm  time (%) = 1.11297 (4.8767)
Outpt time (%) = 0.0259624 (0.113759)
Other time (%) = 8.82409 (38.6646)

Nlocal:    8 ave 8 max 8 min
Histogram: 1 0 0 0 0 0 0 0 0 0
Nghost:    2189 ave 2189 max 2189 min
Histogram: 1 0 0 0 0 0 0 0 0 0
Neighs:    2344 ave 2344 max 2344 min
Histogram: 1 0 0 0 0 0 0 0 0 0

Total # of neighbors = 2344
Ave neighs/atom = 293
Neighbor list builds = 0
Dangerous builds = 0
unfix 20
unfix 21
print "seeds:4206806"
seeds:4206806
