LAMMPS (10 Feb 2015)
# ---- initialize simulations
clear
units metal
dimension 3
boundary p p p
atom_style charge
atom_modify map array
# ---- create atoms
read_data /Users/eugeneragasa/pyflamestk_git/pypospack/tests/tests_integration/workflow/WorkflowLammpsThermalExpansion/MgO_NaCl_unit.npt.T1100/lammps.structure
  triclinic box = (0 0 0) to (4.2565 4.2565 4.2565) with tilt (0 0 0)
  1 by 1 by 1 MPI processor grid
  reading atoms ...
  8 atoms
# ---- define interatomic potential
include potential.mod
mass 1 24.305
mass 2 15.999

group Mg type 1
4 atoms in group Mg
group O type 2
4 atoms in group O

set group Mg charge 2.0
  4 settings made for charge
set group O charge -2.0
  4 settings made for charge

variable R_cut equal 10.0

pair_style buck/coul/long ${R_cut}
pair_style buck/coul/long 10
pair_coeff 1 1 0.0 0.5 0.0 ${R_cut}
pair_coeff 1 1 0.0 0.5 0.0 10
pair_coeff 1 2 821.6 0.3242 0.0 ${R_cut}
pair_coeff 1 2 821.6 0.3242 0.0 10
pair_coeff 2 2 2274.0 0.149 27.88 ${R_cut}
pair_coeff 2 2 2274.0 0.149 27.88 10

kspace_style pppm 1.0e-5

neighbor 1.0 bin
neigh_modify every 1 delay 0 check yes
# ---- define settings
compute eng all pe/atom
compute eatoms all reduce sum c_eng
# ---- run minimization
reset_timestep 0
fix 1 all box/relax iso 0.0 vmax 0.001
thermo 10
thermo_style custom step pe lx ly lz xy xz yz press pxx pyy pzz pxy pxz pyz c_eatoms
min_style cg
minimize 1e-25 1e-25 5000 10000
PPPM initialization ...
  G vector (1/distance) = 0.354854
  grid = 8 8 8
  stencil order = 5
  estimated absolute RMS force accuracy = 5.34408e-05
  estimated relative force accuracy = 3.71126e-06
  using double precision FFTs
  3d grid and FFT values/proc = 3375 512
Neighbor list info ...
  1 neighbor list requests
  update every 1 steps, delay 0 steps, check yes
  master list distance cutoff = 11
Memory usage per processor = 4.06549 Mbytes
Step PotEng Lx Ly Lz Xy Xz Yz Press Pxx Pyy Pzz Pxy Pxz Pyz eatoms 
       0   -162.12848       4.2565       4.2565       4.2565            0            0            0    -64012.53    -64012.53    -64012.53    -64012.53 -3.8759874e-11 -1.4292379e-10 -3.6687737e-10   -162.12848 
      10   -162.17871     4.213935     4.213935     4.213935            0            0            0   -4821.7526   -4821.7526   -4821.7526   -4821.7526 8.9106085e-11 8.5332225e-11 -4.2335946e-10   -162.17871 
      14   -162.17896    4.2106915    4.2106915    4.2106915            0            0            0    -1.347652    -1.347652    -1.347652    -1.347652 2.5597609e-11 1.0162971e-11 2.8091283e-10   -162.17896 
Loop time of 0.0301809 on 1 procs for 14 steps with 8 atoms

Minimization stats:
  Stopping criterion = linesearch alpha is zero
  Energy initial, next-to-last, final = 
        -162.128476026     -162.178964554     -162.178964554
  Force two-norm initial, final = 9.24344 0.000276677
  Force max component initial, final = 9.24344 0.000190436
  Final line search alpha, max atom move = 0.125 2.38044e-05
  Iterations, force evaluations = 14 33

Pair  time (%) = 0.0123284 (40.8483)
Kspce time (%) = 0.0059967 (19.8692)
Neigh time (%) = 0 (0)
Comm  time (%) = 0.000654697 (2.16924)
Outpt time (%) = 3.29018e-05 (0.109015)
Other time (%) = 0.0111682 (37.0043)

Nlocal:    8 ave 8 max 8 min
Histogram: 1 0 0 0 0 0 0 0 0 0
Nghost:    2189 ave 2189 max 2189 min
Histogram: 1 0 0 0 0 0 0 0 0 0
Neighs:    2344 ave 2344 max 2344 min
Histogram: 1 0 0 0 0 0 0 0 0 0

Total # of neighbors = 2344
Ave neighs/atom = 293
Neighbor list builds = 0
Dangerous builds = 0
unfix 1
# ---- define output variables ----
variable natoms equal "count(all)"
variable tot_energy equal "c_eatoms"
variable length_x equal "lx"
variable length_y equal "ly"
variable length_z equal "lz"
variable tilt_xy equal "xy"
variable tilt_xz equal "xz"
variable tilt_yz equal "yz"
variable tot_press equal "press"
variable press_xx equal "pxx"
variable press_yy equal "pyy"
variable press_zz equal "pzz"
variable press_xy equal "pxy"
variable press_xz equal "pxz"
variable press_yz equal "pyz"

# ---- output ----
print "pypospack:output_section:begin"
pypospack:output_section:begin
print "tot_energy = ${tot_energy}"
tot_energy = -162.17896455406
print "num_atoms = ${natoms}"
num_atoms = 8
print "xx = ${length_x}"
xx = 4.21069146013408
print "yy = ${length_y}"
yy = 4.21069146013408
print "zz = ${length_z}"
zz = 4.21069146013408
print "xy = ${tilt_xy}"
xy = 0
print "xz = ${tilt_xz}"
xz = 0
print "yz = ${tilt_yz}"
yz = 0
print "tot_press = ${tot_press}"
tot_press = -1.34765197939399
print "pxx = ${press_xx}"
pxx = -1.34765197919426
print "pyy = ${press_yy}"
pyy = -1.3476519793348
print "pzz = ${press_zz}"
pzz = -1.34765197965291
print "pxy = ${press_xy}"
pxy = 2.55976090046832e-11
print "pxz = ${press_xz}"
pxz = 1.01629705561986e-11
print "pyz = ${press_yz}"
pyz = 2.80912827691917e-10
print "pypospack:output_section:done"
pypospack:output_section:done
print "pypospack:lammps_sim:done"
pypospack:lammps_sim:done
#------------------------------------------------------------------------------
# RUN THERMOSTAT
# running using an NPT Nose-Hoover style thermostat
#------------------------------------------------------------------------------
variable tempdamp equal 0.1
variable pressdamp equal 1.0
# set initial velocities
velocity all create 1100 5574406 mom yes dist gaussian loop all
# fix for Nose-Hoover style thermostat
fix 20 all npt temp 1100 1100 0.1 aniso 0.0 0.0 1.0 drag 1.0 couple xyz
variable boxx equal lx
variable boxy equal ly
variable boxz equal lz
variable boxp equal press
variable boxt equal temp
# calculate averages every 10000 steps
reset_timestep 0
fix 21 all ave/time 10 10 100 v_boxx v_boxy v_boxz v_boxp v_boxt file lattice.out
thermo_style custom step temp pe ke etotal press lx ly lz press pxx pyy pzz pxy pxz pyz vol
thermo_modify flush yes
thermo 100
run 100000
PPPM initialization ...
  G vector (1/distance) = 0.355384
  grid = 8 8 8
  stencil order = 5
  estimated absolute RMS force accuracy = 5.2136e-05
  estimated relative force accuracy = 3.62065e-06
  using double precision FFTs
  3d grid and FFT values/proc = 3375 512
Memory usage per processor = 3.06549 Mbytes
Step Temp PotEng KinEng TotEng Press Lx Ly Lz Press Pxx Pyy Pzz Pxy Pxz Pyz Volume 
       0         1100   -162.17896   0.99530312   -161.18366    14239.645    4.2106915    4.2106915    4.2106915    14239.645    12278.892    12229.692     18210.35   -3896.3201    9182.0566   -8785.2801    74.655234 
     100    546.55202    -161.5373   0.49453175   -161.04277      4811.61    4.2344111    4.2344111    4.2344111      4811.61   -19781.337    12481.925    21734.242    -6947.147    10730.698     9028.943    75.923998 
     200    964.21583   -161.65879   0.87244275   -160.78634   -33204.049    4.2552574    4.2552574    4.2552574   -33204.049   -45662.715    -26676.46   -27272.972    1994.7413    1573.7102    970.52809    77.050864 
     300    1043.8177   -161.48378   0.94446819   -160.53931    499.53379    4.2427615    4.2427615    4.2427615    499.53379   -11695.419    6775.3632    6418.6576     10963.57   -1990.5073    1163.7801    76.374059 
     400    1091.3774   -161.34723   0.98750121   -160.35973    31165.555    4.2346345    4.2346345    4.2346345    31165.555     21535.08    34630.931    37330.655    2211.1071   -7596.2533    9433.7757    75.936014 
     500    1184.5695   -161.31072    1.0718233    -160.2389    1892.0086    4.2527217    4.2527217    4.2527217    1892.0086   -48005.129    19552.763    34128.391    2429.4098   -1237.7587   -5147.8273    76.913203 
     600    790.35926   -160.89134   0.71513367   -160.17621   -17338.587    4.2712398    4.2712398    4.2712398   -17338.587   -69890.814    20971.806   -3096.7547   -7982.4433    672.14036    10342.329    77.922318 
     700    1213.0264   -161.25429    1.0975718   -160.15672   -16169.727    4.2588561    4.2588561    4.2588561   -16169.727   -8835.1775   -10719.892    -28954.11    -1366.825   -22838.205    12743.701    77.246514 
     800    1205.9813   -161.24534    1.0911973   -160.15414    5660.3133    4.2395631    4.2395631    4.2395631    5660.3133   -36850.253    37616.187    16215.007    3036.6506   -22303.508   -4062.2428    76.201464 
     900    914.27712   -161.00773   0.82725715   -160.18047    16669.237    4.2536206    4.2536206    4.2536206    16669.237   -9530.6492   -15327.588    74865.948    6458.7782   -14799.931    6447.1224    76.961981 
    1000    1484.9386   -161.52578    1.3436037   -160.18217   -32274.768    4.2792663    4.2792663    4.2792663   -32274.768   -37417.635   -40113.656   -19293.012    6879.9105   -22972.394   -6854.0242    78.362438 
    1100    1226.0281   -161.28225     1.109336   -160.17292   -13846.889    4.2569776    4.2569776    4.2569776   -13846.889   -21229.452   -11404.971   -8906.2455    -12109.46   -5401.4848    5785.3756    77.144344 
    1200    898.57323   -160.96762   0.81304794   -160.15457     48228.73    4.2213637    4.2213637    4.2213637     48228.73    26384.102    35596.843    82705.244   -10331.338    8498.5879    34521.418    75.224328 
    1300    1235.7231   -161.30301    1.1181083    -160.1849    22399.104     4.243142     4.243142     4.243142    22399.104   -14869.042    11267.786    70798.567   -3003.7966    7940.2622    3501.0318    76.394606 
    1400    1367.7663   -161.41256    1.2375837   -160.17498   -39534.624    4.2903445    4.2903445    4.2903445   -39534.624   -46351.701   -67300.798   -4951.3733    12306.312   -2010.1292    4426.4803     78.97261 
    1500    869.39177   -160.95119   0.78664394   -160.16455     -10059.9    4.2757164    4.2757164    4.2757164     -10059.9   -36298.244   -17927.267     24045.81    5088.7187   -8805.1028   -2020.2436    78.167581 
    1600    985.73039   -161.04125   0.89190957   -160.14934    38714.405    4.2346457    4.2346457    4.2346457    38714.405    11609.304    19669.126    84864.785   -6165.5858   -11488.439   -319.65794    75.936614 
    1700    1324.0634   -161.37711    1.1980404   -160.17907    10991.241    4.2494605    4.2494605    4.2494605    10991.241    8744.2508   -11483.053    35712.526   -3845.1861    4100.4647   -1990.4646    76.736394 
    1800    1124.5806   -161.19089    1.0175442   -160.17335   -29565.959    4.2720236    4.2720236    4.2720236   -29565.959   -58049.573   -16148.688   -14499.616   -4605.4342    7569.4246   -8158.6327    77.965224 
    1900    799.66195   -160.88486   0.72355094   -160.16131    6101.4327    4.2537764    4.2537764    4.2537764    6101.4327   -39898.542    28533.483    29669.357    4892.8469     15137.44    1004.5235     76.97044 
    2000    1258.0426   -161.30151    1.1383034   -160.16321    -3698.007    4.2568934    4.2568934    4.2568934    -3698.007   -4556.4094     4334.044   -10871.656    17749.664    15195.191   -1733.9469     77.13977 
    2100    1062.4155   -161.12366   0.96129588   -160.16237   -182.89748    4.2645766    4.2645766    4.2645766   -182.89748    3814.2936   -21491.382    17128.396   -4940.4562    7692.1286    6327.9452    77.558205 
    2200    902.62832   -160.97657   0.81671707   -160.15985    641.29191    4.2548799    4.2548799    4.2548799    641.29191   -48232.835   -8918.3919    59075.102   -6213.4139    4105.8654    6664.4817    77.030358 
    2300    1289.5275   -161.33793    1.1667915   -160.17114   -28171.735    4.2545612    4.2545612    4.2545612   -28171.735   -56903.098   -3429.7108   -24182.394    2896.4515    3129.0455     8984.731    77.013049 
    2400    922.03685   -161.00822   0.83427831   -160.17394    1282.4721    4.2521736    4.2521736    4.2521736    1282.4721   -5909.9695    50443.243   -40685.857    1419.6791    9819.8628   -4072.1236    76.883468 
    2500    1136.7533   -161.19856    1.0285582      -160.17   -14000.105     4.255611     4.255611     4.255611   -14000.105   -15290.383      8363.02   -35072.952    10800.975    3782.2562    332.46646    77.070071 
    2600    983.70992   -161.06121    0.8900814   -160.17113   -9085.1498    4.2651338    4.2651338    4.2651338   -9085.1498    -22514.25   -15323.649    10582.449    16275.494    3900.7244    18717.746    77.588612 
    2700    860.04764   -160.94514   0.77818918   -160.16695     17721.11    4.2633587    4.2633587    4.2633587     17721.11    3365.7649    3733.4242     46064.14    1014.2032    6656.7686   -10747.356    77.491779 
    2800    1337.5658   -161.37648    1.2102577   -160.16623    12034.769     4.248297     4.248297     4.248297    12034.769    25139.954   -145.08426    11109.437   -15972.693    2932.9669   -3802.9735    76.673378 
    2900    944.84241   -161.03112   0.85491327    -160.1762    8358.8396      4.25145      4.25145      4.25145    8358.8396   -3886.6783     29593.74    -630.5426   -11683.138   -3678.4587   -2656.0144    76.844221 
    3000    906.10579   -160.99524   0.81986356   -160.17537   -11693.994    4.2695301    4.2695301    4.2695301   -11693.994   -35323.905    -2440.664     2682.588   -15686.251   -24693.909   -8171.7216    77.828782 
    3100     1044.195   -161.11112   0.94480962   -160.16631   -6968.7949    4.2566673    4.2566673    4.2566673   -6968.7949   -27987.437   -18579.984    25661.037   -12765.294   -12379.957      555.923    77.127474 
    3200    842.02453    -160.9237   0.76188149   -160.16182    24619.695      4.24096      4.24096      4.24096    24619.695    15953.419     -14054.4    71960.066    740.39639   -21865.934     7320.517    76.276814 
    3300    574.72149   -160.70603   0.52002008   -160.18601      20149.2     4.267883     4.267883     4.267883      20149.2    75360.852   -27626.676    12713.423    -1906.856   -20050.505    4411.5863    77.738741 
    3400     1206.535   -161.26096    1.0916983   -160.16926   -26172.583    4.2777878    4.2777878    4.2777878   -26172.583   -2102.1324   -20269.611   -56146.007   -10642.778   -15345.265     1713.949    78.281244 
    3500     934.9889   -160.99767   0.84599761   -160.15167     516.4657    4.2490799    4.2490799    4.2490799     516.4657   -39802.972    25009.686    16342.683    5928.7956   -3353.5535   -5551.0418    76.715778 
    3600    1118.5272    -161.1703    1.0120669   -160.15823   -12222.359    4.2501426    4.2501426    4.2501426   -12222.359   -41282.602    416.08207    4199.4428    7717.0545   -11949.052    159.90603    76.773352 
    3700    1270.6203   -161.31851     1.149684   -160.16883   -10978.929    4.2753293    4.2753293    4.2753293   -10978.929    37982.138   -29898.295   -41020.628   -5324.8216   -9746.3541    3907.1426    78.146354 
    3800    996.73028    -161.0685   0.90186251   -160.16664   -656.75481    4.2707209    4.2707209    4.2707209   -656.75481   -14378.136    1661.6636    10746.208   -2213.0715   -7094.3805    5681.6455     77.89392 
    3900    1188.1793     -161.233    1.0750896   -160.15791   -1400.6513    4.2451789    4.2451789    4.2451789   -1400.6513   -37792.627    7935.7341    25654.939   -6467.1074   -14087.775    1161.9305    76.504676 
    4000    1216.9405   -161.27869    1.1011133   -160.17757   -1275.2355     4.256422     4.256422     4.256422   -1275.2355    3510.4632   -20781.045    13444.875    19759.542   -13933.662    1854.0808    77.114144 
    4100    1020.2427   -161.09984   0.92313707    -160.1767   -10499.752    4.2796629    4.2796629    4.2796629   -10499.752    39617.182     -38945.4   -32171.038    4482.1412   -16236.465   -13136.345     78.38423 
    4200    1095.0449   -161.15383   0.99081961   -160.16301   -5694.2133    4.2617834    4.2617834    4.2617834   -5694.2133    2071.7203    10929.755   -30084.116   -6509.3456   -3006.1227   -5348.8526    77.405909 
    4300    1363.8077   -161.38578    1.2340019   -160.15178    11015.171    4.2373893    4.2373893    4.2373893    11015.171   -4109.6102    23883.017    13272.105    15329.855   -3079.0346    12454.287    76.084311 
    4400     1169.616   -161.22632    1.0582931   -160.16803   -10523.225    4.2497959    4.2497959    4.2497959   -10523.225   -35836.592   -2314.9505    6581.8683   -3450.2251    12787.473    6871.0832    76.754564 
    4500    1243.8393   -161.29099     1.125452   -160.16554   -31720.912    4.2600406    4.2600406    4.2600406   -31720.912   -57667.781    -29669.91   -7825.0429     5011.006    22295.788   -5242.6759    77.310988 
    4600    941.36293    -161.0169   0.85176496   -160.16514    20435.014    4.2519196    4.2519196    4.2519196    20435.014    82733.363   -34576.153    13147.831    16871.324    10459.244    12481.589    76.869693 
    4700    1439.5927    -161.4776    1.3025737   -160.17503   -7366.0766    4.2545414    4.2545414    4.2545414   -7366.0766    28030.224   -46580.869   -3547.5847    22741.199   -32.577175    2166.4057    77.011973 
    4800    864.96559   -160.96117   0.78263904   -160.17853   -18908.781    4.2575708    4.2575708    4.2575708   -18908.781   -57340.076   -26602.716    27216.448    17179.473    11488.657   -8965.6861    77.176599 
    4900    722.65512   -160.82623   0.65387354   -160.17236    1947.4954    4.2436099    4.2436099    4.2436099    1947.4954   -34470.678    10274.787    30038.377    10426.985    4567.1201    11290.242     76.41988 
    5000    1184.4295   -161.25246    1.0716967   -160.18076    9555.6027    4.2481996    4.2481996    4.2481996    9555.6027    41911.149   -26458.891    13214.551    7665.3616   -2659.0223   -628.77363    76.668108 
    5100    767.69861   -160.87902   0.69462983   -160.18439   -4411.3836    4.2743042    4.2743042    4.2743042   -4411.3836    33945.428   -44690.977   -2488.6013    9580.2442    -6652.419   -2417.7619    78.090154 
    5200    750.15279   -160.85325   0.67875401   -160.17449   -14072.294    4.2570585    4.2570585    4.2570585   -14072.294   -13929.908   -45013.305     16726.33    17256.371   -15105.843    2225.4745    77.148746 
    5300    910.86612   -160.98637   0.82417081    -160.1622    25072.282    4.2292172    4.2292172    4.2292172    25072.282    12394.056   -3398.5664    66221.357    3145.6814   -14532.881    -10952.63    75.644953 
    5400    1177.3662   -161.24562    1.0653056   -160.18031    -10693.94    4.2538052    4.2538052    4.2538052    -10693.94    606.89847   -11166.087   -21522.631   -6088.4353   -15168.822   -7705.9776    76.972003 
    5500    860.56704   -160.94704   0.77865914   -160.16838   -22341.194     4.274786     4.274786     4.274786   -22341.194   -15423.083    1023.4099   -52623.909    4774.5038   -9561.7203   -6686.0944    78.116567 
    5600     1250.828   -161.28583    1.1317754   -160.15406   -10748.525    4.2584483    4.2584483    4.2584483   -10748.525    16422.256   -28762.999   -19904.831    5722.2715    5638.3407   -137.18148    77.224328 
    5700    1183.8504   -161.23629    1.0711727   -160.16512    11687.464    4.2493776    4.2493776    4.2493776    11687.464    32323.001    -45834.93    48574.322    16583.833    3770.6417    274.72197    76.731901 
    5800    943.78467   -161.03179   0.85395621   -160.17783   -13638.615    4.2637223    4.2637223    4.2637223   -13638.615   -7297.3034   -35848.416    2229.8751     15548.26    505.33172   -8029.6213    77.511605 
    5900    1200.1216   -161.25645    1.0858953   -160.17056   -21893.629    4.2595525    4.2595525    4.2595525   -21893.629    983.59064    -37666.81   -28997.668   -5427.3626   -4676.0917   -3561.8761    77.284417 
    6000    1551.2938   -161.56683    1.4036432   -160.16319    7295.0727    4.2415105    4.2415105    4.2415105    7295.0727    37507.872   -4722.5367   -10900.117   -4148.9185   -5846.7466   -113.00409    76.306518 
    6100    1297.1821   -161.35052    1.1737177    -160.1768    2409.5813    4.2549898    4.2549898    4.2549898    2409.5813    11515.016    1505.2714   -5791.5439   -3027.3308    9006.3346   -4282.4513     77.03633 
    6200    1110.7089   -161.17682    1.0049928   -160.17182   -14542.244    4.2652232    4.2652232    4.2652232   -14542.244   -14184.174   -51319.166    21876.607   -3053.3378   -4443.5685    2397.3746    77.593492 
    6300    1242.0378   -161.29154    1.1238219   -160.16772    11343.335    4.2501757    4.2501757    4.2501757    11343.335    10463.362   -17083.351    40649.994   -1181.6437   -7724.7063    8986.2192    76.775146 
    6400    1548.3068   -161.56966    1.4009406   -160.16872    4624.5483    4.2405881    4.2405881    4.2405881    4624.5483    1072.0083   -12931.909    25733.545   -25849.498   -4067.9327    6593.8909    76.256747 
    6500    1103.1949   -161.17068   0.99819395   -160.17248    6766.5518    4.2479964    4.2479964    4.2479964    6766.5518   -6213.5526    3626.9448    22886.263   -4735.2679   -19927.915   -6109.8109    76.657106 
    6600    1014.7556    -161.0916   0.91817223   -160.17343     12795.97    4.2586986    4.2586986    4.2586986     12795.97    12897.686    11745.483    13744.739    5745.8988   -12394.482   -577.21361    77.237948 
    6700    1501.1065   -161.52921    1.3582327   -160.17098   -10340.219    4.2638697    4.2638697    4.2638697   -10340.219   -3465.0186   -38664.651    11109.012   -12387.218    2529.9025    1255.1869    77.519644 
    6800    1077.6206   -161.13936   0.97505377   -160.16431   -16759.468     4.258368     4.258368     4.258368   -16759.468   -51921.106    568.47481    1074.2267    1883.8346    13015.985   -2127.9475    77.219961 
    6900    793.94101   -160.87731   0.71837451   -160.15894   -11812.983    4.2371046    4.2371046    4.2371046   -11812.983   -46089.756    43590.556   -32939.749    4086.6622     36546.31     -4706.98    76.068973 
    7000    1105.0092   -161.16638   0.99983553   -160.16655    2261.2003    4.2347092    4.2347092    4.2347092    2261.2003    4293.0157    30832.438   -28341.853   -8147.0011    47120.849   -4338.9528    75.940032 
    7100    820.50162   -160.92062   0.74240711   -160.17821   -9391.2525    4.2680519    4.2680519    4.2680519   -9391.2525   -1005.9232   -33056.496    5888.6614    3363.2992    27922.125   -1346.7583    77.747976 
    7200    649.28277   -160.75617   0.58748469   -160.16869    -7254.823    4.2737369    4.2737369    4.2737369    -7254.823    11315.745   -37978.588    4898.3735    12577.513    20023.142   -11499.088    78.059063 
    7300    1097.9345   -161.15183   0.99343425   -160.15839    25020.327    4.2357017    4.2357017    4.2357017    25020.327     39885.89    2964.7251    32210.366      20865.3    21956.843   -6224.9522    75.993438 
    7400    1049.9234   -161.10901   0.94999272   -160.15902    25394.273     4.227833     4.227833     4.227833    25394.273   -5976.3387    38913.027    43246.132    17825.208    13173.298    2813.1185    75.570705 
    7500    1011.6744   -161.08589   0.91538423   -160.17051   -27674.921    4.2557776    4.2557776    4.2557776   -27674.921   -59333.653    8297.7605   -31988.869    8559.6964    21040.619    -8264.076    77.079125 
    7600    1027.0206   -161.09438   0.92926982   -160.16511   -18359.493    4.2661571    4.2661571    4.2661571   -18359.493    33.034857   -11421.009   -43690.505    5375.1886    6986.8685   -15723.738     77.64447 
    7700    1327.8961   -161.36609    1.2015083   -160.16458   -1347.9959    4.2600194    4.2600194    4.2600194   -1347.9959    4461.1834   -14970.319    6465.1482    1114.3769   -7921.0403    6083.0121    77.309835 
    7800    1194.4773    -161.2446    1.0807882   -160.16381   -7561.2214    4.2521502    4.2521502    4.2521502   -7561.2214   -23552.829   -19813.217    20682.382    11322.117   -5643.9857   -3389.3315    76.882196 
    7900    1206.4035   -161.25608    1.0915792    -160.1645    6858.1787    4.2431146    4.2431146    4.2431146    6858.1787   -7478.3504   -1711.4802    29764.367     19603.14    -830.1831    -5963.052    76.393129 
    8000    1270.0564   -161.32443    1.1491737   -160.17525    11906.601    4.2516729    4.2516729    4.2516729    11906.601    22922.053   -15995.135    28792.884   -5918.1563   -1018.6069    6184.6806    76.856311 
    8100    1306.3097   -161.35351    1.1819764   -160.17153   -15662.027     4.274765     4.274765     4.274765   -15662.027    8299.3166   -24844.143   -30441.256   -3376.6092    18100.166   -2580.5135    78.115411 
    8200    971.34797   -161.03578   0.87889605   -160.15688   -16419.513    4.2689046    4.2689046    4.2689046   -16419.513   -13634.684   -27307.129   -8316.7251    13700.733    5731.0759    9066.6569    77.794583 
    8300    1193.7557   -161.23011    1.0801353   -160.14998    4726.3708    4.2467035    4.2467035    4.2467035    4726.3708    9669.0325    11648.067   -7137.9866   -11999.624   -6556.1726    10643.525    76.587136 
    8400    1518.1805   -161.53595    1.3736816   -160.16227   -17648.097    4.2550758    4.2550758    4.2550758   -17648.097   -6705.7186   -39395.938   -6842.6357   -7113.0776   -17639.643    9915.6956    77.040998 
    8500    876.70493   -160.95511   0.79326105   -160.16185    -5933.961    4.2633651    4.2633651    4.2633651    -5933.961     -35025.6   -8880.6418    26104.359    3100.1532   -12567.482     9951.569    77.492125 
    8600    897.84311   -160.97263   0.81238731   -160.16024    12590.798    4.2518566    4.2518566    4.2518566    12590.798    10629.589    29993.614   -2850.8094   -3361.5162     1192.756    15873.747    76.866273 
    8700    1024.5181   -161.09939   0.92700554   -160.17239    3406.3456    4.2601891    4.2601891    4.2601891    3406.3456    53707.637   -14094.252   -29394.348    10318.835    12160.683    8988.0501    77.319074 
    8800    845.21809   -160.92993   0.76477109   -160.16516   -25981.107    4.2606145    4.2606145    4.2606145   -25981.107   -23619.082   -39982.738     -14341.5   -3632.7063     26140.81    13711.693    77.342234 
    8900    630.15066   -160.73366   0.57017356   -160.16349      16396.7    4.2356977    4.2356977    4.2356977      16396.7    -15587.16    3896.0978    60881.163   -15108.428     24875.99     10137.82    75.993224 
    9000    925.44405   -161.02442   0.83736123   -160.18706    10952.074    4.2466319    4.2466319    4.2466319    10952.074    20303.776   -20811.762    33364.207   -1023.1259    24396.775    17911.673    76.583259 
    9100    906.72145   -160.99629   0.82042062   -160.17587   -17947.286    4.2666238    4.2666238    4.2666238   -17947.286    52270.756   -59033.245   -47079.369   -6778.3702    11700.146    18140.979    77.669954 
    9200    696.98273   -160.79018   0.63064463   -160.15954    7250.2858    4.2510527    4.2510527    4.2510527    7250.2858    55655.476    4560.0613    -38464.68   -8825.3829    5500.7828    10259.958    76.822681 
    9300    1106.4718    -161.1579     1.001159   -160.15674     8058.158    4.2451305    4.2451305    4.2451305     8058.158    22264.632   -7611.7847     9521.627    9294.0723   -13062.415     22399.46    76.502064 
    9400    1153.2588   -161.20528    1.0434928   -160.16179   -5750.5564      4.25504      4.25504      4.25504   -5750.5564   -12820.924     -36158.9    31728.154     -3832.55   -2776.1192   -103.60963    77.039055 
    9500    1263.5144   -161.30141    1.1432544   -160.15816   -22341.403    4.2566269    4.2566269    4.2566269   -22341.403   -35589.883   -23510.097   -7924.2282    9528.8209   -2638.9674     -12773.1     77.12528 
    9600    1036.5854   -161.09712   0.93792422    -160.1592   -12352.434    4.2599805    4.2599805    4.2599805   -12352.434   -679.59072   -12043.524   -24334.188    8603.1713   -12504.918   -4540.8846    77.307714 
    9700    1077.6517   -161.13289    0.9750819   -160.15781   -15959.761    4.2600713    4.2600713    4.2600713   -15959.761    27688.282   -35934.635   -39632.931   -8284.3223    3895.1432   -18069.181    77.312656 
    9800    1276.8744   -161.30986    1.1553428   -160.15452   -973.64898    4.2467794    4.2467794    4.2467794   -973.64898   -9503.4502    11280.828   -4698.3243    605.89744   -10461.749   -19184.706     76.59124 
    9900    942.98114   -161.01939   0.85322916   -160.16616    14350.142     4.251704     4.251704     4.251704    14350.142   -35552.167    28115.795    50486.798    11341.774   -6866.7691    5632.5129    76.857997 
   10000    1169.1114   -161.23304    1.0578366    -160.1752    7747.7742    4.2578311    4.2578311    4.2578311    7747.7742   -17406.898    15479.581     25170.64     1371.805   -5156.5504   -4295.4794    77.190756 
   10100    1192.6112   -161.24981    1.0790997   -160.17071   -9555.9506    4.2552172    4.2552172    4.2552172   -9555.9506   -31484.549    21798.093   -18981.396    13795.787   -3562.2518   -17064.521    77.048679 
   10200    813.52221    -160.9081     0.736092   -160.17201   -7863.8727    4.2552673    4.2552673    4.2552673   -7863.8727   -23351.574    22553.596    -22793.64    4005.8936    18149.556    2523.6624      77.0514 
   10300     1325.632   -161.36807    1.1994597   -160.16861   -22502.363    4.2562657    4.2562657    4.2562657   -22502.363   -29630.784     8247.263   -46123.567   -1995.6543    22264.416    7697.6411    77.105649 
   10400    1462.4078   -161.48722    1.3232173     -160.164    4836.5785    4.2481294    4.2481294    4.2481294    4836.5785   -15220.906    35308.275   -5577.6336   -899.31566   -2454.1762    -6060.335    76.664305 
   10500     994.8097   -161.06963   0.90012472    -160.1695    23451.197    4.2506436    4.2506436    4.2506436    23451.197   -3377.1407    62670.818    11059.914   -12534.948    6382.6248   -41.519768    76.800506 
   10600    1113.6223   -161.18104    1.0076289   -160.17341   -16857.945    4.2661044    4.2661044    4.2661044   -16857.945   -15370.205   -21649.364   -13554.268   -11672.281   -2339.8704     10823.84    77.641596 
   10700    1122.0933   -161.18401    1.0152936   -160.16872   -15679.085    4.2545372    4.2545372    4.2545372   -15679.085    6440.7281   -37957.693   -15520.291   -3271.8002    354.72644    24891.697    77.011749 
   10800    996.53482   -161.06846   0.90168565   -160.16678    2046.1143    4.2448707    4.2448707    4.2448707    2046.1143   -2533.4498     23793.18   -15121.387    4554.4712    3581.2155    16029.241    76.488019 
   10900    625.85487   -160.74684   0.56628664   -160.18056   -5810.8255    4.2640832    4.2640832    4.2640832   -5810.8255   -32072.753    22647.498   -8007.2217    4107.3164    4213.1189    23613.654    77.531289 
   11000     827.0244   -160.92432   0.74830906   -160.17601    3397.0012    4.2559593    4.2559593    4.2559593    3397.0012    4938.1752   -13141.332     18394.16   -1599.0133    2707.9614    38329.791    77.088995 
   11100    889.52753   -160.97327    0.8048632    -160.1684    23329.886    4.2326625    4.2326625    4.2326625    23329.886    43094.802   -500.39599    27395.252     7545.638    14439.407    32597.474    75.829975 
   11200    705.25748   -160.82264   0.63813179   -160.18451   -1636.5679    4.2491041    4.2491041    4.2491041   -1636.5679    5331.0669   -4321.2528   -5919.5176    2882.4682    456.28843    43308.666     76.71709 
   11300    917.95718   -161.00611   0.83058695   -160.17553   -11812.337    4.2633333    4.2633333    4.2633333   -11812.337   -12394.451    1258.6471   -24301.207   -12479.294   -3718.8354    32987.716     77.49039 
   11400    811.02429   -160.90507   0.73383182   -160.17124     30346.81    4.2501344    4.2501344    4.2501344     30346.81    13347.503    66907.076    10785.852   -15249.039    2156.0551    12902.238     76.77291 
   11500    600.63624   -160.72534   0.54346829   -160.18187    19697.357    4.2501125    4.2501125    4.2501125    19697.357   -16571.663     38207.34    37456.394    -9565.535   -3733.5393    9990.6475    76.771719 
   11600    660.69186   -160.77737   0.59780788   -160.17956   -6503.7274    4.2532466    4.2532466    4.2532466   -6503.7274   -30846.929     18495.19   -7159.4433   -4026.8148   -1379.5239    20373.849    76.941684 
   11700    1146.5587   -161.20873    1.0374304    -160.1713    6843.3872    4.2488702    4.2488702    4.2488702    6843.3872   -5683.9816     32979.99   -6765.8467    7077.4496    7292.7717    11959.971    76.704422 
   11800     879.6552   -160.98067   0.79593051   -160.18474    6569.2567    4.2666598    4.2666598    4.2666598    6569.2567   -15111.745    50720.603   -15901.088    8653.6004    4182.2674    16334.041    77.671922 
   11900    918.78079   -161.01651   0.83133217   -160.18518   -15912.482    4.2636425    4.2636425    4.2636425   -15912.482    -37831.92     14629.57   -24535.097    3619.2045    2109.5683    21607.483    77.507256 
   12000    1082.9668   -161.14659   0.97989116   -160.16669    24037.564    4.2313893    4.2313893    4.2313893    24037.564    3902.0662    43766.481    24444.144   -4154.7181    382.26131    6171.5758    75.761566 
   12100    1291.0724   -161.33939    1.1681895    -160.1712    13600.491    4.2375828    4.2375828    4.2375828    13600.491    7793.2129    21314.584    11693.678   -11000.867    7088.4834    16337.267     76.09473 
   12200    927.63339   -161.01282   0.83934219   -160.17348    5168.2236    4.2606315    4.2606315    4.2606315    5168.2236   -21827.361    53767.018   -16434.986   -14011.413    471.96138    15981.261    77.343161 
   12300    1083.4856   -161.14469    0.9803605   -160.16433    5488.1488    4.2551561    4.2551561    4.2551561    5488.1488   -40497.812    65911.123   -8948.8652   -1764.8016    4913.4623    6764.7434    77.045359 
   12400    1333.0129   -161.37827    1.2061381   -160.17213   -21835.125    4.2567055    4.2567055    4.2567055   -21835.125   -49749.242   -21292.916     5536.784    7018.4635    10503.695    12915.995    77.129553 
   12500    996.36222   -161.07733   0.90152948    -160.1758   -8455.3277    4.2494116    4.2494116    4.2494116   -8455.3277   -49945.475   -4439.3324    29018.824    24338.895   -1254.7268    12973.927    76.733744 
   12600    1166.5487   -161.22194    1.0555178   -160.16642    18633.157    4.2247389    4.2247389    4.2247389    18633.157   -35672.092    60980.902     30590.66      18902.1    3515.5198     10098.66    75.404909 
   12700    1319.4842   -161.37699    1.1938971    -160.1831   -4572.9312    4.2430117    4.2430117    4.2430117   -4572.9312   -32363.947    28959.846   -10314.692    20374.736    9200.7905    8401.2866    76.387567 
   12800    1542.9392    -161.5706    1.3960839   -160.17451   -40692.716    4.2657273    4.2657273    4.2657273   -40692.716   -55440.441   -44071.266   -22566.441    1743.0509    -2428.249       8193.3    77.621004 
   12900    1341.2974   -161.37733    1.2136341    -160.1637      571.394     4.245531     4.245531     4.245531      571.394   -26716.667   -9478.0972    37908.946    -4804.274    2618.7434    22527.257    76.523716 
   13000    1235.1525   -161.28292     1.117592   -160.16533      10920.8     4.242748     4.242748     4.242748      10920.8   -15051.994    18540.693    29273.702    3209.7279    2316.0989    -3108.892    76.373326 
   13100     1305.194   -161.35182    1.1809669   -160.17086   -25813.292    4.2547166    4.2547166    4.2547166   -25813.292   -17756.011   -23127.906   -36555.957     1464.408    5016.1041   -14837.016     77.02149 
   13200    1152.6621   -161.21272    1.0429529   -160.16977    3429.2459    4.2377263    4.2377263    4.2377263    3429.2459     8745.783   -10119.665    11661.619    9985.7788   -3635.2293   -12264.591    76.102463 
   13300    748.04197   -160.85387   0.67684409   -160.17702    16245.256    4.2457564    4.2457564    4.2457564    16245.256    -9004.653   -5145.2653    62885.687   -37.946374   -17560.475    -21133.39    76.535906 
   13400    882.01907   -160.97108   0.79806939   -160.17301   -17753.035    4.2722022    4.2722022    4.2722022   -17753.035   -28021.711   -38248.085    13010.691    1664.3337    795.05205    -25542.79       77.975 
   13500    810.38928   -160.89426   0.73325725     -160.161   -2325.9462    4.2570806    4.2570806    4.2570806   -2325.9462    6947.7995    10642.779   -24568.417   -879.41007     12209.75   -12324.163    77.149945 
   13600    659.08399   -160.75488   0.59635305   -160.15852    7792.1344    4.2372773    4.2372773    4.2372773    7792.1344    10412.663   -17494.077    30457.817   -18874.758   -5516.4867   -26728.215    76.078273 
   13700    691.11265   -160.80228   0.62533325   -160.17695   -6317.8993    4.2530405    4.2530405    4.2530405   -6317.8993   -20187.075   -38152.517    39385.894   -18586.574   -890.76711   -22432.984      76.9305 
   13800    723.63079   -160.83065   0.65475635   -160.17589    16234.867     4.260404     4.260404     4.260404    16234.867   -7052.2724     14400.02    41356.853   -17856.561    3486.9204   -17448.359    77.330773 
   13900    808.38559    -160.9026   0.73144427   -160.17116    32693.033    4.2490141    4.2490141    4.2490141    32693.033    23630.914    31548.731    42899.455   -9011.2422    1752.0045    -14147.64    76.712216 
   14000     773.5769   -160.87749   0.69994864   -160.17755     5941.042    4.2607482    4.2607482    4.2607482     5941.042    11929.982    14971.333   -9078.1895   -6741.1926    -6273.099   -8379.7241    77.349516 
   14100    762.50227   -160.86163   0.68992808    -160.1717   -4864.2633    4.2663463    4.2663463    4.2663463   -4864.2633   -21292.387    7743.4354   -1043.8379   -9883.0767   -2118.2801   -5880.1432    77.654799 
   14200     982.7202   -161.05639   0.88918589    -160.1672    13359.979    4.2430919    4.2430919    4.2430919    13359.979    7842.5367    -31280.25    63517.651   -17424.119    10112.485   -3255.0132    76.391902 
   14300    663.59565   -160.78001   0.60043529   -160.17957    5906.8613    4.2394613    4.2394613    4.2394613    5906.8613   -9666.6029   -36514.644    63901.831   -43511.164    9540.2131     6476.783    76.195973 
   14400    664.06471   -160.78079    0.6008597   -160.17993   -16112.245    4.2517719    4.2517719    4.2517719   -16112.245   -17448.538   -31480.906    592.71024   -25538.101   -1784.3532    8604.1345    76.861679 
   14500    769.70824   -160.87302    0.6964482   -160.17657    10434.513     4.257798     4.257798     4.257798    10434.513    58962.874   -26033.003   -1626.3321   -15110.653   -829.68711    1663.0383    77.188953 
   14600    787.31486   -160.89229   0.71237903   -160.17991    13871.377    4.2659698    4.2659698    4.2659698    13871.377    26922.734   -16891.309    31582.706   -12439.487   -8163.5677    10451.513    77.634242 
   14700    816.30207   -160.91201   0.73860726    -160.1734   -13783.405    4.2562965    4.2562965    4.2562965   -13783.405   -47415.412   -22849.079    28914.277    11543.817    -19476.79    8627.2757    77.107321 
   14800    605.01359   -160.71285   0.54742901   -160.16542    19492.742    4.2293014    4.2293014    4.2293014    19492.742    1139.8944    7828.8661    49509.466    2988.8499   -4310.1928    3918.1527    75.649473 
   14900    884.58674   -160.98102   0.80039267   -160.18063    1807.4247    4.2466122    4.2466122    4.2466122    1807.4247     20952.39   -38259.041    22728.925    2285.9079   -17614.398     12504.91    76.582194 
   15000     803.2945   -160.90809   0.72683775   -160.18125   -5697.4218    4.2704398    4.2704398    4.2704398   -5697.4218    16986.267   -49605.022    15526.489    37.292905   -7582.2215    10406.452    77.878544 
   15100    955.60126     -161.035    0.8646481   -160.17036    -4389.652    4.2553914    4.2553914    4.2553914    -4389.652     7442.172   -41616.582    21005.455   -2841.2911   -3103.9459   -4597.2829    77.058145 
   15200    1071.4731   -161.13367   0.96949136   -160.16418    7914.3065    4.2428995    4.2428995    4.2428995    7914.3065   -7539.8143   -6029.6441    37312.378    6914.3798    2156.1223     -6697.75     76.38151 
   15300    1313.6598   -161.35805     1.188627   -160.16942   -18923.143      4.25478      4.25478      4.25478   -18923.143   -29971.379   -14558.454   -12239.595    5122.6828    10369.937   -123.43693    77.024931 
   15400    1248.0612   -161.29831     1.129272   -160.16903    6549.5729    4.2490729    4.2490729    4.2490729    6549.5729    3072.4485     14210.79    2365.4802   -7941.8557    5293.7776    3139.7769    76.715398 
   15500    925.17083   -161.01202   0.83711401   -160.17491    26084.124    4.2481836    4.2481836    4.2481836    26084.124    60530.686    26129.566   -8407.8801   -1046.3567   -3021.9146   -4439.2476    76.667242 
   15600    1608.3734   -161.62859      1.45529    -160.1733   -45960.206    4.2681193    4.2681193    4.2681193   -45960.206   -42431.681   -51194.292   -44254.644    1091.6503    5699.1515    -107.1782    77.751655 
   15700    1444.3357   -161.46974    1.3068653   -160.16288   -26898.034    4.2576195    4.2576195    4.2576195   -26898.034    -46182.37   -11083.136   -23428.595    25473.947   -2957.7887    -16757.01    77.179245 
   15800    1485.6276   -161.49435    1.3442271   -160.15012    6890.4869    4.2303503    4.2303503    4.2303503    6890.4869    2947.5216    32045.306   -14321.367    8356.1747    3703.6209   -8884.0448    75.705771 
   15900    1275.1789    -161.3237    1.1538086    -160.1699    15958.085    4.2415955    4.2415955    4.2415955    15958.085    11853.987    34793.664     1226.605    13426.671     12460.36    5669.7597    76.311108 
   16000    1440.0635   -161.47558    1.3029997   -160.17258   -736.50472     4.258728     4.258728     4.258728   -736.50472   -23909.722     9368.654    12331.553    12620.889    8596.7028   -9154.3076    77.239545 
   16100    1315.3127   -161.35915    1.1901226   -160.16903   -3762.0899    4.2574629    4.2574629    4.2574629   -3762.0899    3062.7763    17850.692   -32199.738    10902.902     4387.851   -2346.7525    77.170732 
   16200    997.70725   -161.06884   0.90274649   -160.16609    7656.4256    4.2550053    4.2550053    4.2550053    7656.4256    31205.846    38200.766   -46437.336    966.63319    2208.4081   -380.43032    77.037167 
   16300    1367.5797   -161.40025    1.2374149   -160.16284   -13300.062    4.2517657    4.2517657    4.2517657   -13300.062    -14950.41    15600.268   -40550.043    7956.5036    634.29028    1723.7727    76.861345 
   16400     1359.559   -161.39672    1.2301575   -160.16657   -13643.728    4.2421926    4.2421926    4.2421926   -13643.728   -11820.052   -28024.303   -1086.8281    7140.4807   -25.326085    17193.342    76.343339 
   16500    836.89916   -160.92752   0.75724395   -160.17027    -192.3581    4.2392523    4.2392523    4.2392523    -192.3581    8704.1264   -33448.216    24167.015   -3097.0878    4451.2049    4887.9468    76.184705 
   16600    1179.2684   -161.24291    1.0670268   -160.17589   -1758.8018    4.2494328    4.2494328    4.2494328   -1758.8018    32608.592   -16206.763   -21678.234   -2697.2145    8484.3378    17755.875    76.734893 
   16700    1175.2785   -161.24158    1.0634167   -160.17816    2907.3171    4.2634392    4.2634392    4.2634392    2907.3171    46628.964    10069.512   -47976.525   -3199.8376    2964.9359    7368.7472    77.496169 
   16800    970.42742   -161.05181   0.87806313   -160.17374   -10601.488    4.2604882    4.2604882    4.2604882   -10601.488    26091.446     4306.145   -62202.055    2138.9264   -7539.0916    8646.8897     77.33536 
   16900     915.5723   -160.99652   0.82842906    -160.1681   -17912.073    4.2389486    4.2389486    4.2389486   -17912.073    11135.008   -11848.911   -53022.316   -5799.4429   -13436.522    14969.249    76.168334 
   17000    979.70034   -161.05499   0.88645346   -160.16853     21797.61    4.2262133    4.2262133    4.2262133     21797.61    35533.598     6424.771    23434.461   -1261.8602   -19046.279    6431.7573    75.483884 
   17100     1023.186   -161.11297   0.92580024   -160.18717     13642.52    4.2503197    4.2503197    4.2503197     13642.52    52306.884   -7502.7778   -3876.5468    2167.2776   -22521.137    7413.4199    76.782951 
   17200    578.33956   -160.69671   0.52329379   -160.17342   -4814.2778    4.2721195    4.2721195    4.2721195   -4814.2778    39331.622    -4043.294   -49731.162   -10641.724   -23715.357    10505.465    77.970474 
   17300    705.09904   -160.79909   0.63798843   -160.16111   -8753.5422     4.254914     4.254914     4.254914   -8753.5422   -12321.493    41799.832   -55738.966   -4855.4877   -34533.908   -710.17596    77.032208 
   17400    1114.9048   -161.16221    1.0087893   -160.15342   -2904.5387    4.2317416    4.2317416    4.2317416   -2904.5387   -22174.548    32552.641   -19091.709    2444.7426   -22495.317   -6400.1901    75.780491 
   17500    888.63445   -160.97157   0.80405513   -160.16751     -6964.02    4.2433625    4.2433625    4.2433625     -6964.02    8710.9725   -8282.7346   -21320.298    1083.5041   -11819.877    2719.7867    76.406515 
   17600    730.99171   -160.82733   0.66141666   -160.16592   -11784.302     4.260719     4.260719     4.260719   -11784.302    37001.128   -15411.397   -56942.637   -5829.4169   -14003.298   -5127.2104    77.347927 
   17700    1230.6473   -161.27536    1.1135156   -160.16184    1281.6499    4.2562509    4.2562509    4.2562509    1281.6499    17478.819    11528.983   -25162.853   -15379.679   -5438.4512    4412.9039    77.104843 
   17800    1008.3576   -161.07224   0.91238313   -160.15986    5148.2973     4.250857     4.250857     4.250857    5148.2973   -8684.1424    33328.759   -9199.7247     1443.609    8255.2736    6209.2779    76.812075 
   17900    1048.5028   -161.10557   0.94870734   -160.15687   -5230.1149    4.2410995    4.2410995    4.2410995   -5230.1149     1884.723      11516.7   -29091.767   -10252.862    13976.834   -8031.9623    76.284339 
   18000    1263.6437   -161.30256    1.1433714   -160.15919    14850.556    4.2343668    4.2343668    4.2343668    14850.556    60211.474    978.00607   -16637.812   -17167.791    28376.026   -5375.9194    75.921615 
   18100    1236.2502   -161.29522    1.1185852   -160.17664    3940.8788    4.2542535    4.2542535    4.2542535    3940.8788    23524.415    12551.641    -24253.42   -2569.2964    21675.169    1837.9706    76.996341 
   18200    1071.5177   -161.13839   0.96953176   -160.16886   -14432.471    4.2661357    4.2661357    4.2661357   -14432.471   -9934.2303   -9991.8258   -23371.355   -4993.2746    12251.529    8131.9008    77.643302 
   18300    1045.6458   -161.10167   0.94612231   -160.15555   -9196.0054    4.2527597    4.2527597    4.2527597   -9196.0054    4971.2399   -28470.544   -4088.7126    10934.018    9112.7141    7506.8885    76.915264 
   18400    1199.9826   -161.23932    1.0857694   -160.15355   -7848.4543      4.24353      4.24353      4.24353   -7848.4543    1235.1445   -41777.961    16997.453     18402.51   -8574.7775    13509.647    76.415568 
   18500    1279.6574   -161.31944    1.1578609   -160.16158    485.39664    4.2411989    4.2411989    4.2411989    485.39664    8658.2208   -15892.219    8690.1878    11149.874   -7247.7359   -6849.4369    76.289704 
   18600    911.00811    -160.9944   0.82429928    -160.1701    13175.289    4.2478355    4.2478355    4.2478355    13175.289    2243.8027    46554.967   -9272.9028    3950.3118    8065.5897    -13886.74    76.648395 
   18700    1349.5727    -161.3941    1.2211217   -160.17297   -15675.713    4.2647442    4.2647442    4.2647442   -15675.713   -11600.602   -12511.682   -22914.855    17453.251   -460.36015    -6190.306    77.567351 
   18800    1280.0791   -161.32575    1.1582425   -160.16751   -6072.3156    4.2622294    4.2622294    4.2622294   -6072.3156   -26645.769    -3368.142    11796.964    386.19384   -8048.1179    3274.3996    77.430212 
   18900    1124.9724   -161.17775    1.0178987   -160.15985     125.0997    4.2543712    4.2543712    4.2543712     125.0997   -14317.437    20259.624   -5566.8879    8530.8634    4048.9418    4038.3349    77.002735 
   19000    1243.1465   -161.28754     1.124825   -160.16271   -15579.438    4.2624089    4.2624089    4.2624089   -15579.438   -21590.609    22058.293   -47205.997    11860.236   -7918.3658    11373.485    77.439997 
   19100    1036.7972   -161.10392   0.93811587    -160.1658    13376.026    4.2596993    4.2596993    4.2596993    13376.026   -23905.977    71047.192   -7013.1378   -5976.3185   -15360.289    9599.2944    77.292405 
   19200    988.99629   -161.06319   0.89486463   -160.16832    29281.278    4.2506641    4.2506641    4.2506641    29281.278   -12266.441    72976.942    27133.334    8681.8956   -7171.2768    13406.372    76.801616 
   19300    502.86864   -160.63597   0.45500611   -160.18097     24791.33    4.2694852    4.2694852    4.2694852     24791.33   -6535.2142    49643.658    31265.546    1635.3568    6064.3982    7340.5849    77.826325 
   19400    1002.4702    -161.0792   0.90705609   -160.17214    1041.8216    4.2745571    4.2745571    4.2745571    1041.8216   -19867.736     53242.85   -30249.649      6804.94    10397.931    6510.8852    78.104017 
   19500    931.58505   -161.01454   0.84291773   -160.17162    30899.154    4.2536614    4.2536614    4.2536614    30899.154   -5310.6214    128384.49   -30376.405    4693.4166    4056.2498   -288.19003    76.964196 
   19600    805.35049   -160.91549   0.72869805   -160.18679    21176.492    4.2567422    4.2567422    4.2567422    21176.492   -20657.605    120762.53   -36575.453    5332.4715    10687.722    3036.5205    77.131548 
   19700    1090.1604    -161.1729   0.98640005    -160.1865    10595.237     4.263058     4.263058     4.263058    10595.237   -34623.477     90579.28   -24170.092    1251.9864   -439.62961   -7368.6195     77.47538 
   19800    1067.1728   -161.14894   0.96560041   -160.18334    14029.812    4.2654895    4.2654895    4.2654895    14029.812   -38914.421    90825.957   -9822.0984   -3135.2381   -9382.5739    1266.5625    77.608023 
   19900    1255.7925   -161.31354    1.1362675   -160.17727    -9544.536    4.2697064    4.2697064    4.2697064    -9544.536    -22458.83    32903.957   -39078.735    7645.9208   -5703.4395   -492.54191    77.838427 
   20000     1118.165   -161.18112    1.0117392   -160.16938    4274.1199    4.2618182    4.2618182    4.2618182    4274.1199   -28723.694     28740.28    12805.773   -2280.3272   -565.12043    5353.9724    77.407807 
   20100    1307.1656   -161.34863    1.1827509   -160.16588    2763.5477    4.2526528    4.2526528    4.2526528    2763.5477   -47149.201    43615.893    11823.951   -6634.7912   -10449.725    11099.658    76.909464 
   20200    1116.3844   -161.18742    1.0101281   -160.17729   -7261.5086    4.2601191    4.2601191    4.2601191   -7261.5086   -27274.951    41206.699   -35716.274   -7858.1095    7953.0872    7549.0224    77.315262 
   20300    1131.3672   -161.19402    1.0236848   -160.17033   -13542.285    4.2615852    4.2615852    4.2615852   -13542.285   -18035.686    8356.8922    -30948.06   -2768.9367    10916.426    12702.513     77.39511 
   20400    1176.1814   -161.22185    1.0642336   -160.15762    7076.2631    4.2480107    4.2480107    4.2480107    7076.2631   -7710.0674    26484.496    2454.3606    4278.0078   -9378.0161     9046.555    76.657878 
   20500    1155.7833   -161.20585     1.045777   -160.16007   -2083.9893     4.255039     4.255039     4.255039   -2083.9893   -13858.065    15512.081   -7905.9841   -857.76628   -8741.0421   -3653.0475    77.038997 
   20600    1085.4476   -161.13991   0.98213577   -160.15777   -4338.3938    4.2652692    4.2652692    4.2652692   -4338.3938   -31908.257    29132.594   -10239.518   -14902.464    2178.1991   -16897.894       77.596 
   20700    1357.4016   -161.38688    1.2282055   -160.15868    8604.9356    4.2449527    4.2449527    4.2449527    8604.9356   -37568.375     22830.19    40552.992   -16374.359     3331.371   -28168.265    76.492451 
   20800    1241.1769   -161.28595     1.123043   -160.16291    14838.459     4.237191     4.237191     4.237191    14838.459    -17220.51    32595.761    29140.127   -7364.4388   -2998.6245   -21816.108    76.073626 
   20900    1166.6712   -161.22761    1.0556286   -160.17198   -8073.8493    4.2660414    4.2660414    4.2660414   -8073.8493   -26527.244    -2160.232    4465.9282    2717.0585   -4112.3517   -18141.621    77.638155 
   21000    1163.9554   -161.20274    1.0531713   -160.14957   -16336.893    4.2771956    4.2771956    4.2771956   -16336.893   -53581.187   -1457.7156    6028.2243    4201.3057   -1205.7625    7026.9667    78.248738 
   21100    1177.6105   -161.20827    1.0655267   -160.14274     -1299.41    4.2562722    4.2562722    4.2562722     -1299.41   -39253.364    18169.325    17185.808    -3254.311   -9228.9882    7219.9822    77.106004 
   21200    909.62352   -160.97913   0.82304648   -160.15608    442.25879    4.2420447    4.2420447    4.2420447    442.25879   -13301.043    10458.833    4168.9865    5250.2063   -16441.462    600.26038    76.335353 
   21300    927.55256   -161.00752   0.83926905   -160.16825   -4286.0401    4.2413162    4.2413162    4.2413162   -4286.0401   -1620.3899   -12725.657    1487.9265    2166.3572   -13738.656   -6293.9184     76.29603 
   21400    949.72548   -161.04085   0.85933157   -160.18152    9541.6977    4.2539838    4.2539838    4.2539838    9541.6977   -1271.8241    7277.6778    22619.239   -1067.3582   -8791.1568   -2113.6887    76.981698 
   21500    794.91994   -160.89661   0.71926026   -160.17735     38.57132    4.2742002    4.2742002    4.2742002     38.57132   -18726.581    48887.755    -30045.46    9595.6036    1544.1642   -3085.2656    78.084456 
   21600    1121.0692   -161.17108     1.014367   -160.15671   -9193.0777    4.2646233    4.2646233    4.2646233   -9193.0777   -27793.061    25561.231   -25347.403   -9686.4748   -1866.3163     802.0157    77.560757 
   21700    1485.6368    -161.4856    1.3442354   -160.14136    23825.746    4.2315741    4.2315741    4.2315741    23825.746   -15382.553    41652.094    45207.696   -9669.8516   -6844.2652    14451.741    75.771492 
   21800      1465.39   -161.48149    1.3259157   -160.15557    8736.0952    4.2346263    4.2346263    4.2346263    8736.0952   -21979.458    31726.445    16461.299   -1097.4694   -11255.338    546.49651    75.935572 
   21900     1370.408   -161.40328     1.239974   -160.16331    -28124.55    4.2631029    4.2631029    4.2631029    -28124.55    -42423.17   -30482.145   -11468.334   -9574.8745   -8185.2265    2817.7866    77.477829 
   22000    1415.8211   -161.43255    1.2810647   -160.15148   -17278.661    4.2678687    4.2678687    4.2678687   -17278.661   -45479.834   -16233.466    9877.3152    1351.7605    4180.9678    4561.7704    77.737963 
   22100    1444.2008   -161.45062    1.3067433   -160.14387    6275.7996    4.2525311    4.2525311    4.2525311    6275.7996   -9573.0767   -22953.009    51353.484   -3616.3804    4203.4057   -14639.713     76.90286 
   22200    894.31535   -160.96101   0.80919532   -160.15181    16836.503    4.2450556    4.2450556    4.2450556    16836.503   -1096.5733   -15808.789    67414.871   -6218.9143    10941.945    2610.0114    76.498011 
   22300    809.21809   -160.89326   0.73219754   -160.16107    24476.245     4.246018     4.246018     4.246018    24476.245   -4754.1811   -3716.5294    81899.445   -10135.088    8373.9582    10195.139    76.550052 
   22400    1398.4473   -161.43465    1.2653445   -160.16931   -6840.7175    4.2625354    4.2625354    4.2625354   -6840.7175   -51349.978   -30216.894     61044.72    182.59355    440.06543    13913.235    77.446893 
   22500    1008.6995   -161.07526   0.91269252   -160.16257   -12001.702    4.2748615    4.2748615    4.2748615   -12001.702   -46937.575   -23228.192    34160.662    16205.343    -6486.208   -3235.6412    78.120703 
   22600    1160.9405   -161.19967    1.0504434   -160.14923   -10666.798    4.2595684    4.2595684    4.2595684   -10666.798   -29073.267   -10742.481    7815.3543   -8215.3958   -5734.2351    -11514.29     77.28528 
   22700    1347.6874   -161.36737    1.2194159   -160.14795    4995.1779    4.2480719    4.2480719    4.2480719    4995.1779   -39724.271   -13727.175     68436.98   -17433.744    7399.1474   -7433.8133    76.661192 
   22800    1239.3183   -161.28262    1.1213613   -160.16126   -17142.517     4.257957     4.257957     4.257957   -17142.517   -56507.494   -37904.965    42984.908   -7151.1505    -2027.444    6446.2312    77.197603 
   22900     751.8966    -160.8436   0.68033185   -160.16327    4865.1553    4.2569797    4.2569797    4.2569797    4865.1553     1265.844   -5575.6589    18905.281   -12748.269   -1148.5521    2896.6139    77.144459 
   23000    1060.3677   -161.12186   0.95944299   -160.16242    11719.871    4.2574508    4.2574508    4.2574508    11719.871    13889.793    9502.5764    11767.243   -12804.432   -1090.0086   -8953.2086    77.170075 
   23100    979.52302   -161.04684   0.88629302   -160.16055   -8818.2758    4.2673077    4.2673077    4.2673077   -8818.2758    10874.168   -41510.596    4181.6009   -7352.4638   -5984.9239    -14059.59     77.70731 
   23200    1013.3642   -161.06933   0.91691321   -160.15242   -12799.204      4.25476      4.25476      4.25476   -12799.204    23383.384   -35071.489   -26709.506   -7362.7111   -837.71397   -17137.167    77.023845 
   23300    1250.5572   -161.28507    1.1315304   -160.15354   -3478.1636     4.241934     4.241934     4.241934   -3478.1636   -9027.2739     6395.875   -7803.0919   -2411.3234   -12389.066   -20223.953    76.329379 
   23400    1203.4752   -161.25722    1.0889297   -160.16829    -10749.75    4.2571515    4.2571515    4.2571515    -10749.75   -15020.611    14343.214   -31571.853    5792.1075   -2191.4667   -8314.1021    77.153799 
   23500    1049.5329   -161.11082   0.94963938   -160.16118    -21759.13    4.2693832    4.2693832    4.2693832    -21759.13   -39237.858   -1759.1114   -24280.419    7619.4967   -10138.868   -13019.127    77.820751 
   23600    878.31181    -160.9472   0.79471499   -160.15249   -12667.425    4.2624812    4.2624812    4.2624812   -12667.425   -36581.218   -10683.322    9262.2655   -7896.5486   -467.51278    -3253.564     77.44394 
   23700    1116.2576   -161.16319    1.0100133   -160.15317   -1608.9312     4.245044     4.245044     4.245044   -1608.9312   -50204.352   -15563.105    60940.664   -18932.003   -1255.1917    14678.375    76.497383 
   23800    1029.4977    -161.0976   0.93151113   -160.16609    17329.228    4.2445643    4.2445643    4.2445643    17329.228   -8920.9345   -10903.478    71812.097   -9844.8688   -9407.3399    -3234.091    76.471455 
   23900    961.00783    -161.0421   0.86954008   -160.17256    7459.5051    4.2636805    4.2636805    4.2636805    7459.5051    23735.552   -9898.5162    8541.4799   -9942.8285   -3766.0862   -10899.517    77.509324 
   24000    1186.1368   -161.23824    1.0732415   -160.16499   -8278.2366    4.2701156    4.2701156    4.2701156   -8278.2366    15972.612   -7985.1095   -32822.212   -10436.401   -5100.9536   -15638.009    77.860804 
   24100    1185.9338   -161.23044    1.0730578   -160.15738    6094.6639    4.2606542    4.2606542    4.2606542    6094.6639   -5525.2204    30230.995   -6421.7823   -15256.998    5518.5444   -13138.354    77.344396 
   24200    1051.9702   -161.10691   0.95184476   -160.15506   -16320.574    4.2600009    4.2600009    4.2600009   -16320.574   -44057.717    26712.822   -31616.826   -14072.319   -854.15305    1241.5992    77.308827 
   24300    545.81492   -160.65674   0.49386481   -160.16288   -1074.9833    4.2542559    4.2542559    4.2542559   -1074.9833    -14885.32    21891.459   -10231.089   -25985.003   -20276.485    15516.158     76.99647 
   24400     983.2436   -161.05061   0.88965947   -160.16095    25186.501    4.2426313    4.2426313    4.2426313    25186.501    14687.767    46002.689    14869.048   -5697.8779   -10780.495    7080.2867    76.367027 
   24500    1055.6383   -161.12684   0.95516372   -160.17167    7570.1352    4.2564027    4.2564027    4.2564027    7570.1352   -5940.2657    29823.883   -1173.2117    1514.9713   -6155.0582    1948.7346    77.113094 
   24600    1088.8991   -161.14677   0.98525878   -160.16151   -36723.364    4.2703158    4.2703158    4.2703158   -36723.364   -50153.858   -12216.337   -47799.898   -16210.024    6101.8789   -10066.458    77.871757 
   24700     1335.383   -161.36077    1.2082826   -160.15249   -10755.547    4.2571612    4.2571612    4.2571612   -10755.547   -32833.478   -12903.013    13469.851   -5959.5137   -449.95416   -11032.981    77.154328 
   24800    959.99829   -161.02507   0.86862662   -160.15645    21379.632    4.2558218    4.2558218    4.2558218    21379.632   -1897.8079    1151.7869    64884.917    16358.044   -5830.0341    9125.1857    77.081528 
   24900    1066.8541    -161.1251   0.96531197   -160.15979    6561.4243    4.2609532    4.2609532    4.2609532    6561.4243   -17664.255    10416.891    26931.637    8727.9216   -9984.4021    13363.848    77.360682 
   25000    1092.0411   -161.15093   0.98810178   -160.16283    12361.314    4.2561505    4.2561505    4.2561505    12361.314   -35664.939    25224.326    47524.554     2944.441    1173.6561    17154.467    77.099389 
   25100    1492.9277    -161.5155    1.3508323   -160.16467    10837.262    4.2500322    4.2500322    4.2500322    10837.262    -9338.198     602.0294    41247.953   -1409.1515    10261.395    8957.8991    76.767369 
   25200    1226.3386   -161.28138    1.1096169   -160.17177   -8290.7328    4.2635167    4.2635167    4.2635167   -8290.7328   -16469.421   -14506.344    6103.5665   -7703.5689     15441.16   -1626.2187    77.500396 
   25300    1431.7706    -161.4619    1.2954961    -160.1664   -29948.879    4.2687987    4.2687987    4.2687987   -29948.879   -32537.487   -30266.013   -27043.136   -834.61111    8261.7341   -1693.3724    77.788794 
   25400    1647.7097   -161.64711    1.4908823   -160.15623   -14382.031    4.2510992    4.2510992    4.2510992   -14382.031   -8672.8156   -8456.3853   -26016.893    9396.3354   -1333.9788   -7315.1946    76.825205 
   25500    1115.3673   -161.16641    1.0092078    -160.1572    21988.658    4.2426435    4.2426435    4.2426435    21988.658     16261.69     49190.98    513.30347    6619.1577   -21367.831    5977.3266    76.367683 
   25600    1259.5938   -161.30168    1.1397069   -160.16198   -2884.6059    4.2592275    4.2592275    4.2592275   -2884.6059    12037.839   -3169.1851   -17522.472   -3545.1734   -15351.974    9051.9072    77.266726 
   25700    1660.6584   -161.65602    1.5025986   -160.15342   -14149.968    4.2637217    4.2637217    4.2637217   -14149.968   -32717.474    -31661.08    21928.649    -7237.054   -2056.1512   -1149.8714    77.511573 
   25800    1477.6915   -161.49098    1.3370463   -160.15393   -1934.2134    4.2519878    4.2519878    4.2519878   -1934.2134   -8838.9606   -13613.345    16649.666   -6479.4761    -2640.847   -5853.5885    76.873388 
   25900    1374.1573   -161.40823    1.2433664   -160.16487   -14519.777    4.2542574    4.2542574    4.2542574   -14519.777    8172.3252    1498.9643   -53230.622   -4263.4157    3333.2129   -4540.8253    76.996554 
   26000    1395.8605   -161.43082    1.2630039   -160.16782    3192.3163    4.2551021    4.2551021    4.2551021    3192.3163    12460.816    16087.863    -18971.73     11503.52    -4503.218   -1268.6555    77.042426 
   26100    1357.2793   -161.39181    1.2280949   -160.16372    19335.277    4.2440581    4.2440581    4.2440581    19335.277    27303.474    19176.835    11525.522    7242.1112   -10627.026    11284.359    76.444098 
   26200    1350.7126   -161.38853    1.2221531   -160.16638   -12224.665    4.2533335    4.2533335    4.2533335   -12224.665    9613.5464   -3775.7825   -42511.759   -9041.2243   -1943.5228   -195.55159    76.946399 
   26300    1663.9697   -161.66383    1.5055947   -160.15824   -38137.938    4.2601202    4.2601202    4.2601202   -38137.938   -18674.303   -35602.562    -60136.95   -4410.8845    674.41772   -11027.957    77.315322 
   26400    1691.3629   -161.68471    1.5303807   -160.15433   -2500.3228    4.2452838    4.2452838    4.2452838   -2500.3228   -19437.313    5653.3663    6282.9783    1231.1935   -9639.9508   -4460.4831    76.510347 
   26500     1334.538   -161.37392    1.2075181   -160.16641   -7753.0567    4.2531043    4.2531043    4.2531043   -7753.0567   -16704.117    13969.091   -20524.145   -6327.3422   -1912.2385   -10458.242    76.933963 
   26600    1341.0018   -161.38155    1.2133666   -160.16819    -8656.828    4.2539903    4.2539903    4.2539903    -8656.828    -6458.045    10751.412   -30263.851    1220.8535   -13464.131   -9318.2128    76.982052 
   26700    1407.3674   -161.44074    1.2734156   -160.16732    22180.257    4.2380288    4.2380288    4.2380288    22180.257    47137.297    13929.695    5473.7795    8750.9687    -5215.463    -9318.823    76.118759 
   26800     1242.083    -161.3021    1.1238628   -160.17823    2167.4062    4.2499502    4.2499502    4.2499502    2167.4062    25291.807   -2084.3544   -16705.234    6839.4001    2085.6153    -10902.96    76.762925 
   26900    940.11289   -161.02158    0.8506339   -160.17095   -16149.527    4.2610955    4.2610955    4.2610955   -16149.527   -13468.015    16124.104    -51104.67     3829.946   -2498.2039   -3412.1972    77.368436 
   27000    1256.7307   -161.30268    1.1371163   -160.16557   -1171.2528    4.2498806    4.2498806    4.2498806   -1171.2528   -19038.115    53539.935   -38015.579    142.12268   -3990.3976    2954.7006    76.759155 
   27100    1310.9985   -161.35506     1.186219   -160.16884    7929.6205    4.2487552    4.2487552    4.2487552    7929.6205    12800.492    43522.905   -32534.535    2100.5814   -13585.346     1828.581    76.698191 
   27200    1223.0505   -161.27337    1.1066418   -160.16672   -14127.774    4.2531119    4.2531119    4.2531119   -14127.774    17282.043   -2526.2815   -57139.084    -11190.52   -12197.385    8915.5738    76.934375 
   27300    1526.5164   -161.54478    1.3812242   -160.16356   -22849.703      4.24896      4.24896      4.24896   -22849.703   -9800.0993   -8650.7501   -50098.259   -14238.883    8782.9741    4468.8874    76.709283 
   27400    1379.8231   -161.42111    1.2484929   -160.17261   -10982.761    4.2496895    4.2496895    4.2496895   -10982.761    697.27561   -2293.5645   -31351.995    -22862.71    10963.593   -3145.0212      76.7488 
   27500    1055.9686   -161.13438   0.95546257   -160.17892    -11864.95    4.2545667    4.2545667    4.2545667    -11864.95    15095.476   -200.23717    -50490.09    -5214.603    13879.997   -2873.3324     77.01335 
   27600    985.23639   -161.06926   0.89146259   -160.17779   -1026.2714    4.2474769    4.2474769    4.2474769   -1026.2714    20384.473    18794.693    -42257.98   -3219.2696    19301.144    2577.5746    76.628985 
   27700    1064.0842   -161.14041   0.96280572    -160.1776    18490.116    4.2366607    4.2366607    4.2366607    18490.116    9613.1529    48262.384   -2405.1893     6500.729    16468.693    7876.2354    76.045066 
   27800     886.9292   -160.98514   0.80251218   -160.18263    7615.2628    4.2474645    4.2474645    4.2474645    7615.2628    2177.4992    30163.995   -9495.7059    10994.444    19239.424    5975.4218    76.628316 
   27900      708.437   -160.81814   0.64100868   -160.17713   -4499.2507    4.2654172    4.2654172    4.2654172   -4499.2507     22356.92    32953.495   -68808.168    9907.7107     6353.597    4426.1026    77.604079 
   28000    1226.0879    -161.2789    1.1093901   -160.16951    2387.6948    4.2548894    4.2548894    4.2548894    2387.6948    1849.0207    49115.614    -43801.55    5853.1721    -3695.325    199.05204    77.030873 
   28100    1205.0938   -161.25159    1.0903942   -160.16119    14559.944    4.2384988    4.2384988    4.2384988    14559.944    2398.6678    63486.628   -22205.464   -704.86913   -3667.9691   -6499.7332    76.144089 
   28200     979.0779   -161.05738   0.88589026   -160.17149   -19231.948    4.2551868    4.2551868    4.2551868   -19231.948   -18183.681    32882.887   -72395.051   -2141.2753   -11196.487   -2736.9429    77.047026 
   28300      1043.19   -161.11482   0.94390027   -160.17092   -22408.948    4.2642232    4.2642232    4.2642232   -22408.948    2577.3738   -7107.1807   -62697.039   -12639.526   -19139.707   -1579.4028    77.538928 
   28400    1159.8801   -161.21779    1.0494839   -160.16831    16927.143    4.2471225    4.2471225    4.2471225    16927.143    40724.715    18171.268   -8114.5544   -6747.6116   -23521.883    3609.3209    76.609808 
   28500    854.76126   -160.94685   0.77340595   -160.17345    3094.5528     4.246232     4.246232     4.246232    3094.5528    27043.617    22358.308   -40118.267   -4035.7971   -25400.038    9788.0923    76.561628 
   28600    801.63313   -160.90001   0.72533451   -160.17467    -20136.35    4.2508494    4.2508494    4.2508494    -20136.35    20933.809   -9645.8649   -71696.995   -1193.4257   -12640.623    9280.1011    76.811662 
   28700    1259.3922   -161.30946    1.1395245   -160.16993    1905.2526    4.2449747    4.2449747    4.2449747    1905.2526    34986.903    10075.061   -39346.207    4699.4814    1467.2893   -2292.8727    76.493636 
   28800    826.42204   -160.92639   0.74776403   -160.17863    20504.926     4.256546     4.256546     4.256546    20504.926    69393.555    39081.464   -46960.242     5892.545    10989.225   -6831.9061    77.120886 
   28900    651.98523   -160.76688   0.58992994   -160.17695    9712.4058    4.2646399    4.2646399    4.2646399    9712.4058    66234.258    37617.916   -74714.957    13470.864    10308.455   -6579.1337     77.56166 
   29000    797.04657   -160.89233   0.72118449   -160.17114    21464.103    4.2484708    4.2484708    4.2484708    21464.103    73612.373    22294.837   -31514.902    5957.2131    723.07249   -1267.9496     76.68279 
   29100    827.87574   -160.92216   0.74907937   -160.17308    17232.734    4.2502856    4.2502856    4.2502856    17232.734    111499.36    -18321.38   -41479.779   -2921.6202    4364.7061    4405.7525      76.7811 
   29200    607.50737   -160.73252   0.54968544   -160.18284   -8928.4685    4.2738229    4.2738229    4.2738229   -8928.4685    100444.71   -35402.739   -91827.371   -3987.5045    7874.1212    1167.0566    78.063778 
   29300    968.52998    -161.0541   0.87634628   -160.17775   -5718.3021    4.2663645    4.2663645    4.2663645   -5718.3021    32221.482     5802.831   -55179.219   -7778.5491    15568.159   -4596.2145    77.655793 
   29400    1065.7531   -161.12708   0.96431581   -160.16276    6915.1205    4.2407989    4.2407989    4.2407989    6915.1205    2216.3434    37842.503   -19313.485   -9724.4714    3637.6221    5522.5956    76.268119 
   29500    835.03666   -160.92416   0.75555872    -160.1686    4262.3624    4.2406011    4.2406011    4.2406011    4262.3624    30090.585     36744.03   -54047.528   -11048.392   -6860.4719   -722.82051    76.257449 
   29600    971.14175   -161.05059   0.87870946   -160.17188   -11430.718    4.2599128    4.2599128    4.2599128   -11430.718    25586.196    1805.6575   -61684.006   -5241.2975   -14761.493   -13121.152    77.304028 
   29700    1138.3542   -161.19496    1.0300068   -160.16496   -3110.9862    4.2599456    4.2599456    4.2599456   -3110.9862    -19790.73    32970.321   -22512.549    17645.849   -6935.7686   -4683.8743    77.305812 
   29800    831.29351   -160.91558   0.75217184    -160.1634    10932.168    4.2476587    4.2476587    4.2476587    10932.168    9290.9206    61116.878   -37611.294    24269.484    2902.1789   -16060.861    76.638825 
   29900    872.54319   -160.95654   0.78949541   -160.16705    2819.8422    4.2531364    4.2531364    4.2531364    2819.8422    45113.963    6770.4228   -43424.859    18980.937   -13157.498   -710.08284    76.935706 
   30000     1159.227   -161.20928    1.0488929   -160.16039   -820.66032    4.2657885    4.2657885    4.2657885   -820.66032    45626.692   -19063.767   -29024.906    18834.231   -11645.996    9638.3368    77.624345 
   30100    987.34846   -161.05159   0.89337363   -160.15821    2696.6949    4.2627753    4.2627753    4.2627753    2696.6949    46726.169    19685.846    -58321.93    906.84154   -12778.153   -4597.5908    77.459968 
   30200    1153.8433   -161.20139    1.0440217   -160.15737   -9233.7212    4.2495958    4.2495958    4.2495958   -9233.7212    30768.656    1255.8612   -59725.681   -13694.275    -5186.823   -11736.062    76.743725 
   30300    1497.9389   -161.51329    1.3553666   -160.15792    -12899.39    4.2398082    4.2398082    4.2398082    -12899.39    243.52263   -3467.7866   -35473.905   -4861.0458    2934.6842   -16086.977    76.214681 
   30400     1454.034   -161.48265    1.3156405   -160.16701     -12572.4    4.2521138    4.2521138    4.2521138     -12572.4   -17973.464     12231.31   -31975.047   -11921.245    95.829501   -2911.9317    76.880221 
   30500    1228.7072    -161.2735    1.1117601   -160.16174   -26915.409    4.2683014    4.2683014    4.2683014   -26915.409   -12637.036    17567.517    -85676.71    3040.5297    3023.5422    9085.3055     77.76161 
   30600    1388.0346   -161.41206    1.2559228   -160.15614    9625.6739    4.2549375    4.2549375    4.2549375    9625.6739    17408.547    55025.327   -43556.852    14449.263    8703.9773    5213.9964    77.033488 
   30700    1272.5668   -161.31515    1.1514452    -160.1637     22857.03    4.2532002    4.2532002    4.2532002     22857.03    4468.5954    90217.297   -26114.802    7971.1341    1496.3564   -4678.8691    76.939168 
   30800    936.64062   -161.01415   0.84749211   -160.16665    -1268.599     4.266513     4.266513     4.266513    -1268.599   -16377.332    87031.833   -74460.298    16155.826    3132.7244   -3269.7415    77.663904 
   30900    1198.7352   -161.24587    1.0846408   -160.16123    24818.547    4.2527902    4.2527902    4.2527902    24818.547    11977.296    87735.156   -25256.812    12166.168    1199.0517    1043.1385    76.916918 
   31000    1512.2296   -161.53313    1.3682971   -160.16483    9369.3809    4.2541499    4.2541499    4.2541499    9369.3809    -1393.473    57137.378   -27635.763   -1003.0913   -3361.7121   -1167.5598    76.990717 
   31100    1188.3715   -161.23902    1.0752635   -160.16376   -20591.043    4.2645136    4.2645136    4.2645136   -20591.043   -18853.145    17457.274   -60377.258    7113.1039     4383.492   -5808.8091    77.554772 
   31200    1389.2028   -161.41256    1.2569799   -160.15558   -5940.6251    4.2511741    4.2511741    4.2511741   -5940.6251    -793.4881    2684.0873   -19712.475   -1959.3284    -5183.034   -3464.6331    76.829265 
   31300    1532.2631   -161.55144    1.3864238   -160.16501   -14783.948    4.2594085    4.2594085    4.2594085   -14783.948    4043.1597   -30710.089   -17684.916   -3696.5538    2354.7555    4880.0833    77.276578 
   31400    1234.0524   -161.27775    1.1165966   -160.16115   -23791.283    4.2639984    4.2639984    4.2639984   -23791.283    -19471.07    1900.6266   -53803.405    2088.6021   -885.16927     9204.174    77.526665 
   31500    913.48097   -160.98098   0.82653678   -160.15444    21618.087     4.244295     4.244295     4.244295    21618.087    33072.167    69435.314   -37653.221    11622.141   -139.96469    10556.849      76.4569 
   31600     1096.681   -161.15976   0.99229999   -160.16746    24961.026    4.2517703    4.2517703    4.2517703    24961.026    45753.503    57425.162   -28295.587    26031.675   -2214.4327    8939.5006    76.861592 
   31700    894.69177   -160.97602   0.80953592   -160.16648    13580.719    4.2639586    4.2639586    4.2639586    13580.719    32513.753    50371.935   -42143.532    29035.306    3602.0201    15017.704    77.524493 
   31800    907.47501   -160.98098   0.82110246   -160.15988    337.16358     4.262476     4.262476     4.262476    337.16358    1076.9396     51648.52   -51713.968    14231.531   -8311.3366    14103.184    77.443653 
   31900    1199.5891   -161.24406    1.0854135   -160.15865   -3938.6433    4.2602804    4.2602804    4.2602804   -3938.6433   -25092.253    51972.758   -38696.435      9260.19    1767.5326   -4345.7538    77.324042 
   32000    1153.9403   -161.20186    1.0441095   -160.15775     9564.765    4.2453127    4.2453127    4.2453127     9564.765    3599.3284    61660.852   -36565.886    8001.5778    6701.3259   -18066.058     76.51191 
   32100    741.82001   -160.84085   0.67121433   -160.16963   -1186.7839    4.2458067    4.2458067    4.2458067   -1186.7839    38032.903      11521.9   -53115.155    -5034.105   -8568.3766   -27674.784    76.538623 
   32200    955.03539   -161.03411   0.86413609   -160.16997   -21523.348    4.2554141    4.2554141    4.2554141   -21523.348    15164.628   -37180.743    -42553.93    712.06846    8091.9678    -33748.63    77.059377 
   32300    1052.5808   -161.11651   0.95239721   -160.16411    20944.502    4.2432139    4.2432139    4.2432139    20944.502    59703.197    10736.943   -7606.6338    -7484.226   -1266.1447   -22229.788    76.398492 
   32400    666.51225   -160.77154   0.60307429   -160.16846    29929.576    4.2534337    4.2534337    4.2534337    29929.576    64255.993    54690.505   -29157.769   -6189.8642    11781.758   -22178.404    76.951839 
   32500     937.5933    -161.0084   0.84835412   -160.16005   -7201.2057    4.2672241    4.2672241    4.2672241   -7201.2057    25627.424    1416.3195   -48647.361     7746.074    7123.0828   -4025.2215    77.702742 
   32600    1407.7544   -161.42347    1.2737658    -160.1497    9611.1911    4.2456847    4.2456847    4.2456847    9611.1911    34837.257   -9012.8209    3009.1373   -1598.3141   -5204.9417    8627.7794    76.532029 
   32700    1561.1247    -161.5653    1.4125385   -160.15276   -10036.848    4.2435043    4.2435043    4.2435043   -10036.848   -11447.156   -17996.924   -666.46454    11000.959    2677.2106    8662.2671    76.414178 
   32800    1419.1649   -161.43849    1.2840903    -160.1544   -48490.597    4.2633649    4.2633649    4.2633649   -48490.597   -46499.727   -47885.318   -51086.745   -15392.518   -6035.1119    7681.0047    77.492114 
   32900    1268.3834    -161.2953      1.14766   -160.14764    500.12945     4.254003     4.254003     4.254003    500.12945    22350.676   -25164.917    4314.6295   -1663.9732    135.04367   -1579.8529    76.982742 
   33000    1126.6533    -161.1711    1.0194196   -160.15168    20268.496    4.2481715    4.2481715    4.2481715    20268.496    80507.052   -19096.332   -605.23168   -2775.7916    11043.273    -11868.75    76.666584 
   33100    708.09172   -160.80367   0.64069627   -160.16297    1653.5405    4.2596542    4.2596542    4.2596542    1653.5405    69360.439   -21987.194   -42412.624   -11101.366    2456.4082   -19107.694    77.289949 
   33200    710.83252   -160.80385    0.6431762   -160.16068    8794.1707    4.2583095    4.2583095    4.2583095    8794.1707    61168.285     -11016.1   -23769.674    -3380.002    8799.6765   -23375.445    77.216774 
   33300    860.84264   -160.93943   0.77890851   -160.16052    28437.223    4.2505182    4.2505182    4.2505182    28437.223    109508.92   -13349.069    -10848.18   -19421.467    5693.9186   -24183.641    76.793707 
   33400    808.35969   -160.90095   0.73142084   -160.16953    4012.8547    4.2584149    4.2584149    4.2584149    4012.8547    67396.521   -19796.556   -35561.401   -11054.809    1767.6363   -14506.614    77.222511 
   33500    1023.3115   -161.09366   0.92591372   -160.16774    -15996.65    4.2587494    4.2587494    4.2587494    -15996.65    6081.3065    -32158.28   -21912.977   -16029.066   -7684.2667   -8579.7891     77.24071 
   33600     1508.228   -161.52323    1.3646764   -160.15855   -6257.1268    4.2461116    4.2461116    4.2461116   -6257.1268   -10593.227   -23243.848    15065.694   -4821.0205   -3735.2413    4941.2907    76.555117 
   33700    1400.0506   -161.42545    1.2667952   -160.15865   -16116.108    4.2557111    4.2557111    4.2557111   -16116.108   -3896.2398   -5309.2073   -39142.877    8228.2864    7601.4547    9725.9891     77.07551 
   33800    1365.5584   -161.38588    1.2355859   -160.15029   -22716.581     4.263675     4.263675     4.263675   -22716.581   -17445.112     3221.067   -53925.698   -5074.6102   -321.49235    4771.6313    77.509024 
   33900    1229.4993   -161.26142    1.1124768   -160.14894    12734.587    4.2569013    4.2569013    4.2569013    12734.587    6746.6473    32446.256   -989.14299   -4760.4454    5491.8617    1230.4332    77.140196 
   34000    1037.9472   -161.09455   0.93915648    -160.1554    20711.033    4.2593154    4.2593154    4.2593154    20711.033     30491.42    44890.635   -13248.955   -9145.4721   -7603.0387   -8544.4066    77.271513 
   34100    1100.8341   -161.15466   0.99605785    -160.1586    5580.6504    4.2576145    4.2576145    4.2576145    5580.6504    16951.663    37872.567   -38082.279   -14125.597    1999.1561   -5509.4812    77.178976 
   34200    1578.0143   -161.58054    1.4278205   -160.15272   -7602.7622    4.2505871    4.2505871    4.2505871   -7602.7622   -21224.068    21515.901   -23100.119    9169.7555     9619.192    5334.1837    76.797442 
   34300    1733.9719   -161.72462    1.5689342   -160.15569   -40980.321    4.2675197    4.2675197    4.2675197   -40980.321   -45487.571     -31455.8    -45997.59    22434.803   -12015.074   -7908.7708    77.718892 
   34400    1203.6642    -161.2365    1.0891007    -160.1474   -37071.813    4.2712072    4.2712072    4.2712072   -37071.813    8273.0211   -61730.632   -57757.826    5675.5545    36.863339   -7040.6625    77.920531 
   34500    996.41473   -161.04502   0.90157699   -160.14345    21135.784    4.2442377    4.2442377    4.2442377    21135.784    77844.364   -24808.085    10371.074   -4292.9627   -6751.8239    -5073.796    76.453803 
   34600    852.54472   -160.93591   0.77140038   -160.16451    34388.543    4.2514216    4.2514216    4.2514216    34388.543    111305.87   -19378.423     11238.18   -8323.0249   -5202.1556     2068.342    76.842681 
   34700    959.57874   -161.03308   0.86824701   -160.16483   -9026.3243    4.2724583    4.2724583    4.2724583   -9026.3243    57859.813   -49021.378   -35917.408   -5221.3013   -3234.9489     5411.925    77.989024 
   34800    1000.6716   -161.06092   0.90542873   -160.15549    9649.5062    4.2506849    4.2506849    4.2506849    9649.5062    43059.005   -24355.861    10245.374    5415.5143   -6786.2475    10106.256    76.802742 
   34900     967.9914   -161.03154   0.87585896   -160.15568    26411.272    4.2402331    4.2402331    4.2402331    26411.272    33950.695   -13831.558    59114.678   -4737.0225    250.52301    13299.813    76.237598 
   35000    1059.6549    -161.1241   0.95879806    -160.1653   -12994.277    4.2653479    4.2653479    4.2653479   -12994.277     9142.841   -27977.311   -20148.361   -5844.7876    273.04254    16545.747    77.600299 
   35100    1134.7812   -161.18172    1.0267739   -160.15495    -16124.48    4.2572455    4.2572455    4.2572455    -16124.48    8114.2855   -39067.154   -17420.573   -19057.627    6210.0499    13494.313    77.158911 
   35200    1092.5673   -161.13549   0.98857788   -160.14691   -26129.633    4.2454052    4.2454052    4.2454052   -26129.633   -34182.337   -34065.812   -10140.751   -23175.795    15018.198    4376.9798    76.516912 
   35300    938.40161   -161.00902   0.84908549   -160.15993   -8515.5437    4.2557672    4.2557672    4.2557672   -8515.5437   -41554.077   -1024.9124    17032.358   -3462.3038   -3337.6896     10237.62    77.078561 
   35400    868.75022   -160.94873   0.78606345   -160.16266    21074.753    4.2612507    4.2612507    4.2612507    21074.753    6116.1665    22003.413    35104.681   -833.91003   -2226.3417    8185.3881    77.376886 
   35500    630.80452   -160.73037   0.57076519   -160.15961    11682.075    4.2596534    4.2596534    4.2596534    11682.075   -21184.009    15448.101    40782.131   -712.67222    -1204.952   -5880.3999    77.289906 
   35600    828.74391   -160.90705   0.74986491   -160.15718    -5081.181    4.2562113    4.2562113    4.2562113    -5081.181   -39066.782    9704.8507    14118.389   -12136.492   -3908.0854   -495.10837    77.102691 
   35700    1247.7174   -161.28739    1.1289609   -160.15843    1584.1673     4.254252     4.254252     4.254252    1584.1673    4424.2911    1297.8846   -969.67379    -19908.18    6612.5777   -5235.5777    76.996263 
   35800    1240.8085   -161.28178    1.1227096   -160.15907   -16359.232     4.263599     4.263599     4.263599   -16359.232   -22965.899   -4001.9734   -22109.822   -17938.968    350.96913   -222.75276    77.504882 
   35900    1074.6207   -161.12784    0.9723394    -160.1555   -23564.191    4.2707241    4.2707241    4.2707241   -23564.191   -30048.002   -15472.108   -25172.462   -9658.8105    925.54491    1726.3584    77.894098 
   36000    1745.8357   -161.73209    1.5796689   -160.15242     -39264.6    4.2652002    4.2652002    4.2652002     -39264.6   -40382.494   -20201.723   -57209.583    6483.3201    9009.1853    7442.0955    77.592237 
   36100    1487.8463   -161.49742    1.3462346   -160.15118   -27064.633    4.2615882    4.2615882    4.2615882   -27064.633   -23837.564   -15764.188   -41592.145    11097.924   -11347.714    8401.2594    77.395277 
   36200    1036.1031   -161.09473   0.93748785   -160.15724   -11200.409    4.2630986    4.2630986    4.2630986   -11200.409    14650.103   -23741.557   -24509.774    5296.5744   -24957.981   -4191.6635    77.477595 
   36300     1034.667   -161.10089   0.93618844    -160.1647    4657.8991    4.2643572    4.2643572    4.2643572    4657.8991    40854.591   -26819.131   -61.761807   -7965.5068   -21415.963    -2623.421    77.546234 
   36400    622.82517   -160.72544   0.56354531    -160.1619    34882.223    4.2632028    4.2632028    4.2632028    34882.223     43669.97    24932.662    36044.037   -10492.278   -7547.9998   -7922.6846    77.483278 
   36500    864.23459   -160.92936   0.78197762   -160.14738    9403.2605    4.2631936    4.2631936    4.2631936    9403.2605    19563.542   -553.28036    9199.5196   -4162.0186   -9173.9084     7179.015    77.482773 
   36600    1199.6639   -161.23076    1.0854811   -160.14527    8292.6954    4.2588086    4.2588086    4.2588086    8292.6954    64308.777    -26257.77    -13172.92   -1488.1868    561.65572    4722.1784     77.24393 
   36700    1388.6207   -161.41254    1.2564532   -160.15608   -19921.101    4.2610499    4.2610499    4.2610499   -19921.101   -1744.8935   -15047.762   -42970.647    13723.603   -14533.897   -10111.415    77.365947 
   36800    1193.8557   -161.23486    1.0802257   -160.15464   -28363.967     4.258623     4.258623     4.258623   -28363.967   -77398.299    28284.251   -35977.851    4371.6108   -10785.921   -4779.3064    77.233831 
   36900    1207.3934   -161.24847     1.092475     -160.156   -1276.5784    4.2520621    4.2520621    4.2520621   -1276.5784   -13719.044    56972.527   -47083.218   -12342.298    7462.8596   -5804.4655    76.877417 
   37000    949.02741   -161.02338   0.85869995   -160.16468    18957.057    4.2580093    4.2580093    4.2580093    18957.057    32495.382    64533.061   -40157.271   -12881.018    16193.823    3524.7586    77.200447 
   37100    812.53718   -160.89623   0.73520072   -160.16103    22216.025    4.2576216    4.2576216    4.2576216    22216.025    9152.9223    81919.794   -24424.641    -14826.84    25137.892    8843.7572    77.179364 
   37200     1222.125   -161.25853    1.1058044   -160.15273    23023.502    4.2442682    4.2442682    4.2442682    23023.502    -15155.88    69899.402    14326.984   -6234.0948    7745.2875    3606.3535     76.45545 
   37300    1404.8135   -161.43039    1.2711047   -160.15929   -4046.7909    4.2557162    4.2557162    4.2557162   -4046.7909   -38027.692    32318.394   -6431.0741    9145.5032   -3959.4886    615.89617    77.075788 
   37400    1427.1718   -161.44638     1.291335   -160.15505   -40075.288    4.2705884    4.2705884    4.2705884   -40075.288    -53368.62   -34821.274   -32035.969    9070.3944     1927.934   -3620.4583    77.886675 
   37500    1382.9173   -161.40203    1.2512927   -160.15074   -11214.686    4.2576157    4.2576157    4.2576157   -11214.686   -11054.562   -27877.672    5288.1757   -800.10809   -4470.2125    2732.1186    77.179039 
   37600    1289.8789   -161.31813    1.1671095   -160.15102    15430.368    4.2486797    4.2486797    4.2486797    15430.368    60702.727    1744.2812   -16155.904    -3344.635    8431.8162     17131.69    76.694105 
   37700    1107.8188   -161.15725    1.0023778   -160.15487    11689.055    4.2502386    4.2502386    4.2502386    11689.055    51933.216    7596.8475   -24462.899   -13690.493    4044.3512    16717.251    76.778553 
   37800    1265.9162   -161.30253    1.1454276    -160.1571   -8009.6866    4.2581625    4.2581625    4.2581625   -8009.6866    3850.9067   -11454.376   -16425.591   -5440.2218   -9649.6271    2973.0003    77.208778 
   37900    1564.5328   -161.57056    1.4156222   -160.15494   -25349.981    4.2683266    4.2683266    4.2683266   -25349.981   -5092.1557   -58268.421   -12689.365    8692.8517     -17620.6    1297.7032    77.762986 
   38000    1346.9224   -161.37529    1.2187237   -160.15657    5361.0872    4.2589331    4.2589331    4.2589331    5361.0872   -110.06897    -18722.94    34916.271   -2076.1333   -18608.167    10559.264    77.250707 
   38100    1226.9923   -161.27364    1.1102084   -160.16343    3290.7921    4.2552498    4.2552498    4.2552498    3290.7921   -20045.521   -4206.5357    34124.433   -6112.5327   -8988.4497    6414.1882    77.050448 
   38200    1565.4991   -161.57829    1.4164965    -160.1618   -27222.549      4.25949      4.25949      4.25949   -27222.549   -21380.852    -30164.95   -30121.845   -10783.992    2906.4217   -1650.3553    77.281016 
   38300    1640.7084   -161.64531    1.4845474   -160.16076   -23271.904    4.2537562    4.2537562    4.2537562   -23271.904   -4989.1916    -6570.348   -58256.173   -13842.953   -951.35675    1632.8454    76.969345 
   38400    1031.4459    -161.1049   0.93327392   -160.17162    2583.7322    4.2498369    4.2498369    4.2498369    2583.7322   -4003.3018    18174.328   -6419.8294    1571.4645   -11553.993    2338.9658    76.756785 
   38500    1023.5616   -161.10135   0.92614003   -160.17521   -2507.3459    4.2474324    4.2474324    4.2474324   -2507.3459   -11813.204    7942.5712   -3651.4046    3305.6891   -20330.024     3360.947    76.626575 
   38600    1388.4822   -161.43122    1.2563279   -160.17489    1174.1378    4.2373978    4.2373978    4.2373978    1174.1378    19950.794    8366.7589    -24795.14   -4869.0733   -22216.029    1707.6567    76.084765 
   38700    1290.2106   -161.34398    1.1674096   -160.17657   -12405.003    4.2446628    4.2446628    4.2446628   -12405.003   -8055.9945    8883.4224   -38042.436    7283.4211   -14743.383   -448.86518    76.476778 
   38800    1076.0516   -161.14497    0.9736341   -160.17134   -20012.439    4.2592221    4.2592221    4.2592221   -20012.439   -15828.347    2265.9829   -46474.953    3647.1088   -9942.9165    1602.0277     77.26643 
   38900    1182.8735   -161.23992    1.0702888   -160.16963    11003.469    4.2513578    4.2513578    4.2513578    11003.469    58708.437    4221.8271   -29919.857    7668.5801   -2727.1475    3737.1608    76.839223 
   39000    1129.3957    -161.1931     1.021901    -160.1712     17303.57    4.2400164    4.2400164    4.2400164     17303.57    72288.341     15759.65   -36137.281    8499.3457    2276.2819    4360.0582    76.225907 
   39100    955.79566   -161.03884   0.86482399   -160.17401   -1443.2253    4.2448811    4.2448811    4.2448811   -1443.2253    15110.628    10906.495   -30346.799    2640.3364    13337.127   -9729.6127    76.488579 
   39200     1167.721   -161.22634    1.0565785   -160.16976    -9238.112    4.2548539    4.2548539    4.2548539    -9238.112    3861.5775    1130.5595   -32706.473   -10489.121    18733.303   -3589.4308    77.028948 
   39300    1021.3183   -161.09635   0.92411027   -160.17224    14199.514    4.2557602    4.2557602    4.2557602    14199.514    61262.504    -102.8094   -18561.152     -4383.72    24280.292    2027.7755    77.078179 
   39400    806.20626   -160.90775   0.72947236   -160.17828    6809.4868    4.2531227    4.2531227    4.2531227    6809.4868    22046.591    16706.342   -18324.473   -983.61699    23159.988    2161.3209     76.93496 
   39500     948.5381   -161.03103   0.85825721   -160.17277    -15331.86    4.2445061    4.2445061    4.2445061    -15331.86   -23957.896    12973.619   -35011.301    901.10013    12182.189   -4101.1986    76.468307 
   39600    1042.3711   -161.11127   0.94315927   -160.16811   -21874.297    4.2447013    4.2447013    4.2447013   -21874.297    3874.2817   -11176.437   -58320.735    16184.463     3573.068   -10523.838    76.478859 
   39700    771.10988   -160.87127   0.69771643   -160.17355   -4576.9978     4.257747     4.257747     4.257747   -4576.9978    24648.786     1247.287   -39627.066   -8534.3367     9853.557   -1395.6322     77.18618 
   39800    751.55468   -160.85072   0.68002247    -160.1707    12495.441     4.261126     4.261126     4.261126    12495.441    36868.628    16184.387   -15566.692   -5440.4394    5081.1516    467.60613    77.370098 
   39900    902.86198   -160.98267   0.81692849   -160.16575    12422.748    4.2484361    4.2484361    4.2484361    12422.748    52939.401   -4701.8369   -10969.321    5900.9889   -4348.0177   -4211.8865    76.680911 
   40000    865.77718   -160.94958   0.78337338   -160.16621   -2728.4841    4.2402336    4.2402336    4.2402336   -2728.4841    20113.364    2198.6486   -30497.465   -2644.9214    -6695.151   -9910.6636    76.237621 
   40100    902.25767   -160.98898    0.8163817    -160.1726   -9002.9461    4.2458137    4.2458137    4.2458137   -9002.9461   -11196.989    28588.319   -44400.168    3336.2884   -2452.7393   -10720.434    76.539005 
   40200    1109.9955   -161.17818    1.0043473   -160.17384   -4354.0595     4.256331     4.256331     4.256331   -4354.0595    24631.712    18729.424   -56423.315   -1177.8527    1076.8812   -2614.9405    77.109197 
   40300    938.16428   -161.01729   0.84887075   -160.16842    5313.1203    4.2561373    4.2561373    4.2561373    5313.1203    57884.458   -20889.104   -21055.993    4584.6246   -5170.4361   -882.42526     77.09867 
   40400    684.46488   -160.78713    0.6193182   -160.16781    16705.668    4.2481749    4.2481749    4.2481749    16705.668      44177.9   -5989.8573    11928.962   -5843.7572    -12353.47   -8892.0579    76.666771 
   40500    901.14336    -160.9917   0.81537345   -160.17633    15421.407    4.2489821    4.2489821    4.2489821    15421.407    34158.993    17868.908   -5763.6812   -7699.4494   -12153.543   -8482.5913     76.71048 
   40600    931.03581   -161.01701   0.84242076   -160.17459    2446.3453    4.2554173    4.2554173    4.2554173    2446.3453    43654.646   -8427.1657   -27888.445    2155.2156    1356.7352   -970.35172    77.059551 
   40700    855.51214    -160.9425   0.77408536   -160.16842   -16323.228    4.2582627    4.2582627    4.2582627   -16323.228    41089.102   -50942.579   -39116.208    146.60766    8426.5139    401.14123     77.21423 
   40800    1127.9738   -161.19311    1.0206144    -160.1725    -12810.61    4.2580532    4.2580532    4.2580532    -12810.61    5088.8871   -6261.3968   -37259.321    -5762.888    17788.456   -4610.8713    77.202833 
   40900    1308.2553   -161.35517    1.1837369   -160.17143   -14138.152    4.2587319    4.2587319    4.2587319   -14138.152   -5425.8537    -12339.68   -24648.924   -9210.3376    16396.117   -5284.1562    77.239759 
   41000    935.37998   -161.01905   0.84635146   -160.17269   -17075.085    4.2588638    4.2588638    4.2588638   -17075.085    1454.2747   -45136.416   -7543.1145   -12382.253    9695.8389   -6268.0835    77.246935 
   41100    1126.0078   -161.19154    1.0188355    -160.1727   -15200.425    4.2540062    4.2540062    4.2540062   -15200.425   -14592.516   -27086.316   -3922.4421   -19259.829    17148.801    1601.7726    76.982914 
   41200    1243.6137   -161.29815    1.1252478    -160.1729   -2237.4181    4.2498477    4.2498477    4.2498477   -2237.4181    13601.656   -16544.594    -3769.317   -5112.0692    8317.4575    7376.4353    76.757372 
   41300    1054.7047   -161.12955   0.95431901   -160.17523   -20136.329    4.2538026    4.2538026    4.2538026   -20136.329    21608.885   -72098.551   -9919.3228   -7974.9445    3040.5582    9207.4017    76.971865 
   41400    795.09848   -160.89132   0.71942182    -160.1719   -8079.4379    4.2591493    4.2591493    4.2591493   -8079.4379    14648.957    -73159.23    34271.959   -13113.858    4609.4621    616.88802     77.26247 
   41500     972.5769   -161.04423   0.88000802   -160.16422    9765.1136    4.2570326    4.2570326    4.2570326    9765.1136    36227.839   -42837.436    35904.938    2277.8986   -13910.422    7959.4784    77.147334 
   41600    996.62375   -161.06208   0.90176612   -160.16031    14526.807    4.2482295    4.2482295    4.2482295    14526.807    43821.895   -53640.606     53399.13    12283.531   -5775.1881   -3391.2776    76.669726 
   41700     942.0655    -161.0152   0.85240066    -160.1628   -1458.5298    4.2446774    4.2446774    4.2446774   -1458.5298    38736.845    -56148.35    13035.915    16823.072    4845.6971    8896.2917    76.477567 
   41800    1092.9027   -161.15545   0.98888137   -160.16656   -10446.059    4.2457082    4.2457082    4.2457082   -10446.059    5109.3857   -35207.966   -1239.5961    27081.351    11064.117    8245.0892    76.533298 
   41900     1311.904    -161.3556    1.1870383   -160.16856    -6326.576    4.2485001    4.2485001    4.2485001    -6326.576   -13097.852   -23261.815    17379.939    15684.548    16305.194   -5256.2561    76.684376 
   42000    920.01033   -161.00321   0.83244468   -160.17077   -14502.465    4.2599419    4.2599419    4.2599419   -14502.465    19324.061   -69533.598    6702.1436    16563.022    4745.9839      3.15336    77.305615 
   42100    874.88798   -160.95775   0.79161703   -160.16613   -17281.644    4.2618844    4.2618844    4.2618844   -17281.644   -17448.365   -56321.608     21925.04    7894.1266   -10752.238   -10046.501    77.411415 
   42200    1015.4357   -161.08299   0.91878759    -160.1642    14815.307    4.2442128    4.2442128    4.2442128    14815.307    21618.586   -12786.043    35613.378   -2340.7468   -22836.632   -10565.782     76.45246 
   42300    634.41238   -160.74214   0.57402966   -160.16811    16079.107    4.2366393    4.2366393    4.2366393    16079.107    52035.472   -28084.799    24286.647    2024.0445   -32738.344   -3711.2518    76.043913 
   42400    386.66626   -160.52502   0.34986376   -160.17515    14752.556    4.2439005    4.2439005    4.2439005    14752.556    18450.679   -31448.123    57255.114   -4613.5898   -28774.211   -5825.9626    76.435584 
   42500    715.54681   -160.82637   0.64744179   -160.17893    13896.577     4.259261     4.259261     4.259261    13896.577      3016.43   -24908.299    63581.599     3636.172   -34358.377   -6160.0749    77.268552 
   42600    934.41357   -161.01499   0.84547704   -160.16951    643.29018    4.2616621    4.2616621    4.2616621    643.29018    437.14527   -37524.051    39016.777    2786.1243   -28766.088    4220.2779    77.399299 
   42700    732.52277   -160.82204     0.662802   -160.15924   -1359.7091    4.2432415    4.2432415    4.2432415   -1359.7091   -7181.1228   -27797.893    30899.889    7280.8343    -15247.71    10116.793    76.399978 
   42800    919.08565   -160.99839   0.83160801   -160.16678   -7832.1343    4.2390691    4.2390691    4.2390691   -7832.1343    11599.955   -16641.225   -18455.133    172.60691   -17065.501    15879.473    76.174826 
   42900    1255.2683   -161.30704    1.1357931   -160.17125   -20311.411     4.249112     4.249112     4.249112   -20311.411   -9947.6141       -29129   -21857.619   -8823.7541   -11972.115    4255.5629    76.717518 
   43000    873.88206   -160.96009   0.79070685   -160.16938   -7074.7798    4.2565974    4.2565974    4.2565974   -7074.7798    16552.859   -40262.202    2485.0037   -4550.3217   -1056.3857    10733.952    77.123679 
   43100    709.01668    -160.8104    0.6415332   -160.16886    2464.2422    4.2606191    4.2606191    4.2606191    2464.2422    22883.845   -45110.704    29619.586    3105.4143   -5722.5995    18421.615    77.342489 
   43200    1171.1163   -161.22677    1.0596507   -160.16712    10409.043    4.2491151    4.2491151    4.2491151    10409.043    33409.309   -23817.792    21635.611    10565.523   -6626.9546    4211.1579    76.717685 
   43300    952.64267      -161.03   0.86197111   -160.16803    6747.5033    4.2417001    4.2417001    4.2417001    6747.5033    50363.636   -29053.288    -1067.838     7580.904   -9205.1873   -1993.7103    76.316754 
   43400    637.48003   -160.74817   0.57680533   -160.17137   -4234.9591    4.2508493    4.2508493    4.2508493   -4234.9591    53608.656   -50399.565   -15913.968    6437.3319   -6158.4453   -1503.2967    76.811657 
   43500    1040.1189   -161.11544   0.94112148   -160.17432   -1185.2875    4.2564057    4.2564057    4.2564057   -1185.2875    45113.934   -55450.727    6780.9306    5551.2677   -1791.0905     -2272.01     77.11326 
   43600    1115.2055   -161.18379    1.0090614   -160.17473    2790.9656    4.2551338    4.2551338    4.2551338    2790.9656    22099.966   -31754.917    18027.848    15648.443    11861.464    6762.5435    77.044147 
   43700    662.19275    -160.7663   0.59916592   -160.16713   -20184.832    4.2559343    4.2559343    4.2559343   -20184.832   -9660.7672   -39701.448   -11192.281     9649.404    5818.0921    -7612.737    77.087637 
   43800     756.5131   -160.84872   0.68450895   -160.16421     1410.307    4.2454495    4.2454495    4.2454495     1410.307    15895.503   -18134.154    6469.5717   -5164.0779     4645.422   -29776.203    76.519306 
   43900    1182.3949   -161.23698    1.0698558   -160.16712     11863.23    4.2434673    4.2434673    4.2434673     11863.23    31189.519   -37787.104    42187.276    6172.8643    3701.3205   -18772.161    76.412181 
   44000     879.9312   -160.96613   0.79618024   -160.16995   -11810.093    4.2578219    4.2578219    4.2578219   -11810.093    7447.5006   -72845.865    29968.086    10503.149   -7403.2559   -10618.714    77.190257 
   44100    673.81397   -160.77888   0.60968104    -160.1692    214.68915    4.2551332    4.2551332    4.2551332    214.68915     12127.91    -51743.46    40259.618    17270.479   -3595.9459   -2527.6103    77.044114 
   44200    1223.5462   -161.27463    1.1070903   -160.16754    2137.2222    4.2493302    4.2493302    4.2493302    2137.2222    6979.5454    -23325.88    22758.001    20072.902    892.64113     6454.684    76.729337 
   44300    1322.7561   -161.35884    1.1968576   -160.16198   -20143.055    4.2508931    4.2508931    4.2508931   -20143.055    9765.4454   -47169.084   -23025.527   -5693.7414    8747.1559   -14143.245    76.814029 
   44400    953.49474   -161.01877   0.86274207   -160.15603    -17134.89     4.249287     4.249287     4.249287    -17134.89    21037.481   -54753.205   -17688.946    1336.0723    8753.8784     -9676.36    76.726994 
   44500    1060.2817   -161.12188   0.95936516   -160.16252    10627.966    4.2519356    4.2519356    4.2519356    10627.966    47038.586   -30584.065    15429.378    5372.1037    2229.1002    1909.0059    76.870558 
   44600    1142.8916   -161.20054    1.0341124   -160.16643    1391.3692    4.2606342    4.2606342    4.2606342    1391.3692    2578.1013   -36129.157    37725.164   -6360.3162   -14765.071   -821.89162    77.343309 
   44700    572.86808   -160.68077   0.51834308   -160.16242   -4693.8757     4.252764     4.252764     4.252764   -4693.8757    18343.417   -63561.575    31136.531    3274.6543   -9216.7027    6219.6632    76.915498 
   44800     588.4159   -160.69465   0.53241107   -160.16224    8610.7902    4.2415486    4.2415486    4.2415486    8610.7902    33076.308   -29890.785    22646.848   -2912.4337   -13750.433   -520.32698    76.308574 
   44900    1099.2326   -161.16247   0.99460873   -160.16786   -3077.3938    4.2523715    4.2523715    4.2523715   -3077.3938    9907.5351   -28819.727    9680.0108   -15869.209   -8095.5535   -9038.3121    76.894203 
   45000    915.41656   -160.99583   0.82828814   -160.16755   -15220.988    4.2622198    4.2622198    4.2622198   -15220.988   -6735.2585   -37618.813   -1308.8916   -10302.812    2765.7069    -1475.648    77.429692 
   45100    619.68177   -160.72506   0.56070109   -160.16436   -174.30138    4.2539187    4.2539187    4.2539187   -174.30138    12403.553    -26455.95    13529.493    -9517.048    307.82008    9264.0258    76.978167 
   45200    1138.9857   -161.19414    1.0305782   -160.16356    4145.2692     4.247911     4.247911     4.247911    4145.2692    22869.073    -25929.52    15496.255   -916.20798   -8076.6622    20086.799    76.652486 
   45300    899.95479   -160.98263   0.81429801   -160.16833    19312.542    4.2523425    4.2523425    4.2523425    19312.542    36544.773   -14571.771    35964.623   -1611.7055   -1872.0602    15138.138     76.89263 
   45400     693.4561    -160.7853   0.62745365   -160.15785   -2233.1924    4.2561007    4.2561007    4.2561007   -2233.1924    26753.029   -46214.916     12762.31   -12956.736   -6256.7785    6473.4187     77.09668 
   45500    872.53978   -160.94935   0.78949233   -160.15985      10434.5    4.2525968    4.2525968    4.2525968      10434.5    46369.871   -35151.377    20085.006   -8883.3863   -8047.2316     9319.085    76.906424 
   45600    1353.7197   -161.39067    1.2248741    -160.1658   -2418.6332    4.2520536    4.2520536    4.2520536   -2418.6332    21278.497   -36422.617    7888.2198   -6244.6943    5630.4004    7501.4909    76.876957 
   45700    1229.6109   -161.27502    1.1125777   -160.16245   -28881.328    4.2476536    4.2476536    4.2476536   -28881.328   -7911.4638   -52891.026   -25841.494    8128.7073    4580.8408     21293.32    76.638551 
   45800    986.15272   -161.05664    0.8922917   -160.16435   -21250.311    4.2483556    4.2483556    4.2483556   -21250.311   -13336.208   -37133.761   -13280.964     18381.52    17110.916    5094.5033    76.676553 
   45900    1128.5536   -161.19106     1.021139   -160.16992    11063.988    4.2581943    4.2581943    4.2581943    11063.988    14169.981   -13226.972    32248.956    7105.2427    1588.3283   -10281.873    77.210508 
   46000    1201.9076   -161.25059    1.0875112   -160.16308   -2099.9087    4.2613428    4.2613428    4.2613428   -2099.9087   -1934.4203    -34802.84    30437.535    3978.3144   -11596.728   -3628.4087    77.381906 
   46100    1099.4351   -161.15245   0.99479199   -160.15766   -31375.772    4.2514968    4.2514968    4.2514968   -31375.772   -19512.383   -45419.524   -29195.409    7273.6066   -12276.565    45.430355    76.846764 
   46200    1358.1881   -161.39147    1.2289172   -160.16255   -7961.2593    4.2463087    4.2463087    4.2463087   -7961.2593    3620.4173    6495.3007   -33999.496    2653.5798   -10373.879    4915.0448    76.565777 
   46300    1278.1513   -161.32891    1.1564981   -160.17241    9987.1269    4.2573232    4.2573232    4.2573232    9987.1269    23007.463      12106.5   -5152.5817    12289.245    -2174.967   -4917.3185    77.163134 
   46400    1146.8004   -161.20116    1.0376491   -160.16351   -21860.787    4.2608362    4.2608362    4.2608362   -21860.787   -6743.0326   -35529.681   -23309.646    12638.173    14496.812   -2641.4209    77.354312 
   46500    1194.8522   -161.23614    1.0811274   -160.15501    -3332.485    4.2474404    4.2474404    4.2474404    -3332.485     13414.84   -2923.4561   -20488.839     12932.61    21616.674    4471.6132    76.627009 
   46600    1456.5403   -161.47766    1.3179083   -160.15975    3067.7743    4.2533656    4.2533656    4.2533656    3067.7743    17642.828    23551.307   -31990.812    3051.0858    14103.147   -6511.4233     76.94814 
   46700    937.42238   -161.00712   0.84819947   -160.15892    13065.872    4.2601672    4.2601672    4.2601672    13065.872    40484.874    141.69245   -1428.9514   -14011.146   -2327.0396   -6935.1804     77.31788 
   46800    607.34185   -160.70725   0.54953567   -160.15771    13910.535    4.2501443    4.2501443    4.2501443    13910.535    59029.362   -20061.646    2763.8883   -8527.6825   -8394.8838   -3446.2288    76.773442 
   46900    1268.2438   -161.30544    1.1475337   -160.15791   -8900.5364    4.2477049    4.2477049    4.2477049   -8900.5364    13752.925   -16162.722   -24291.813   -6501.0026   -1615.6178    967.97115    76.641327 
   47000    1242.5739   -161.28766    1.1243069   -160.16336   -6986.4058    4.2511993    4.2511993    4.2511993   -6986.4058   -727.10473    1645.2529   -21877.365   -16512.545    9142.3126    5878.1667    76.830629 
   47100    939.92055   -161.01501   0.85045987   -160.16455   -15712.315    4.2506093    4.2506093    4.2506093   -15712.315   -11892.151   -27116.249   -8128.5436   -9145.8121    8250.0551    -5774.117    76.798645 
   47200    844.09039   -160.93191   0.76375073   -160.16816    3472.8694    4.2568142    4.2568142    4.2568142    3472.8694    11861.957   -11609.784    10166.435   -5922.4841   -747.90645   -9009.1219    77.135462 
   47300    1251.0236   -161.29096    1.1319524   -160.15901    3747.6095    4.2645518    4.2645518    4.2645518    3747.6095    14737.627   -952.99741   -2541.8014   -29458.638   -9861.8695   -509.35666    77.556852 
   47400    1392.7013   -161.40447    1.2601454   -160.14432    5686.6053     4.249327     4.249327     4.249327    5686.6053   -3371.0257    26985.045   -6554.2031   -16408.133   -2307.6259    6665.0397    76.729161 
   47500    1235.3597   -161.26487    1.1177794   -160.14709   -10122.489    4.2472135    4.2472135    4.2472135   -10122.489    -16469.61   -9536.9205    -4360.937   -14130.921   -4206.7318    7936.8777    76.614731 
   47600     1494.674   -161.50867    1.3524124   -160.15625   -22827.847       4.2565       4.2565       4.2565   -22827.847   -38086.837   -21942.903   -8453.8021   -6321.8717    769.29091    8196.6152    77.118385 
   47700    1371.6371    -161.3974    1.2410861   -160.15632   -632.70668    4.2591964    4.2591964    4.2591964   -632.70668   -26145.175   -228.45747    24475.513    13396.796    10283.389   -1213.7706    77.265032 
   47800    977.56611   -161.04246   0.88452236   -160.15794    3542.9429    4.2542056    4.2542056    4.2542056    3542.9429   -17680.534     10105.78    18203.583    2858.8303   -549.01685   -8110.8542     76.99374 
   47900    1044.6074   -161.10314   0.94518274   -160.15795   -11988.167    4.2517587    4.2517587    4.2517587   -11988.167   -32493.182    17388.265   -20859.584   -1696.9031   -2862.6603   -5362.9595    76.860963 
   48000    1193.1064   -161.24136    1.0795478   -160.16181    2900.4518    4.2511549    4.2511549    4.2511549    2900.4518    13637.808    30958.459   -35894.911    -1379.403   -2061.7897    2855.3504     76.82822 
   48100    1035.9975   -161.10422   0.93739234   -160.16683   -2734.9633    4.2541811    4.2541811    4.2541811   -2734.9633    32681.296    5271.8489   -46158.035   -12968.469   -7695.7101    10542.142    76.992412 
   48200    604.77285   -160.71281   0.54721118    -160.1656    3120.0273    4.2543044    4.2543044    4.2543044    3120.0273    35163.173    4118.5495    -29921.64    8986.8804     9729.772     1624.252    76.999105 
   48300    834.41358   -160.91632   0.75499495   -160.16133    20646.518    4.2527228    4.2527228    4.2527228    20646.518    38179.785    37050.392   -13290.622    3728.2679    13638.124    -1812.979    76.913261 
   48400    1314.2533   -161.34447     1.189164    -160.1553    2272.4021    4.2529304    4.2529304    4.2529304    2272.4021    14367.272    24706.005   -32256.071   -206.89547   -4719.4995   -6327.5555    76.924524 
   48500    1223.7974   -161.26108    1.1073176   -160.15376   -12712.336    4.2509847    4.2509847    4.2509847   -12712.336   -6310.1129   -3172.4532   -28654.441    5680.4923     -3209.69   -10533.895    76.818997 
   48600    1181.0229   -161.22955    1.0686143   -160.16094   -6238.3254     4.254335     4.254335     4.254335   -6238.3254   -27042.199    18956.069   -10628.846    338.33951    289.43945    3448.7603    77.000767 
   48700    1630.3935   -161.63725    1.4752143   -160.16204   -18511.105    4.2604478    4.2604478    4.2604478   -18511.105   -24515.627   -7234.2106   -23783.478    -11120.96    2779.8237   -7637.1514     77.33316 
   48800    1597.3605   -161.60477    1.4453253   -160.15944   -34736.873    4.2600345    4.2600345    4.2600345   -34736.873   -8828.5724   -49299.192   -46082.853   -20315.213    14509.323   -8523.2245    77.310655 
   48900    1283.2003   -161.32095    1.1610666   -160.15988    -16795.56    4.2522263    4.2522263    4.2522263    -16795.56   -16441.078    -27631.78   -6313.8205   -9312.9737    9454.8915    4612.7618    76.886324 
   49000    1254.6005   -161.29883    1.1351889   -160.16364    4752.0698    4.2559256    4.2559256    4.2559256    4752.0698   -16133.166     6629.287    23760.089   -2330.1429    2844.7795     455.8622    77.087167 
   49100      1163.27   -161.21439    1.0525512   -160.16184    -5364.526    4.2600281    4.2600281    4.2600281    -5364.526    5027.3431   -5884.5088   -15236.412   -5362.5982    11794.794    2727.7203    77.310308 
   49200    965.05367   -161.02886   0.87320084   -160.15566    726.20935    4.2462032    4.2462032    4.2462032    726.20935    5813.0532    2960.3317   -6594.7568    2191.2247    16759.892   -2262.9811     76.56007 
   49300    1007.8572   -161.07043   0.91193038    -160.1585    7820.7555    4.2424506    4.2424506    4.2424506    7820.7555    2837.5058    15761.904    4862.8567   -7541.3671    20359.597   -1092.1058    76.357266 
   49400    1013.5783   -161.07945   0.91710697   -160.16234    4334.1424    4.2542668    4.2542668    4.2542668    4334.1424    3519.0209   -794.09376      10277.5   -9495.7756    24475.998    10770.434    76.997062 
   49500    814.79797   -160.89616   0.73724633   -160.15891    11099.338    4.2564814    4.2564814    4.2564814    11099.338    25067.414    14861.751   -6631.1503   -1057.8525    12466.069    8116.9182    77.117372 
   49600     1211.005   -161.25063    1.0957428   -160.15489   -9064.9541    4.2558815    4.2558815    4.2558815   -9064.9541    1843.2555    4827.0208   -33865.139   -3669.3791    6959.8567     6418.196     77.08477 
   49700    1745.6669    -161.7274    1.5795161   -160.14789   -20137.249    4.2522785    4.2522785    4.2522785   -20137.249   -8888.6211   -21252.443   -30270.684    15642.715   -7284.6291   -7238.3167    76.889158 
   49800    1596.0217   -161.59409    1.4441139   -160.14998   -15312.228    4.2527057    4.2527057    4.2527057   -15312.228   -8184.9735    -17706.38   -20045.332    4529.1616   -15375.156    3314.6835    76.912335 
   49900     1177.433   -161.21803    1.0653661   -160.15266   -22956.249    4.2593113    4.2593113    4.2593113   -22956.249   -40611.204   -5514.3545   -22743.189   -519.99237   -16428.098    14918.498    77.271288 
   50000    1275.0362   -161.30785    1.1536795   -160.15417   -17784.373    4.2570774    4.2570774    4.2570774   -17784.373   -42031.459   -4260.6593   -7061.0022   -3920.3621   -13077.269    4439.1543     77.14977 
   50100     1141.748   -161.19271    1.0330776   -160.15963   -6064.7023    4.2491302    4.2491302    4.2491302   -6064.7023   -8215.2182   -6845.0524   -3133.8364   -3366.0327   -26656.791    5413.3138    76.718504 
   50200    547.72874   -160.65923   0.49559647   -160.16363    13838.123    4.2420313    4.2420313    4.2420313    13838.123   -9010.2658    31345.793    19178.841    6473.2367   -25393.342    2722.4571     76.33463 
   50300    619.14562   -160.72908   0.56021597   -160.16887    17083.336    4.2461075    4.2461075    4.2461075    17083.336   -23903.176    43602.634     31550.55     11383.79   -18369.695     7229.061    76.554893 
   50400     908.5827   -160.99056   0.82210472   -160.16846   -441.00345    4.2547169    4.2547169    4.2547169   -441.00345    -9544.317    15235.461   -7014.1548    4758.8674   -10703.178    7416.0739    77.021508 
   50500      773.102   -160.86564   0.69951893   -160.16612    241.71979    4.2481213    4.2481213    4.2481213    241.71979    5557.2543    3886.8162   -8718.9112   -4943.3408   -8675.6247    10206.537    76.663867 
   50600    913.89386   -160.99385   0.82691037   -160.16694    2918.4097    4.2479908    4.2479908    4.2479908    2918.4097   -35209.149    7614.0939    36350.284   -12568.419   -6549.5752    14168.671    76.656804 
   50700    1211.8377   -161.26251    1.0964962   -160.16601    836.29483     4.256285     4.256285     4.256285    836.29483   -40019.413   -1710.4574    44238.755    3522.2518   -18577.729     10895.01    77.106699 
   50800    1131.1292   -161.18288    1.0234695   -160.15941    2315.3329      4.25017      4.25017      4.25017    2315.3329   -7547.6078   -9641.7956    24135.402    2160.1533    -17622.47    13777.543    76.774835 
   50900    1208.5064   -161.25058    1.0934819    -160.1571   -11672.614    4.2546754    4.2546754    4.2546754   -11672.614   -11264.063   -14953.106   -8800.6722    1569.4252     1952.595    3218.5636    77.019251 
   51000    1797.5143   -161.77808    1.6264287   -160.15166   -25579.774      4.26147      4.26147      4.26147   -25579.774   -17077.659   -24277.692   -35383.972   -5375.7503    7081.6365   -11893.547    77.388834 
   51100    1659.6597   -161.64642    1.5016949   -160.14472   -1844.9833    4.2459246    4.2459246    4.2459246   -1844.9833    11081.864    1182.8143   -17799.629    6925.6486    17329.453   -4540.3023    76.545002 
   51200    1148.8948   -161.18947    1.0395441   -160.14992    1488.8925    4.2458012    4.2458012    4.2458012    1488.8925    4812.2909   -10504.054    10158.441    12832.269   -2308.1734    4381.0517    76.538327 
   51300    1126.7622    -161.1741    1.0195181   -160.15458   -5763.2798    4.2566848    4.2566848    4.2566848   -5763.2798   -34901.323   -13869.191    31480.674    18234.529    -873.0891    13050.306    77.128428 
   51400    1319.6327   -161.34675    1.1940314   -160.15272    6177.3472    4.2468285    4.2468285    4.2468285    6177.3472   -29434.822    4969.8165    42997.047    10012.487   -2658.3752    15985.143      76.5939 
   51500    1016.2423    -161.0748    0.9195174   -160.15528   -6819.6599    4.2475022    4.2475022    4.2475022   -6819.6599    4678.9265   -16718.125   -8419.7815   -5617.5139    1565.2693    135.87987    76.630355 
   51600    1037.1678   -161.09314   0.93845121   -160.15469   -25067.356    4.2596979    4.2596979    4.2596979   -25067.356   -23528.889   -16087.628    -35585.55   -7385.9575   -2937.0471     4307.913    77.292331 
   51700     1109.841   -161.15872    1.0042075   -160.15452     21772.47    4.2487448    4.2487448    4.2487448     21772.47   -4288.9143    40817.807    28788.517    4845.7544   -21819.228    3863.4728    76.697631 
   51800    676.49014   -160.77378    0.6121025   -160.16167    27399.947    4.2459688    4.2459688    4.2459688    27399.947    7033.7845    3321.1133    71844.942    1688.8318    -26218.25    11864.936    76.547393 
   51900    436.35527   -160.56321   0.39482342   -160.16838    -6042.622     4.254642     4.254642     4.254642    -6042.622     6388.718   -28790.277    4273.6924    1385.9723    -15729.51    18731.678    77.017436 
   52000    1100.2009   -161.16059   0.99548486   -160.16511    -3248.918    4.2482558    4.2482558    4.2482558    -3248.918    492.83113   -6873.7542    -3365.831   -8776.6368   -2143.8482    930.51294    76.671152 
   52100     1102.481   -161.16955     0.997548   -160.17201   -170.40225    4.2573788    4.2573788    4.2573788   -170.40225   -9820.9015   -2124.6623    11434.357   -9821.1056   -216.85747    8390.5508    77.166158 
   52200    658.66292   -160.76447   0.59597205    -160.1685    -17597.05    4.2667023    4.2667023    4.2667023    -17597.05   -24112.071   -23677.706   -5001.3725    2188.9605    346.80894    18893.724    77.674243 
   52300    959.36221   -161.03153   0.86805108   -160.16348    2681.9173    4.2478742    4.2478742    4.2478742    2681.9173    2573.5546   -2261.0598     7733.257   -3309.3637    3722.2875    16947.919    76.650489 
   52400     1307.991   -161.34766    1.1834977   -160.16416    7313.5791    4.2417238    4.2417238    4.2417238    7313.5791    16635.626   -3698.7127    9003.8237    5687.5499    6553.7069    18248.734    76.318032 
   52500    1163.7189    -161.2147    1.0529573   -160.16175   -19326.615    4.2551271    4.2551271    4.2551271   -19326.615    16899.486    -64170.12    -10709.21    1430.5257   -2057.5401    4677.2618    77.043783 
   52600    1128.1879   -161.17717    1.0208081   -160.15636    -3656.063    4.2518174    4.2518174    4.2518174    -3656.063     15329.71   -32405.139    6107.2396   -9751.4676    1013.5772   -779.05489    76.864146 
   52700    1719.9579   -161.71367    1.5562541   -160.15742   -3456.9732     4.249301     4.249301     4.249301   -3456.9732   -10792.377    20819.621   -20398.163   -4148.4378    7552.8369    -3242.188    76.727755 
   52800    1536.9984   -161.54796    1.3907085   -160.15725   -21147.215    4.2565954    4.2565954    4.2565954   -21147.215   -13737.209   -19447.177   -30257.258   -10481.844   -5102.3224   -11162.613    77.123571 
   52900    976.68714   -161.03404   0.88372705   -160.15031   -1833.2714    4.2501131    4.2501131    4.2501131   -1833.2714   -12229.956    15195.947   -8465.8055    3375.6132   -10264.857   -1127.6098    76.771756 
   53000    1285.3689   -161.31244    1.1630287   -160.14941    5035.9516    4.2416677    4.2416677    4.2416677    5035.9516   -19803.161    41646.047   -6735.0318     13052.97    -18763.14    248.05218    76.315005 
   53100    1460.4358   -161.48009     1.321433   -160.15866   -4199.2718    4.2495828    4.2495828    4.2495828   -4199.2718    -11138.98    13416.262   -14875.097    5382.1472    -4299.776   -5978.2752    76.743019 
   53200    984.79435   -161.04663   0.89106263   -160.15557   -24064.556    4.2647646    4.2647646    4.2647646   -24064.556    4987.1266   -57628.304    -19552.49   -2693.5484   -3162.2101   -888.75457    77.568467 
   53300    973.42192    -161.0352   0.88077261   -160.15443      7588.72    4.2547844    4.2547844    4.2547844      7588.72    45957.961   -25126.507    1934.7063    4338.0978   -6935.8557    5553.5957    77.025174 
   53400     923.8104   -160.99954   0.83588306   -160.16366    30334.471    4.2527469    4.2527469    4.2527469    30334.471    45812.453   -404.97237    45595.933   -705.30899   -10319.014    21982.596    76.914569 
   53500     558.1704   -160.66465   0.50504431    -160.1596    11116.806    4.2639733    4.2639733    4.2639733    11116.806    31432.712   -34501.984    36419.691    13372.773    -14501.03    24128.692    77.525296 
   53600    792.76121   -160.86933   0.71730701   -160.15202   -497.58468    4.2559477    4.2559477    4.2559477   -497.58468    23183.928   -25703.355    1026.6736    3246.1857   -8755.0619    16718.667    77.088367 
   53700    1138.9366   -161.18242    1.0305338   -160.15189       764.34    4.2517192    4.2517192    4.2517192       764.34   -7978.7523     20002.68   -9730.9079    9937.8779    7674.1486    17050.391    76.858822 
   53800    986.55452   -161.04713   0.89265526   -160.15448   -7863.1273    4.2577144    4.2577144    4.2577144   -7863.1273   -22472.887     -3803.73     2687.235    26491.509   -5699.9226    7361.7626    77.184407 
   53900    738.46183   -160.82384   0.66817578   -160.15567   -529.72741    4.2526365    4.2526365    4.2526365   -529.72741    3625.0294   -18484.602    13270.391    22669.874   -779.98832    3468.9781    76.908581 
   54000    1189.3649   -161.23566    1.0761624   -160.15949    2428.9186    4.2520827    4.2520827    4.2520827    2428.9186   -5381.1634    23046.637   -10378.718    24343.689    1589.2562    4966.7351    76.878537 
   54100    1521.0919   -161.53644    1.3763159   -160.16013   -6535.8427    4.2512031    4.2512031    4.2512031   -6535.8427   -9152.5987     6838.708   -17293.637    10865.197   -7936.3011   -5954.0876    76.830836 
   54200    1397.7233   -161.41593    1.2646894   -160.15124   -18371.238    4.2488426    4.2488426    4.2488426   -18371.238   -21493.649   -43224.839    9604.7749   -6105.8317    4168.4892   -8417.7692    76.702927 
   54300    1480.7189   -161.49137    1.3397855   -160.15159   -17570.186    4.2550016    4.2550016    4.2550016   -17570.186   -38474.628   -24909.688    10673.759   -6690.7847   -11999.131   -4646.8972    77.036966 
   54400    1547.0888   -161.55341    1.3998385   -160.15357   -1020.7289    4.2583851    4.2583851    4.2583851   -1020.7289   -25482.096    5315.2841    17104.625    8533.8851   -21473.301   -10365.554    77.220889 
   54500    1121.8403   -161.16654    1.0150647   -160.15147    8919.9559    4.2527757    4.2527757    4.2527757    8919.9559    13311.065   -799.97651     14248.78    3119.9231   -10551.101   -456.75708    76.916131 
   54600    1199.9399   -161.23488    1.0857309   -160.14915    -12527.43    4.2513052    4.2513052    4.2513052    -12527.43    1837.3617   -35615.567    -3804.085   -2889.5903   -9385.9873   -5198.1711    76.836372 
   54700    1563.8803   -161.56763    1.4150318    -160.1526   -11924.429    4.2479332    4.2479332    4.2479332   -11924.429    -30289.28    2542.8912   -8026.8974   -10342.372    3614.6589   -5339.4477    76.653687 
   54800    1109.1554   -161.16561    1.0035871   -160.16203    565.34851    4.2523218    4.2523218    4.2523218    565.34851    14287.568    7472.7524   -20064.274   -406.10455    2832.9758    2032.5396    76.891508 
   54900    669.60527   -160.76687   0.60587292     -160.161   -6144.0456    4.2612484    4.2612484    4.2612484   -6144.0456    40152.447   -12326.328   -46258.256    16559.452   -11436.305    6855.2321    77.376765 
   55000    763.10427    -160.8527   0.69047278   -160.16223    11734.107    4.2552962    4.2552962    4.2552962    11734.107    42126.695    22786.882   -29711.256    14528.818   -1404.8098    10929.009    77.052971 
   55100    888.00522   -160.96086   0.80348579   -160.15738    11546.455    4.2471675    4.2471675    4.2471675    11546.455    30954.357    22244.669   -18559.659    3940.0986     4204.112    13812.496    76.612239 
   55200    721.42518    -160.8087   0.65276066   -160.15594   -8110.1318    4.2465544    4.2465544    4.2465544   -8110.1318    7598.9113   -10850.807     -21078.5     5429.032   -428.99768    14176.036    76.579069 
   55300    816.47116   -160.90139   0.73876026   -160.16263   -2584.2733    4.2513495    4.2513495    4.2513495   -2584.2733    12441.623   -8876.4112   -11318.032    1648.9497      9175.86    22818.205    76.838772 
   55400    1235.7841   -161.27896    1.1181634    -160.1608   -5221.5768    4.2552586    4.2552586    4.2552586   -5221.5768    10989.358   -3647.5512   -23006.538    291.00111   -5524.0303    24592.166    77.050928 
   55500    1189.5605   -161.23107    1.0763393   -160.15473   -2983.2254    4.2496091    4.2496091    4.2496091   -2983.2254    24067.139    -15121.72   -17895.095   -1855.3986   -3241.3241    14575.351    76.744446 
   55600    1461.3124   -161.47073    1.3222261    -160.1485   -3281.3268    4.2398591    4.2398591    4.2398591   -3281.3268    20569.468   -8907.4248   -21506.024    4181.2622     832.3537    3511.0701    76.217426 
   55700    1813.7332   -161.79196    1.6411039   -160.15085    529.38618    4.2398067    4.2398067    4.2398067    529.38618    4287.9583    6799.3593   -9499.1591   -1999.0954   -5220.1128   -5194.8587      76.2146 
   55800    1524.3568   -161.53517      1.37927    -160.1559   -15195.536    4.2539009    4.2539009    4.2539009   -15195.536   -7436.9919   -21071.043   -17078.574   -8578.7219    7452.4658    600.91927    76.977199 
   55900    885.36617   -160.95189   0.80109792    -160.1508   -16615.763    4.2583787    4.2583787    4.2583787   -16615.763     1311.995   -46660.344   -4498.9391   -13914.054    4702.5561   -9848.1924    77.220543 
   56000    922.49399   -160.98233   0.83469195   -160.14764    3361.6564    4.2452248    4.2452248    4.2452248    3361.6564    23728.907   -7490.9374   -6153.0002     -17394.1   -1997.5826   -13310.945    76.507158 
   56100     815.4687   -160.89353   0.73785322   -160.15567    7058.2614    4.2418275    4.2418275    4.2418275    7058.2614    27737.895   -7672.3015    1109.1904   -16100.484   -6327.8085   -18889.345    76.323629 
   56200    383.98066    -160.5071   0.34743377   -160.15966    2665.2108    4.2486238    4.2486238    4.2486238    2665.2108     56406.76   -49797.146    1386.0187   -14560.088    1239.1282   -21488.054    76.691076 
   56300    622.97265   -160.72188   0.56367875    -160.1582    8394.9959    4.2503065    4.2503065    4.2503065    8394.9959    60853.233   -21690.632   -13977.613   -4630.9643    2907.5369    -8442.579    76.782236 
   56400    1200.6502   -161.24056    1.0863735   -160.15419    3251.1184    4.2533201    4.2533201    4.2533201    3251.1184     15680.68      19884.5   -25811.825   -8112.8672    -7801.204   -11197.628    76.945671 
   56500    1268.2986   -161.29566    1.1475833   -160.14808   -4107.7663    4.2495468    4.2495468    4.2495468   -4107.7663    16886.418    -19034.71   -10175.007   -6602.8692    7278.3499    6683.5315    76.741071 
   56600    1217.4054   -161.24756     1.101534   -160.14603    1682.8905    4.2457483    4.2457483    4.2457483    1682.8905    53355.616   -37143.706   -11163.238    1650.6911    3605.7891    8351.0249    76.535467 
   56700    1367.4496   -161.39184    1.2372971   -160.15454    7057.6794     4.252697     4.252697     4.252697    7057.6794      68433.2   -10561.651   -36698.511    1310.3433   -5651.8325    1287.8682    76.911861 
   56800    1144.3991   -161.19871    1.0354764   -160.16323    19583.156     4.259409     4.259409     4.259409    19583.156    85153.899   -9819.2462   -16585.184     3271.194   -4509.7676    8874.9265    77.276606 
   56900    608.79181    -160.7157   0.55084762   -160.16485    28111.311    4.2617993    4.2617993    4.2617993    28111.311    116504.32   -31162.804    -1007.581    1162.2059    -10832.13   -6784.8842    77.406775 
   57000    715.15825    -160.8094   0.64709021   -160.16231    27426.326    4.2625336    4.2625336    4.2625336    27426.326    111287.91   -20043.717   -8965.2154    151.49542   -3488.1559   -4013.3202    77.446793 
   57100     1057.743   -161.11834   0.95706812   -160.16128    15532.021    4.2617926    4.2617926    4.2617926    15532.021    86409.069    -17852.87   -21960.134    -9869.233    7290.9097   -16171.691    77.406409 
   57200    894.14886   -160.96726   0.80904468   -160.15822    5626.4266    4.2562824    4.2562824    4.2562824    5626.4266     94087.73   -59902.753   -17305.697   -1668.0842    10922.605   -12961.182    77.106555 
   57300    1240.1877    -161.2786    1.1221479   -160.15645    2266.9646    4.2535265    4.2535265    4.2535265    2266.9646    61398.893   -45247.015   -9350.9838    1158.5892    9253.2543    9103.2639    76.956875 
   57400    1698.1408   -161.69114    1.5365135   -160.15462   -15259.117    4.2594563    4.2594563    4.2594563   -15259.117    9086.6945   -30229.619   -24634.426    5963.0422    3903.6223   -6027.3831    77.279178 
   57500    1479.3543   -161.48757    1.3385508   -160.14902    -23364.12    4.2596592    4.2596592    4.2596592    -23364.12   -29517.545   -46235.711    5660.8961    9573.8945    3321.3073    11814.129    77.290226 
   57600    1085.2472   -161.13068   0.98195445   -160.14872   -11866.449     4.249968     4.249968     4.249968   -11866.449   -17572.102   -11523.125   -6504.1182    5478.5147    4916.6214    16623.086    76.763893 
   57700    959.91553   -161.02418   0.86855174   -160.15563    9442.5621    4.2441647    4.2441647    4.2441647    9442.5621    10360.983    46603.324   -28636.621   -2398.0048    2975.5637    13387.721    76.449857 
   57800    810.43133   -160.89192    0.7332953   -160.15863    16335.603    4.2456359    4.2456359    4.2456359    16335.603    27499.376    29239.638   -7732.2054   -4284.2808    10649.297    20374.737     76.52939 
   57900    576.07055   -160.68163   0.52124074   -160.16039     8342.384    4.2504505    4.2504505    4.2504505     8342.384    15772.813   -9305.5077    18559.847   -2907.4778    714.13692     7612.637     76.79004 
   58000    1034.5041   -161.09303   0.93604104   -160.15699   -17188.735    4.2580884    4.2580884    4.2580884   -17188.735   -35166.396   -3454.0899   -12945.718   -1116.9949   -3467.7063    6197.5772    77.204748 
   58100    1395.3424    -161.4161    1.2625351   -160.15357   -12488.306    4.2562646    4.2562646    4.2562646   -12488.306   -24898.327    3098.2425   -15664.832    5448.9776   -2612.7495   -10082.049    77.105587 
   58200    1112.7639   -161.16015    1.0068522    -160.1533   -714.48078    4.2562208    4.2562208    4.2562208   -714.48078   -4746.1318   -39085.798    41688.487    6107.6967    4650.1584    -9114.907     77.10321 
   58300    1011.7919   -161.06955   0.91549053   -160.15406    7818.9122    4.2572003    4.2572003    4.2572003    7818.9122    14032.848   -26032.224    35456.113    -1842.316    18168.688   -4856.7223     77.15645 
   58400    1335.8014   -161.36331    1.2086612   -160.15465    11436.765    4.2482509    4.2482509    4.2482509    11436.765    10592.568    10200.345    13517.383    5534.8652    20003.003   -4458.9664    76.670886 
   58500    1308.4194   -161.33814    1.1838853   -160.15425   -7508.9262    4.2472368    4.2472368    4.2472368   -7508.9262    4548.1483    -30271.73    3196.8031    2653.7812      3671.29    3640.8065     76.61599 
   58600    1091.6122   -161.14332   0.98771368   -160.15561   -21529.387    4.2582384    4.2582384    4.2582384   -21529.387   -10929.074   -53636.757   -22.329531    6452.4277   -3525.6557    5483.6751    77.212908 
   58700     998.3663   -161.05755   0.90334281   -160.15421    -3968.081    4.2635709    4.2635709    4.2635709    -3968.081   -13564.542    19671.427   -18011.128    663.01517   -2719.0586    17480.532    77.503351 
   58800    917.40364   -160.98265    0.8300861   -160.15257    16806.241    4.2520461    4.2520461    4.2520461    16806.241    31991.079    30254.897   -11827.254   -17651.714   -7636.1924    39877.594    76.876552 
   58900    678.96069    -160.7704    0.6143379   -160.15607    18870.869    4.2411445    4.2411445    4.2411445    18870.869    68101.874   -15038.513    3549.2475   -8653.7639   -2821.1046     38341.73    76.286767 
   59000    886.22731   -160.96215   0.80187709   -160.16027   -15574.703    4.2514904    4.2514904    4.2514904   -15574.703    26840.156   -51541.816   -22022.448    4318.8518   -3788.8024    22988.021    76.846415 
   59100    1351.0736   -161.37584    1.2224798   -160.15336    -24898.53    4.2585001    4.2585001    4.2585001    -24898.53    -26572.11   -29391.392   -18732.088    370.88409   -4940.3486     10708.24    77.227145 
   59200    1128.4517   -161.17068    1.0210468   -160.14963    -2641.562    4.2594098    4.2594098    4.2594098    -2641.562    394.42224   -31665.555    23346.446    -10019.65    9.3601201    -5098.268    77.276647 
   59300    889.05103   -160.95084   0.80443206   -160.14641    1501.4834    4.2596232    4.2596232    4.2596232    1501.4834    27766.922   -36289.831    13027.359   -17542.401    8323.6413   -2211.0489    77.288263 
   59400    1315.2466   -161.33239    1.1900627   -160.14233    1409.8342    4.2515219    4.2515219    4.2515219    1409.8342    29201.462    -26047.25    1075.2912   -20998.912    9922.3972   -10158.822    76.848124 
   59500    1542.4458   -161.54468    1.3956374   -160.14905   -1019.6649    4.2482753    4.2482753    4.2482753   -1019.6649    12218.316    -9238.643   -6038.6672    5482.4584   -766.54944   -11533.141    76.672203 
   59600    1206.4451   -161.24629    1.0916169   -160.15468   -9451.3076    4.2560927    4.2560927    4.2560927   -9451.3076   -8681.2351   -6061.5878     -13611.1    7724.5186   -8268.2682   -3077.1221    77.096247 
   59700    1142.2408   -161.19013    1.0335235   -160.15661    10301.174    4.2523175    4.2523175    4.2523175    10301.174     -19663.1    26445.834    24120.787    1113.8468   -5438.0487    7128.5578    76.891274 
   59800    1280.0443   -161.32212     1.158211    -160.1639     6667.987    4.2558489    4.2558489    4.2558489     6667.987   -14437.621     44761.35   -10319.768      1638.76   -202.54171    12838.635    77.082999 
   59900    849.76588    -160.9295   0.76888603   -160.16061   -6324.6215    4.2595386    4.2595386    4.2595386   -6324.6215    10375.009   -928.09985   -28420.774   -10132.003    4121.3325    25660.005    77.283656 
   60000    899.98776    -160.9674   0.81432784   -160.15307    3005.1571    4.2467194    4.2467194    4.2467194    3005.1571    22455.993   -719.77835   -12720.743   -1476.3353    3411.1073    22897.012    76.587995 
   60100     1236.567   -161.28028    1.1188718   -160.16141   -4025.0791    4.2539928    4.2539928    4.2539928   -4025.0791   -11072.774   -13700.465    12698.002    6230.1036    7195.3869    15329.731     76.98219 
   60200     1033.366    -161.0927    0.9350113   -160.15769    -13805.41    4.2636437    4.2636437    4.2636437    -13805.41   -13226.879   -21540.169   -6649.1836    1654.8975    11210.572    15056.708    77.507321 
   60300     602.3759   -160.69721   0.54504238   -160.15216    24294.326    4.2447654    4.2447654    4.2447654    24294.326    20956.021    15648.253    36278.703    1364.6008    20028.874    16715.043    76.482325 
   60400    942.01906   -161.01375   0.85235864   -160.16139    21001.991    4.2511189    4.2511189    4.2511189    21001.991    2262.7665    3407.9911    57335.215   -5110.2107    19972.943    23955.241    76.826271 
   60500    1243.6798   -161.28692    1.1253076   -160.16162   -13071.264     4.266143     4.266143     4.266143   -13071.264   -27024.555   -42637.429    30448.193    6722.8744    9615.2399    19074.026    77.643703 
   60600    1221.2227     -161.254     1.104988   -160.14901   -9030.5974    4.2490039    4.2490039    4.2490039   -9030.5974   -5508.7777   -53602.336    32019.321    6588.0793      7329.38    6913.2188    76.711661 
   60700    1264.2042   -161.29321    1.1438785   -160.14934   -4154.4196    4.2472556    4.2472556    4.2472556   -4154.4196   -16240.353   -17780.464    21557.558    -9284.886   -1600.8986   -9245.2061    76.617008 
   60800    1301.4469   -161.33414    1.1775765   -160.15656    554.00376    4.2600651    4.2600651    4.2600651    554.00376   -36884.577    15217.159    23329.429   -3721.8206   -1919.8653   -8402.5719    77.312318 
   60900    1187.5675   -161.22685    1.0745361   -160.15231    11594.143    4.2549937    4.2549937    4.2549937    11594.143   -14806.796    19707.496    29881.728   -7204.6218   -227.37518    -14258.12    77.036539 
   61000    1081.3878   -161.13268   0.97846242   -160.15422     2295.043    4.2540247    4.2540247    4.2540247     2295.043   -24558.257    19034.927    12408.459   -1627.0306     1178.604    1846.0167    76.983921 
   61100    1047.7759   -161.10352   0.94804963   -160.15547   -19843.751    4.2668123    4.2668123    4.2668123   -19843.751    -13895.11   -7092.3199   -38543.824   -3563.8874   -15310.244    9960.8553    77.680248 
   61200    743.66312   -160.82624   0.67288202   -160.15336    14545.464    4.2490716    4.2490716    4.2490716    14545.464    39962.083    -2334.523    6008.8312   -18895.358   -26334.074   -1314.1644    76.715326 
   61300     458.1339   -160.57664   0.41452918   -160.16211    33550.303    4.2433475    4.2433475    4.2433475    33550.303    33581.594    26061.048    41008.268   -16327.881   -29678.701    2621.9186    76.405706 
   61400    979.56745   -161.04981   0.88633322   -160.16347   -7978.7434    4.2621853    4.2621853    4.2621853   -7978.7434   -37462.925    10922.514    2604.1809   -17676.332   -16044.954     -10741.7    77.427813 
   61500    1244.8799   -161.27882    1.1263935   -160.15243   -12808.118    4.2567125    4.2567125    4.2567125   -12808.118   -37621.958   -8350.0556    7547.6588    -5860.538   -5000.2703   -2943.4052    77.129932 
   61600    878.30323   -160.94442   0.79470722   -160.14971    2500.8205    4.2501734    4.2501734    4.2501734    2500.8205   -8272.5608   -24918.611    40693.633    4872.7358    -2804.488    1384.9061    76.775021 
   61700    1060.5203   -161.11872   0.95958109   -160.15914    15940.763    4.2526346    4.2526346    4.2526346    15940.763   -5747.1323    8555.0831    45014.337   -5417.9215   -8061.3066   -5864.7772    76.908478 
   61800    1220.1362    -161.2625    1.1040049    -160.1585    13326.844    4.2469416    4.2469416    4.2469416    13326.844    -8426.145    18087.417    30319.261    14231.101   -5920.6774   -2106.2191     76.60002 
   61900    1197.8845   -161.23454    1.0838711   -160.15067   -15393.514     4.247422     4.247422     4.247422   -15393.514    -2088.036   -41701.781   -2390.7245    8132.5163    11049.207    6900.4111    76.626012 
   62000    1622.3597   -161.61667    1.4679451   -160.14872   -37292.711    4.2602391    4.2602391    4.2602391   -37292.711   -30396.203   -38908.451   -42573.481   -3224.1883    17610.279   -5865.4516    77.321795 
   62100     1644.455   -161.63503    1.4879374    -160.1471   -20935.144    4.2626865    4.2626865    4.2626865   -20935.144   -46065.289   -871.60171    -15868.54    7892.2521    13233.245    352.89875     77.45513 
   62200    943.50932   -161.00007   0.85370706   -160.14636    131.97914    4.2553897    4.2553897    4.2553897    131.97914   -21993.788    -31146.92    53536.645   -4642.5528   -3582.5095   -2797.1394     77.05805 
   62300    786.58348   -160.86067   0.71171727   -160.14895    22533.843    4.2445267    4.2445267    4.2445267    22533.843    13245.377    -23499.19    77855.342   -10399.612   -6571.4036    1448.0114    76.469422 
   62400     1041.058   -161.10418   0.94197112    -160.1622    17268.755    4.2506769    4.2506769    4.2506769    17268.755   -11556.897    -6538.424    69901.587   -10709.422   -9603.7409    5526.0558     76.80231 
   62500    960.72695   -161.03489   0.86928594    -160.1656    5658.7445    4.2661542    4.2661542    4.2661542    5658.7445   -22377.437   -1527.9334    40881.604   -11538.054    1302.2239    3779.5149     77.64431 
   62600    729.27702   -160.81751   0.65986517   -160.15764   -2962.4819    4.2751871    4.2751871    4.2751871   -2962.4819    -23117.77    4189.7154    10040.608   -10189.557    11884.238    4658.3588    78.138558 
   62700    1434.2035   -161.45618    1.2976975   -160.15848   -3357.4337    4.2638513    4.2638513    4.2638513   -3357.4337   -31566.919   -485.08521    21979.704   -13269.815    6207.3827   -4315.8455    77.518639 
   62800    1429.1723   -161.44885    1.2931451    -160.1557    3883.9441    4.2520005    4.2520005    4.2520005    3883.9441   -28103.013    -26742.38    66497.226    6896.5696   -8404.9929   -15892.717    76.874078 
   62900    1128.3276   -161.19134    1.0209345    -160.1704   -13858.174    4.2667889    4.2667889    4.2667889   -13858.174   -26064.341    -42204.98    26694.799    2995.4011   -9696.0372   -18500.686    77.678973 
   63000    1663.2539   -161.66713    1.5049471   -160.16219   -29916.684    4.2697299    4.2697299    4.2697299   -29916.684   -56345.776   -12217.622   -21186.653   -1037.7939    1843.0239   -5649.9768    77.839707 
   63100    1500.4706   -161.50705    1.3576573   -160.14939   -4553.8204    4.2443738    4.2443738    4.2443738   -4553.8204    -12145.22    11581.587   -13097.828    10513.886    676.66758   -7951.5734     76.46116 
   63200    1052.1325   -161.10702   0.95199158   -160.15503    -11686.54     4.244231     4.244231     4.244231    -11686.54    6175.4522   -20883.234   -20351.838    1131.4464   -11430.319    6478.9589     76.45344 
   63300    932.87875   -161.00596    0.8440883   -160.16187   -6501.7642    4.2582882    4.2582882    4.2582882   -6501.7642   -8601.6161    197.18226   -11100.859   -5960.7867   -21482.242    10387.007    77.215618 
   63400    898.86668   -160.97091   0.81331346    -160.1576    25195.919    4.2499218    4.2499218    4.2499218    25195.919    6117.4344    42719.464    26750.859   -22352.587   -26435.906   -380.77524    76.761385 
   63500    401.75547   -160.52685   0.36351679   -160.16333    27280.862    4.2527343    4.2527343    4.2527343    27280.862    62964.643    -1019.609    19897.552   -28044.574    -16767.09    3695.6337    76.913884 
   63600     827.2236   -160.90795    0.7484893   -160.15946   -23949.637    4.2665559    4.2665559    4.2665559   -23949.637   -14808.368    -21519.06   -35521.484   -12281.873    -7919.349    4269.0914    77.666246 
   63700    1342.1083   -161.36254    1.2143678   -160.14818   -10516.274    4.2489972    4.2489972    4.2489972   -10516.274   -37742.206    10001.821   -3808.4372    -13417.12   -3513.4405   -3426.5874    76.711297 
   63800    1042.9167   -161.09243   0.94365291   -160.14878    5105.2522    4.2428233    4.2428233    4.2428233    5105.2522    13421.044   -25644.746    27539.459   -11107.824   -4732.6289   -2983.9509    76.377396 
   63900       955.06   -161.02246   0.86415836    -160.1583   -20061.319     4.264828     4.264828     4.264828   -20061.319   -4730.3722   -70449.445     14995.86    126.14635   -8869.3127   -5840.1794    77.571926 
   64000    1382.6539   -161.40362    1.2510543   -160.15256    3482.3689    4.2560248    4.2560248    4.2560248    3482.3689   -5218.5072   -15660.009    31325.623   -3739.4106   -7004.5412   -7761.5431    77.092558 
   64100    1424.8524   -161.43608    1.2892364   -160.14684    13397.671    4.2460096    4.2460096    4.2460096    13397.671    -3193.778   -5928.1757    49314.965    11214.927    4410.6005   -499.82213      76.5496 
   64200    1355.4025   -161.37459    1.2263967    -160.1482   -28518.997    4.2570035    4.2570035    4.2570035   -28518.997   -26273.088   -41620.076   -17663.826    11510.677     10578.99   -543.13367    77.145752 
   64300    1638.4778   -161.62981    1.4825291   -160.14728    -7151.065    4.2457081    4.2457081    4.2457081    -7151.065    -4020.413    -3035.783   -14396.999    6092.3717    11143.619    6961.3806    76.533292 
   64400    1374.8707   -161.40276    1.2440119   -160.15874    17198.611    4.2460951    4.2460951    4.2460951    17198.611    27648.748    26566.788   -2619.7024    4935.4972   -1818.5248   -866.70273    76.554221 
   64500    727.10934   -160.81754   0.65790381   -160.15963   -2311.1716    4.2610705    4.2610705    4.2610705   -2311.1716    17348.436   -25528.342     1246.391   -9521.4044   -11102.712   -8910.1131    77.367073 
   64600    947.05135   -161.00783   0.85691196   -160.15092   -9628.0159    4.2539958    4.2539958    4.2539958   -9628.0159   -4678.3209   -17397.777   -6807.9503    4612.8255   -8762.9843    6320.1112    76.982353 
   64700    1391.3479   -161.41061    1.2589208   -160.15169   -10047.511    4.2520155    4.2520155    4.2520155   -10047.511   -27264.827    28943.436   -31821.143    3712.3919    -7941.919    326.10012    76.874894 
   64800    1070.8931   -161.12518   0.96896654   -160.15621   -16140.162    4.2560649    4.2560649    4.2560649   -16140.162   -1049.0482   -13345.359   -34026.079   -6600.1533     -6024.96    1212.0869    77.094737 
   64900    572.31503   -160.67758   0.51784267   -160.15973    9372.1816    4.2526185    4.2526185    4.2526185    9372.1816    34039.093   -28954.304    23031.755   -459.38292   -15541.829   -6141.8123      76.9076 
   65000    922.73382   -160.99705   0.83490895   -160.16214    28915.483     4.252738     4.252738     4.252738    28915.483    30828.762    17487.259     38430.43   -5273.4097   -23316.464   -13305.437    76.914084 
   65100    1185.4441   -161.23421    1.0726148   -160.16159   -7508.2227    4.2612857    4.2612857    4.2612857   -7508.2227   -776.49426   -6376.1411   -15372.033   -3046.5336   -15035.757   -3544.8752    77.378794 
   65200    964.10557   -161.02393   0.87234298   -160.15159   -36850.685    4.2613903    4.2613903    4.2613903   -36850.685   -28094.297   -54053.113   -28404.644    17388.954   -4916.6465     2211.447    77.384494 
   65300    1116.6381   -161.15883    1.0103576   -160.14847    12081.457    4.2469657    4.2469657    4.2469657    12081.457    29257.624    1195.7267    5791.0216    -5093.432   -15303.245   -21468.985     76.60132 
   65400    1144.0518   -161.18978    1.0351621   -160.15462    32574.419    4.2484986    4.2484986    4.2484986    32574.419    41335.481    35862.662    20525.115   -9940.7589   -10454.418   -11570.646    76.684297 
   65500    921.08807   -160.98514   0.83341985   -160.15172   -5449.9306    4.2607041    4.2607041    4.2607041   -5449.9306    4598.5538   -26619.645    5671.2997    4835.4639   -6669.1487   -8560.6973    77.347115 
   65600    1487.5675   -161.48839    1.3459823   -160.14241   -27961.079    4.2522517    4.2522517    4.2522517   -27961.079   -19724.779   -36215.987    -27942.47    1394.4539    4401.0454   -4621.7707    76.887704 
   65700    1822.0578   -161.79775    1.6486362   -160.14912   -33185.984    4.2560686    4.2560686    4.2560686   -33185.984   -36980.905   -22460.922   -40116.124    6270.1691    9013.1887    6016.4539     77.09494 
   65800    1096.5428   -161.14388   0.99217495    -160.1517   -21300.654    4.2670442    4.2670442    4.2670442   -21300.654    12683.412   -49577.613   -27007.761   -9840.1937   -4632.0488   -3970.3873    77.692914 
   65900     925.6146   -160.97991   0.83751554    -160.1424    23275.519    4.2542017    4.2542017    4.2542017    23275.519    51572.213   -27120.262    45374.604   -22402.244   -4494.8384   -3555.8015    76.993531 
   66000    1366.0571   -161.37823    1.2360372   -160.14219    11127.023    4.2516143    4.2516143    4.2516143    11127.023    16887.919   -6221.6579    22714.808    -2505.356   -2856.8488     8275.151    76.853136 
   66100    1390.0066   -161.40309    1.2577072   -160.14538   -31295.191    4.2665506    4.2665506    4.2665506   -31295.191   -45751.354   -30160.722   -17973.496     318.8605    6745.2498    13499.007     77.66596 
   66200    918.01377   -160.97726   0.83063815   -160.14662   -1645.6392     4.262087     4.262087     4.262087   -1645.6392   -18447.782    43982.285   -30471.421   -6043.2095    10369.816    9526.1983    77.422453 
   66300    774.68791   -160.85669    0.7009539   -160.15573    49381.033    4.2513889    4.2513889    4.2513889    49381.033    32877.602    118482.52   -3217.0242   -19466.245   -6037.0505   -10755.222    76.840911 
   66400    831.95258   -160.91727   0.75276817    -160.1645    15408.434    4.2670726    4.2670726    4.2670726    15408.434    150.84434    80765.081   -34690.624   -23541.795    2645.2996   -15700.296     77.69447 
   66500    756.92637   -160.83742   0.68488289   -160.15254   -14598.696    4.2683832    4.2683832    4.2683832   -14598.696    -29875.12    34891.667   -48812.634    5526.3773    7655.7909    8281.2958     77.76608 
   66600    883.33081   -160.94606   0.79925628    -160.1468    22223.365    4.2506679    4.2506679    4.2506679    22223.365    -3198.917    76916.281   -7047.2688   -2839.7279    -8187.477    12756.127    76.801823 
   66700    1023.8458   -161.08513   0.92639722   -160.15873    12619.004    4.2552046    4.2552046    4.2552046    12619.004    -6215.502    73052.734    -28980.22    4697.0077   -11557.872    4989.4483    77.047993 
   66800    1062.6147   -161.11471   0.96147614   -160.15324    -24358.09    4.2637763    4.2637763    4.2637763    -24358.09    12345.609   -35528.746   -49891.133    8384.5832   -4562.8806    -10645.01    77.514551 
   66900    1186.5529   -161.22262     1.073618     -160.149    -7256.933    4.2578916    4.2578916    4.2578916    -7256.933    23189.819    -46535.64    1575.0218    -11067.16    11072.304   -12384.875    77.194043 
   67000    1445.8945   -161.46205    1.3082757   -160.15377    9441.8466    4.2585029    4.2585029    4.2585029    9441.8466    5974.5687    2361.2539    19989.717   -72.288025    14587.152    3757.3527    77.227297 
   67100     1480.418   -161.49031    1.3395134    -160.1508   -29908.366    4.2605421    4.2605421    4.2605421   -29908.366   -17754.112   -36705.856    -35265.13   -20806.412    853.20034    12548.739    77.338292 
   67200    1198.3777   -161.23375    1.0843173   -160.14944   -21424.037     4.254371     4.254371     4.254371   -21424.037   -34525.645   -27979.723   -1766.7422   -23381.081     1233.299   -661.47981    77.002721 
   67300    1287.6911   -161.32208      1.16513   -160.15695    2929.1732    4.2581017    4.2581017    4.2581017    2929.1732   -33134.141    14818.925    27102.735    858.42038    10506.968   -12535.583    77.205476 
   67400    1259.2166   -161.29808    1.1393656   -160.15872   -16573.512    4.2699476    4.2699476    4.2699476   -16573.512   -26657.086    15632.066   -38695.516   -3489.1592    8000.8465   -20047.255    77.851618 
   67500    776.93188   -160.85578   0.70298429   -160.15279   -21807.157    4.2670244    4.2670244    4.2670244   -21807.157   -32352.555    14972.444   -48041.361     15583.31    233.89985   -10997.669    77.691833 
   67600    954.99248   -161.02133   0.86409726   -160.15723    18627.186    4.2553924    4.2553924    4.2553924    18627.186     -5912.34    49334.702    12459.197   -12356.987    8795.9722    10490.693    77.058195 
   67700    1231.5555   -161.27872    1.1143373   -160.16438     12909.56    4.2617207    4.2617207    4.2617207     12909.56    6931.0297    36275.418   -4477.7691    751.19935    7279.1576    12536.313    77.402493 
   67800    1068.1891   -161.12517   0.96651994   -160.15865   -22882.295     4.268627     4.268627     4.268627   -22882.295   -12113.338    -4430.416    -52103.13   -4293.0663   -8364.7483    16509.491    77.779404 
   67900    1170.6076   -161.21219    1.0591903     -160.153    1865.6167    4.2578889    4.2578889    4.2578889    1865.6167   -29693.368    46082.738    -10792.52   -6727.5991   -10361.681   -2885.4885    77.193897 
   68000    1325.3275   -161.35639    1.1991842   -160.15721    29521.482      4.24956      4.24956      4.24956    29521.482   -30250.217    102220.78    16593.888    13766.934   -5340.1948   -21142.475    76.741785 
   68100    1001.3718   -161.06797   0.90606221    -160.1619    4698.0719    4.2615439    4.2615439    4.2615439    4698.0719   -33532.369    44541.789    3084.7958   -4550.1932   -7630.8879   -8975.3754    77.392863 
   68200    1125.8436    -161.1713    1.0186869   -160.15262   -26655.117    4.2712804    4.2712804    4.2712804   -26655.117   -55235.851    14717.233   -39446.734   -2123.3679   -5541.4478   -11093.587     77.92454 
   68300    1070.9268   -161.12253   0.96899709   -160.15354    30413.643    4.2574578    4.2574578    4.2574578    30413.643   -28742.896    126081.22   -6097.3922    -9349.267    4563.4395    18126.033    77.170454 
   68400    782.01019    -160.8668   0.70757925   -160.15922    36466.284    4.2515799    4.2515799    4.2515799    36466.284   -17712.468    122052.73    5058.5875   -11784.208    13351.392     23788.41    76.851269 
   68500     727.5026    -160.8209   0.65825964   -160.16264    3629.3893    4.2583049    4.2583049    4.2583049    3629.3893   -36178.029    80890.977   -33824.781    3410.3477    3171.3051    5701.6432    77.216528 
   68600    917.41522   -160.99343   0.83009657   -160.16333    16989.656    4.2624079    4.2624079    4.2624079    16989.656   -22804.076    124795.25   -51022.203    14460.401    4564.1214    1057.8218    77.439943 
   68700    1089.3426   -161.15175    0.9856601   -160.16609    18015.563     4.263305     4.263305     4.263305    18015.563   -12691.395    103693.68   -36955.594    12224.424    9729.1208   -11853.063     77.48885 
   68800    971.28544   -161.03603   0.87883948   -160.15719   -17070.399    4.2665984    4.2665984    4.2665984   -17070.399   -44259.334    14438.524   -21390.387   -3568.8387   -4042.8161   -7342.6604     77.66857 
   68900    1501.2011   -161.50539    1.3583183   -160.14707   -26654.613    4.2597369    4.2597369    4.2597369   -26654.613   -23255.485   -15865.969   -40842.385   -18123.409   -11704.921      15592.3    77.294455 
   69000    1645.3417    -161.6371    1.4887397   -160.14836   -4161.4862    4.2539611    4.2539611    4.2539611   -4161.4862    17019.914   -13686.306   -15818.067   -12295.017   -350.37568   -1185.7606    76.980469 
   69100    884.28298   -160.96108   0.80011782   -160.16097    2930.6479    4.2689463    4.2689463    4.2689463    2930.6479    36087.341   -30399.896    3104.4988   -852.15156    12691.396    1825.8588    77.796863 
   69200     795.6018   -160.87112   0.71987723   -160.15125    19639.011    4.2734429    4.2734429    4.2734429    19639.011    33889.664    13389.741    11637.629    13129.198    12917.201   -7758.7649    78.042954 
   69300    1312.6219   -161.32749    1.1876879    -160.1398    13110.289    4.2552308    4.2552308    4.2552308    13110.289    36404.144    15481.693   -12554.971    8471.5956     3078.548    477.17092     77.04942 
   69400    1223.6337   -161.24273    1.1071695   -160.13556   -32356.983    4.2508579    4.2508579    4.2508579   -32356.983   -14755.304   -43691.196   -38624.449   -3956.3411   -873.07424    13975.399    76.812122 
   69500    936.73264   -160.99565   0.84757538   -160.14807   -10116.475    4.2584467    4.2584467    4.2584467   -10116.475   -29200.296   -14233.192    13084.062   -2660.0277   -351.73663    4995.4029    77.224243 
   69600    1070.6966   -161.11863   0.96878882   -160.14984    21785.972    4.2649142    4.2649142    4.2649142    21785.972   -11605.588    38141.883     38821.62    5736.0041    11796.964   -4006.2691    77.576627 
   69700    909.57951   -160.96705   0.82300665   -160.14405    7322.8667     4.261201     4.261201     4.261201    7322.8667   -36235.021    11959.851    46243.771   -2317.0956    2028.5881   -14820.166    77.374181 
   69800    1026.6429   -161.07501   0.92892805   -160.14608   -8776.4159     4.256532     4.256532     4.256532   -8776.4159   -24465.368   -31457.562    29593.682   -13603.022   -7775.5149   -4634.3099    77.120119 
   69900    1547.5797   -161.55073    1.4002827   -160.15045   -20014.063    4.2630106    4.2630106    4.2630106   -20014.063    6410.4698   -33137.196   -33315.464   -5531.6936   -15781.963    7247.3075    77.472799 
   70000    1046.7324    -161.0975   0.94710546    -160.1504    4327.7266    4.2657546    4.2657546    4.2657546    4327.7266    67867.732    2139.2039   -57023.756    14411.512   -8550.5988   -1565.8894    77.622494 
   70100    715.53252   -160.79527   0.64742886   -160.14784    20382.375    4.2640315    4.2640315    4.2640315    20382.375    70482.144    699.52794   -10034.546    19198.279    4305.9668   -15596.703    77.528471 
   70200    1338.9964   -161.35918    1.2115521   -160.14762    864.51032    4.2666916    4.2666916    4.2666916    864.51032    21999.373    17702.248    -37108.09    6594.6887    1592.8523    5206.0995    77.673659 
   70300    1626.1692   -161.60967    1.4713921   -160.13827   -30082.626     4.267023     4.267023     4.267023   -30082.626   -41236.694    -27034.99   -21976.196   -9047.8884   -5954.3742     7899.647     77.69176 
   70400    1056.6057   -161.09113   0.95603903   -160.13509   -12087.341    4.2604764    4.2604764    4.2604764   -12087.341    -11643.36   -53972.683    29354.019   -8606.0585   -1514.2133   -3186.0334    77.334718 
   70500     1018.565    -161.0634   0.92161901   -160.14178    32975.471    4.2532748    4.2532748    4.2532748    32975.471    25656.934    19592.555    53676.923    14534.987    17410.562   -22646.686    76.943215 
   70600    1094.3022   -161.13343   0.99014763   -160.14329    18576.904    4.2590929    4.2590929    4.2590929    18576.904   -22265.171     26089.79    51906.092    13720.097     8372.359    -26021.32      77.2594 
   70700    1221.4523   -161.23819    1.1051957   -160.13299   -40578.283    4.2661142    4.2661142    4.2661142   -40578.283   -32978.621   -69744.839   -19011.388     -12765.3    -6647.317    2524.3983    77.642131 
   70800    1375.4423   -161.37713    1.2445291    -160.1326   -17735.185    4.2608473    4.2608473    4.2608473   -17735.185    26008.416    -34416.36    -44797.61   -6124.8662    2497.0504     3418.894    77.354914 
   70900    1232.0482   -161.26014    1.1147831   -160.14536    13400.903    4.2564084    4.2564084    4.2564084    13400.903    31482.782    20365.982   -11646.055    8051.5916    26215.866   -6358.9156    77.113406 
   71000    881.38304    -160.9517    0.7974939   -160.15421    730.65808    4.2614862    4.2614862    4.2614862    730.65808    33916.056   -22926.845   -8797.2363    13670.218    20466.394   -1806.8154    77.389715 
   71100    1090.8555   -161.14334   0.98702898   -160.15631   -2490.9721    4.2684082    4.2684082    4.2684082   -2490.9721    40792.757   -50763.441    2497.7672    12244.097    11922.659    3188.2917    77.767445 
   71200    1161.5275   -161.20319    1.0509745   -160.15221    17530.349    4.2649066    4.2649066    4.2649066    17530.349    69115.277   -9183.6961   -7340.5336   -8384.5742   -4416.6708    8884.6711    77.576213 
   71300    684.66012   -160.76482   0.61949486   -160.14532    34529.387    4.2530417    4.2530417    4.2530417    34529.387    118883.13   -12205.772   -3089.1986   -9581.2329   -16049.234    4826.4738    76.930565 
   71400    813.12233   -160.88745   0.73573017   -160.15172    14518.291    4.2568988    4.2568988    4.2568988    14518.291    106144.44    -57677.62   -4911.9474   -1469.8833   -15186.599    4856.5036    77.140062 
   71500    1413.7263   -161.43593    1.2791692   -160.15676   -8757.4684    4.2698359    4.2698359    4.2698359   -8757.4684    56794.868    -23221.59   -59845.683    6432.0192   -1576.9864    14072.658    77.845507 
   71600    1122.2656   -161.16814    1.0154495    -160.1527    -8762.543    4.2689756    4.2689756    4.2689756    -8762.543    22771.018   -18382.751   -30675.896    14244.568    7986.6198   -6472.4005    77.798465 
   71700    798.38929   -160.87052   0.72239941   -160.14812   -3240.6382    4.2625874    4.2625874    4.2625874   -3240.6382    1496.1737    1555.6281   -12773.716    1377.2684    126.50969    -12531.65    77.449727 
   71800    1229.7313   -161.26063    1.1126867   -160.14795   -11388.957    4.2573033    4.2573033    4.2573033   -11388.957   -44816.179    52927.963   -42278.657    -15482.51   -8368.7791   -795.49787    77.162052 
   71900    987.76722   -161.04473   0.89375254   -160.15098    3530.2758    4.2510488    4.2510488    4.2510488    3530.2758   -29275.974    45670.501   -5803.6999   -27059.414   -7576.4783    2593.5038    76.822472 
   72000    719.82401   -160.80739   0.65131189   -160.15608   -2126.0531    4.2552082    4.2552082    4.2552082   -2126.0531    -147.6563   -29407.967    23177.464   -36881.379    5024.5335    7408.1775    77.048192 
   72100    1033.1594   -161.08803   0.93482435   -160.15321   -2272.9655    4.2593956    4.2593956    4.2593956   -2272.9655    8560.8792   -27806.881    12427.105   -25181.739    5140.2823   -5632.6668    77.275875 
   72200    1367.2959   -161.38352    1.2371581   -160.14636   -8551.8957    4.2627893    4.2627893    4.2627893   -8551.8957   -10489.225   -8498.7465   -6667.7152    1851.5102   -5509.5401   -12154.719    77.460731 
   72300    1012.4973   -161.06113   0.91612882     -160.145   -10644.504    4.2647284    4.2647284    4.2647284   -10644.504   -19342.072   -35351.773    22760.335    11784.669   -7431.0593    923.81802    77.566488 
   72400    1048.9848   -161.09541   0.94914345   -160.14627   -14078.243    4.2636715    4.2636715    4.2636715   -14078.243   -59993.321    3560.3751    14198.216    9092.0368    6053.1237     15699.36    77.508833 
   72500    1029.4124   -161.08402   0.93143398   -160.15259    11044.718    4.2562632    4.2562632    4.2562632    11044.718   -52233.039    88870.547   -3503.3537   -2343.1523     11558.93    16670.171    77.105515 
   72600    785.59204   -160.87016   0.71082019   -160.15934    19055.292    4.2565687    4.2565687    4.2565687    19055.292   -12314.283    65517.878     3962.282   -7381.2213    2923.3597    8454.2801    77.122118 
   72700    820.84893   -160.90546   0.74272136   -160.16274   -4738.4658    4.2668143    4.2668143    4.2668143   -4738.4658   -53654.641    1409.7227    38029.521    7076.0189   -8192.2647   -4978.4037    77.680359 
   72800    1250.1647   -161.28849    1.1311753   -160.15732    -24421.55    4.2651954    4.2651954    4.2651954    -24421.55   -39144.446   -16750.155    -17370.05    12432.891   -17121.042   -11927.067    77.591976 
   72900    925.57624   -160.98992   0.83748083   -160.15244    4532.0118    4.2465117    4.2465117    4.2465117    4532.0118    49344.045   -22323.172   -13424.837    2048.5385   -6624.2878   -11204.101     76.57676 
   73000    512.66462   -160.62513   0.46386972   -160.16126    30635.683    4.2480899    4.2480899    4.2480899    30635.683    74830.838   -14433.861    31510.071   -5551.4048    14384.045    19.675974    76.662169 
   73100    775.51753   -160.86083   0.70170456   -160.15912    13605.931    4.2684445    4.2684445    4.2684445    13605.931    21006.829   -19489.458    39300.421    2173.0212    6287.4892    9897.4121    77.769431 
   73200    1311.4859   -161.32938      1.18666   -160.14272   -18527.908    4.2688475    4.2688475    4.2688475   -18527.908   -12078.254   -41044.669   -2460.8006    24169.071   -14830.397   -8661.9824    77.791457 
   73300    1070.6056   -161.10528   0.96870647   -160.13658   -9985.6277    4.2564302    4.2564302    4.2564302   -9985.6277    7531.5767   -14022.293   -23466.167    16952.072    -17640.88   -5059.5489     77.11459 
   73400    1050.3923   -161.09667     0.950417   -160.14625    609.85388    4.2557076    4.2557076    4.2557076    609.85388   -24045.023    41279.412   -15404.827     13062.71   -3529.3878    5627.0876    77.075324 
   73500    1114.5134   -161.16354    1.0084351    -160.1551   -6023.8163     4.260307     4.260307     4.260307   -6023.8163       -19440    32331.495   -30962.944    3446.0893    7428.5619   -5393.0536    77.325493 
   73600    1345.2616   -161.37085     1.217221   -160.15363   -44017.054    4.2633953    4.2633953    4.2633953   -44017.054   -21747.076   -70817.631   -39486.457   -2395.3468    13499.698   -5087.1868    77.493771 
   73700    1043.3746   -161.10097   0.94406727   -160.15691   -361.47609    4.2565078    4.2565078    4.2565078   -361.47609   -17126.914   -13680.649    29723.135   -583.01226   -2379.9446    4413.9353    77.118809 
   73800    972.96643   -161.04096   0.88036047    -160.1606    16826.277    4.2561044    4.2561044    4.2561044    16826.277   -31214.602    40535.249    41158.186    2372.4921   -7028.2582    3594.6475    77.096882 
   73900    1018.1533   -161.07724    0.9212465   -160.15599   -15078.948    4.2646151    4.2646151    4.2646151   -15078.948    1765.5137   -30304.883   -16697.474    5584.5826   -15209.512     2932.354    77.560309 
   74000    1016.1117   -161.06772   0.91939923   -160.14832   -19454.993     4.260811     4.260811     4.260811   -19454.993    6452.8106    -59103.21    -5714.579    -359.7097    2335.2775    -11440.92    77.352938 
   74100    756.85992   -160.83675   0.68482276   -160.15192    26531.435    4.2518783    4.2518783    4.2518783    26531.435    22139.989     23414.08    34040.236   -3600.9363    19448.397    3048.9258    76.867449 
   74200    730.04637   -160.81429   0.66056129   -160.15373    20584.907    4.2505009    4.2505009    4.2505009    20584.907    43548.263   -3547.4919    21753.949    2436.3393    9595.9339    3928.7535    76.792773 
   74300    939.07143   -161.00017   0.84969157   -160.15048     -16945.6    4.2591779    4.2591779    4.2591779     -16945.6    26095.787   -57049.871   -19882.718    11657.391   -7134.4025   -12525.534    77.264028 
   74400    1211.0319   -161.24407    1.0957671    -160.1483   -19672.518    4.2651191    4.2651191    4.2651191   -19672.518   -61070.227   -6718.4698     8771.144    14084.005   -8468.0226    -3771.726    77.587809 
   74500    1008.6241   -161.06065   0.91262432   -160.14803    13463.231    4.2591996    4.2591996    4.2591996    13463.231   -20994.779    14412.624    46971.848   -3804.6004    7527.8386    4348.7046    77.265209 
   74600    625.64235   -160.71511   0.56609434   -160.14902    31563.467    4.2505425    4.2505425    4.2505425    31563.467    15515.885    14775.977    64398.538   -6457.3517    15371.635    8367.6161    76.795025 
   74700    1029.4233   -161.08099   0.93144383   -160.14955   -11975.786    4.2554233    4.2554233    4.2554233   -11975.786   -26517.701   -10080.574     670.9186    5579.6195   -6469.7324    6641.1114    77.059876 
   74800    1503.1355   -161.50647    1.3600686    -160.1464   -40726.856    4.2613804    4.2613804    4.2613804   -40726.856   -51882.675   -31006.883   -39291.009    18179.152   -7191.2696   -11761.145    77.383951 
   74900    1155.2823   -161.19139    1.0453237   -160.14607   -17831.445    4.2598111    4.2598111    4.2598111   -17831.445   -344.54813   -12805.609   -40344.179     7253.717   -4955.8214    915.97722    77.298492 
   75000    701.94679   -160.78637   0.63513621   -160.15124    18260.633    4.2604806    4.2604806    4.2604806    18260.633    46722.574    20070.252   -12010.926   -10632.075    5246.8728    6875.7378    77.334943 
   75100    925.27476   -160.98637   0.83720805   -160.14917    19521.252    4.2639293    4.2639293    4.2639293    19521.252    19147.878    30915.143    8500.7349   -6073.0434    12577.434   -2204.7902    77.522894 
   75200    1332.2107   -161.33944    1.2054123   -160.13402   -20265.633     4.262485     4.262485     4.262485   -20265.633   -6256.1975   -48991.478   -5549.2224    7281.6512      -7053.7   -3197.5435    77.444145 
   75300    1415.0443   -161.41176    1.2803618    -160.1314   -16757.577    4.2521277    4.2521277    4.2521277   -16757.577   -11064.606   -45107.808    5899.6832    13119.083    6051.9246   -10949.917    76.880978 
   75400    1315.6378   -161.33932    1.1904168    -160.1489    7823.9128    4.2525119    4.2525119    4.2525119    7823.9128   -1308.1693   -2012.6695    26792.577    7326.9693    12639.036    -4526.244    76.901818 
   75500    974.97272   -161.03507    0.8821758    -160.1529    438.67653    4.2665426    4.2665426    4.2665426    438.67653    19328.658     -6809.57   -11203.058   -5991.2555    8974.0381    16618.637    77.665523 
   75600    1101.2135   -161.14109   0.99640115   -160.14469   -15598.047    4.2590242    4.2590242    4.2590242   -15598.047   -8236.4904    -12728.91   -25828.739   -476.60663    1598.4558    6110.0166    77.255663 
   75700    1522.0313   -161.51691    1.3771659   -160.13974   -16399.601    4.2532602    4.2532602    4.2532602   -16399.601   -36495.543    1998.5878   -14701.847    11644.972   -5421.6571   -5375.7124    76.942423 
   75800    1141.9306    -161.1856    1.0332428   -160.15236   -9313.6044    4.2668409    4.2668409    4.2668409   -9313.6044    4223.6916   -18610.661   -13553.844    7425.7599    3145.1664    4370.7849    77.681812 
   75900    581.48533   -160.67578   0.52614015   -160.14964    16223.777    4.2654536    4.2654536    4.2654536    16223.777    62329.743   -31709.014    18050.602    2824.3013    19898.689    6045.8545    77.606068 
   76000    956.37392   -161.01054   0.86534722   -160.14519    19251.429    4.2532226    4.2532226    4.2532226    19251.429    55339.979   -10075.786    12490.095    8029.4823    8530.3587    9604.6532    76.940382 
   76100    1472.1475   -161.47655      1.33203   -160.14452   -15976.902    4.2554698    4.2554698    4.2554698   -15976.902   -24170.841    2531.1315   -26290.997    15638.321   -10237.431    1490.7888    77.062399 
   76200    1158.9269   -161.18796    1.0486214   -160.13934   -19616.108    4.2630353    4.2630353    4.2630353   -19616.108   -24519.041   -34269.481   -59.800669    12111.745   -7342.5122    2164.0789    77.474145 
   76300    1060.8087   -161.09703   0.95984197   -160.13719    15932.234    4.2629438    4.2629438    4.2629438    15932.234    4763.9864    4607.3695    38425.345   -9459.3869   -64.308054    24256.008    77.469154 
   76400    1224.3077    -161.2496    1.1077793   -160.14182    16374.681    4.2646734    4.2646734    4.2646734    16374.681   -2481.9626    8887.3503    42718.657    3135.0888    7889.0489    11022.555    77.563486 
   76500    1223.5595     -161.243    1.1071023   -160.13589    -37589.79    4.2648894    4.2648894    4.2648894    -37589.79   -49724.535   -50287.091   -12757.744    18657.287   -1349.7061   -7236.4324    77.575272 
   76600    1245.2698    -161.2556    1.1267463   -160.12885   -5416.7494    4.2471552    4.2471552    4.2471552   -5416.7494    7649.6646   -23226.525   -673.38747    12197.894    1090.4068   -4817.4095    76.611573 
   76700    998.31439   -161.05128   0.90329584   -160.14799    44754.828    4.2530488    4.2530488    4.2530488    44754.828    63609.366     46071.69    24583.429   -12672.586    22456.275     3982.683    76.930948 
   76800    613.40401   -160.69993   0.55502084   -160.14491    5031.5005    4.2807094    4.2807094    4.2807094    5031.5005    53241.404   -18820.157   -19326.745   -10934.525    20364.029    8303.4113    78.441746 
   76900    1252.1995   -161.26301    1.1330164   -160.12999   -40238.596    4.2695514    4.2695514    4.2695514   -40238.596   -27282.481   -54617.668   -38815.637    13682.327   -2954.1686       -12001    77.829948 
   77000    1556.6324    -161.5313    1.4084737   -160.12283    4304.8867    4.2474355    4.2474355    4.2474355    4304.8867   -12103.768    12890.898     12127.53    12394.067    5131.5083   -4245.8979    76.626742 
   77100    621.01105   -160.70376   0.56190385   -160.14185     25920.39    4.2592279    4.2592279    4.2592279     25920.39    30269.302    14823.059    32668.809   -5165.7616    24701.681    6846.3026     77.26675 
   77200    806.94162   -160.86644   0.73013773    -160.1363   -11369.453    4.2684532    4.2684532    4.2684532   -11369.453   -2098.6488   -29300.379   -2709.3315    7136.7658    10586.751     6794.481    77.769903 
   77300    1814.9056    -161.7692    1.6421648   -160.12704   -34735.107    4.2642971    4.2642971    4.2642971   -34735.107   -42004.906   -21538.029   -40662.387      13620.9   -12826.096    1959.1819    77.542958 
   77400    1176.2415   -161.19526     1.064288   -160.13097   -22167.637     4.267878     4.267878     4.267878   -22167.637    441.82258   -46458.582   -20486.152    7778.9581   -2399.3187   -8397.3988    77.738469 
   77500    698.30465   -160.76476   0.63184072   -160.13292    18338.781    4.2634133    4.2634133    4.2634133    18338.781    51475.588   -14665.144    18205.898   -8618.6679    11353.707    6971.2842    77.494752 
   77600    1289.5813   -161.29934    1.1668402    -160.1325    10851.046    4.2613373    4.2613373    4.2613373    10851.046    38939.255   -5111.9028   -1274.2147   -4981.3866    5252.2205   -6268.8011    77.381604 
   77700    1572.6938   -161.55218    1.4230064   -160.12917   -39836.314    4.2667766    4.2667766    4.2667766   -39836.314   -43259.859   -45205.916   -31043.166    9235.8329   -6479.9401    -19705.32      77.6783 
   77800    936.16111   -160.98067   0.84705825   -160.13361   -3689.1661    4.2670846    4.2670846    4.2670846   -3689.1661   -15110.209   -6558.4812    10601.192   -3734.6283    4392.6455    3876.2607    77.695124 
   77900    941.27021   -160.99057   0.85168106   -160.13889    32520.897     4.265121     4.265121     4.265121    32520.897    10006.971    67815.979     19739.74   -13183.401    12652.362    21212.851    77.587914 
   78000    1236.9982   -161.26048     1.119262   -160.14121   -6254.8953    4.2659808    4.2659808    4.2659808   -6254.8953   -17881.616    28728.063   -29611.132    5844.1068    3768.9245   -2031.4871    77.634844 
   78100    1255.7581   -161.26813    1.1362363    -160.1319   -48421.908    4.2609546    4.2609546    4.2609546   -48421.908   -35171.606   -83602.126   -26491.992    18644.693   -6534.3141   -6347.5332    77.360757 
   78200    991.47485   -161.03867   0.89710728   -160.14156    17521.348    4.2579894    4.2579894    4.2579894    17521.348   -5245.6879    20062.439    37747.293    5652.7521    5046.7063    13373.016    77.199366 
   78300    940.42484   -160.98852   0.85091616   -160.13761    30512.682    4.2636536    4.2636536    4.2636536    30512.682    23950.091    31013.396    36574.559   -14528.539    17453.616    13297.437     77.50786 
   78400    1131.1698    -161.1537    1.0235062    -160.1302   -24532.591    4.2669802    4.2669802    4.2669802   -24532.591    -17986.89   -74054.664    18443.781    3649.7581    894.71885   -3201.4074     77.68942 
   78500    1687.3985   -161.65575    1.5267936   -160.12895   -38906.452    4.2656954    4.2656954    4.2656954   -38906.452   -41885.254   -35558.388   -39275.714    14647.116   -5228.7017   -11283.543    77.619264 
   78600    1211.2876   -161.23631    1.0959985   -160.14031    12859.928       4.2631       4.2631       4.2631    12859.928   -10258.878    39512.047    9326.6143   -13431.878   -223.69574    630.95715    77.477673 
   78700     708.5765   -160.78119   0.64113491   -160.14005    19195.885      4.26212      4.26212      4.26212    19195.885    17889.963    26629.703     13067.99   -13151.719   -1263.2139    13146.751    77.424252 
   78800    1298.6169   -161.31223    1.1750159   -160.13722   -22595.082    4.2685862    4.2685862    4.2685862   -22595.082   -13314.876   -31294.944   -23175.426    7766.2319   -6719.4384   -2570.2249    77.777177 
   78900     1605.455   -161.58655    1.4526494    -160.1339   -36964.041    4.2658091    4.2658091    4.2658091   -36964.041   -47261.838   -26159.781   -37470.503    10196.525   -12273.895   -7388.4189     77.62547 
   79000    664.71371   -160.74045   0.60144694     -160.139    22376.499    4.2532687    4.2532687    4.2532687    22376.499   -9011.6746     26557.01    49584.162   -994.15047    -1319.167    22497.159    76.942885 
   79100    624.66457   -160.71153   0.56520963   -160.14632    31261.583    4.2574365    4.2574365    4.2574365    31261.583     15331.76    20214.006    58238.982   -4516.1047    7213.8239    15125.534    77.169296 
   79200    1430.8001   -161.43024     1.294618   -160.13562   -29972.029    4.2735436    4.2735436    4.2735436   -29972.029    -49604.82   -15214.657   -25096.609    9458.6967   -10196.553   -10724.667    78.048475 
   79300    1046.6841   -161.06934   0.94706173   -160.12227   -21502.131    4.2622689    4.2622689    4.2622689   -21502.131    777.17276   -58265.104   -7018.4604     2319.137    1900.4037   -10947.834    77.432368 
   79400    587.27209   -160.65893   0.53137613   -160.12755    42584.715    4.2529925    4.2529925    4.2529925    42584.715    63003.692    3482.9112    61267.543   -12836.324    13292.989    7776.5195    76.927894 
   79500     1203.688   -161.21902    1.0891222    -160.1299    6097.9883    4.2684272    4.2684272    4.2684272    6097.9883      9627.95    15221.824   -6555.8096   -10892.815    1236.0169    10414.181    77.768484 
   79600    1361.3919   -161.34513     1.231816   -160.11331   -40275.088    4.2723779    4.2723779    4.2723779   -40275.088    -51075.39    -46706.56   -23043.315    10443.361   -9096.4537   -10044.408    77.984623 
   79700    810.91072   -160.85002   0.73372907   -160.11629     11766.39    4.2677142    4.2677142    4.2677142     11766.39    46940.633    -35833.29    24191.827   -1268.5012    7725.6584   -5076.0229     77.72952 
   79800    1032.4689   -161.05421   0.93419957   -160.12001    26256.191    4.2691383    4.2691383    4.2691383    26256.191    53259.729    12634.164    12874.679   -9452.3152    11319.249   -6215.5463    77.807356 
   79900    1336.3712   -161.31499    1.2091768   -160.10581   -43069.971    4.2681525    4.2681525    4.2681525   -43069.971   -12860.648   -61927.689   -54421.577    14314.726   -3999.7149   -21005.114    77.753469 
   80000    945.27599   -160.97059   0.85530558   -160.11529   -3033.1361    4.2607083    4.2607083    4.2607083   -3033.1361   -22501.213    3061.8764    10339.928    223.61545     911.8219    336.16295    77.347344 
   80100    857.33766    -160.9039   0.77573713   -160.12816    38369.577    4.2655174    4.2655174    4.2655174    38369.577   -7368.6417    54368.713     68108.66   -20781.854     6837.723    20665.043    77.609546 
   80200    1162.4701   -161.17745    1.0518273   -160.12562   -11285.966    4.2685859    4.2685859    4.2685859   -11285.966   -46863.023   -4859.5385    17864.665    3014.1118   -1706.5238    3236.6486    77.777161 
   80300    1130.3032   -161.14186    1.0227221   -160.11913   -34156.547    4.2653033    4.2653033    4.2653033   -34156.547   -7256.9388    -43509.73   -51702.973    8826.9614   -17457.779   -11825.944    77.597861 
   80400    1141.4283   -161.16349    1.0327883    -160.1307    26471.246    4.2614346    4.2614346    4.2614346    26471.246    35329.906     20134.54    23949.293   -8963.5151    9708.3759    5552.4794    77.386906 
   80500    763.23989   -160.82549   0.69059549    -160.1349    34583.926    4.2629525    4.2629525    4.2629525    34583.926    55184.551   -926.38898    49493.617   -15262.747     11340.05    10437.105    77.469627 
   80600    1161.6289   -161.17753    1.0510662   -160.12647   -33303.323    4.2658324    4.2658324    4.2658324   -33303.323     909.2156   -80753.934   -20065.251    5205.8666   -7289.7142   -8564.9398    77.626742 
   80700     1487.842   -161.47337    1.3462307   -160.12714    -22374.68    4.2691231    4.2691231    4.2691231    -22374.68   -53243.154    16927.558   -30808.446    2877.5922   -17427.279   -4454.7193    77.806528 
   80800    874.80783   -160.92465   0.79154451   -160.13311    34403.155    4.2686149    4.2686149    4.2686149    34403.155   -6685.1462    98989.953    10904.659   -12988.472    4139.4403    11816.811    77.778745 
   80900    631.76857   -160.70303   0.57163748   -160.13139    11514.976    4.2691624    4.2691624    4.2691624    11514.976   -13841.971    42593.191    5793.7094   -12287.664   -4898.4094    12229.073    77.808674 
   81000    1632.3213   -161.60129    1.4769586   -160.12433   -33544.586    4.2624245    4.2624245    4.2624245   -33544.586   -42331.796   -7423.3099   -50878.652    5969.5792   -18978.588    -10504.04    77.440847 
   81100     1402.024   -161.40006    1.2685807   -160.13147    2360.2271    4.2560222    4.2560222    4.2560222    2360.2271    22042.882   -27526.503    12564.302    -1831.065   -7662.5889   -1537.2937    77.092418 
   81200    482.03618   -160.57961   0.43615647   -160.14345    30007.609     4.266086     4.266086     4.266086    30007.609    73239.739   -40226.165    57009.251    -11532.28    14277.491    13071.532    77.640587 
   81300    1106.3236   -161.14061    1.0010249   -160.13958    1109.3538    4.2669057    4.2669057    4.2669057    1109.3538    44397.565   -49104.823    8035.3192   -4173.7026    853.08566   -7361.4826    77.685351 
   81400     1685.202   -161.65436    1.5248062   -160.12955   -18727.095    4.2550861    4.2550861    4.2550861   -18727.095   -599.05602   -4575.2105   -51007.019    13401.439   -18631.045   -15159.904    77.041557 
   81500    823.31045   -160.88834   0.74494859   -160.14339    6110.5071    4.2617603    4.2617603    4.2617603    6110.5071   -29345.106    25879.065    21797.562    8756.4039   -14440.943    6826.5036    77.404654 
   81600    640.66524   -160.72505   0.57968738   -160.14536    24732.637    4.2763133    4.2763133    4.2763133    24732.637   -28600.734    61469.859    41328.786    -6664.639     651.8375    21192.641    78.200325 
   81700    1247.2392   -161.26759    1.1285282   -160.13906    5125.5775     4.271433     4.271433     4.271433    5125.5775   -26631.955    59723.516   -17714.828    -18860.95    1928.2695    8002.8433    77.932892 
   81800    1182.0364    -161.2004    1.0695314   -160.13086   -27316.791    4.2595727    4.2595727    4.2595727   -27316.791   -35319.333   -30105.196   -16525.842   -1928.0028   -1918.8952   -10212.923    77.285517 
   81900    1370.6546   -161.38088    1.2401971   -160.14068   -18211.362    4.2641846    4.2641846    4.2641846   -18211.362   -10654.297   -25889.002   -18090.787    2299.3842    -1506.909   -12962.994    77.536819 
   82000    1341.7061   -161.36051    1.2140039   -160.14651   -9548.6875    4.2778953    4.2778953    4.2778953   -9548.6875   -17013.903      34119.4    -45751.56   -18048.664    16419.416   -1067.8686    78.287142 
   82100    838.36749   -160.89947   0.75857252    -160.1409    6347.0662     4.263176     4.263176     4.263176    6347.0662    -24724.45    29848.827    13916.822   -320.96686    18263.966    13117.353    77.481813 
   82200    811.18849   -160.87684   0.73398039   -160.14286    25472.784    4.2534309    4.2534309    4.2534309    25472.784   -18514.864    44212.479    50720.737    7966.9483    7312.7355    17674.589    76.951688 
   82300    1428.3294   -161.44102    1.2923824   -160.14863   -5138.8863     4.264293     4.264293     4.264293   -5138.8863   -16830.217    12134.154   -10720.596    10226.352   -5574.8318    1188.5098    77.542733 
   82400    1323.1036   -161.33768     1.197172   -160.14051   -29793.657    4.2684315    4.2684315    4.2684315   -29793.657    20905.599   -55121.369   -55165.201    3730.1042   -1126.3369   -4846.4392    77.768718 
   82500    907.22169   -160.96573   0.82087325   -160.14485   -1896.8211    4.2697211    4.2697211    4.2697211   -1896.8211    60322.916   -54685.892   -11327.487   -4375.8825      8530.15    3544.3782     77.83923 
   82600     1215.038   -161.24631     1.099392   -160.14691    18278.107    4.2669901    4.2669901    4.2669901    18278.107    61984.009    -466.5228   -6683.1644   -10090.123    12362.128    7088.1127    77.689961 
   82700    1201.1209   -161.22818    1.0867994   -160.14138    153.78252    4.2613669    4.2613669    4.2613669    153.78252    40575.684   -9933.6725   -30180.664   -10337.427   -9876.1348    6960.9212    77.383219 
   82800    1401.9608   -161.40804    1.2685236   -160.13952   -31662.601    4.2652002    4.2652002    4.2652002   -31662.601   -13610.775   -58628.446    -22748.58    8496.9142   -17824.041   -6091.6984    77.592233 
   82900    1543.0351   -161.54031    1.3961706   -160.14414   -13794.234    4.2698572    4.2698572    4.2698572   -13794.234   -21433.912   -9387.0508    -10561.74    1059.3238   -5626.1441    3602.1437    77.846671 
   83000    783.21065   -160.85129   0.70866545   -160.14262    19372.747    4.2640843    4.2640843    4.2640843    19372.747    29829.471   -21100.907    49389.678   -15503.213    7882.9488     18426.16    77.531352 
   83100    923.89152   -160.97131   0.83595646   -160.13535   -7146.1947    4.2599049    4.2599049    4.2599049   -7146.1947    11306.839   -80466.642    47721.219   -2080.4195    14165.744    2384.0997      77.3036 
   83200    1526.4029   -161.51715    1.3811214   -160.13603   -12967.852    4.2572002    4.2572002    4.2572002   -12967.852   -27430.375   -20651.377    9178.1948    3579.5389    2301.5363   -13394.653    77.156447 
   83300    1269.0964   -161.29154    1.1483051   -160.14323   -6049.1025    4.2601669    4.2601669    4.2601669   -6049.1025    45.454328    90.427811    -18283.19    4148.1518   -4399.2954   -12376.296    77.317864 
   83400    399.06263   -160.51159   0.36108025   -160.15051    16124.244    4.2709387    4.2709387    4.2709387    16124.244    32237.018    17815.326   -1679.6102   -13001.062    12446.805    -3590.086    77.905838 
   83500    937.47807     -160.988   0.84824986   -160.13975    24345.645    4.2647913    4.2647913    4.2647913    24345.645    20731.465    64745.195   -12439.725   -14421.151    6249.5365        13293    77.569919 
   83600    1282.0007   -161.29138    1.1599812    -160.1314   -2888.1335    4.2598853    4.2598853    4.2598853   -2888.1335    20177.715    9380.9062   -38223.021    8410.6909   -5418.3342   -4313.2386    77.302531 
   83700    822.25609   -160.88169   0.74399459    -160.1377   -37194.748    4.2668406    4.2668406    4.2668406   -37194.748   -25817.828   -95599.585    9833.1695    14153.424   -1675.7353    579.69122    77.681793 
   83800    1046.9483   -161.08928   0.94730083   -160.14198    6067.6219    4.2520641    4.2520641    4.2520641    6067.6219    5196.2815   -26216.562    39223.146    288.54723    9398.0279    17614.595    76.877529 
   83900    1022.0424    -161.0793   0.92476548   -160.15453    38055.978    4.2515934    4.2515934    4.2515934    38055.978    41276.035    15121.589    57770.311    1535.7046     13351.68    19898.917    76.851999 
   84000    831.01079    -160.8992   0.75191602   -160.14729   -36054.836    4.2727785    4.2727785    4.2727785   -36054.836   -5341.7964   -104430.24    1607.5267    1169.1505   -3120.7155    405.85816    78.006564 
   84100    1400.1473   -161.40023    1.2668827   -160.13335   -40775.938    4.2606606    4.2606606    4.2606606   -40775.938   -27783.944   -60721.245   -33822.626    1661.1385   -12457.236    -14219.59    77.344747 
   84200    1344.5201   -161.35452    1.2165501   -160.13797    11257.813    4.2485635    4.2485635    4.2485635    11257.813     247.3499     50187.89     -16661.8    11676.977    3853.9425   -13342.321     76.68781 
   84300    508.60757   -160.60666   0.46019882   -160.14646    13670.841    4.2614034    4.2614034    4.2614034    13670.841    486.66777    17237.051    23288.805   -8893.0596    12403.237    6817.5766    77.385207 
   84400    809.53436   -160.87426    0.7324837   -160.14178    6837.8594    4.2583847    4.2583847    4.2583847    6837.8594   -24256.331    11089.057    33680.853    9074.5065    5443.4362    16.964191    77.220868 
   84500    1670.5554   -161.65783    1.5115537   -160.14627   -9953.0399    4.2552287    4.2552287    4.2552287   -9953.0399   -6455.9014    6945.8272   -30349.045    13111.321   -958.36469   -10815.273    77.049302 
   84600    1215.7258   -161.25432    1.1000142   -160.15431   -39854.953    4.2657573    4.2657573    4.2657573   -39854.953   -39126.043   -62794.723   -17644.092    7199.9419   -1699.6735    -7379.132    77.622642 
   84700    659.62391   -160.75314   0.59684158    -160.1563    1034.2589    4.2563011    4.2563011    4.2563011    1034.2589   -11278.214   -15333.754    29714.745   -1487.5436    14762.865    486.42566    77.107571 
   84800    1117.7868   -161.16478     1.011397   -160.15339    28793.865    4.2492398    4.2492398    4.2492398    28793.865    18595.632    54761.998    13023.966    -10942.49    18402.184    7991.4096     76.72444 
   84900    1091.7822   -161.14099   0.98786745   -160.15312   -3909.0051    4.2614275    4.2614275    4.2614275   -3909.0051    6371.4538    761.10861   -18859.578   -801.13875    1774.1697   -2697.4385    77.386518 
   85000    943.34294   -160.99839   0.85355652   -160.14484   -38391.555    4.2679805    4.2679805    4.2679805   -38391.555   -42853.091   -67101.737   -5219.8363    11021.012    -4020.707   -13185.271    77.744069 
   85100    1079.1065   -161.12298   0.97639823   -160.14658    16041.241     4.256246     4.256246     4.256246    16041.241    16659.113     28985.17    2479.4399   -8039.8018    7824.8009    3258.3312    77.104578 
   85200    970.15181   -161.02695   0.87781374   -160.14914    20173.001    4.2528265    4.2528265    4.2528265    20173.001      7926.44    47930.023    4662.5405   -21098.909    12835.246    20463.549    76.918888 
   85300    723.56373   -160.80675   0.65469567   -160.15205   -3533.5592    4.2551059    4.2551059    4.2551059   -3533.5592   -4821.7907   -2212.4591   -3566.4277   -11399.652    6666.3223    15380.036    77.042632 
   85400    1569.8103   -161.56914    1.4203973   -160.14874    -35399.12    4.2608152    4.2608152    4.2608152    -35399.12   -22669.395     -38468.7   -45059.265    1821.0341   -10873.601    1796.2948    77.353165 
   85500    1661.8278   -161.65111    1.5036567   -160.14745   -28460.495    4.2689109    4.2689109    4.2689109   -28460.495   -43614.386   -14423.815   -27343.285    3897.2404   -6960.9373   -10183.361    77.794926 
   85600    740.09668   -160.81423   0.66965503   -160.14458    2868.4591    4.2665179    4.2665179    4.2665179    2868.4591   -10159.581   -20357.669    39122.627   -8079.1355    1101.0312    7606.8044    77.664173 
   85700    1061.8121   -161.10069   0.96074986   -160.13994    22949.705     4.254474     4.254474     4.254474    22949.705    15159.895    5227.2205    48461.999   -8179.1495    9934.1137   -1153.7972    77.008314 
   85800    1664.4485   -161.64333     1.506028    -160.1373   -4086.7652     4.253487     4.253487     4.253487   -4086.7652   -20852.602   -1206.1594    9798.4659    10059.324   -4061.4893   -16247.304     76.95473 
   85900    1348.0152   -161.36132    1.2197125    -160.1416    -28197.64    4.2600254    4.2600254    4.2600254    -28197.64   -17982.871   -42339.504   -24270.543    3374.4463   -13228.431   -8173.6089    77.310157 
   86000      852.363    -160.9175   0.77123596   -160.14626    1298.8167    4.2668704    4.2668704    4.2668704    1298.8167    27813.461    7595.7804   -31512.791   -11463.812    240.00204   -5059.6697    77.683426 
   86100    1125.5244   -161.16526    1.0183981   -160.14686    20149.314    4.2647023    4.2647023    4.2647023    20149.314    11342.549    81070.297   -31964.905   -7040.1244    11194.851    861.93932    77.565066 
   86200    1112.6918   -161.14992    1.0067869   -160.14314   -5237.2227    4.2590987    4.2590987    4.2590987   -5237.2227    4225.6391    8107.3323   -28044.639     8345.091    580.85779   -3067.9706    77.259718 
   86300    1151.6714   -161.18335    1.0420565   -160.14129    -30964.39    4.2572521    4.2572521    4.2572521    -30964.39   -17389.714   -71667.822    -3835.634    16888.448   -6155.8001   -11881.972    77.159269 
   86400    1071.6645   -161.12006   0.96966454    -160.1504    11865.856    4.2614707    4.2614707    4.2614707    11865.856   -3154.9859   -6206.7626    44959.318    1156.8561    18008.137     13242.38     77.38887 
   86500    628.85184   -160.71898   0.56899836   -160.14998    32247.412    4.2632558    4.2632558    4.2632558    32247.412    9747.9495    8178.0476     78816.24   -9033.7046    25674.517    21909.225    77.486167 
   86600    825.16722   -160.88766   0.74662864   -160.14103   -8937.6403    4.2585166    4.2585166    4.2585166   -8937.6403   -12224.092   -49391.855    34803.026    2946.3096    7027.7888     170.8011    77.228041 
   86700    1569.6454   -161.55399    1.4202482   -160.13374   -22688.318    4.2526352    4.2526352    4.2526352   -22688.318    -25731.08   -19366.955   -22966.918    3677.3224   -3167.0052   -6788.9553    76.908509 
   86800    1297.8986   -161.31678    1.1743659   -160.14242    8337.3649    4.2547938    4.2547938    4.2547938    8337.3649    37006.789    4577.1822   -16571.876     -2379.88    5446.6491   -4027.2063    77.025685 
   86900    710.40586   -160.78553   0.64279015   -160.14274    13388.896    4.2626238    4.2626238    4.2626238    13388.896    41538.779   -17244.989    15872.899   -18614.706    3066.3261    6267.3764    77.451711 
   87000    1365.0476   -161.37309    1.2351238   -160.13797   -14978.332     4.265325     4.265325     4.265325   -14978.332    23092.801   -29176.113   -38851.683   -9566.6629   -8199.8081   -506.24473    77.599047 
   87100    1812.7108   -161.77121    1.6401789   -160.13103   -18276.688    4.2579835    4.2579835    4.2579835   -18276.688   -25781.124   -19397.615    -9651.324    13020.827   -12150.612   -11999.052    77.199044 
   87200    880.36354   -160.93298   0.79657143   -160.13641     13294.82    4.2578441    4.2578441    4.2578441     13294.82   -10733.616   -25448.101    76066.177    2180.5499    2299.8553    5369.0031    77.191463 
   87300    762.46118   -160.82908    0.6898909   -160.13919    27242.366    4.2660559    4.2660559    4.2660559    27242.366   -5106.0104    2312.9964    84520.112    136.97333    15245.387    10633.183    77.638945 
   87400    1633.6027   -161.60277     1.478118   -160.12465   -21009.123    4.2691794    4.2691794    4.2691794   -21009.123   -23076.759   -24769.512   -15181.099    18414.618    180.45987   -6658.0285    77.809607 
   87500    1204.6911   -161.21077    1.0900299   -160.12074   -29043.025    4.2578287    4.2578287    4.2578287   -29043.025   -4558.0454   -47227.412   -35343.617    659.36737   -4926.3584    12581.675    77.190627 
   87600    478.29893   -160.56635   0.43277492   -160.13358    22415.925    4.2512679    4.2512679    4.2512679    22415.925    54238.978    5201.7111    7807.0848   -13570.524    20296.916    18982.759     76.83435 
   87700    999.16576   -161.04219   0.90406617   -160.13812    16574.619    4.2574479    4.2574479    4.2574479    16574.619    19971.403    43539.047   -13786.594   -15564.626    19858.286    17790.596    77.169913 
   87800     1230.918   -161.24437    1.1137604   -160.13061    -27387.21     4.262375     4.262375     4.262375    -27387.21   -18109.994   -52033.549   -12018.087    6931.3627   -4382.7367   -5013.8127    77.438148 
   87900    1006.0472   -161.03904   0.91029267   -160.12875   -11773.391    4.2657695    4.2657695    4.2657695   -11773.391   -14001.414   -25550.888    4232.1278    6904.4278   -3391.3862   -9031.4213    77.623308 
   88000    1142.8205   -161.16532     1.034048   -160.13127    25716.319    4.2633131    4.2633131    4.2633131    25716.319     7854.737    43669.126    25625.095   -13309.713     10697.93    12183.667    77.489289 
   88100    1378.1574   -161.37517    1.2469857   -160.12818     9420.523    4.2491304    4.2491304    4.2491304     9420.523     3661.677    12266.675    12333.217   -159.42272    2335.6403    6148.2834    76.718515 
   88200    1383.7134   -161.38383    1.2520129   -160.13182   -26434.845    4.2532886    4.2532886    4.2532886   -26434.845   -24014.765   -44199.628   -11090.141    12584.315   -9375.3412   -7609.4922    76.943965 
   88300    1333.3041   -161.34507    1.2064016   -160.13867   -15822.768    4.2692442    4.2692442    4.2692442   -15822.768    17153.045   -25726.405   -38894.944   -264.96678    -2183.629   -1847.5465    77.813148 
   88400    979.09759   -161.02295   0.88590808   -160.13704    23809.328    4.2621009    4.2621009    4.2621009    23809.328    61330.443    15675.585   -5578.0455   -7693.0941    7703.1269    8774.4567    77.423209 
   88500    896.43812   -160.93525   0.81111605   -160.12413   -6869.9123    4.2527696    4.2527696    4.2527696   -6869.9123     45790.39   -48339.336   -18060.791   -1889.7421   -1822.9401     13871.94      76.9158 
   88600    1345.3297   -161.34646    1.2172826   -160.12918   -27091.725    4.2566565    4.2566565    4.2566565   -27091.725   -30901.528   -40741.392    -9632.256    7718.4165   -4480.6815    5252.7208    77.126889 
   88700    1253.4984   -161.27456    1.1341917   -160.14037    3585.8932    4.2660155    4.2660155    4.2660155    3585.8932   -33788.097    52933.131    -8387.355    1013.8881    4755.0242    26657.975    77.636739 
   88800    422.33023   -160.52391   0.38213327   -160.14178    21567.705    4.2686691    4.2686691    4.2686691    21567.705   -15431.786    31782.507    48352.393    -9410.634     7543.404    31285.441    77.781708 
   88900    1119.0639   -161.14557    1.0125525   -160.13302   -6379.6571    4.2577429    4.2577429    4.2577429   -6379.6571   -22484.219   -18038.472    21383.719    12887.072    2000.4976    7827.7837    77.185959 
   89000    1890.5381   -161.83707    1.7105986   -160.12647   -18016.037    4.2508648    4.2508648    4.2508648   -18016.037    269.31866   -16342.218   -37975.211    14998.545   -11489.536   -2724.2769    76.812496 
   89100    1196.6276   -161.22672    1.0827338   -160.14398   -9974.3579    4.2636969    4.2636969    4.2636969   -9974.3579    4251.9734   -8101.0445   -26074.002   -3052.1759    2815.7763    211.86633    77.510218 
   89200    789.33695   -160.85621   0.71420866     -160.142    5102.1984    4.2734709    4.2734709    4.2734709    5102.1984    23804.289    10293.092   -18790.785     -17754.3     14031.92   -121.63293    78.044493 
   89300    1525.2174    -161.5149    1.3800488   -160.13485   -9551.3581    4.2675903    4.2675903    4.2675903   -9551.3581    15856.892    639.10192   -45150.069   -14171.016   -6708.9469    1304.6466    77.722751 
   89400    1494.1331    -161.4824     1.351923   -160.13047   -41823.876    4.2632524    4.2632524    4.2632524   -41823.876   -48613.132   -51469.173   -25389.325    11018.603   -10762.818    -12200.12    77.485981 
   89500    847.60909   -160.90688   0.76693452   -160.13995   -5460.4873    4.2630302    4.2630302    4.2630302   -5460.4873    8840.4429   -6931.1094   -18290.795   -6890.4268    4906.2658   -1750.0663    77.473869 
   89600    960.18849   -161.01148   0.86879872   -160.14269    35227.734    4.2586373    4.2586373    4.2586373    35227.734    15351.091    66056.276    24275.836   -14104.709    8144.3037    14697.493    77.234609 
   89700    1182.5538   -161.21066    1.0699995   -160.14067   -2452.6649    4.2598457    4.2598457    4.2598457   -2452.6649   -5734.1876   -4606.3815    2982.5745    6176.3412   -4023.6118    4336.4066    77.300376 
   89800    1024.0637   -161.06711   0.92659438   -160.14051   -32980.263    4.2686011    4.2686011    4.2686011   -32980.263   -8283.6131   -60813.732   -29843.446    7179.2292   -5557.7035    5495.7673    77.777992 
   89900    1144.8525   -161.17333    1.0358866   -160.13744      -2913.9    4.2654995    4.2654995    4.2654995      -2913.9   -24472.838    39185.249   -23454.111    1962.5784    10580.075    17333.061    77.608569 
   90000    1058.2988   -161.09442   0.95757097   -160.13685     24916.98    4.2463109    4.2463109    4.2463109     24916.98    10972.742    79008.957   -15230.758   -12347.019    28240.284    3440.2952    76.565897 
   90100    705.58925   -160.78154   0.63843198   -160.14311    3172.0405    4.2499068    4.2499068    4.2499068    3172.0405    7069.5708    15739.132   -13292.582   -9400.1468    15644.351   -5985.6848    76.760574 
   90200    1535.6469   -161.53008    1.3894856   -160.14059   -47709.066    4.2677461    4.2677461    4.2677461   -47709.066    -49422.13    -54077.02    -39628.05    8758.5015   -7906.9477   -19455.141    77.731263 
   90300    1660.8703   -161.63646    1.5027903   -160.13367   -19098.746    4.2655933    4.2655933    4.2655933   -19098.746   -42941.146   -20513.256    6158.1653   -6888.1266   -11707.831   -1517.3331     77.61369 
   90400    618.72292   -160.69256    0.5598335   -160.13273    15031.601     4.258983     4.258983     4.258983    15031.601   -23547.535    8442.1054    60200.233   -5939.2977    12120.955    16042.131    77.253419 
   90500    744.25997   -160.81091   0.67342206   -160.13749    22098.669    4.2540223    4.2540223    4.2540223    22098.669   -8303.4191    6056.1788    68543.247   -2960.0102    3134.2473    13744.512     76.98379 
   90600    1531.2729   -161.52863    1.3855279   -160.14311   -959.28387    4.2560514    4.2560514    4.2560514   -959.28387   -6400.1123    10785.252    -7262.991    13944.695   -4892.3734   -501.21752       77.094 
   90700    1071.1161   -161.11291   0.96916833   -160.14374   -19901.078    4.2617553    4.2617553    4.2617553   -19901.078    31708.479   -49659.943   -41751.768    4993.5601     3865.262   -14961.766     77.40438 
   90800    573.08003   -160.66733   0.51853486   -160.14879    20015.715    4.2584595    4.2584595    4.2584595    20015.715    58294.388   -8066.8847    9819.6414   -8658.4804    15908.936    6791.1495    77.224938 
   90900    1085.3174   -161.12905     0.982018   -160.14703    13717.241    4.2590792    4.2590792    4.2590792    13717.241    15366.409    59545.201   -33759.887   -12648.298    18776.257    9820.3021    77.258656 
   91000    1290.8749   -161.30284    1.1680108   -160.13483   -27707.624    4.2574643    4.2574643    4.2574643   -27707.624   -25469.702   -9966.1796   -47686.991   -7266.9522    5926.9307   -5628.0368    77.170808 
   91100    1064.2457   -161.09829   0.96295187   -160.13534    -17088.94    4.2545501    4.2545501    4.2545501    -17088.94    140.80042   -47961.117   -3446.5053   -4094.3443   -4587.2997   -2136.8508    77.012449 
   91200    1102.6015   -161.14358   0.99765701   -160.14592    13768.825    4.2670969    4.2670969    4.2670969    13768.825    30692.484    15075.056   -4461.0642   -9345.4707    12149.748   -781.08846    77.695794 
   91300    1246.5617    -161.2668    1.1279152   -160.13888    11988.048    4.2636158    4.2636158    4.2636158    11988.048    2671.1901    31956.907    1336.0468   -1687.7196    6974.9423    14921.995    77.505797 
   91400    1234.9962   -161.24465    1.1174505    -160.1272   -15391.081    4.2514696    4.2514696    4.2514696   -15391.081    -19134.58   -24383.257   -2655.4053    13660.391   -13852.801   -9380.1208    76.845284 
   91500    1548.3899   -161.53984    1.4010157   -160.13882   -28253.216    4.2617519    4.2617519    4.2617519   -28253.216   -23663.335   -35428.393    -25667.92    9661.1173   -7710.8107   -1101.0519    77.404193 
   91600    1177.8549   -161.21039    1.0657479   -160.14464    24812.122    4.2617028    4.2617028    4.2617028    24812.122    2861.6592    55661.163    15913.543   -19551.359    5451.6166     16414.26    77.401516 
   91700     649.3655   -160.72824   0.58755955   -160.14069    16052.882    4.2583401    4.2583401    4.2583401    16052.882    14606.877    25248.639    8303.1304   -8089.4095    6147.6675   -2342.9254    77.218444 
   91800    1210.3397   -161.23232    1.0951408   -160.13718   -42202.188    4.2690068    4.2690068    4.2690068   -42202.188   -54448.418   -22551.962   -49606.183    4725.9026     1378.991   -6607.3285     77.80017 
   91900    1392.6168   -161.40015     1.260069   -160.14008   -7176.4589    4.2574717    4.2574717    4.2574717   -7176.4589   -28508.032    24175.915   -17197.259    11334.184    7087.9226   -11150.925     77.17121 
   92000    626.05259   -160.71546   0.56646554     -160.149    27353.175        4.247        4.247        4.247    27353.175    26237.635   -18899.188    74721.078   -288.01952    28067.627    2862.5277    76.603175 
   92100    433.72728   -160.55268   0.39244556   -160.16023    14090.989    4.2557234    4.2557234    4.2557234    14090.989    49007.772   -52490.228    45755.423   -11719.379    29164.213    13310.303    77.076182 
   92200    1104.2842   -161.16253   0.99917955   -160.16335    9078.2578    4.2551062    4.2551062    4.2551062    9078.2578    52798.647   -21467.209   -4096.6646   -3052.9199    19156.787     416.4244    77.042648 
   92300    1246.6898   -161.28244    1.1280311   -160.15441   -11043.368    4.2503352    4.2503352    4.2503352   -11043.368   -19103.678   -11890.149   -2136.2769    12902.978    7701.6068   -10911.532    76.783792 
   92400    821.28764   -160.89808   0.74311832   -160.15497    -29446.48    4.2599823    4.2599823    4.2599823    -29446.48   -55697.511   -10772.046   -21869.884    3901.8306    9591.7399    1693.7777     77.30781 
   92500    1040.8849   -161.09648   0.94181452   -160.15466    4928.7231     4.261706     4.261706     4.261706    4928.7231   -30705.507    46306.292   -814.61484    4115.0689    12942.994    16614.907     77.40169 
   92600    1294.1237   -161.31666    1.1709503   -160.14571    10993.949    4.2558755    4.2558755    4.2558755    10993.949   -16076.119    26839.683    22218.282   -13145.617    4418.8301    18721.348    77.084442 
   92700    1109.9517   -161.14409    1.0043076   -160.13979   -8568.6124     4.250143     4.250143     4.250143   -8568.6124   -18811.497   -32725.644    25831.303    4847.4364     1476.677   -238.28898    76.773373 
   92800    1382.1619    -161.3925    1.2506091   -160.14189   -18368.029    4.2534647    4.2534647    4.2534647   -18368.029   -15813.729   -32546.918   -6743.4413    13643.513    -5029.173   -14023.923    76.953521 
   92900    1560.0678   -161.56101    1.4115821   -160.14943    699.26553    4.2565455    4.2565455    4.2565455    699.26553    39757.032    878.12395   -38537.359   -6320.0983   -3499.6144   -13976.151    77.120854 
   93000    796.00267   -160.87506   0.72023995   -160.15482    16172.321    4.2534493    4.2534493    4.2534493    16172.321     46634.16    8827.9507   -6945.1466   -4979.3803    7201.7159   -557.95514    76.952684 
   93100    667.43742   -160.75564    0.6039114   -160.15173    1083.0384    4.2485467    4.2485467    4.2485467    1083.0384    28739.792   -22596.657     -2894.02   -10366.914     2840.995   -1076.0389      76.6869 
   93200    1515.6352   -161.51945    1.3713786   -160.14807   -7505.1433      4.24591      4.24591      4.24591   -7505.1433    9208.1507   -16018.197   -15705.383   -3759.3425    21.621421   -4463.7516    76.544209 
   93300    1350.0125   -161.37448    1.2215196   -160.15296   -7564.7106    4.2566265    4.2566265    4.2566265   -7564.7106   -7063.4072   -15733.318    102.59328    11058.017    393.53345   -6146.8966    77.125258 
   93400    666.40022   -160.75847   0.60297292   -160.15549   -2059.7008    4.2620852    4.2620852    4.2620852   -2059.7008   -12982.439   -673.74007    7477.0761   -9058.5776    5126.1547    5501.5913    77.422355 
   93500    669.94149   -160.76488   0.60617714   -160.15871    24130.459    4.2545615    4.2545615    4.2545615    24130.459     9452.428    42772.423    20166.526   -11067.489    61.815098    2144.6307    77.013068 
   93600    1367.1998   -161.39163    1.2370711   -160.15456    14106.332    4.2512014    4.2512014    4.2512014    14106.332    3273.1079    43974.384   -4928.4965   -9632.0033   -4458.7591   -868.80077    76.830744 
   93700    1211.6105   -161.24697    1.0962906   -160.15068   -12502.177    4.2572724    4.2572724    4.2572724   -12502.177    2496.2465   -27366.487   -12636.291   -5469.4299   -5655.2264   -14960.212    77.160371 
   93800    1068.1818    -161.1159    0.9665133   -160.14939   -31021.682    4.2639045    4.2639045    4.2639045   -31021.682   -18091.155   -68127.208   -6846.6825    4211.8251   -4120.3537   -10850.908    77.521545 
   93900    1319.9091   -161.34766    1.1942815   -160.15338    12243.105    4.2542743    4.2542743    4.2542743    12243.105    15885.022    6209.8257    14634.466   -7534.1492    93.324211   -433.42065    76.997473 
   94000     1225.821   -161.26203    1.1091486   -160.15288    15021.551      4.24869      4.24869      4.24869    15021.551   -3374.4371    26153.064    22286.027   -9593.0973   -3944.1595    2962.6982     76.69466 
   94100    755.73286   -160.83595   0.68380298   -160.15214   -3195.9475    4.2518793    4.2518793    4.2518793   -3195.9475    -30264.16    1760.4482     18915.87    1288.2609   -14749.803    8721.2873    76.867503 
   94200    1314.0926   -161.34254    1.1890186   -160.15352   -9288.7509    4.2546465    4.2546465    4.2546465   -9288.7509   -35498.296    10259.098   -2627.0547    2977.2544   -19902.707   -1873.2987    77.017684 
   94300    1453.6405   -161.46603    1.3152845   -160.15074   -15921.743    4.2575104    4.2575104    4.2575104   -15921.743   -20218.805   -9280.5799   -18265.844    4527.0536   -10232.404   -16353.314    77.173312 
   94400     736.4961    -160.8137   0.66639715    -160.1473   -2604.5962     4.247763     4.247763     4.247763   -2604.5962    34677.594   -32422.564   -10068.819   -5407.0294    1349.3362   -4046.6434    76.644469 
   94500    623.34226   -160.71835   0.56401318   -160.15433    10079.533    4.2463489    4.2463489    4.2463489    10079.533    36211.806   -10304.895    4331.6867   -12020.276     14634.23    2517.0928    76.567949 
   94600     1268.813   -161.30562    1.1480487   -160.15758    3901.2873    4.2589892    4.2589892    4.2589892    3901.2873   -3158.8145    10310.352    4552.3247    2590.8679    13271.196    15191.773     77.25376 
   94700    1161.3263   -161.20166    1.0507924   -160.15087   -18749.428    4.2645389    4.2645389    4.2645389   -18749.428   -35602.121   -44741.265    24095.102     7905.633    10467.889    583.05663     77.55615 
   94800    1064.1044   -161.11111     0.962824   -160.14828   -24962.822    4.2616774    4.2616774    4.2616774   -24962.822   -24537.986   -50335.579   -14.900816    9304.3686    3125.5553   -10520.951    77.400135 
   94900    1638.5512    -161.6365    1.4825955    -160.1539   -17106.946    4.2526675    4.2526675    4.2526675   -17106.946    -18704.39    11412.496   -44028.945    9892.2019   -2391.7427    3031.3055    76.910261 
   95000    1493.4228   -161.51154    1.3512803   -160.16026   -11141.697    4.2468292    4.2468292    4.2468292   -11141.697   -3326.1538   -8621.5944   -21477.343   -3935.8979   -4988.5836    7692.3121    76.593934 
   95100    1058.5802   -161.12339   0.95782563   -160.16556   -19968.411    4.2549514    4.2549514    4.2549514   -19968.411   -17924.363   -49371.292    7390.4217   -4781.0019   -2276.0121     12101.32     77.03424 
   95200     1295.146   -161.33581    1.1718753   -160.16394   -23735.075    4.2651081    4.2651081    4.2651081   -23735.075   -19202.211   -18691.557   -33311.456   -5036.6453    10169.386    7860.4279    77.587211 
   95300    1198.3373   -161.24137    1.0842807   -160.15709    1722.6492    4.2605818    4.2605818    4.2605818    1722.6492    16467.367    21505.267   -32804.686    1452.4537    5428.5952    2688.9842    77.340456 
   95400    564.37801    -160.6648   0.51066109   -160.15414    9013.8587    4.2463018    4.2463018    4.2463018    9013.8587     55993.81   -11377.582   -17574.652    16881.286    8.6665331    15288.121    76.565404 
   95500    619.05822   -160.71665   0.56013689   -160.15652    19625.615     4.236268     4.236268     4.236268    19625.615    65938.655     17645.32    -24707.13    16968.715    2037.9939    11354.581    76.023924 
   95600    1074.8134   -161.13716   0.97251378   -160.16465    15535.749    4.2462201    4.2462201    4.2462201    15535.749    59988.724    39862.789   -53244.267    9287.3528    1758.7706    10885.233    76.560986 
   95700    952.62429   -161.02578   0.86195448   -160.16382   -10571.871    4.2643301    4.2643301    4.2643301   -10571.871     34466.77   -18629.002    -47553.38    5922.9212    5961.2197   -4327.5867    77.544758 
   95800    1038.1982   -161.09072   0.93938351   -160.15134   -39291.543    4.2630086    4.2630086    4.2630086   -39291.543   -18066.772     -58212.4   -41595.457   -6022.5329   -2803.2603   -10536.342    77.472691 
   95900    1379.8834   -161.39474    1.2485475   -160.14619    -17368.92    4.2447809    4.2447809    4.2447809    -17368.92   -3079.5943   -1531.1022   -47496.063   -7166.1929   -1196.2646   -2590.5211    76.483164 
   96000     1213.173   -161.25176    1.0977044   -160.15405    3536.6083    4.2425327    4.2425327    4.2425327    3536.6083    32414.495    11451.327   -33255.997   -1549.4332    3923.6566   -10529.604    76.361703 
   96100    768.94068   -160.85798   0.69575369   -160.16223    2438.2474    4.2551669    4.2551669    4.2551669    2438.2474    42853.596   -13660.707   -21878.147    7818.4403   -2221.5005    -3078.026    77.045945 
   96200    967.35786   -161.03541   0.87528572   -160.16013    5550.6066    4.2617381    4.2617381    4.2617381    5550.6066    22392.118    16792.794   -22533.092    14078.582    3356.6734   -8136.1545     77.40344 
   96300    1331.7046   -161.36257    1.2049543   -160.15762    15638.465    4.2527499    4.2527499    4.2527499    15638.465     28327.58    48891.723   -30303.909    16515.054   -656.50923    6212.4223    76.914733 
   96400    1221.5232   -161.25787    1.1052599   -160.15261   -6651.3877    4.2468521    4.2468521    4.2468521   -6651.3877    30791.766   -22822.083   -27923.846     4837.789    1099.7958    270.24584    76.595172 
   96500    1318.2241   -161.35026    1.1927569   -160.15751   -24397.313    4.2523067    4.2523067    4.2523067   -24397.313   -1598.3445   -44838.377   -26755.216   -6826.3051     6532.667   -1135.7438    76.890689 
   96600    1576.7829    -161.5898    1.4267063   -160.16309   -12490.588    4.2566819    4.2566819    4.2566819   -12490.588   -9587.5209   -8734.8515   -19149.391   -14327.913   -283.89605    4923.2997    77.128268 
   96700    1374.8072   -161.40391    1.2439545   -160.15995   -3252.2633    4.2517434    4.2517434    4.2517434   -3252.2633   -21206.175    774.86795    10674.517   -14338.687   -7663.1579   -142.99772    76.860137 
   96800    807.98101   -160.88713    0.7310782   -160.15606   -3204.0338    4.2467412    4.2467412    4.2467412   -3204.0338    -20698.38    11931.001   -844.72204   -8165.3697   -13571.421    4247.0503    76.589173 
   96900    998.64126   -161.06335   0.90359159   -160.15976    4223.9393    4.2431916    4.2431916    4.2431916    4223.9393   -17781.953     49934.88    -19481.11    2258.6822   -10576.637   -9832.9158    76.397286 
   97000    1181.0209   -161.23081    1.0686125    -160.1622    12015.612    4.2442127    4.2442127    4.2442127    12015.612    5754.4548     37004.58   -6712.2001    9288.8191   -8761.1668   -13126.702    76.452454 
   97100    898.64712   -160.97447    0.8131148   -160.16136   -1527.2125    4.2487357    4.2487357    4.2487357   -1527.2125    7236.5905   -18554.959    6736.7312   -1636.8738   -3372.4765   -12114.508    76.697134 
   97200    960.64794   -161.02619   0.86921444   -160.15697   -17240.653    4.2570389    4.2570389    4.2570389   -17240.653   -34635.868   -20241.702    3155.6097   -4543.8721   -4027.5904   -17565.971    77.147677 
   97300    1399.2332   -161.42128    1.2660556   -160.15522   -11208.015    4.2585579    4.2585579    4.2585579   -11208.015   -8934.8611   -10069.852   -14619.332   -8022.5934   -12108.956   -6677.7449    77.230293 
   97400    1013.3881   -161.07578   0.91693482   -160.15884   -2015.3981    4.2503306    4.2503306    4.2503306   -2015.3981    36337.004   -38810.196   -3573.0019    101.47876   -8804.1595   -15032.573    76.783539 
   97500    685.22389   -160.78246   0.62000498   -160.16245   -7762.5748    4.2444049    4.2444049    4.2444049   -7762.5748    25273.751    -38528.82   -10032.655    8438.1344    -6696.671   -19638.566    76.462838 
   97600    1097.3007   -161.16317   0.99286071   -160.17031    4168.6141    4.2472372    4.2472372    4.2472372    4168.6141    21726.818    12177.883   -21398.858    17540.582   -777.38902   -8367.7538    76.616014 
   97700    1129.8094   -161.19427    1.0222753   -160.17199    9757.4536    4.2544421    4.2544421    4.2544421    9757.4536    29253.074    22806.648   -22787.361    12757.156    2450.5925   -8455.1232     77.00658 
   97800    494.84059   -160.61301   0.44774217   -160.16526    5545.5694    4.2567325    4.2567325    4.2567325    5545.5694    24786.693   -12257.646    4107.6607   -5484.7315   -13000.123   -2705.2051    77.131021 
   97900    833.21618   -160.91424   0.75391151   -160.16033    7239.1372    4.2501798    4.2501798    4.2501798    7239.1372    4282.8284    4474.3382    12960.245   -13487.819   -1342.5112    8352.9952     76.77537 
   98000    1504.2863   -161.51945    1.3611098   -160.15834    5276.5626    4.2457546    4.2457546    4.2457546    5276.5626    2352.2478    11717.787     1759.653   -21719.132    5255.2473   -1490.9124    76.535805 
   98100    1176.5745   -161.22592    1.0645894   -160.16133   -16231.338    4.2497766    4.2497766    4.2497766   -16231.338    10871.546   -49546.171   -10019.389   -7641.9454    3719.6252    3613.4057    76.753522 
   98200    1063.6592   -161.12576   0.96242116   -160.16334   -26850.236    4.2528795    4.2528795    4.2528795   -26850.236    -1086.175   -64843.422    -14621.11   -118.24183    2366.7338   -3097.0829    76.921763 
   98300      1850.29   -161.83506    1.6741813   -160.16087   -30908.319    4.2563218    4.2563218    4.2563218   -30908.319   -32679.568   -22302.727   -37742.661    8775.7197    1716.5843   -8880.1646    77.108696 
   98400    1631.7155   -161.63451    1.4764105    -160.1581   -31452.751    4.2610571    4.2610571    4.2610571   -31452.751   -35857.829   -18637.886   -39862.539    9836.0884   -3721.1488    5709.9676    77.366344 
   98500    955.52706   -161.01865   0.86458096   -160.15407   -20609.209    4.2543098    4.2543098    4.2543098   -20609.209   -6910.4602   -29804.205   -25112.962   -3572.5607   -10310.242    3003.5024    76.999398 
   98600    1027.8519   -161.08701   0.93002198   -160.15699     8470.768    4.2456846    4.2456846    4.2456846     8470.768    9057.4818    15281.285    1073.5368   -9362.8438    -15354.84    15220.666    76.532023 
   98700     1185.569    -161.2388    1.0727277   -160.16608     8422.394      4.25417      4.25417      4.25417     8422.394   -16571.029    35844.492    5993.7191   -13560.621   -16893.905    9063.1229    76.991809 
   98800    647.67314    -160.7486   0.58602826   -160.16257   -8089.5897    4.2564162    4.2564162    4.2564162   -8089.5897    -31056.05    17536.962   -10749.681   -7130.9534   -15996.341    3671.1673    77.113829 
   98900     458.5095   -160.57747   0.41486903   -160.16261    14201.376    4.2401228    4.2401228    4.2401228    14201.376    17756.738    40235.463   -15388.073    3951.5993   -16994.392    10151.588    76.231648 
   99000    1093.5748   -161.16264   0.98948945   -160.17315    13907.677    4.2458484    4.2458484    4.2458484    13907.677    23008.917    43097.147   -24383.034   -8934.8821   -3108.7078    4516.2648    76.540878 
   99100    1481.1659   -161.50291      1.34019   -160.16272   -23868.152    4.2584849    4.2584849    4.2584849   -23868.152   -24628.889   -30436.097   -16539.469    3039.8489   -1691.9404    13035.156    77.226318 
   99200    1210.2528   -161.24639    1.0950622   -160.15133   -9683.6885    4.2426147    4.2426147    4.2426147   -9683.6885   -790.61549   -41809.021    13548.571   -2043.2188    4597.2542    4127.9619    76.366127 
   99300    1337.1405    -161.3622    1.2098728   -160.15233   -9613.5868    4.2428892    4.2428892    4.2428892   -9613.5868    6474.9269   -10127.342   -25188.345   -13700.631    8307.2024   -1648.4687    76.380953 
   99400    1757.8737   -161.74869    1.5905611   -160.15813   -17744.678    4.2549943    4.2549943    4.2549943   -17744.678    -22830.94    10820.796    -41223.89    1031.5534    1331.7625   -407.20472    77.036572 
   99500    1275.6647   -161.31263    1.1542482   -160.15838    5375.6941    4.2513163    4.2513163    4.2513163    5375.6941   -19103.627    36442.791   -1212.0818   -11772.162   -2069.8133    -2622.625    76.836977 
   99600     623.9267   -160.72248   0.56454199   -160.15793    15328.439     4.248652     4.248652     4.248652    15328.439    2931.0643    53875.852   -10821.598    4454.4165   -16994.924    9292.5759    76.692602 
   99700    590.79512    -160.6962   0.53456384   -160.16164    16607.262    4.2531393    4.2531393    4.2531393    16607.262    6902.2879     91063.13   -48143.632    -5624.139   -17371.205     1365.123    76.935863 
   99800    1091.0229   -161.15173   0.98718043   -160.16455    18263.538    4.2504457    4.2504457    4.2504457    18263.538    6352.1799     84539.36   -36100.925    2894.4224   -13616.163   -4879.8359    76.789778 
   99900    732.16718    -160.8286   0.66248025   -160.16612    23340.997     4.249351     4.249351     4.249351    23340.997    6710.5696     66029.11   -2716.6897    6660.4616   -12425.602   -8012.0114    76.730463 
  100000    680.31358   -160.78255   0.61556202   -160.16699   -1038.0297    4.2550341    4.2550341    4.2550341   -1038.0297   -15121.804    27493.947   -15486.233    42.361414    3567.2301   -8888.6366    77.038732 
Loop time of 50.7525 on 1 procs for 100000 steps with 8 atoms

Pair  time (%) = 18.5281 (36.5068)
Kspce time (%) = 12.7888 (25.1984)
Neigh time (%) = 0 (0)
Comm  time (%) = 2.53274 (4.99037)
Outpt time (%) = 0.0933306 (0.183894)
Other time (%) = 16.8095 (33.1206)

Nlocal:    8 ave 8 max 8 min
Histogram: 1 0 0 0 0 0 0 0 0 0
Nghost:    2189 ave 2189 max 2189 min
Histogram: 1 0 0 0 0 0 0 0 0 0
Neighs:    2472 ave 2472 max 2472 min
Histogram: 1 0 0 0 0 0 0 0 0 0

Total # of neighbors = 2472
Ave neighs/atom = 309
Neighbor list builds = 0
Dangerous builds = 0
unfix 20
unfix 21
print "seeds:5574406"
seeds:5574406
