LAMMPS (10 Feb 2015)
# ---- initialize simulations
clear
units metal
dimension 3
boundary p p p
atom_style charge
atom_modify map array
# ---- create atoms
read_data /Users/eugeneragasa/pyflamestk_git/pypospack/tests/tests_integration/workflow/WorkflowLammpsThermalExpansion/param_2424/MgO_NaCl_unit.npt.T1400/lammps.structure
  triclinic box = (0 0 0) to (4.2565 4.2565 4.2565) with tilt (0 0 0)
  1 by 1 by 1 MPI processor grid
  reading atoms ...
  8 atoms
# ---- define interatomic potential
include potential.mod
mass 1 24.305
mass 2 15.999

group Mg type 1
4 atoms in group Mg
group O type 2
4 atoms in group O

set group Mg charge 1.67924051174
  4 settings made for charge
set group O charge -1.67924051174
  4 settings made for charge

variable R_cut equal 10.0

pair_style buck/coul/long ${R_cut}
pair_style buck/coul/long 10
pair_coeff 1 1 0.0 0.5 0.0 ${R_cut}
pair_coeff 1 1 0.0 0.5 0.0 10
pair_coeff 1 2 1306.98043044 0.288034123545 0.0 ${R_cut}
pair_coeff 1 2 1306.98043044 0.288034123545 0.0 10
pair_coeff 2 2 2032.48006166 0.252585756474 14.8401495582 ${R_cut}
pair_coeff 2 2 2032.48006166 0.252585756474 14.8401495582 10

kspace_style pppm 1.0e-5

neighbor 1.0 bin
neigh_modify every 1 delay 0 check yes
# ---- define settings
compute eng all pe/atom
compute eatoms all reduce sum c_eng
# ---- run minimization
reset_timestep 0
fix 1 all box/relax iso 0.0 vmax 0.001
thermo 10
thermo_style custom step pe lx ly lz xy xz yz press pxx pyy pzz pxy pxz pyz c_eatoms
min_style cg
minimize 1e-25 1e-25 5000 10000
PPPM initialization ...
  G vector (1/distance) = 0.352997
  grid = 8 8 8
  stencil order = 5
  estimated absolute RMS force accuracy = 4.02799e-05
  estimated relative force accuracy = 2.79728e-06
  using double precision FFTs
  3d grid and FFT values/proc = 3375 512
Neighbor list info ...
  1 neighbor list requests
  update every 1 steps, delay 0 steps, check yes
  master list distance cutoff = 11
Memory usage per processor = 4.06549 Mbytes
Step PotEng Lx Ly Lz Xy Xz Yz Press Pxx Pyy Pzz Pxy Pxz Pyz eatoms 
       0   -114.09861       4.2565       4.2565       4.2565            0            0            0    83013.551    83013.551    83013.551    83013.551 1.023811e-10 -6.100653e-11 -2.0427431e-10   -114.09861 
      10   -114.17745     4.299065     4.299065     4.299065            0            0            0    27173.213    27173.213    27173.213    27173.213 -1.7620305e-11 8.177727e-11 3.0587737e-11   -114.17745 
      19   -114.18814    4.3219883    4.3219883    4.3219883            0            0            0 -0.014642896 -0.014642896 -0.014642896 -0.014642896 -4.2788838e-11 1.5607732e-10 -4.5124802e-11   -114.18814 
Loop time of 0.00873303 on 1 procs for 19 steps with 8 atoms

Minimization stats:
  Stopping criterion = linesearch alpha is zero
  Energy initial, next-to-last, final = 
        -114.098610965     -114.188144107     -114.188144107
  Force two-norm initial, final = 11.9872 7.95763e-05
  Force max component initial, final = 11.9872 1.65313e-05
  Final line search alpha, max atom move = 0.5 8.26564e-06
  Iterations, force evaluations = 19 24

Pair  time (%) = 0.00233364 (26.722)
Kspce time (%) = 0.00135684 (15.5369)
Neigh time (%) = 0 (0)
Comm  time (%) = 0.000370979 (4.248)
Outpt time (%) = 1.19209e-05 (0.136504)
Other time (%) = 0.00465965 (53.3566)

Nlocal:    8 ave 8 max 8 min
Histogram: 1 0 0 0 0 0 0 0 0 0
Nghost:    2189 ave 2189 max 2189 min
Histogram: 1 0 0 0 0 0 0 0 0 0
Neighs:    2344 ave 2344 max 2344 min
Histogram: 1 0 0 0 0 0 0 0 0 0

Total # of neighbors = 2344
Ave neighs/atom = 293
Neighbor list builds = 0
Dangerous builds = 0
unfix 1
# ---- define output variables ----
variable natoms equal "count(all)"
variable tot_energy equal "c_eatoms"
variable length_x equal "lx"
variable length_y equal "ly"
variable length_z equal "lz"
variable tilt_xy equal "xy"
variable tilt_xz equal "xz"
variable tilt_yz equal "yz"
variable tot_press equal "press"
variable press_xx equal "pxx"
variable press_yy equal "pyy"
variable press_zz equal "pzz"
variable press_xy equal "pxy"
variable press_xz equal "pxz"
variable press_yz equal "pyz"

# ---- output ----
print "pypospack:output_section:begin"
pypospack:output_section:begin
print "tot_energy = ${tot_energy}"
tot_energy = -114.188144106894
print "num_atoms = ${natoms}"
num_atoms = 8
print "xx = ${length_x}"
xx = 4.32198834005221
print "yy = ${length_y}"
yy = 4.32198834005221
print "zz = ${length_z}"
zz = 4.32198834005221
print "xy = ${tilt_xy}"
xy = 0
print "xz = ${tilt_xz}"
xz = 0
print "yz = ${tilt_yz}"
yz = 0
print "tot_press = ${tot_press}"
tot_press = -0.0146428956780545
print "pxx = ${press_xx}"
pxx = -0.0146428956419126
print "pyy = ${press_yy}"
pyy = -0.0146428958165915
print "pzz = ${press_zz}"
pzz = -0.0146428955756593
print "pxy = ${press_xy}"
pxy = -4.27888380608005e-11
print "pxz = ${press_xz}"
pxz = 1.56077321107314e-10
print "pyz = ${press_yz}"
pyz = -4.51248020389503e-11
print "pypospack:output_section:done"
pypospack:output_section:done
print "pypospack:lammps_sim:done"
pypospack:lammps_sim:done
#------------------------------------------------------------------------------
# RUN THERMOSTAT
# running using an NPT Nose-Hoover style thermostat
#------------------------------------------------------------------------------
variable tempdamp equal 0.1
variable pressdamp equal 1.0
# set initial velocities
velocity all create 1400 6276362 mom yes dist gaussian loop all
# fix for Nose-Hoover style thermostat
fix 20 all npt temp 1400 1400 0.1 aniso 0.0 0.0 1.0 drag 1.0 couple xyz
variable boxx equal lx
variable boxy equal ly
variable boxz equal lz
variable boxp equal press
variable boxt equal temp
# calculate averages every 10000 steps
reset_timestep 0
fix 21 all ave/time 10 10 100 v_boxx v_boxy v_boxz v_boxp v_boxt file lattice.out
thermo_style custom step temp pe ke etotal press lx ly lz press pxx pyy pzz pxy pxz pyz vol
thermo_modify flush yes
thermo 100
run 100000
PPPM initialization ...
  G vector (1/distance) = 0.35233
  grid = 8 8 8
  stencil order = 5
  estimated absolute RMS force accuracy = 4.15437e-05
  estimated relative force accuracy = 2.88505e-06
  using double precision FFTs
  3d grid and FFT values/proc = 3375 512
Memory usage per processor = 3.06549 Mbytes
Step Temp PotEng KinEng TotEng Press Lx Ly Lz Press Pxx Pyy Pzz Pxy Pxz Pyz Volume 
       0         1400   -114.18815    1.2667494   -112.92141    16757.577    4.3219883    4.3219883    4.3219883    16757.577    5735.3625    21133.855    23403.514    4850.5493    5443.5126    7468.4882    80.732941 
     100    522.54889   -113.24735   0.47281322   -112.77453     17159.47     4.358401     4.358401     4.358401     17159.47   -12792.093    2789.0221    61481.479   -3675.2574   -1233.0092   -3757.0899    82.790701 
     200    1079.9578   -113.38665   0.97716853   -112.40948   -37907.273    4.3999249    4.3999249    4.3999249   -37907.273   -60376.126   -38581.283   -14764.409   -4764.4163   -2186.7199    20694.685    85.179639 
     300    1229.7516   -113.22417    1.1127051   -112.11146     -5605.73    4.3923871    4.3923871    4.3923871     -5605.73    -41241.73   -16223.415    40647.956   -3843.1328    1765.9699   -8492.5523     84.74261 
     400    1138.1265   -112.89672    1.0298008   -111.86692    45481.635      4.36622      4.36622      4.36622    45481.635   -5005.1786    69599.686    71850.398   -4782.0266    3434.5462    1016.6965    83.237079 
     500    1220.4046   -112.85159    1.1042478   -111.74734   -17678.405    4.3857694    4.3857694    4.3857694   -17678.405   -38170.185   -57907.204    43042.174   -2871.6456   -2252.1979    25980.155    84.360158 
     600    981.37232   -112.56691    0.8879663   -111.67894   -20447.413    4.4105462    4.4105462    4.4105462   -20447.413   -52612.683   -30627.523    21897.967   -2023.7016    573.73378    26812.768    85.797994 
     700    1354.3274   -112.86172    1.2254239    -111.6363   -3385.1289    4.4067318    4.4067318    4.4067318   -3385.1289   -63422.841    35375.199    17892.255    984.36712    8074.4289   -26439.183    85.575584 
     800    1409.7346   -112.91225    1.2755575   -111.63669  -0.39064026    4.3937639    4.3937639    4.3937639  -0.39064026   -41018.844   -5500.3444    46518.017    9570.0348     2459.505    3943.2474    84.822319 
     900    1991.0679   -113.46534    1.8015601   -111.66378    -8533.214    4.3920582    4.3920582    4.3920582    -8533.214    -44426.86   -8673.0558    27500.274   -8008.2204   -2358.9953    5999.0791     84.72357 
    1000    1817.7308   -113.33701     1.644721   -111.69229   -28729.493    4.4148446    4.4148446    4.4148446   -28729.493   -52954.026    4123.0823   -37357.537   -9902.4591    8892.6236   -12282.183    86.049085 
    1100    666.94135   -112.28412   0.60346255   -111.68066   -9726.7326    4.4094102    4.4094102    4.4094102   -9726.7326   -71963.027     34099.88    8682.9502    12910.756   -8067.5403    26156.122    85.731717 
    1200    1754.2618   -113.24522     1.587293   -111.65793   -2723.2906    4.3779501    4.3779501    4.3779501   -2723.2906   -44418.768    41565.061   -5316.1644   -928.74312   -3120.4718    2465.8774    83.909748 
    1300    1639.5999   -113.17301    1.4835444   -111.68946    -15061.11    4.3926777    4.3926777    4.3926777    -15061.11   -72049.968   -4050.1059    30916.744   -5354.0091   -1723.6264   -2544.7945     84.75943 
    1400     1639.395   -113.17019     1.483359   -111.68683    -42877.72    4.4080053    4.4080053    4.4080053    -42877.72   -39362.625   -28626.886   -60643.649     4393.009   -15752.961    20767.166    85.649796 
    1500    1213.3117   -112.77121    1.0978299   -111.67338    349.81232    4.3986012    4.3986012    4.3986012    349.81232   -24458.316    20542.014    4965.7393     176.4862   -2572.0638    18660.065    85.102781 
    1600    1122.0974   -112.67922    1.0152973   -111.66392     30414.25    4.3843281    4.3843281    4.3843281     30414.25   -52417.767    97986.432    45674.085   -5416.0119    11890.504    -26004.02    84.277017 
    1700    1452.8602   -112.99113    1.3145784   -111.67655    3784.4446    4.3844468    4.3844468    4.3844468    3784.4446   -15440.734    55366.546   -28572.478   -1468.9532   -477.20783    14010.803     84.28386 
    1800    1166.3186   -112.74556    1.0553096   -111.69025   -15293.398    4.4050432    4.4050432    4.4050432   -15293.398   -30923.776   -29819.372    14862.953    7712.3878    -14169.84    31956.243    85.477244 
    1900    1671.3167    -113.1732    1.5122424   -111.66095   -32874.553    4.4095272    4.4095272    4.4095272   -32874.553   -59459.989     8449.866   -47613.537    1518.5264   -7216.0007   -18200.941    85.738538 
    2000    832.96515    -112.4003   0.75368437   -111.64661    6670.0792    4.4057305    4.4057305    4.4057305    6670.0792   -52242.155    64650.986    7601.4066   -9877.1048     4550.677    13421.696    85.517259 
    2100    792.13196   -112.36641   0.71673765   -111.64967    18369.595    4.3938871    4.3938871    4.3938871    18369.595   -37743.043    93515.889   -664.06003   -5628.7859    15660.073   -2153.0653    84.829458 
    2200    1900.8421   -113.37233    1.7199219   -111.65241   -24870.956    4.3811226    4.3811226    4.3811226   -24870.956   -52304.431    9519.8097   -31828.247   -12620.053   -4242.2361     8937.033    84.092297 
    2300    1651.8809   -113.16574    1.4946566   -111.67108    6802.3979     4.387175     4.387175     4.387175    6802.3979   -35732.528   -26014.828     82154.55    2361.6953    2838.8503    9906.4023    84.441293 
    2400     1352.404   -112.91389    1.2236836   -111.69021   -7892.1464     4.401508     4.401508     4.401508   -7892.1464   -56438.062   -21655.254    54416.877   -29.894689    7825.7869    11654.937    85.271614 
    2500    1344.3763    -112.8887    1.2164199   -111.67228   -23185.591    4.3974761    4.3974761    4.3974761   -23185.591   -67166.423   -47906.786    45516.435   -3284.1193   -2004.1106   -2682.1505    85.037497 
    2600    1772.8105   -113.24365    1.6040762   -111.63957    25.614685    4.3781285    4.3781285    4.3781285    25.614685   -30348.781   -48725.829    79151.454    74.488903   -4292.9405    11011.018     83.92001 
    2700    1390.5427   -112.91288    1.2581923   -111.65468   -5450.3717    4.3847864    4.3847864    4.3847864   -5450.3717   -15442.853   -41797.691    40889.429    4316.3036     2748.816    9266.8119    84.303447 
    2800    1376.5977   -112.89911    1.2455745   -111.65353   -2951.5021    4.3983568    4.3983568    4.3983568   -2951.5021   -56135.689   -40958.428    88239.611      2529.12    10084.266   -3316.2876    85.088601 
    2900    1496.6698   -112.99476    1.3542183   -111.64055    2692.5661    4.3927628    4.3927628    4.3927628    2692.5661   -44130.024    -3428.289    55636.011   -309.95298   -1434.2215    19664.741    84.764353 
    3000    1269.3429   -112.78497    1.1485281   -111.63644   -6104.5867    4.3756765    4.3756765    4.3756765   -6104.5867   -28012.309    -27186.05    36884.599   -6182.6226   -8248.3336    26018.901    83.779087 
    3100    1287.5112   -112.82392    1.1649672   -111.65895     5718.628    4.3833638    4.3833638    4.3833638     5718.628   -51262.265    2527.3982     65890.75   -503.52126    16433.732   -5433.3068    84.221421 
    3200     1547.618   -113.05242    1.4003173    -111.6521   -10688.929    4.4060685    4.4060685    4.4060685   -10688.929    -44566.75   -20909.387    33409.349    661.61472    4470.1924    6441.4882    85.536945 
    3300    1288.8928   -112.81236    1.1662173   -111.64614   -34148.099    4.3908421    4.3908421    4.3908421   -34148.099   -42823.612   -75585.982    15965.297   -17309.328   -745.33508    11246.235    84.653218 
    3400    961.79667   -112.49385   0.87025384    -111.6236    11216.269     4.359327     4.359327     4.359327    11216.269   -8435.8728   -26703.467    68788.147   -7088.3436   -2469.1989    5559.5261    82.843484 
    3500     1520.809   -113.02764    1.3760599   -111.65158      18567.3    4.3747457    4.3747457    4.3747457      18567.3   -17807.188   -33158.901    106667.99     3363.907   -4055.4653   -6777.5969    83.725631 
    3600     1192.755   -112.73361    1.0792298   -111.65438   -50053.147    4.4138373    4.4138373    4.4138373   -50053.147     -66139.9   -96209.477    12189.935    505.22496   -10219.015    27889.329    85.990199 
    3700    1358.5384   -112.85207    1.2292341   -111.62283   -924.97591    4.3924208    4.3924208    4.3924208   -924.97591   -51353.532   -9923.4853    58502.089      12651.1    4476.8703   -4593.8372     84.74456 
    3800     1706.058   -113.15619    1.5436771   -111.61251     24163.94    4.3627742    4.3627742    4.3627742     24163.94   -18348.086   -252.00346     91091.91   -5681.3865      409.628    12226.995    83.040166 
    3900     1409.179   -112.92396    1.2750548    -111.6489    8994.7879    4.3634719    4.3634719    4.3634719    8994.7879   -18061.355   -21118.806    66164.525     1610.403    2252.1864    11370.261    83.080013 
    4000    1788.6573   -113.29394    1.6184147   -111.67553   -15967.583    4.3965893    4.3965893    4.3965893   -15967.583   -40706.389   -9676.1464    2479.7876    6144.5209    722.68571    23935.566    84.986062 
    4100    1371.5891   -112.88276    1.2410427   -111.64172    -17065.82    4.4027374    4.4027374    4.4027374    -17065.82   -76334.715   -41704.606    66841.862   -14356.145   -13118.575   -3575.1496    85.343088 
    4200    867.57571   -112.41736   0.78500073   -111.63236     20024.33    4.3614201    4.3614201    4.3614201     20024.33   -17595.665   -33025.084    110693.74    2655.6946    -6712.481   -140.19273    82.962868 
    4300    1761.9822   -113.21943    1.5942786   -111.62515   -14645.346    4.3568593    4.3568593    4.3568593   -14645.346    -11804.69   -34214.468    2083.1209     2084.056    3448.5781    35136.648    82.702873 
    4400    1222.5229   -112.75154    1.1061644   -111.64537   -1202.7705    4.3869324    4.3869324    4.3869324   -1202.7705   -34884.917   -13021.868    44298.474   -9699.4938   -2764.7219   -15267.745    84.427286 
    4500    984.88114   -112.52338   0.89114116   -111.63224    -12211.87    4.4029254    4.4029254    4.4029254    -12211.87   -48079.763   -9906.7548    21350.909    2109.0321    2417.1194     14554.37    85.354018 
    4600     1365.829   -112.85545    1.2358308   -111.61962    3783.4095    4.3793413    4.3793413    4.3793413    3783.4095   -11502.641   -29394.009    52246.878   -6291.1802     858.3933    20762.555    83.989767 
    4700    1448.8593   -112.92101    1.3109583   -111.61005     16813.68    4.3550406    4.3550406    4.3550406     16813.68   -16241.063    13362.254     53319.85    1556.6414    1823.5206   -21028.511    82.599351 
    4800     1318.111   -112.84614    1.1926545   -111.65348   -32926.595    4.3858954    4.3858954    4.3858954   -32926.595   -46115.173   -31854.788   -20809.825   -5559.8525   -1332.8474    6136.1417    84.367426 
    4900     1550.931   -113.02579     1.403315   -111.62247   -15984.069    4.4062429    4.4062429    4.4062429   -15984.069   -43585.377    5309.6329   -9676.4621   -1951.4728   -3892.3338   -2973.7696    85.547103 
    5000    1578.7589   -113.02815    1.4284942   -111.59966    3038.6882    4.3841731    4.3841731    4.3841731    3038.6882   -47710.206    -2361.412    59187.682    6403.2658    -3179.584    10400.819    84.268074 
    5100    1085.5883   -112.58849   0.98226313   -111.60622    24574.547    4.3654904    4.3654904    4.3654904    24574.547   -13131.078    31286.986    55567.734    10430.684   -8277.2903    12107.958    83.195361 
    5200    1525.8623   -113.00553    1.3806323    -111.6249    14761.334     4.373145     4.373145     4.373145    14761.334   -9921.4508    8163.9723     46041.48    1645.0499   -1618.2932    19641.233    83.633762 
    5300    1180.1314   -112.69843    1.0678077   -111.63063   -20910.451    4.4043612    4.4043612    4.4043612   -20910.451   -62115.829   -63990.028    63374.504    -6187.497    4658.4973    -2071.247     85.43755 
    5400    1122.0463   -112.63605     1.015251    -111.6208   -34690.111    4.3930639    4.3930639    4.3930639   -34690.111   -42478.882    -52270.59   -9320.8604   -1728.9796   -2528.6253    13219.046    84.781788 
    5500     1610.896   -113.04943    1.4575726   -111.59186    33530.319    4.3437491    4.3437491    4.3437491    33530.319    4386.0995    62657.407     33547.45   -964.29369   -4856.5215    24163.236    81.958536 
    5600    1473.6386   -112.98311    1.3333792   -111.64973     18415.67    4.3643063    4.3643063    4.3643063     18415.67   -17508.236    20469.048    52286.197    12001.535   -3297.2828   -21801.825    83.127681 
    5700    1119.2931   -112.65004    1.0127599   -111.63728   -32243.925    4.4142628    4.4142628    4.4142628   -32243.925   -45190.075   -4467.3295   -47074.369    2000.1803   -5063.4699     3689.499    86.015074 
    5800    1514.2377   -112.97511    1.3701141   -111.60499   -26752.022    4.3936648    4.3936648    4.3936648   -26752.022    -32994.75   -30239.864   -17021.452   -2442.5189   -1591.1577    20448.336    84.816583 
    5900    1217.5352   -112.68905    1.1016514    -111.5874    55302.927    4.3438337    4.3438337    4.3438337    55302.927   -14400.915    63329.173    116980.52    13744.451    3010.2652   -27105.772    81.963324 
    6000    1789.4788   -113.26302     1.619158   -111.64386    9250.8756    4.3610532    4.3610532    4.3610532    9250.8756   -26062.871   -309.68602    54125.184   -14004.059   -2502.9855    16817.635    82.941934 
    6100    1362.2345   -112.89613    1.2325784   -111.66355   -28113.772    4.4112661    4.4112661    4.4112661   -28113.772   -53007.139    -17544.44   -13789.736   -5914.5727   -4278.3187    22859.347    85.840011 
    6200    1660.8287   -113.11547    1.5027527   -111.61272   -53101.245    4.4110064    4.4110064    4.4110064   -53101.245   -71833.961    -63912.76   -23557.012    11440.482    1684.2254    2420.2642    85.824854 
    6300     1439.952   -112.88387    1.3028988   -111.58097     18284.91    4.3591868    4.3591868    4.3591868     18284.91   -29101.355   -9157.7387    93113.823   -7002.2326    1807.3281    10128.085    82.835488 
    6400    1237.5814   -112.72628    1.1197897   -111.60649    17306.545    4.3508991    4.3508991    4.3508991    17306.545    3522.9754    30723.475    17673.186    4090.9474    1901.4409    31260.904    82.363927 
    6500    1166.3213   -112.71212     1.055312   -111.65681   -19089.496    4.4012835    4.4012835    4.4012835   -19089.496   -63412.593   -26456.822    32600.928    20157.488   -3064.8202    -12588.83    85.258569 
    6600    1561.4683   -113.02511    1.4128493   -111.61226    -32429.17    4.4135554    4.4135554    4.4135554    -32429.17   -53626.809   -32129.536   -11531.167     3501.033   -223.72754    2281.6825    85.973724 
    6700    928.46063     -112.429   0.84009069    -111.5889    35519.797    4.3625282    4.3625282    4.3625282    35519.797    16884.648    20351.548    69323.196    9805.0403    9885.4127    3889.2213    83.026118 
    6800    1086.8991   -112.59604   0.98344911   -111.61259    24218.999    4.3532723    4.3532723    4.3532723    24218.999    649.37465    36411.308    35596.315   -1239.6918   -142.55904     2840.044    82.498777 
    6900    1806.6807   -113.26613    1.6347226   -111.63141   -9702.5266    4.3852693    4.3852693    4.3852693   -9702.5266   -64770.459    34020.064    1642.8153   -6128.0799   -9323.9551   -8640.1561      84.3313 
    7000    1326.7374   -112.83086    1.2004599    -111.6304   -15341.405     4.402483     4.402483     4.402483   -15341.405   -52632.884   -3941.5932    10550.263    12428.767    3671.8603    4894.3019    85.328296 
    7100    1224.5042   -112.72738    1.1079572   -111.61942   -18621.275    4.3814484    4.3814484    4.3814484   -18621.275   -52898.642   -24659.604    21694.422     7243.846    -2222.338   -12218.369    84.111057 
    7200    1657.7534   -113.09307    1.4999701    -111.5931    42594.245    4.3466342    4.3466342    4.3466342    42594.245   -17380.997    44245.171    100918.56   -6530.8839   -12216.504   -19369.959    82.121954 
    7300    1249.3201   -112.77367    1.1304111   -111.64326   -26605.182    4.3780174    4.3780174    4.3780174   -26605.182   -29381.329   -26705.246   -23728.972     7440.715    6499.1013    5153.2388    83.913621 
    7400    831.06022   -112.37793   0.75196075   -111.62597   -43393.127    4.3960352    4.3960352    4.3960352   -43393.127   -43964.471   -54761.256   -31453.654    17111.083   -3299.7195   -7624.8517    84.953933 
    7500    1705.6146   -113.13692     1.543276   -111.59364    25220.975    4.3671457    4.3671457    4.3671457    25220.975   -10019.546    41214.117    44468.353   -1656.1622   -3633.8279    4419.1638    83.290033 
    7600    1074.1864   -112.58682   0.97194645   -111.61488   -17565.945    4.3705257    4.3705257    4.3705257   -17565.945   -35658.687   -45148.341    28109.192   -5959.3447    23652.126    1819.6055    83.483577 
    7700    937.08026   -112.47411   0.84788991   -111.62622    -20074.47    4.3654399    4.3654399    4.3654399    -20074.47   -33458.758   -47270.339    20505.686     19718.42    3630.6263    4055.1124    83.192474 
    7800    1907.0734   -113.35388    1.7255601   -111.62832    1328.2528    4.3701696    4.3701696    4.3701696    1328.2528    -24199.17   -9803.3191    37987.248   -7203.3579    -631.4083   -5375.4713    83.463168 
    7900    1123.7253    -112.6514    1.0167702   -111.63463   -1528.1306    4.3883976    4.3883976    4.3883976   -1528.1306   -65403.945    13872.783     46946.77   -10117.055    13366.671    9423.3103    84.511908 
    8000    1640.4662    -113.1043    1.4843283   -111.61997    -1683.236    4.3728178    4.3728178    4.3728178    -1683.236   -21489.219   -15142.693    31582.203     7471.308    -5540.373    3150.6203     83.61499 
    8100    1598.6366   -113.06767      1.44648   -111.62119    29627.906    4.3687682    4.3687682    4.3687682    29627.906   -18818.603    33905.149    73797.173   -1333.5273   -7636.4927   -13721.662    83.382903 
    8200    1722.4779   -113.18288    1.5585342   -111.62435   -9883.0815    4.3727684    4.3727684    4.3727684   -9883.0815   -32444.431   -8557.3973    11352.583   -28190.586    2781.8211    9770.2775    83.612154 
    8300    1337.3854   -112.83276    1.2100944   -111.62267     24461.36    4.3705028    4.3705028    4.3705028     24461.36     21130.61    3081.1943    49172.276    3373.1211   -2182.0245    28431.861    83.482261 
    8400    1857.6877   -113.29884    1.6808748   -111.61797   -20924.915    4.3903145    4.3903145    4.3903145   -20924.915   -25091.053   -24443.586   -13240.105   -1992.3506    1385.7469   -4127.5914    84.622701 
    8500    1052.5658   -112.55849   0.95238361   -111.60611    3852.7335    4.3851632    4.3851632    4.3851632    3852.7335   -15643.969    10139.541    17062.629   -33925.474    7149.1659   -8907.3312    84.325182 
    8600    1494.1757   -112.93659    1.3519616   -111.58463    30072.408     4.362334     4.362334     4.362334    30072.408    40544.349    22360.167    27312.708    21440.918    -2920.249    19003.972    83.015033 
    8700    1520.4429   -112.98248    1.3757287   -111.60675   -19520.885    4.3745631    4.3745631    4.3745631   -19520.885   -26129.662   -29713.025   -2719.9695   -13616.933   -5186.7973    6396.3924    83.715149 
    8800    912.41083   -112.44595    0.8255685   -111.62038    -26172.31    4.3862115    4.3862115    4.3862115    -26172.31   -52151.767   -35687.215    9322.0521   -51375.655   -1574.2394   -887.15389    84.385673 
    8900    1544.2322   -113.00115    1.3972538    -111.6039    19042.136     4.376155     4.376155     4.376155    19042.136    47939.327   -8930.9527    18118.035    7167.6617      1452.43     14640.64    83.806576 
    9000    1387.2476   -112.86398    1.2552108   -111.60877   -2621.1124    4.3832208    4.3832208    4.3832208   -2621.1124   -29263.115     4419.204    16980.574   -22839.928   -9383.0492   -2566.2834    84.213175 
    9100    1003.1265   -112.51982   0.90764997   -111.61217   -11845.621    4.3868389    4.3868389    4.3868389   -11845.621   -37686.834    3005.6332   -855.66133   -26564.663    -4094.876    12068.126    84.421888 
    9200    1779.1834   -113.21065    1.6098425    -111.6008    9442.1949    4.3807623    4.3807623    4.3807623    9442.1949    16138.688    19402.267   -7214.3707    4173.0362   -8466.8697    19969.611    84.071554 
    9300     1442.778   -112.91533    1.3054559   -111.60987    12653.248    4.3759373    4.3759373    4.3759373    12653.248    35568.019   -5396.2427    7787.9673   -16465.748   -10198.083   -8795.1149    83.794067 
    9400    1248.7445   -112.75153    1.1298903   -111.62164   -10541.911     4.370315     4.370315     4.370315   -10541.911   -31580.547    611.13966   -656.32669   -11877.467    17866.303    10027.212    83.471503 
    9500    1593.7341   -113.06656    1.4420441   -111.62452   -7511.3705    4.3781245    4.3781245    4.3781245   -7511.3705     13469.81   -24467.557   -11536.365    508.03234   -2929.7001    9363.0056    83.919776 
    9600    1842.9696   -113.28024    1.6675577   -111.61268   -25464.188    4.3909007    4.3909007    4.3909007   -25464.188   -27226.689   -38238.156   -10927.719   -10089.594   -12723.587   -10727.636    84.656605 
    9700    1307.1479   -112.79413    1.1827349    -111.6114   -15429.625    4.3895464    4.3895464    4.3895464   -15429.625   -20899.056   -21903.549   -3486.2708   -27137.281     8355.205    6497.9606    84.578294 
    9800    1528.6702     -112.982    1.3831729   -111.59883   -1577.4636    4.3671182    4.3671182    4.3671182   -1577.4636    22739.946    10087.225   -37559.562    12901.557   -9792.8522    6343.3379    83.288464 
    9900    1354.4802   -112.84032    1.2255622   -111.61475   -2712.8597    4.3762009    4.3762009    4.3762009   -2712.8597    18314.132    -16053.67   -10399.041   -10924.723   -4466.1882   -17684.485    83.809213 
   10000    862.22295   -112.39066   0.78015745    -111.6105   -36972.488    4.4010881    4.4010881    4.4010881   -36972.488   -49296.743   -61564.248   -56.473534   -23037.423    12137.546     4955.962    85.247211 
   10100    1341.7016   -112.80676    1.2139998   -111.59276   -1525.6617    4.3735406    4.3735406    4.3735406   -1525.6617    3118.6574     7863.218    -15558.86     16329.27    24.584986    13487.608    83.656459 
   10200    1457.9914   -112.92275    1.3192213   -111.60353    15610.765    4.3665686    4.3665686    4.3665686    15610.765    35604.565   -13811.393    25039.124   -17992.469    6832.5396   -13896.296    83.257018 
   10300    1239.7696    -112.7394    1.1217696   -111.61763    13234.329    4.3882057    4.3882057    4.3882057    13234.329    23554.877   -295.36755    16443.477   -13347.578    7597.8835    -6229.132     84.50082 
   10400    1539.5663   -112.99391    1.3930319   -111.60087    13168.608    4.3915278    4.3915278    4.3915278    13168.608    28849.998     43054.31   -32398.483     11248.89   -99.480216     9676.615    84.692881 
   10500     1488.204   -112.94648    1.3465583   -111.59992   -14869.127    4.3882173    4.3882173    4.3882173   -14869.127   -5445.7964   -13024.206   -26137.379   -13597.476    799.37133    10599.542    84.501494 
   10600    1316.2528   -112.79472    1.1909732   -111.60375    10577.657    4.3714295    4.3714295    4.3714295    10577.657   -28994.741    84793.004   -24065.291   -8528.2364    8778.5391   -6206.8761    83.535377 
   10700    1712.6715    -113.1677    1.5496612   -111.61804    5538.1014    4.3616589    4.3616589    4.3616589    5538.1014    38379.916      17829.9   -39595.512    3121.7279   -6926.0473    10701.881    82.976499 
   10800    1107.7284   -112.65102    1.0022959   -111.64872     -24977.6    4.3871005    4.3871005    4.3871005     -24977.6   -16735.554   -12296.497    -45900.75   -915.55379   -8885.0333   -3990.5808    84.436992 
   10900    766.63985   -112.31685   0.69367185   -111.62317   -16368.576    4.3953094    4.3953094    4.3953094   -16368.576   -51436.099    12574.451   -10244.081   -7551.5615   -3213.7488    -17543.22    84.911862 
   11000    1677.5823   -113.11754    1.5179118   -111.59963    16717.597    4.3586814    4.3586814    4.3586814    16717.597     33581.45    12086.914    4484.4276    2198.8438    4512.8286    3025.7412     82.80668 
   11100    1099.7208   -112.61257   0.99505054   -111.61752    42075.186     4.352684     4.352684     4.352684    42075.186    8137.4303    99888.495    18199.632   -6451.0834   -4572.4545   -7269.6273    82.465333 
   11200    1168.2294   -112.70621    1.0570385   -111.64917   -37570.344     4.397543     4.397543     4.397543   -37570.344   -45306.375   -44553.147    -22851.51   -34469.883    2876.5269   -5524.2742    85.041375 
   11300    1840.2039   -113.27372    1.6650552   -111.60867   -23369.582    4.3981228    4.3981228    4.3981228   -23369.582   -25368.199   -12737.854   -32002.693   -15591.937     8275.226    1079.4436    85.075019 
   11400     1868.385   -113.27391     1.690554   -111.58336    8182.6256    4.3649967    4.3649967    4.3649967    8182.6256    5606.2859     27399.12    -8457.529   -14931.259   -13933.248   -13132.152     83.16714 
   11500    1233.3008   -112.72391    1.1159165     -111.608   -5783.2604    4.3721163    4.3721163    4.3721163   -5783.2604   -753.84754    748.08635    -17344.02   -22183.131    6147.3125   -16360.291    83.574758 
   11600    1658.1649   -113.11047    1.5003424   -111.61013   -6873.1198    4.3891743    4.3891743    4.3891743   -6873.1198   -22344.167    15636.557    -13911.75    2916.7833    8257.8373   -3417.0639    84.556791 
   11700    1400.5449   -112.87762    1.2672424   -111.61038      11412.7    4.3804153    4.3804153    4.3804153      11412.7    29392.956    10554.925   -5709.7802   -6075.3588   -4412.0665    9884.9143    84.051574 
   11800    1109.2568   -112.62178    1.0036788    -111.6181   -12342.553    4.3680998    4.3680998    4.3680998   -12342.553   -5523.6142    15120.677   -46624.721   -16783.998    15541.915   -4686.9164    83.344635 
   11900     1454.719   -112.93684    1.3162604   -111.62058   -6848.6983     4.373624     4.373624     4.373624   -6848.6983   -22026.056    12960.451    -11480.49     6977.013    9415.3891   -5630.5628    83.661245 
   12000     1393.456   -112.88283    1.2608283     -111.622   -6305.5678    4.3906897    4.3906897    4.3906897   -6305.5678    479.15659   -16455.474   -2940.3863     -4881.34   -6916.7125    7550.3347    84.644402 
   12100    1636.1595    -113.0818    1.4804315   -111.60136   -40773.221    4.3917689    4.3917689    4.3917689   -40773.221   -21451.246   -37381.412   -63487.005    -4870.192    12083.833   -10234.218    84.706833 
   12200    1557.7069   -113.00068     1.409446   -111.59124    16082.147    4.3669944    4.3669944    4.3669944    16082.147    46592.756    1114.9128    538.77373     8247.589    25912.795    -1512.794     83.28138 
   12300    1976.7098   -113.39211    1.7885686   -111.60354   -2000.4913    4.3682018    4.3682018    4.3682018   -2000.4913   -19928.948    -21998.78    35926.254   -7681.4232    -9371.488    7689.0217    83.350477 
   12400    1241.8632   -112.74745    1.1236639   -111.62379   -26388.852    4.3823111    4.3823111    4.3823111   -26388.852   -7389.1083   -32117.862   -39659.586   -14135.017     8342.002   -7908.3895    84.160756 
   12500    1400.2127   -112.87892    1.2669419   -111.61198   -4614.7273    4.3754472    4.3754472    4.3754472   -4614.7273    838.91007    910.88267   -15593.975   -1694.7668    19802.439    3430.0281    83.765917 
   12600    1553.2712   -113.01204    1.4054324   -111.60661   -11044.792    4.3898283    4.3898283    4.3898283   -11044.792   -6213.9327    -39030.42    12109.976   -2011.3206   -5850.9611    5536.7905    84.594595 
   12700    978.12781   -112.49938    0.8850306   -111.61435   -23195.928    4.3804322    4.3804322    4.3804322   -23195.928    2088.9234     -23984.8   -47691.908   -3985.1315    15748.062    -24771.63    84.052549 
   12800    991.61027   -112.50736   0.89722981   -111.61013    36696.177    4.3549292    4.3549292    4.3549292    36696.177    79463.306    30619.914    5.3103776    6366.3492    29720.219   -10249.931    82.593008 
   12900    1954.5297   -113.38398    1.7684995   -111.61549    7182.6349     4.380492     4.380492     4.380492    7182.6349     16137.81    10300.998   -4890.9031   -2056.3645    -8583.934    1358.2232     84.05599 
   13000    1507.0596   -112.98201    1.3636192    -111.6184   -28246.346    4.3854696    4.3854696    4.3854696   -28246.346   -10253.016    4754.3066   -79240.329   -4480.2116    23537.003   -9553.8247    84.342857 
   13100    1232.4408   -112.73553    1.1151384   -111.62039    10534.844    4.3619259    4.3619259    4.3619259    10534.844    15713.592    38690.204   -22799.264   -4093.1328     26184.68   -3092.9831    82.991735 
   13200    1972.7177   -113.40676    1.7849564    -111.6218    2241.7333    4.3659319    4.3659319    4.3659319    2241.7333     1626.081    6174.1701   -1075.0513    3752.9047   -18961.711    1042.0434    83.220606 
   13300    1459.5597   -112.95097    1.3206403   -111.63033   -8043.4264     4.376961     4.376961     4.376961   -8043.4264     7424.955    1198.1553   -32753.389   -1450.2482    25419.655   -4843.8245     83.85289 
   13400    686.63918   -112.25328   0.62128556   -111.63199   -6737.7727    4.3860528    4.3860528    4.3860528   -6737.7727    6951.9387   -22512.467   -4652.7895   -9443.7878    12684.881   -16645.229    84.376514 
   13500    1592.3413   -113.05355    1.4407839   -111.61277   -13685.058    4.3796817    4.3796817    4.3796817   -13685.058   -16364.921    -5831.242   -18859.011    9259.5344   -20998.621   -1525.3438    84.009356 
   13600    1640.2708   -113.09399    1.4841515   -111.60984    30951.229    4.3489657    4.3489657    4.3489657    30951.229    18355.308    70218.897    4279.4812    -8120.649    13383.506    6978.1776    82.254172 
   13700    735.15535   -112.31089   0.66518401    -111.6457    29924.365    4.3590814    4.3590814    4.3590814    29924.365    45644.173    15583.736    28545.187   -6081.5159    13718.203   -36254.707    82.829478 
   13800    1740.7331    -113.2076    1.5750519   -111.63255   -22713.054    4.3960851    4.3960851    4.3960851   -22713.054   -5489.6149   -20713.106   -41936.442   -13791.432   -3382.4878    1678.8207    84.956825 
   13900    1653.1803   -113.10914    1.4958323   -111.61331     14814.68    4.3806815    4.3806815    4.3806815     14814.68   -11210.922    47987.181    7667.7803     13275.25    19299.928    17104.315    84.066899 
   14000    1133.8999   -112.63478    1.0259764    -111.6088    21324.855    4.3556956    4.3556956    4.3556956    21324.855   -1079.4655    33407.126    31646.905   -13967.027    2244.5108   -42516.117    82.636622 
   14100    1748.5391   -113.20816    1.5821149   -111.62605   -8579.8312    4.3685212    4.3685212    4.3685212   -8579.8312   -24203.047    5657.7429   -7194.1897     -5541.94   -2945.1461   -8088.7993    83.368761 
   14200    1565.7397   -113.04064    1.4167142   -111.62393     13038.21    4.3785193    4.3785193    4.3785193     13038.21    60.059604    9557.5627    29497.009    14659.395    14658.748    5263.1752     83.94248 
   14300    536.81058   -112.11721    0.4857175   -111.63149    12100.171    4.3894036    4.3894036    4.3894036    12100.171    21859.665    39018.844   -24577.995   -16945.749    9280.1415   -24691.342    84.570042 
   14400    1698.5356   -113.14952    1.5368707   -111.61265   -15647.789    4.3790194    4.3790194    4.3790194   -15647.789   -34640.241      5476.54   -17779.667   -1915.7654    2955.4261   -8909.1699    83.971246 
   14500     1517.716   -112.98553    1.3732613   -111.61227    27829.968    4.3562364    4.3562364    4.3562364    27829.968     23422.21    50543.576    9524.1191    8485.5826    8877.9879    1607.5114    82.667409 
   14600    1047.7253   -112.59059   0.94800385   -111.64259   -14963.476    4.3843839    4.3843839    4.3843839   -14963.476    21811.806   -28222.798   -38479.436    6176.6364    11544.219   -43361.213    84.280232 
   14700    1709.6212   -113.15953    1.5469012   -111.61263   -13257.619    4.3844719    4.3844719    4.3844719   -13257.619   -1803.4579   -16224.118   -21745.281    -5090.121    1401.8682   -3502.6448    84.285308 
   14800    1673.4335   -113.11377    1.5141578   -111.59961    17986.841    4.3573942    4.3573942    4.3573942    17986.841    43291.151    18633.617   -7964.2464   -14554.984    11323.594   -5129.0793    82.733338 
   14900    1163.4788   -112.68556    1.0527401   -111.63282   -3892.1067    4.3776258    4.3776258    4.3776258   -3892.1067    34842.957     4311.475   -50830.753     3890.805    15527.118   -37242.838    83.891105 
   15000    1741.8666   -113.19028    1.5760775   -111.61421   -4294.2724    4.3842488    4.3842488    4.3842488   -4294.2724    11131.647   -2102.0098   -21912.454     3577.861     -4427.85    -9618.067     84.27244 
   15100    1184.0236   -112.68418    1.0713294   -111.61285    10654.723    4.3763823    4.3763823    4.3763823    10654.723    6094.2648    45626.731   -19756.828   -11347.806    24968.236    4021.5492    83.819634 
   15200    1383.7447   -112.87158    1.2520413   -111.61953   -9082.2593     4.380781     4.380781     4.380781   -9082.2593   -14954.382    17324.127   -29616.524   -20808.454    12636.475    -14107.19    84.072629 
   15300    1445.3373   -112.92077    1.3077715     -111.613    24980.413    4.3770832    4.3770832    4.3770832    24980.413    48023.411    43807.495   -16889.666   -13988.523   -4609.8403   -3925.9238    83.859913 
   15400    976.89483   -112.51122   0.88391497   -111.62731   -1752.2442    4.3877613    4.3877613    4.3877613   -1752.2442   -30797.659    71344.674   -45803.747    12307.513    24988.647   -14214.427    84.475153 
   15500    1513.6005   -112.98282    1.3695376   -111.61328   -3995.2728    4.3839634    4.3839634    4.3839634   -3995.2728   -7830.5269    10564.429   -14719.721   -4855.0879    5930.3759   -7991.0466    84.255983 
   15600    1569.5232   -113.02819    1.4201375   -111.60806    6790.7622    4.3735078    4.3735078    4.3735078    6790.7622   -3284.3524    20124.023    3532.6158   -1040.2913    -6174.727   -2946.1665    83.654576 
   15700    1409.6184   -112.89782    1.2754524   -111.62237   -45030.737    4.3843669    4.3843669    4.3843669   -45030.737   -50219.422   -16244.028   -68628.762    14089.604    28900.384   -9900.7975    84.279251 
   15800     1992.486   -113.41448    1.8028432   -111.61164    -12826.43    4.3848376    4.3848376    4.3848376    -12826.43    6656.5475    926.85838   -46062.695    23239.161   -8318.5913   -8027.6014    84.306398 
   15900    1408.6282   -112.88508    1.2745564   -111.61052   -13726.681    4.3858788    4.3858788    4.3858788   -13726.681   -32929.536    7666.8504   -15917.357    1064.5359    7503.5814    772.95366    84.366469 
   16000    1368.7244   -112.84189    1.2384506   -111.60344    4243.1974    4.3782806    4.3782806    4.3782806    4243.1974   -10188.177    45622.024   -22704.255    5154.4976    9701.6044   -11580.033    83.928754 
   16100    1734.9671   -113.17986    1.5698347   -111.61003    11834.722    4.3848669    4.3848669    4.3848669    11834.722    -531.2967    43379.001    -7343.537    5538.2254   -9474.1546   -2736.8341    84.308087 
   16200    1407.2308   -112.89097     1.273292   -111.61767   -15879.928    4.3794058    4.3794058    4.3794058   -15879.928   -50581.728    1933.1374    1008.8077   -669.64707    9637.4673    4516.7579    83.993478 
   16300    1032.4837   -112.54732   0.93421293   -111.61311    45949.624    4.3698092    4.3698092    4.3698092    45949.624    24357.499     104226.3     9265.068    4109.4824    15381.547   -17643.069    83.442524 
   16400    1636.4186   -113.09228     1.480666   -111.61162   -25411.501    4.3940761    4.3940761    4.3940761   -25411.501   -30848.325   -5391.4867   -39994.693    -3094.819    4420.9828    19787.775    84.840401 
   16500    903.18208   -112.42667   0.81721812   -111.60946    13504.648    4.3773886    4.3773886    4.3773886    13504.648    -11103.32    67813.801   -16196.537    7749.0327    19175.561    11801.782     83.87747 
   16600     1771.658    -113.2057    1.6030334   -111.60266    31480.687    4.3609196    4.3609196    4.3609196    31480.687    34842.362     41494.03    18105.669   -16865.726    9380.5536   -14245.825    82.934311 
   16700    1472.3427    -112.9637    1.3322066    -111.6315   -16331.674    4.3898347    4.3898347    4.3898347   -16331.674   -11897.094   -23.777532   -37074.149   -925.64271    2598.6994   -1010.5436    84.594963 
   16800    1042.5366   -112.56057   0.94330904   -111.61726   -14097.627    4.3930892    4.3930892    4.3930892   -14097.627   -47499.808    37846.696   -32639.769    1111.8505    27299.782    10123.181    84.783248 
   16900    2009.7748   -113.41277    1.8184864   -111.59429    15539.725    4.3610541    4.3610541    4.3610541    15539.725   -15465.301    35140.467    26944.009    20728.406   -4797.3011   -22454.955    82.941986 
   17000    1322.6254   -112.81698    1.1967392   -111.62024    27808.261    4.3688213    4.3688213    4.3688213    27808.261   -15764.747     74668.74     24520.79   -19820.624    15950.287    1642.1495    83.385941 
   17100    733.12103   -112.28949   0.66334331   -111.62615   -41831.757    4.4051173    4.4051173    4.4051173   -41831.757   -93851.072   -14015.913   -17628.285    13914.016    38394.252    8873.1457    85.481561 
   17200    1331.2728   -112.79795    1.2045636   -111.59338   -3939.8446     4.383253     4.383253     4.383253   -3939.8446   -48518.024    10890.728    25807.762    24053.719    5963.4802   -9018.7443    84.215033 
   17300    1383.0601   -112.83005    1.2514218   -111.57863    37599.609    4.3614697    4.3614697    4.3614697    37599.609    17334.768    58728.257    36735.801   -13939.199    13958.569   -7294.9958    82.965701 
   17400    1076.0934   -112.58894   0.97367194   -111.61527   -39445.832      4.39321      4.39321      4.39321   -39445.832   -48221.781   -46311.756   -23803.959    13312.872    33474.251    16159.584    84.790243 
   17500    1488.6663   -112.94653    1.3469766   -111.59955    5094.3624    4.3794463    4.3794463    4.3794463    5094.3624    20642.202   -13177.865    7818.7498     20396.83    6081.9691   -6117.4603     83.99581 
   17600    1535.4617   -112.98682    1.3893181   -111.59751    33043.982    4.3674958    4.3674958    4.3674958    33043.982     60129.05    38920.956    81.940642   -8703.4447    10004.049   -4445.4704    83.310069 
   17700    1498.1346   -112.95832    1.3555437   -111.60278   -43035.175    4.3995767    4.3995767    4.3995767   -43035.175   -34094.222   -43034.381   -51976.924     7428.048    28786.313    17517.127    85.159418 
   17800    1787.3766    -113.2119    1.6172559   -111.59464    12918.411    4.3692993    4.3692993    4.3692993    12918.411    38110.464    5754.3127   -5109.5428    14280.922    5429.6105   -7102.2744    83.413317 
   17900     1448.649   -112.90998    1.3107681   -111.59922    28265.203    4.3489935    4.3489935    4.3489935    28265.203    33867.497     45938.24     4989.874   -85.619968    7645.8938   -9080.1915    82.255752 
   18000    1245.2974   -112.75049    1.1267712   -111.62372    -51475.24    4.3912377    4.3912377    4.3912377    -51475.24   -56695.625   -36860.183   -60869.911     -22504.8    21069.039    6282.4835    84.676099 
   18100    1727.0332   -113.15006    1.5626559   -111.58741   -4637.9002    4.3855516    4.3855516    4.3855516   -4637.9002    4696.4844   -2635.7476   -15974.437    -3294.085    803.66282   -6456.5123    84.347589 
   18200    787.34058   -112.30712   0.71240231   -111.59472    5347.8733    4.3805366    4.3805366    4.3805366    5347.8733    29583.376    30121.317   -43661.073   -7325.9993    9539.9093    2275.9393    84.058561 
   18300    1337.5354   -112.80008    1.2102302   -111.58985   -12742.544    4.3865747    4.3865747    4.3865747   -12742.544   -13923.074    1119.5321    -25424.09   -26452.366    6929.9455    12456.441    84.406638 
   18400    1710.5982   -113.12757    1.5477852   -111.57979    35818.035    4.3691233    4.3691233    4.3691233    35818.035    50386.142     54113.99    2953.9738   -6441.7799    12644.397    2956.2181    83.403236 
   18500    1082.6772    -112.5991   0.97962911   -111.61947   -5975.0147    4.3846061    4.3846061    4.3846061   -5975.0147    5650.2249    7285.4212    -30860.69    4626.5553     10227.66    819.33905    84.293045 
   18600    1761.4579   -113.19858    1.5938041   -111.60478   -32355.401    4.3882826    4.3882826    4.3882826   -32355.401   -26328.866   -31026.594   -39710.744   -24483.763   -12658.482   -1656.8404    84.505262 
   18700    1804.1451   -113.21951    1.6324284   -111.58708    36114.339    4.3526146    4.3526146    4.3526146    36114.339    102692.76    -4574.912    10225.169    -6396.069    3161.5897   -2930.5772    82.461389 
   18800    921.17543   -112.46262   0.83349889   -111.62912    7514.4235    4.3676183    4.3676183    4.3676183    7514.4235   -8757.3439    62903.859   -31603.245    13250.681    8519.5686   -4467.3313    83.317081 
   18900    1549.4651   -113.00676    1.4019885   -111.60477   -15301.884    4.3902674    4.3902674    4.3902674   -15301.884   -16540.137    5104.7155    -34470.23   -15636.698   -13309.458    -1067.573    84.619982 
   19000    1862.3334   -113.28037    1.6850784   -111.59529   -41991.174    4.3842549    4.3842549    4.3842549   -41991.174   -46087.336   -32876.449   -47009.737    5682.8437    10211.625    599.15853    84.272794 
   19100    543.08558   -112.11206   0.49139525   -111.62066   -20967.323    4.3656215    4.3656215    4.3656215   -20967.323   -65262.538    29018.242   -26657.672    8975.6258   -1162.9125   -6004.4599    83.202855 
   19200    1692.9739   -113.13887    1.5318384   -111.60703    26671.687    4.3495231    4.3495231    4.3495231    26671.687   -2793.8583    51548.165    31260.754   -4306.6908   -5428.6991   -2050.5475    82.285807 
   19300     1590.328   -113.06817    1.4389622   -111.62921   -23070.032    4.3860588    4.3860588    4.3860588   -23070.032    23940.448   -51316.432   -41834.111    4075.5902    1566.5516    6626.6868    84.376861 
   19400    1025.1026   -112.55103   0.92753433    -111.6235   -21758.943     4.390433     4.390433     4.390433   -21758.943   -52530.031   -30158.611    17411.812    12894.285    6788.9488   -507.04029    84.629555 
   19500      1931.41   -113.34752    1.7475803   -111.59994    31012.102    4.3461303    4.3461303    4.3461303    31012.102    29691.684    201.51261    63143.109   -1471.4347    5795.6822    -3973.189    82.093398 
   19600    1399.5248   -112.89379    1.2663194   -111.62747    22345.045    4.3511476    4.3511476    4.3511476    22345.045    49395.298   -33153.397    50793.233   -22400.076   -15294.236    8366.6918    82.378037 
   19700    1110.7244   -112.63883    1.0050068   -111.63382   -13360.013    4.3873815    4.3873815    4.3873815   -13360.013   -38100.372   -39130.704    37151.036    2706.4746    7347.6023   -5093.0064    84.453217 
   19800    1892.7254   -113.31227    1.7125777   -111.59969   -28353.261    4.3910639    4.3910639    4.3910639   -28353.261   -16843.634   -55371.307   -12844.843    -6520.364     492.4372    47.777509    84.666043 
   19900    673.39759   -112.21382   0.60930429   -111.60452    8068.6308    4.3757897    4.3757897    4.3757897    8068.6308    5652.7363   -41785.929    60339.085   -17410.543   -6594.5879    20784.299     83.78559 
   20000    1674.9875   -113.10824    1.5155639   -111.59268    9842.7438    4.3590343    4.3590343    4.3590343    9842.7438   -3604.6674   -785.29199    33918.191    4174.8295    5810.0244   -12149.298    82.826798 
   20100    1309.9463   -112.79826    1.1852669   -111.61299     13604.84    4.3694157    4.3694157    4.3694157     13604.84    1448.4242   -35217.741    74583.838   -35454.295    3915.4175   -1746.5041     83.41998 
   20200    1155.9604   -112.66169    1.0459372   -111.61575   -920.31143    4.3797964    4.3797964    4.3797964   -920.31143    23762.291   -37491.738    10968.513   -12124.023   -10784.554    16654.291    84.015955 
   20300    1582.9162   -113.04404    1.4322558   -111.61179    3141.4636    4.3693517    4.3693517    4.3693517    3141.4636    -4007.071   -6118.4492    19549.911   -2049.2548     6250.262    5756.0096    83.416318 
   20400    1425.2945   -112.90467    1.2896364   -111.61504    13929.752    4.3710626    4.3710626    4.3710626    13929.752    3521.3351   -18004.594    56272.514   -31058.065   -2917.8023   -21527.797    83.514344 
   20500    1696.0623   -113.15004    1.5346328    -111.6154   -3401.2101    4.3850755    4.3850755    4.3850755   -3401.2101   -25883.891    16525.571   -845.31011   -2217.1348    11407.769    7095.1464    84.320123 
   20600    1098.2639   -112.60564   0.99373222   -111.61191    3342.2867    4.3937615    4.3937615    4.3937615    3342.2867   -55197.179    42470.044    22753.995   -3412.4225    1151.4543   -8774.0386    84.822179 
   20700    1134.8528   -112.61928    1.0268386   -111.59244    3003.6557    4.3847418    4.3847418    4.3847418    3003.6557   -48527.137    36388.332    21149.772   -25961.567   -2050.6417   -16453.346    84.300874 
   20800    964.75828   -112.46882   0.87293357   -111.59589    18971.757    4.3692358    4.3692358    4.3692358    18971.757   -19540.776     98698.95   -22242.904    8816.6292    -1147.337    8756.9036     83.40968 
   20900    1128.5846   -112.63433     1.021167   -111.61316    29983.662    4.3657163    4.3657163    4.3657163    29983.662   -1452.9946    49493.448    41910.532     7465.749   -405.00315     7667.485    83.208279 
   21000    1279.1149   -112.79173      1.15737   -111.63436  -0.53945638    4.3868149    4.3868149    4.3868149  -0.53945638   -7940.2396    17881.192   -9942.5711   -20150.605    1341.7372   -5988.3352    84.420499 
   21100    1532.8916   -112.99821    1.3869925   -111.61121     -22193.5    4.3931416    4.3931416    4.3931416     -22193.5   -16843.682    7783.2937   -57520.112    8816.2803    9204.7851    3452.7005    84.786285 
   21200    1582.9133   -113.02557    1.4322532   -111.59331    34578.193    4.3638408    4.3638408    4.3638408    34578.193    32483.204    25323.364     45928.01    15860.879   -330.62948    15797.894    83.101084 
   21300     1592.383   -113.04822    1.4408216    -111.6074    11925.815    4.3609952    4.3609952    4.3609952    11925.815    25508.706    5358.1616    4910.5788   -19700.826     4625.239   -13461.398    82.938623 
   21400    1140.0554   -112.65808    1.0315461   -111.62653    5900.3495    4.3768865    4.3768865    4.3768865    5900.3495    27950.454    9841.8463   -20091.252   -1262.1356     9493.612    15079.209    83.848609 
   21500    1456.6382   -112.93202    1.3179968   -111.61403    -13618.63    4.3881785    4.3881785    4.3881785    -13618.63   -12724.879   -572.12563   -27558.884     13586.52    10149.863    24518.732    84.499253 
   21600    1498.2969   -112.95646    1.3556905   -111.60077    27287.569    4.3747831    4.3747831    4.3747831    27287.569    31113.857     13018.13    37730.721   -2860.1858   -1335.2937   -10197.445    83.727782 
   21700    1117.7179   -112.61791    1.0113346   -111.60658    23404.935    4.3584624    4.3584624    4.3584624    23404.935    33913.217     49631.13   -13329.543     14018.34    4080.1413    16685.406    82.794201 
   21800    989.98494   -112.52818   0.89575917   -111.63243    7103.9788    4.3768749    4.3768749    4.3768749    7103.9788   -5130.2304    24210.586    2231.5806    21758.267    9678.4308    20551.168    83.847938 
   21900    2028.4647    -113.4342    1.8353975    -111.5988   -24627.114    4.3975953    4.3975953    4.3975953   -24627.114   -6875.2091   -28847.722   -38158.411    3393.3822   -4132.9887   -12607.596    85.044413 
   22000    1042.3541   -112.54856   0.94314387   -111.60541    2621.2803    4.3753874    4.3753874    4.3753874    2621.2803    44451.056   -17185.866   -19401.349   -283.96961    10221.967    29607.711    83.762482 
   22100    915.99795   -112.43339   0.82881419   -111.60458    8001.9749    4.3515507    4.3515507    4.3515507    8001.9749    33217.769    3992.1374   -13203.981    9533.8638    3428.0633    35265.507    82.400938 
   22200    1920.1757   -113.35738    1.7374153   -111.61997    1818.1917    4.3607083    4.3607083    4.3607083    1818.1917    9951.8899   -4638.7056    141.39085   -1833.5498   -13924.571   -12582.574    82.922254 
   22300     1325.564   -112.83515    1.1993982   -111.63575   -13458.398    4.3844157    4.3844157    4.3844157   -13458.398   -2013.2039    2467.1566   -40829.146   -4733.6187     15336.34    12615.374    84.282063 
   22400    799.62985   -112.34968   0.72352189   -111.62616   -8057.6262    4.3804862    4.3804862    4.3804862   -8057.6262    790.71672    2186.1754   -27149.771    7515.1823    10603.935    25168.752    84.055656 
   22500    1781.0222   -113.21636    1.6115063   -111.60485    6593.9048    4.3647761    4.3647761    4.3647761    6593.9048    15967.442   -19645.533    23459.805   -4012.2682    10138.835   -7904.7056    83.154531 
   22600    1454.5911   -112.93237    1.3161446   -111.61623    4209.2858     4.368414     4.368414     4.368414    4209.2858    32995.846   -16625.152   -3742.8373    134.01262    4515.5534    22647.693    83.362622 
   22700    1225.9207    -112.7349    1.1092388   -111.62566   -7108.0038     4.374934     4.374934     4.374934   -7108.0038    2197.3773    12037.242   -35558.631    8469.1652    488.61929     16680.88    83.736442 
   22800    1625.1142   -113.08822    1.4704375   -111.61778    16857.994    4.3665242    4.3665242    4.3665242    16857.994   -28949.648    30914.938    48608.691    280.38199   -2230.4943   -16905.696     83.25448 
   22900    1794.3758    -113.2393     1.623589   -111.61571    23463.095    4.3567136    4.3567136    4.3567136    23463.095     26222.12    16854.289    27312.877    598.83773    2547.1201    28245.444    82.694577 
   23000    1297.6261   -112.80975    1.1741194   -111.63563    9172.5981    4.3781417    4.3781417    4.3781417    9172.5981    -14008.36    27671.587    13854.567    7823.7026   -2296.4659     22221.99    83.920765 
   23100    1465.8043   -112.94023    1.3262905   -111.61394   -5890.6741    4.3824313    4.3824313    4.3824313   -5890.6741   -35854.271    4425.8328    13756.416    1533.1032    3916.1591   -16432.295     84.16768 
   23200    1370.4502   -112.85767    1.2400121   -111.61766    1061.3665    4.3521175    4.3521175    4.3521175    1061.3665    40946.167   -28613.981    -9148.086   -9802.8678   -626.27988     28800.47    82.433139 
   23300    1410.9934     -112.904    1.2766964   -111.62731    16662.418    4.3488224    4.3488224    4.3488224    16662.418    51393.544    -22127.07    20720.781   -201.53831     5261.326    35048.961    82.246042 
   23400    1442.9076   -112.94309    1.3055731   -111.63752    6563.2829    4.3757464    4.3757464    4.3757464    6563.2829    17632.426   -8163.1901    10220.613    2513.1466     9666.217   -7147.5027    83.783101 
   23500    870.35961   -112.41792   0.78751966    -111.6304   -10728.355    4.3860615    4.3860615    4.3860615   -10728.355   -11130.939   -21881.672    827.54746   -9192.2789   -4398.1976    25424.273    84.377016 
   23600    1448.3059   -112.93086    1.3104576    -111.6204   -1505.1488    4.3675782    4.3675782    4.3675782   -1505.1488     6463.002   -25201.588     14223.14   -720.21739    5058.9474    31918.934    83.314785 
   23700    1833.7268    -113.2666    1.6591946   -111.60741    28097.441     4.353172     4.353172     4.353172    28097.441    39052.216    24529.317    20710.792    3499.8798    3904.8463   -7967.3099    82.493074 
   23800    895.23271    -112.4474   0.81002537   -111.63738    4226.2252     4.377291     4.377291     4.377291    4226.2252    13637.461   -29644.908    28686.122   -16514.788   -5093.8607    35582.185    83.871856 
   23900     1682.603   -113.13056    1.5224545   -111.60811   -34390.956    4.3964181    4.3964181    4.3964181   -34390.956    -33654.68   -32055.163   -37463.025    2393.7508   -4327.7116    3504.9018     84.97613 
   24000    1831.2221   -113.25965    1.6569282   -111.60272    9732.0235    4.3556311    4.3556311    4.3556311    9732.0235   -11548.507    23685.157    17059.421    8006.1938     18499.58   -11556.727    82.632951 
   24100    889.81517   -112.41424   0.80512347   -111.60912    21500.525    4.3322236    4.3322236    4.3322236    21500.525    11898.808    18345.039    34257.728   -26413.309    7640.9396    46955.019    81.307873 
   24200    1030.6071   -112.57776   0.93251492   -111.64525   -24309.763    4.3703364    4.3703364    4.3703364   -24309.763   -40062.599   -22557.719    -10308.97    2789.4878   -21789.447    20965.714     83.47273 
   24300     1777.815   -113.22143    1.6086044   -111.61283   -25147.526    4.3843702    4.3843702    4.3843702   -25147.526   -34961.712   -25895.889   -14584.976    18396.147    9765.9232   -5867.3242     84.27944 
   24400    1080.0383   -112.59233   0.97724132   -111.61509    1387.6923    4.3640708    4.3640708    4.3640708    1387.6923    5967.1181    1267.8019   -3071.8432   -17228.091    25805.377    23409.876    83.114223 
   24500    1174.1938   -112.68179    1.0624352   -111.61935   -7937.0111    4.3537845    4.3537845    4.3537845   -7937.0111   -14286.857   -12703.641    3179.4649   -9686.0934    -27545.46    18409.467    82.527898 
   24600    1795.5201   -113.24528    1.6246243   -111.62065    7249.1898    4.3615055    4.3615055    4.3615055    7249.1898    21580.368    1590.1228   -1422.9211     12428.74   -4569.2963   -2674.6346    82.967745 
   24700    1190.4211   -112.70255     1.077118   -111.62543    13055.156     4.376101     4.376101     4.376101    13055.156    22991.091    24989.376   -8814.9988    -13948.67    15963.806    14695.318    83.803473 
   24800    1623.8954   -113.08366    1.4693347   -111.61432   -10084.864    4.3735139    4.3735139    4.3735139   -10084.864   -25034.426    4044.0627   -9264.2299   -11933.269   -4978.8283    14128.773    83.654928 
   24900    1891.7818   -113.32515    1.7117239   -111.61342    26297.681    4.3582632    4.3582632    4.3582632    26297.681    26681.954     16709.71    35501.379    19157.623   -13866.717   -11581.849    82.782846 
   25000      1417.69    -112.9199    1.2827557   -111.63714    8470.2067    4.3591615    4.3591615    4.3591615    8470.2067    35714.521   -11439.307    1135.4065   -5391.1527   -8980.0072    14001.564    82.834044 
   25100    1001.2535   -112.55301   0.90595524   -111.64705   -2652.4114    4.3721764    4.3721764    4.3721764   -2652.4114   -14502.882   -17740.776    24286.424   -17657.167   -4306.0634    13023.246    83.578205 
   25200    2008.5633   -113.44302    1.8173903   -111.62563   -10157.385    4.3678276    4.3678276    4.3678276   -10157.385   -33770.029    7982.8082   -4684.9338    6494.9618   -17936.259   -17624.792    83.329057 
   25300     1379.492   -112.87875    1.2481933   -111.63056    19921.164    4.3559156    4.3559156    4.3559156    19921.164    39414.991   -8150.4517    28498.954   -5229.9374   -2136.9097    22375.298    82.649145 
   25400     840.2312   -112.40733   0.76025884   -111.64707   -3489.2155    4.3679608    4.3679608    4.3679608   -3489.2155    7084.8074   -14810.323   -2742.1313   -14025.832    2414.6545    18595.915    83.336679 
   25500    1454.3314    -112.9418    1.3159096   -111.62589   -19812.173    4.3793014    4.3793014    4.3793014   -19812.173    -54611.46   -16937.318    12112.258    13932.874   -1189.5745   -11471.908     83.98747 
   25600    1650.7702   -113.10978    1.4936516   -111.61612   -10250.762    4.3684573    4.3684573    4.3684573   -10250.762   -24210.336   -23788.786    17246.836    10755.345   -5790.8608    19608.248      83.3651 
   25700    1252.5165   -112.75662    1.1333033   -111.62331    8277.5784    4.3587212    4.3587212    4.3587212    8277.5784        33789   -5668.0545   -3288.2107   -21493.158    5376.2125    13515.118    82.808948 
   25800    954.18257   -112.50686   0.86336444    -111.6435   -11629.962    4.3717506    4.3717506    4.3717506   -11629.962   -32115.848   -22923.786    20149.748     12209.47    1457.6446    1519.9346    83.553786 
   25900    1785.2188   -113.24218    1.6153034   -111.62688   -39587.109    4.3834133    4.3834133    4.3834133   -39587.109   -55960.197   -34337.658   -28463.472    21527.265   -7370.5453   -3782.6455    84.224274 
   26000    1872.1941   -113.30948    1.6940006   -111.61548    4405.2889    4.3641047    4.3641047    4.3641047    4405.2889    -4752.123    5184.0666    12783.923   -679.25049    2905.1812    17687.908    83.116162 
   26100    900.05993   -112.44319   0.81439314    -111.6288    6840.1621    4.3543653    4.3543653    4.3543653    6840.1621    9701.5244   -6946.6603    17765.622    30437.406    2674.0881    16279.388    82.560929 
   26200    1171.0794   -112.70583    1.0596172   -111.64621   -15237.836    4.3689048    4.3689048    4.3689048   -15237.836   -36126.371   -17900.011    8312.8744    7145.2206   -8777.3278   -18428.692    83.390723 
   26300    2168.0449   -113.59068    1.9616926   -111.62899   -13373.464    4.3705661    4.3705661    4.3705661   -13373.464   -11506.902   -390.20215   -28223.289   -10483.511   -11329.577    17349.865     83.48589 
   26400    1247.5489   -112.76395    1.1288084   -111.63514    18027.813    4.3674595    4.3674595    4.3674595    18027.813    19303.498   -22579.015    57358.956    21478.572   -2991.7933   -4739.9298     83.30799 
   26500    1099.1037   -112.63135   0.99449213   -111.63686   -6194.0319    4.3681899    4.3681899    4.3681899   -6194.0319   -6140.8026   -39040.453     26599.16   -11714.348   -13530.694   -9362.5137    83.349796 
   26600    1492.1408   -112.97569    1.3501204   -111.62557    14774.067    4.3644451    4.3644451    4.3644451    14774.067      -2383.3      9512.73    37192.772   -11077.508    4314.7019   -4886.6653    83.135613 
   26700    1762.3897   -113.21324    1.5946473   -111.61859   -2694.8155    4.3787087    4.3787087    4.3787087   -2694.8155   -5569.3007   -12047.011    9531.8655    19229.352   -10873.651    -6369.695    83.953378 
   26800    760.27711   -112.31464   0.68791471   -111.62673   -4136.0397    4.3850782    4.3850782    4.3850782   -4136.0397   -10782.456    -33692.21    32066.546   -11261.207   -13658.705   -11813.101    84.320277 
   26900    1263.1957   -112.75778     1.142966   -111.61482     10538.62    4.3678251    4.3678251    4.3678251     10538.62     9210.465     2196.375    20209.021   -398.33902   -10761.675    -12803.22    83.328913 
   27000     1874.432   -113.30839    1.6960255   -111.61236    29813.914    4.3586159    4.3586159    4.3586159    29813.914   -9152.4662    17231.243    81362.966    1131.5768   -13620.399    15190.965     82.80295 
   27100    1371.3571   -112.88005    1.2408327   -111.63921    7661.1919    4.3691757    4.3691757    4.3691757    7661.1919   -16236.234    16248.076    22971.733   -10092.662   -7995.5582   -15797.784    83.406237 
   27200    711.62033   -112.28923   0.64388903   -111.64535     -10018.6    4.3812277    4.3812277    4.3812277     -10018.6   -16521.897   -3080.1775   -10453.725   -12786.587    416.11647   -12999.015    84.098352 
   27300    1795.5037   -113.24543    1.6246095   -111.62083    -6239.151    4.3742409    4.3742409    4.3742409    -6239.151   -21336.658   -2795.8499    5415.0551    10190.571    2375.1879    21713.761    83.696656 
   27400    1802.3837   -113.24629    1.6308347   -111.61545    9252.6317    4.3578298    4.3578298    4.3578298    9252.6317    3125.3608     11702.76    12929.774   -2725.8758   -5358.4451   -22542.799    82.758154 
   27500    1157.1361   -112.68729     1.047001   -111.64029   -6017.1308    4.3526284    4.3526284    4.3526284   -6017.1308    14048.206   -8272.2716   -23827.327   -19198.961     -2418.31   -19256.595    82.462171 
   27600    944.13117   -112.51768   0.85426972   -111.66341   -19410.252    4.3665895    4.3665895    4.3665895   -19410.252   -18185.287   -15323.613   -24721.856    15359.633   -6900.7441    26396.985    83.258215 
   27700     1648.394   -113.13933    1.4915015   -111.64783   -23596.316    4.3801833    4.3801833    4.3801833   -23596.316   -41502.922   -13191.371   -16094.654    33220.991    1729.4177   -9518.2283    84.038221 
   27800    1837.1846   -113.28915    1.6623232   -111.62683    7781.6482    4.3657348    4.3657348    4.3657348    7781.6482   -18052.403    14929.097    26468.251    -16390.59   -1194.6042   -311.58679    83.209334 
   27900    985.59768   -112.52726   0.89178949   -111.63547   -13978.586    4.3598087    4.3598087    4.3598087   -13978.586   -45693.492   -4024.8228    7782.5586    27323.789   -10386.572    8712.6672    82.870947 
   28000    871.27897   -112.43384   0.78835153   -111.64549   -8825.8897    4.3655172    4.3655172    4.3655172   -8825.8897   -22733.389   -22609.685    18865.406    31281.198   -11.146831   -9314.9671    83.196893 
   28100    2166.7371   -113.58903    1.9605092   -111.62852     -7594.89     4.363974     4.363974     4.363974     -7594.89   -11916.378    8887.3133   -19755.605   -15354.777   -1698.9444    5477.7951    83.108695 
   28200    1345.4684   -112.85518    1.2174081   -111.63777   -11450.604    4.3729648    4.3729648    4.3729648   -11450.604   -39249.333   -18121.059    23018.579    28338.447    3738.2393   -1900.2542    83.623425 
   28300    767.81938   -112.32949   0.69473911   -111.63475   -13194.034    4.3725888    4.3725888    4.3725888   -13194.034   -13768.956   -47146.105    21332.959    30205.722   -8052.4827   -1576.0397    83.601852 
   28400    1601.6787   -113.07231    1.4492326   -111.62307    1493.5747    4.3594285    4.3594285    4.3594285    1493.5747    22277.598   -3731.9175   -14064.956   -27426.149   -12008.691    3620.9032    82.849269 
   28500    1537.2009   -113.02156    1.3908917   -111.63067     25838.34      4.37068      4.37068      4.37068     25838.34    42631.319    20685.533     14198.17    4487.1305    1764.9745   -5781.4815    83.492414 
   28600     1616.307   -113.09088    1.4624685   -111.62841   -10907.534    4.3792117    4.3792117    4.3792117   -10907.534   -25387.484    9646.8401   -16981.957    13781.697    4049.6403   -5471.1821    83.982311 
   28700    736.32971   -112.30217    0.6662466   -111.63593   -16645.101    4.3707714    4.3707714    4.3707714   -16645.101   -4657.2564    -6706.355    -38571.69   -33071.295    2923.0772   -7957.2721    83.497657 
   28800    1325.7623    -112.8449    1.1995775   -111.64532    3298.8267     4.351788     4.351788     4.351788    3298.8267    29858.583    11214.537    -31176.64   -8485.3298    240.30446   -5721.4599    82.414417 
   28900    2148.3836   -113.58821    1.9439026   -111.64431    30713.734    4.3490741    4.3490741    4.3490741    30713.734    37049.737     47667.22    7424.2464    3826.0424   -8018.7162    2241.3951    82.260323 
   29000    1419.6265   -112.95106    1.2845079   -111.66655   -19529.172    4.3767547    4.3767547    4.3767547   -19529.172   -6074.9896   -19267.087    -33245.44   -31425.119    12786.616   -16146.541     83.84103 
   29100    790.74882   -112.37552   0.71548615   -111.66004   -20949.661    4.3711271    4.3711271    4.3711271   -20949.661    30829.416   -35038.287    -58640.11   -5646.7097    2504.7858   -1380.3017    83.518042 
   29200    1325.3123    -112.8401    1.1991704   -111.64093    19592.809    4.3475023    4.3475023    4.3475023    19592.809    9041.9679    27539.826    22196.632    28588.846    56.317381    21785.775    82.171167 
   29300    1764.5761    -113.2467    1.5966255   -111.65007    15754.119    4.3583275    4.3583275    4.3583275    15754.119    7933.9781     24535.69    14792.689    5181.8774   -6583.5796    6450.4605    82.786511 
   29400    1431.0706   -112.94878    1.2948628   -111.65392    13855.895    4.3743214    4.3743214    4.3743214    13855.895   -7130.6641    40904.646    7793.7028   -10114.633    2131.1396   -15349.939    83.701276 
   29500    788.86901   -112.36203   0.71378526   -111.64824   -34672.032    4.3794477    4.3794477    4.3794477   -34672.032   -54738.845   -34626.118   -14651.135    29019.523    7141.2485    13007.966    83.995887 
   29600    1029.6993   -112.57475   0.93169357   -111.64306    11550.494    4.3541356    4.3541356    4.3541356    11550.494     1737.639    602.74108    32311.102    9534.3376   -841.46831      22088.1    82.547866 
   29700     2070.994   -113.50581    1.8738789   -111.63193     26412.61    4.3428278    4.3428278    4.3428278     26412.61    6817.3782     55421.25    16999.201   -16226.802    6137.5561   -17215.461    81.906399 
   29800    1532.1242   -113.03832    1.3862982   -111.65202   -28063.612    4.3760923    4.3760923    4.3760923   -28063.612   -59333.465    -25787.04    929.67033    29969.496   -3209.8848    6122.2237    83.802974 
   29900    763.40308    -112.3397   0.69074315   -111.64896    484.33124    4.3734984    4.3734984    4.3734984    484.33124   -5181.7025   -1756.6254    8391.3216    6774.7487    146.82225    18250.992    83.654037 
   30000    1341.2257   -112.85164    1.2135692   -111.63807    12030.883    4.3580607    4.3580607    4.3580607    12030.883     27439.34    28865.897   -20212.588    -17938.17    9536.9477   -21764.371    82.771308 
   30100    2004.7248   -113.45013    1.8139171   -111.63621    787.37244    4.3649856    4.3649856    4.3649856    787.37244   -5804.8656    5891.4438    2275.5392    1468.1216   -6380.1386   -14070.717    83.166502 
   30200    1841.9508   -113.30576    1.6666358   -111.63912    9965.7099      4.36114      4.36114      4.36114    9965.7099     14357.01    17064.108   -1523.9882    1294.4193    1015.9957    21158.452    82.946885 
   30300    934.86608   -112.50014   0.84588647   -111.65425   -26762.601    4.3659137    4.3659137    4.3659137   -26762.601   -4208.7442   -48314.805   -27764.254   -31066.154    633.79241   -16716.463    83.219563 
   30400    1209.3087   -112.74823    1.0942079   -111.65402   -13267.387    4.3687771    4.3687771    4.3687771   -13267.387    5455.1594   -15616.209    -29641.11   -15138.712   -10213.929   -10647.953    83.383413 
   30500    2012.0551    -113.4596    1.8205497   -111.63905    8320.7888    4.3618693    4.3618693    4.3618693    8320.7888    26414.076    35250.156   -36701.865    13872.738    8885.7073    15608.803    82.988507 
   30600    1710.7907   -113.19539    1.5479594   -111.64743   -1148.1439    4.3604626    4.3604626    4.3604626   -1148.1439   -6233.7046    4924.0798   -2134.8068   -14133.481    2378.0383   -12061.813    82.908243 
   30700    758.87295   -112.34383    0.6866442   -111.65719    11235.957    4.3632559    4.3632559    4.3632559    11235.957    31748.831    591.07482    1367.9653   -9404.6897    -7047.501    -14150.44    83.067677 
   30800    1346.8786   -112.87018     1.218684   -111.65149   -30475.786    4.3690105    4.3690105    4.3690105   -30475.786   -53403.644   -5098.0159   -32925.699    24199.648    13383.373    18674.409    83.396778 
   30900    1524.8052    -113.0231    1.3796758   -111.64342    1701.2583    4.3692504    4.3692504    4.3692504    1701.2583   -7083.1099    17317.546   -5130.6608   -105.84626    10441.713    4786.4488    83.410514 
   31000    1547.9636   -113.03639      1.40063   -111.63576    7717.1955    4.3641782    4.3641782    4.3641782    7717.1955    20408.045    10369.088   -7625.5469   -13187.953   -8571.5454   -14078.918     83.12036 
   31100    626.40843   -112.21673   0.56678751   -111.64995   -20403.449    4.3660969    4.3660969    4.3660969   -20403.449   -20638.049   -25674.982   -14897.317    18982.241    3631.6641    18118.168    83.230044 
   31200    1025.9599   -112.58823   0.92831008   -111.65992   -12911.011    4.3609277    4.3609277    4.3609277   -12911.011    -13407.93   -11294.294   -14030.809    22497.589    18918.538    8006.9591    82.934775 
   31300    1983.9768   -113.44843    1.7951439   -111.65328    18692.748    4.3589516    4.3589516    4.3589516    18692.748    27229.847    42712.552   -13864.155   -12293.547    4050.6995   -17441.761    82.822079 
   31400    1365.6874   -112.89502    1.2357027   -111.65932   -32691.573    4.3763936    4.3763936    4.3763936   -32691.573   -32149.112    -40522.76   -25402.846    18013.744    2077.1995    13402.267    83.820285 
   31500    687.29081   -112.27828   0.62187517   -111.65641    -17022.42    4.3615098    4.3615098    4.3615098    -17022.42   -16419.527   -24163.736   -10483.996    19082.888    20229.998    4126.7988    82.967986 
   31600    1524.2927   -113.02612     1.379212   -111.64691    18011.935    4.3557406    4.3557406    4.3557406    18011.935    27730.859    45226.948   -18922.001   -16682.095     662.5202   -11602.945    82.639183 
   31700    1797.9137   -113.26565    1.6267901   -111.63886   -11048.144    4.3755503    4.3755503    4.3755503   -11048.144   -19837.268   -2094.4524   -11212.711     3745.441     -3587.47   -6715.7908    83.771838 
   31800    1495.7624   -112.99678    1.3533973   -111.64338    12740.447    4.3509127    4.3509127    4.3509127    12740.447     3792.173    49460.172   -15031.005    12383.239    24565.328    7910.6665      82.3647 
   31900     887.4222   -112.46952   0.80295826   -111.66656   -12357.716     4.357537     4.357537     4.357537   -12357.716    48279.389   -53459.115   -31893.422    -5580.869    11817.942   -4884.6981    82.741473 
   32000    1314.1054    -112.8404    1.1890302   -111.65137   -21466.803    4.3850541    4.3850541    4.3850541   -21466.803    21621.834   -60365.039   -25657.205   -28665.286   -12475.713   -19762.922    84.318887 
   32100    2026.3602   -113.45538    1.8334933   -111.62189   -17900.968    4.3815995    4.3815995    4.3815995   -17900.968   -14259.725    2168.2002   -41611.378   -11996.888    10934.903    11962.904    84.119764 
   32200    1360.1403   -112.86288    1.2306835    -111.6322   -8044.5601    4.3635915    4.3635915    4.3635915   -8044.5601      35446.8    -14575.79   -45004.689     5558.238    10429.161    8846.4482    83.086846 
   32300    1170.8677   -112.70098    1.0594257   -111.64155   -1261.8881    4.3439602    4.3439602    4.3439602   -1261.8881    11169.584   -3303.5296   -11651.719   -25841.401   -16859.961   -16903.253    81.970488 
   32400    1489.7127   -113.02057    1.3479233   -111.67265    6775.2952    4.3632928    4.3632928    4.3632928    6775.2952    1749.2177    40322.245   -21745.577   -7166.5249   -14595.568    4863.3335    83.069781 
   32500    2101.8502   -113.55187    1.9017982   -111.65007   -11723.876    4.3829345    4.3829345    4.3829345   -11723.876    12089.707   -5531.1585   -41730.176    8572.6006    11707.331    9346.8888    84.196677 
   32600    1225.5239   -112.74988    1.1088797     -111.641   -4798.2298      4.37436      4.37436      4.37436   -4798.2298    5872.1915    19714.216   -39981.097   -21579.985   -7830.2949   -8536.7414    83.703492 
   32700     971.5033   -112.52359    0.8790366   -111.64455   -16213.093    4.3694963    4.3694963    4.3694963   -16213.093    13573.343   -27085.606   -35127.016   -155.98075   -21524.339   -3521.3228    83.424598 
   32800    2109.8148   -113.54267    1.9090048   -111.63366    6026.2589    4.3558427    4.3558427    4.3558427    6026.2589    20581.421    3712.2881   -6214.9327    9076.6216    11342.984   -3681.9275    82.644997 
   32900    1201.3123   -112.74426    1.0869726   -111.65728    25138.358    4.3692162    4.3692162    4.3692162    25138.358    73727.192    26773.056   -25085.173   -10562.568    -9822.237   -2187.8586    83.408556 
   33000    1288.3159   -112.79412    1.1656953   -111.62842   -30561.491    4.3934948    4.3934948    4.3934948   -30561.491    -36573.04   -9733.7198   -45377.712   -11998.908   -23510.868   -244.25912    84.806736 
   33100    1494.8601    -112.9548    1.3525809   -111.60222    4551.0584    4.3793956    4.3793956    4.3793956    4551.0584    40483.745   -11747.321   -15083.248    33216.001    6360.3862    8200.6906    83.992889 
   33200    1309.4307   -112.79069    1.1848005   -111.60589    25017.588    4.3528706    4.3528706    4.3528706    25017.588    50049.644   -1937.9894     26941.11   -27096.327    -9149.247    1017.1604     82.47594 
   33300    1311.0437   -112.82121    1.1862599   -111.63495   -2885.3033      4.35627      4.35627      4.35627   -2885.3033    6535.0045   -1121.3459   -14069.568   -35788.646   -4935.3771   -4462.8467    82.669322 
   33400    1187.5186   -112.72123    1.0744918   -111.64674   -20669.139    4.3798069    4.3798069    4.3798069   -20669.139    4571.2972   -28446.407   -38132.306    34438.349    3760.9483    6283.5486    84.016557 
   33500    1490.7235   -112.98748     1.348838   -111.63865   -38738.905    4.3768357    4.3768357    4.3768357   -38738.905    -38110.06   -58917.609   -19189.047   -24247.137   -2775.9211    5016.2284    83.845687 
   33600    1372.2096   -112.87867    1.2416041   -111.63707    19910.788    4.3421726    4.3421726    4.3421726    19910.788    42873.699   -3098.3232    19956.987   -21949.292    1110.6322   -16137.286    81.869332 
   33700     836.7128   -112.42839   0.75707532   -111.67131    12414.713    4.3606057    4.3606057    4.3606057    12414.713    78949.428   -13685.165   -28020.124      13269.2   -4317.5168   -4452.1503    82.916402 
   33800    1641.9352   -113.12992    1.4856575   -111.64426   -46438.327    4.3852546    4.3852546    4.3852546   -46438.327    -33348.79   -38846.423   -67119.767    3694.4366    17092.336    20782.333    84.330455 
   33900    1603.2176   -113.08195    1.4506249   -111.63132    25036.745    4.3532567    4.3532567    4.3532567    25036.745    78674.017    957.75924   -4521.5401    -17169.16    4468.5679   -9859.8994    82.497889 
   34000    1350.6267   -112.86813    1.2220754   -111.64605   -4276.2811    4.3539836    4.3539836    4.3539836   -4276.2811    27868.759   -11505.622    -29191.98    -2823.887   -6476.8921   -17784.747    82.539221 
   34100    1034.3021   -112.58988   0.93585829   -111.65402   -22083.591    4.3672745    4.3672745    4.3672745   -22083.591    1479.6785   -9935.2077   -57795.245    11926.874    4269.5373    19993.687    83.297407 
   34200    1438.5313   -112.94804    1.3016133   -111.64642    28681.225    4.3653042    4.3653042    4.3653042    28681.225    41406.819    52135.657   -7498.8013    -8671.248    4008.3682     11230.26    83.184717 
   34300    1784.3562   -113.25095     1.614523   -111.63643    6929.4973    4.3785225    4.3785225    4.3785225    6929.4973    20136.544    27872.914   -27220.966   -506.44273   -10915.701   -11891.889    83.942663 
   34400    1204.2196   -112.72813    1.0896032   -111.63852    3670.7847    4.3643543    4.3643543    4.3643543    3670.7847     51248.93    7595.4348   -47832.011    5537.8959    5156.7564    23901.661    83.130427 
   34500    1055.2884   -112.59507   0.95484715   -111.64022    15281.073    4.3513429    4.3513429    4.3513429    15281.073     8901.956    70811.157   -33869.893    -240.7918    19464.792    23623.399    82.389132 
   34600    1663.2595   -113.15506    1.5049521   -111.65011    7131.3733    4.3683085    4.3683085    4.3683085    7131.3733    116.53889    33280.891    -12003.31   -4370.7467    474.16839   -13295.774    83.356586 
   34700     1861.025   -113.32396    1.6838945   -111.64007   -817.11004    4.3763401    4.3763401    4.3763401   -817.11004    44527.986   -10457.514   -36521.802    -7027.682   -437.71376    14134.067    83.817212 
   34800     825.9674   -112.39326   0.74735266   -111.64591   -23257.175    4.3785577    4.3785577    4.3785577   -23257.175    5419.7542   -8226.0218   -66965.259   -1403.4483   -1214.4025    27054.245    83.944693 
   34900    1095.6153   -112.62088   0.99133573   -111.62955   -16334.685    4.3693014    4.3693014    4.3693014   -16334.685   -14600.738   -3753.8822   -30649.436   -10358.055    -3575.797   -21233.078    83.413439 
   35000    2054.6188   -113.48456    1.8590623    -111.6255     8998.022    4.3618244    4.3618244    4.3618244     8998.022    16653.454    25703.448   -15362.836    1844.6283    1273.4267   -1312.7901    82.985944 
   35100    1556.2152   -113.05356    1.4080962   -111.64547   -832.83175    4.3716935    4.3716935    4.3716935   -832.83175    6259.1453    29557.718   -38315.358    3422.9063   -727.39374     27514.45    83.550512 
   35200    967.24707   -112.52868   0.87518547   -111.65349    4126.3089    4.3636438    4.3636438    4.3636438    4126.3089    54580.019    17706.409   -59907.501   -20907.926    3733.4606   -4559.6295    83.089829 
   35300    1337.0177    -112.8662    1.2097617   -111.65644    6376.8699    4.3708856    4.3708856    4.3708856    6376.8699    13064.552    50100.476   -44034.419    17809.458    1785.1265   -15372.517      83.5042 
   35400    2132.9649   -113.56357    1.9299515   -111.63362   -192.84728    4.3772169    4.3772169    4.3772169   -192.84728    11693.918    6807.9793   -19080.439    119.64188   -14626.461    3353.8616    83.867598 
   35500    1587.6463   -113.07052    1.4365358   -111.63398    24482.811    4.3576488    4.3576488    4.3576488    24482.811    77632.708   -11352.368    7168.0912   -19318.051    3475.4552   -9965.3177    82.747841 
   35600    971.74501   -112.53525   0.87925531     -111.656   -14005.974    4.3637146    4.3637146    4.3637146   -14005.974     18195.14   -11026.678   -49186.386    6032.8346   -3033.6496   -14571.281    83.093878 
   35700    1353.1227   -112.87964    1.2243339   -111.65531   -12045.514    4.3680697    4.3680697    4.3680697   -12045.514    24180.361   -10216.114    -50100.79    24114.205    -11877.14    1962.0335    83.342915 
   35800    1879.0724   -113.34867    1.7002242   -111.64844    20110.196    4.3658475    4.3658475    4.3658475    20110.196    90372.253   -27538.981    -2502.683    687.90867    4233.9325   -4406.0411    83.215779 
   35900    1611.1403   -113.11009    1.4577936    -111.6523   -21533.127    4.3772481    4.3772481    4.3772481   -21533.127    17645.141   -15213.609   -67030.913   -66.528691    7456.6683   -10083.196    83.869392 
   36000    910.95003   -112.47643   0.82424673   -111.65218   -15881.887    4.3599938    4.3599938    4.3599938   -15881.887   -4865.5892    14561.188   -57341.259    15409.609   -11655.938    7534.5273    82.881505 
   36100    1046.7011   -112.60458   0.94707714    -111.6575    29335.069    4.3582598    4.3582598    4.3582598    29335.069    95711.269    5540.8735   -13246.934   -2051.5324   -8824.0316    1631.6243    82.782652 
   36200    1970.8112   -113.42332    1.7832314   -111.64009   -3931.8022    4.3759365    4.3759365    4.3759365   -3931.8022    6032.0277    6408.1137   -24235.548   -608.60401    3005.1507    -1895.052    83.794024 
   36300    1239.2765   -112.75747    1.1213234   -111.63614    30091.842    4.3648009    4.3648009    4.3648009    30091.842    71718.608    56234.071   -37677.153    18236.925   -3915.5337    14958.962    83.155948 
   36400    938.41069   -112.49298   0.84909371   -111.64389   -6524.5112     4.381196     4.381196     4.381196   -6524.5112    10008.705    5020.8096   -34603.048   -5794.0136    1256.6147    934.36972    84.096524 
   36500    1490.4059   -112.97328    1.3485506   -111.62473    -18090.34    4.3767906    4.3767906    4.3767906    -18090.34   -13275.572   -29823.721   -11171.725   -5556.9755   -1428.7896   -28569.906    83.843095 
   36600    1799.4172   -113.23106    1.6281505   -111.60291     40378.21    4.3379497    4.3379497    4.3379497     40378.21    50915.568     39956.94    30262.122    2634.9878   -8926.0404    454.01817    81.630705 
   36700    1338.5932   -112.85766    1.2111873   -111.64647   -8365.4841     4.365599     4.365599     4.365599   -8365.4841   -27266.704      1823.36    346.89207   -1596.0936    -1406.492    12525.107    83.201571 
   36800    753.59238   -112.32656   0.68186622    -111.6447   -33052.195    4.3833685    4.3833685    4.3833685   -33052.195   -15307.559   -67872.359   -15976.668   -7397.6003    5032.4844   -22670.038    84.221688 
   36900    1726.5806   -113.18001    1.5622464   -111.61776    5620.4859    4.3618131    4.3618131    4.3618131    5620.4859    23140.811   -2963.9929   -3315.3604   -14540.642   -7202.7518   -5183.3728    82.985298 
   37000    1684.7587   -113.14357    1.5244051   -111.61916    5261.3141    4.3704507    4.3704507    4.3704507    5261.3141    28515.752    24670.732   -37402.542    16407.556    1160.3021    14101.915    83.479276 
   37100    802.27661   -112.36301   0.72591674   -111.63709   -16959.666    4.3719657    4.3719657    4.3719657   -16959.666    3646.7586   -4120.6737   -50405.082   -4655.0165    1566.0616   -21379.595    83.566122 
   37200     962.8906   -112.51704   0.87124365    -111.6458    16319.253    4.3642658    4.3642658    4.3642658    16319.253    37975.036    23124.943   -12142.222   -14047.781   -2062.4719   -12493.967    83.125366 
   37300    2268.0648   -113.69215    2.0521927   -111.63995    -5961.725    4.3615904    4.3615904    4.3615904    -5961.725    17572.067   -7284.3094   -28172.932    20648.648   -3141.3401    6278.0069    82.972588 
   37400    1279.9601   -112.80731    1.1581348   -111.64918    31073.376     4.353562     4.353562     4.353562    31073.376    69746.252    47907.197   -24433.322   -14375.336   -6001.5783   -26197.234    82.515245 
   37500    919.22247   -112.49619   0.83173181   -111.66445   -11759.796    4.3750289    4.3750289    4.3750289   -11759.796    5410.4529    9739.2489    -50429.09    -13702.16    10022.357   -18953.614    83.741895 
   37600    1644.0608    -113.1116    1.4875808   -111.62402   -21996.778    4.3816295    4.3816295    4.3816295   -21996.778   -15451.819    -2618.686   -47919.828    8718.1807   -8633.7477    10933.243    84.121492 
   37700    2171.5321   -113.56811    1.9648478   -111.60326     24973.51    4.3449099    4.3449099    4.3449099     24973.51    29330.441    30310.137    15279.953   -11538.359   -3839.8667   -2355.3861    82.024261 
   37800    1406.3348   -112.90188    1.2724813    -111.6294    13226.742    4.3543765    4.3543765    4.3543765    13226.742     30782.12     34450.35   -25552.245   -6633.9622    3145.4887    -5397.704    82.561568 
   37900    1193.5721   -112.71159    1.0799691   -111.63162    -22957.48    4.3778015    4.3778015    4.3778015    -22957.48   -33775.476    12327.432   -47424.397   -7285.1325   -11038.966    5389.8217    83.901203 
   38000     1584.118   -113.05444    1.4333432    -111.6211    14202.981    4.3710972    4.3710972    4.3710972    14202.981    52568.766   -17118.948    7159.1234    6495.0134   -9138.1246   -5556.2613    83.516326 
   38100    2107.8621   -113.52384    1.9072379    -111.6166    1075.1585    4.3632257    4.3632257    4.3632257    1075.1585    8984.7266    5839.1305   -11598.382    -3427.513       -10221   -3946.8534    83.065951 
   38200     823.0566   -112.38107    0.7447189   -111.63635    16331.988    4.3562361    4.3562361    4.3562361    16331.988     48869.82    22239.857   -22113.712   -242.65557   -9505.3465    7735.5943    82.667393 
   38300    1076.6755   -112.62322   0.97419865   -111.64902   -7637.4546    4.3672478    4.3672478    4.3672478   -7637.4546   -2781.5772   -1239.3991   -18891.388    35321.118    -2971.818    10945.327    83.295878 
   38400    1761.2192    -113.2229    1.5935882   -111.62931    7809.7893    4.3754649    4.3754649    4.3754649    7809.7893    20838.428    9092.2645   -6501.3248   -3634.4124    6145.8661    -8729.439    83.766932 
   38500    1358.4587   -112.85392    1.2291619   -111.62476   -11495.839    4.3789496    4.3789496    4.3789496   -11495.839   -13583.718    3849.6326    -24753.43   -11319.025   -10973.921    725.23792    83.967231 
   38600    856.59198   -112.39983   0.77506242   -111.62477   -9545.3992    4.3726216    4.3726216    4.3726216   -9545.3992    3459.0226   -17871.474   -14223.746    17628.368     5567.325    10990.791    83.603735 
   38700     1402.061   -112.88647    1.2686142   -111.61786    18045.987    4.3542989    4.3542989    4.3542989    18045.987    16956.917    17077.836    20103.207   -14857.731    5423.7262   -13944.858    82.557153 
   38800     1413.616   -112.91424    1.2790694   -111.63517    36523.569    4.3625908    4.3625908    4.3625908    36523.569    63428.039    35245.979     10896.69    -11462.67    52.754321   -392.74063    83.029693 
   38900    1237.3304   -112.75232    1.1195626   -111.63276   -3143.0097    4.3865035    4.3865035    4.3865035   -3143.0097   -1518.0262    5383.7873    -13294.79    24487.432    11410.584    14026.279    84.402525 
   39000    1105.5136   -112.61878    1.0002919   -111.61849    6900.4858    4.3762936    4.3762936    4.3762936    6900.4858   -4591.9775    25276.647    16.787514   -9785.1596    7565.7045   -17247.396    83.814538 
   39100     1573.373   -113.03042     1.423621    -111.6068    27517.772    4.3653295    4.3653295    4.3653295    27517.772    57039.563    12811.564    12702.188   -3096.5228    15744.454   -3778.9791    83.186161 
   39200    1497.5484   -112.96641    1.3550133   -111.61139     14347.84    4.3759854    4.3759854    4.3759854     14347.84    48051.871   -3721.1811   -1287.1707    20701.818    6263.1713    12153.266     83.79683 
   39300    1111.6359   -112.62168    1.0058315   -111.61585   -5029.7984    4.3750225    4.3750225    4.3750225   -5029.7984   -16296.581    5641.0333   -4433.8475   -7906.0068    -8809.243   -17510.898    83.741525 
   39400    1392.2753   -112.87945    1.2597599   -111.61969    5877.1414    4.3652838    4.3652838    4.3652838    5877.1414     38971.57   -12738.753   -8601.3927   -15332.178   -5192.9504    2762.3509    83.183551 
   39500    1812.2236    -113.2604     1.639738   -111.62066     5907.122     4.364143     4.364143     4.364143     5907.122   -14437.995   -12646.429     44805.79    10148.644    5726.5364    8923.6207    83.118349 
   39600    747.50673   -112.31965    0.6763598   -111.64329   -4909.3617     4.379103     4.379103     4.379103   -4909.3617    20834.382   -21545.049   -14017.418    10108.777    4000.1998   -25608.379    83.976056 
   39700    1456.3346   -112.94353    1.3177221   -111.62581   -26089.531    4.3748662    4.3748662    4.3748662   -26089.531   -2181.2846   -24648.197   -51439.112   -23710.659   -7234.2748   -5437.3085    83.732553 
   39800     1787.835   -113.22994    1.6176707   -111.61227    29100.751    4.3576697    4.3576697    4.3576697    29100.751    21459.522    16484.163     49358.57    11278.986    5017.5471    18744.315    82.749031 
   39900    1084.1574   -112.61632   0.98096841   -111.63535       3506.7    4.3724042    4.3724042    4.3724042       3506.7   -4873.5269   -32949.578    48343.205    12926.318   -2291.4912   -15612.722    83.591268 
   40000    1280.6273   -112.79084    1.1587385    -111.6321   -27871.122    4.3763925    4.3763925    4.3763925   -27871.122   -36716.016   -4924.8166   -41972.533   -24001.564   -20354.794   -21996.353    83.820217 
   40100    1775.1828   -113.23265    1.6062227   -111.62642    22593.732     4.355454     4.355454     4.355454    22593.732    22457.422    9489.1102    35834.664    13951.183    473.97691    9486.7246    82.622875 
   40200     1677.504   -113.15367    1.5178409   -111.63583    27893.581    4.3580225    4.3580225    4.3580225    27893.581    22770.395    18769.256    42141.091   -8275.9817    2010.2009    -5319.442    82.769134 
   40300     1147.239   -112.68226    1.0380459   -111.64421   -8701.5269    4.3809364    4.3809364    4.3809364   -8701.5269   -26013.543    17751.831   -17842.868   -33410.616   -27971.278   -11612.928    84.081576 
   40400    1565.4549   -113.03544    1.4164565   -111.61898     10576.72    4.3832421    4.3832421    4.3832421     10576.72    25509.694    20244.056   -14023.589     152.7044   -10122.005    2234.2781    84.214405 
   40500    1597.3354   -113.05641    1.4453027   -111.61111    8530.4339    4.3757309    4.3757309    4.3757309    8530.4339   -13468.525    6339.5447    32720.282   -8008.5679    9535.7884   -6204.8059    83.782212 
   40600    973.68514   -112.50974   0.88101078   -111.62873    4918.6773    4.3642207    4.3642207    4.3642207    4918.6773   -10631.634    14234.344    11153.321   -23182.554   -22150.295   -15793.327     83.12279 
   40700    1169.6427   -112.69961    1.0583173    -111.6413    30847.507    4.3697359    4.3697359    4.3697359    30847.507   -3133.7186    23711.704    71964.535    10073.277   -14720.749   -9993.5786    83.438324 
   40800    1671.1131   -113.14561    1.5120582   -111.63355   -19912.375     4.385284     4.385284     4.385284   -19912.375   -28315.627   -18223.027   -13198.471   -11275.447     6712.826    6693.0711     84.33215 
   40900    993.58234   -112.53358   0.89901418   -111.63457    8626.5414    4.3618475    4.3618475    4.3618475    8626.5414    10669.216    14257.316    953.09191   -19900.023   -20605.601    5852.8038     82.98726 
   41000    1423.9725   -112.91904    1.2884402    -111.6306    24822.449    4.3653072    4.3653072    4.3653072    24822.449    26914.887    15165.662    32386.797    10717.379   -18778.011   -18324.738    83.184885 
   41100    1877.5406   -113.31177    1.6988382   -111.61294   -15330.318    4.3877677    4.3877677    4.3877677   -15330.318   -27902.172    7829.9691   -25918.752   -636.18918    10820.975    10685.638    84.475521 
   41200    1366.2062   -112.84708    1.2361721   -111.61091    15685.127    4.3690911    4.3690911    4.3690911    15685.127    37745.328    1402.8087    7907.2449   -18726.194   -26482.236     9409.209    83.401395 
   41300    1525.5581   -112.99759     1.380357   -111.61723    13059.433    4.3689897    4.3689897    4.3689897    13059.433    3439.6357     2051.352    33687.311    2925.1174    -22178.91   -8821.6893    83.395588 
   41400    1834.4697    -113.2735    1.6598668   -111.61363    2750.6391    4.3807407    4.3807407    4.3807407    2750.6391   -9836.7622     15623.75    2464.9298    11581.562    8374.7501    7837.2844    84.070309 
   41500    1271.7285   -112.76849    1.1506867   -111.61781    17983.987    4.3783935    4.3783935    4.3783935    17983.987    21622.071    14664.124    17665.766   -10657.956   -33560.299    4197.2606    83.935248 
   41600    1375.3117   -112.85814    1.2444109   -111.61373     -17659.2    4.3897556    4.3897556    4.3897556     -17659.2   -32553.403   -18736.091   -1688.1055   -6062.8686   -44135.851   -14412.983     84.59039 
   41700    2012.2677   -113.40804    1.8207421    -111.5873     6550.715    4.3811389    4.3811389    4.3811389     6550.715    2175.8719   -6175.4734    23651.746    3613.9193    511.49716    6109.8085    84.093234 
   41800      1404.67   -112.87182     1.270975   -111.60085   -17412.788    4.3817901    4.3817901    4.3817901   -17412.788   -12746.603   -355.69941   -39136.062   -8245.6055   -27648.612    8460.5718    84.130737 
   41900    1151.1251   -112.64477    1.0415622   -111.60321   -20099.716    4.3894696    4.3894696    4.3894696   -20099.716   -13667.828    11315.573   -57946.894   -5089.3413   -38817.514   -24735.824    84.573858 
   42000    1880.7569   -113.29102    1.7017484   -111.58927    -12832.11    4.3878749    4.3878749    4.3878749    -12832.11    3851.8111   -33721.415   -8626.7248    5947.5207   -2017.5904   -8459.3465    84.481712 
   42100    1397.2105   -112.85813    1.2642254    -111.5939   -32778.518    4.3848787    4.3848787    4.3848787   -32778.518   -29930.967   -34347.156   -34057.432   -348.81197   -27349.933    12551.159    84.308769 
   42200    962.10435   -112.47849   0.87053224   -111.60796    9040.4563    4.3645425    4.3645425    4.3645425    9040.4563    47880.021   -3299.5345   -17459.117   -6908.7856   -39365.592   -2844.2372    83.141178 
   42300    1775.4427   -113.21413    1.6064578   -111.60767    16944.727    4.3635056    4.3635056    4.3635056    16944.727    39647.398   -22063.638     33250.42    2660.5374    1972.3418    1133.3899    83.081939 
   42400     1226.488   -112.72998    1.1097521   -111.62023    5506.0128    4.3810118    4.3810118    4.3810118    5506.0128    28711.326     4401.278   -16594.565   -12215.896    -20010.17      11687.9    84.085918 
   42500    1255.3356   -112.74964     1.135854   -111.61378    4507.1885    4.3849691    4.3849691    4.3849691    4507.1885   -7013.7137   -7338.9999    27874.279    2678.2549   -32011.658   -13012.845    84.313986 
   42600     1477.095   -112.94309    1.3365066   -111.60658     7581.595    4.3681869    4.3681869    4.3681869     7581.595    12837.205    -19437.28     29344.86    992.45153    18631.376   -8111.3703    83.349621 
   42700    1256.2712    -112.7511    1.1367006    -111.6144    17905.283    4.3545556    4.3545556    4.3545556    17905.283    26062.868    32710.499   -5057.5178   -16952.827    -8650.753     -8118.93    82.571754 
   42800       1720.8   -113.18473     1.557016   -111.62771    14128.082     4.367463     4.367463     4.367463    14128.082   -3230.3705   -5203.4931    50818.109    13381.325   -16183.829    1107.3292    83.308188 
   42900    1232.0268   -112.74648    1.1147638   -111.63172   -27122.003     4.387746     4.387746     4.387746   -27122.003   -25380.606   -51173.746   -4811.6587   -1086.3422    15384.569    8386.1877    84.474268 
   43000    1284.7932   -112.78176    1.1625079   -111.61925    -14058.46    4.3690139    4.3690139    4.3690139    -14058.46   -25628.359   -4811.7351   -11735.284   -31538.703     29240.23    -13867.75     83.39697 
   43100    1870.3788   -113.29599    1.6923581   -111.60363    15682.897    4.3518091    4.3518091    4.3518091    15682.897    4327.4895     33945.42    8775.7827    16660.423    333.93196   -3645.4175    82.415615 
   43200    1256.5723    -112.7672     1.136973   -111.63023   -32276.942    4.3785634    4.3785634    4.3785634   -32276.942    -32296.25   -29714.638   -34819.937   -16685.873   -2118.4465   -2316.9667    83.945019 
   43300    1106.8837   -112.62436    1.0015317   -111.62283   -21266.122    4.3775296    4.3775296    4.3775296   -21266.122    -57367.02    9730.9328   -16162.278   -35043.755    32965.675   -937.59259    83.885574 
   43400    1926.9864   -113.35095    1.7435778   -111.60737      4524.05    4.3610453    4.3610453    4.3610453      4524.05   -22499.281    37017.213   -945.78279   -3020.0442    5093.9718    12216.326     82.94148 
   43500    1627.9938   -113.09873     1.473043   -111.62568   -24921.986    4.3769279    4.3769279    4.3769279   -24921.986   -29575.764    2868.1707   -48058.366    9784.8566    19905.078   -19554.668    83.850986 
   43600    773.60122   -112.32483   0.69997064   -111.62486   -19635.395    4.3771919    4.3771919    4.3771919   -19635.395   -66678.593    29359.242   -21586.833   -33221.264     28546.94    -18091.57    83.866159 
   43700    1928.6718   -113.34824    1.7451028   -111.60313    4342.5097    4.3576868    4.3576868    4.3576868    4342.5097   -27077.223   -9307.9022    49412.654   -12242.621   -24417.978    2626.7583    82.750009 
   43800    1283.2016   -112.79302    1.1610678   -111.63195   -31437.083    4.3823257    4.3823257    4.3823257   -31437.083   -45788.646    20727.566   -69250.168    7328.7359    39354.686   -13150.824    84.161595 
   43900    707.70837   -112.25907    0.6403494   -111.61872   -53771.657     4.382914     4.382914     4.382914   -53771.657   -68314.017     -22111.2   -70889.755   -29047.603    28758.735   -11993.771    84.195492 
   44000    2133.3675   -113.51151    1.9303158    -111.5812    8693.2227    4.3450824    4.3450824    4.3450824    8693.2227   -2394.5088    10912.645    17561.532   -12962.854   -24252.294    10877.273    82.034028 
   44100    1213.1211   -112.71303    1.0976575   -111.61537   -12479.648    4.3698375    4.3698375    4.3698375   -12479.648   -28207.366    17525.455   -26757.034     6619.606    36263.847   -7900.1128    83.444144 
   44200     771.5225   -112.31943   0.69808977   -111.62134   -28486.613    4.3733408    4.3733408    4.3733408   -28486.613   -49680.766    17567.339   -53346.413   -21504.859    33137.744   -13018.505    83.644998 
   44300    2018.2943   -113.43001    1.8261951   -111.60382    20274.858    4.3616331    4.3616331    4.3616331    20274.858    5363.0051     34411.86     21049.71    -1217.374   -15160.676   -2847.2091    82.975024 
   44400    1246.6961   -112.74176    1.1280369   -111.61373   -27270.464    4.3903909    4.3903909    4.3903909   -27270.464   -47228.674   -7092.9802   -27489.738     9107.995    18403.122   -10853.974    84.627122 
   44500    1132.0549   -112.63827     1.024307   -111.61397   -26863.395    4.3668243    4.3668243    4.3668243   -26863.395   -25593.984    -10234.71   -44761.493   -21208.789    16911.436    -28623.71    83.271648 
   44600     1737.319   -113.16263    1.5719628   -111.59067    41893.678    4.3396386    4.3396386    4.3396386    41893.678    51895.708    37882.511    35902.814   -413.80967   -13818.187    12870.132    81.726083 
   44700    1217.4258   -112.73036    1.1015525   -111.62881    635.44421    4.3731254    4.3731254    4.3731254    635.44421   -25966.782    35509.638   -7636.5232    28509.328    22802.398    1865.1564    83.632638 
   44800    1325.8187     -112.822    1.1996286   -111.62237   -19602.164    4.3864725    4.3864725    4.3864725   -19602.164    2642.6369   -16677.131   -44771.997   -25867.492    10887.553    -10638.47    84.400735 
   44900     1516.742   -112.98517      1.37238   -111.61279     -8235.14    4.3738958    4.3738958    4.3738958     -8235.14    13385.653   -19390.844   -18700.229     6705.044   -1659.1544    11239.875    83.676847 
   45000    1212.3234    -112.7107    1.0969357   -111.61377     928.6119    4.3559947    4.3559947    4.3559947     928.6119    12128.584   -2696.4283   -6646.3201    21792.433    25181.279    11253.129    82.653649 
   45100    1404.1149   -112.89391    1.2704726   -111.62344    9471.8664    4.3584606    4.3584606    4.3584606    9471.8664    24018.537    21893.769   -17496.708   -20730.489   -1325.3128   -18678.972    82.794096 
   45200    1545.4522   -113.02453    1.3983576   -111.62617   -23045.024    4.3773618    4.3773618    4.3773618   -23045.024   -15865.512   -37223.491   -16046.068   -8321.4226   -6487.2439    11919.415    83.875928 
   45300    1033.7287   -112.55531   0.93533949   -111.61997   -4288.0286    4.3748346    4.3748346    4.3748346   -4288.0286    13415.549   -2335.9633   -23943.672     5680.483    12570.385    20675.395    83.730736 
   45400    1636.2569   -113.08893    1.4805197   -111.60841   -978.53815    4.3764508    4.3764508    4.3764508   -978.53815   -6764.1547    23425.297   -19596.756    5086.9531    4031.8095   -11841.604     83.82357 
   45500    1424.0491   -112.90309    1.2885095   -111.61458    6474.2194    4.3681266    4.3681266    4.3681266    6474.2194    30249.341    -17508.81    6682.1273   -10118.165     1543.629     27976.59    83.346172 
   45600    972.55345   -112.50166    0.8799868   -111.62168    14378.891    4.3573923    4.3573923    4.3573923    14378.891   -12927.166     41374.33    14689.509    3333.3593     11415.53    5867.3434    82.733233 
   45700    1615.5931   -113.08384    1.4618226   -111.62201   -6795.1929    4.3800778    4.3800778    4.3800778   -6795.1929   -46127.042    35623.891    -9882.428    11449.481   -2372.8971   -7573.2957    84.032147 
   45800    1680.6541   -113.13373    1.5206912   -111.61304    9464.4183    4.3745602    4.3745602    4.3745602    9464.4183    35202.725   -13049.348    6239.8784    2905.8016       2587.3    22409.648    83.714982 
   45900    1052.4326   -112.57267   0.95226314    -111.6204    21285.048    4.3571822    4.3571822    4.3571822    21285.048    4390.8102    47363.494    12100.839   -7906.0121    15831.865    12172.816    82.721266 
   46000    1566.2534   -113.03978     1.417179    -111.6226    8625.5521    4.3690479    4.3690479    4.3690479    8625.5521    11679.065    25389.123   -11191.532    3859.0324   -9060.0648   -4286.7257    83.398917 
   46100    1555.6911   -113.02529     1.407622   -111.61766    5748.8261    4.3762744    4.3762744    4.3762744    5748.8261    52624.619   -20862.413   -14515.728    2944.1659    15365.838   -2930.2877    83.813433 
   46200    1276.3612   -112.77627    1.1548784   -111.62139     132.3269    4.3669389    4.3669389    4.3669389     132.3269   -13983.843    4842.7281    9538.0955   -9012.2605    31760.348    18139.666    83.278205 
   46300     1458.844   -112.93452    1.3199927   -111.61453    24259.086    4.3656032    4.3656032    4.3656032    24259.086      70931.2   -1209.9023     3055.959    6976.4354   -22507.058   -11471.713    83.201809 
   46400    1504.5688   -112.98989    1.3613655   -111.62852   -28965.028    4.3740357    4.3740357    4.3740357   -28965.028   -8613.5088    -34359.09   -43922.486    -9050.478    8184.7991   -18261.782    83.684875 
   46500    1039.9924   -112.58116   0.94100701   -111.64016   -21609.051    4.3609332    4.3609332    4.3609332   -21609.051    -15557.72    6821.3104   -56090.744   -12412.263    61334.945    30553.385    82.935085 
   46600    1803.4922   -113.26719    1.6318376   -111.63536    15226.239    4.3616816    4.3616816    4.3616816    15226.239    37652.846    19218.269   -11192.399    7450.5517   -11325.443   -3233.8852    82.977794 
   46700    1610.2967   -113.08879    1.4570303   -111.63176   -29748.134    4.3782451    4.3782451    4.3782451   -29748.134   -22889.816   -14882.825   -51471.761     1059.931    14819.365   -16564.221    83.926714 
   46800    648.68915   -112.22079   0.58694758   -111.63385    3885.5669    4.3582779    4.3582779    4.3582779    3885.5669    74156.924    4812.0869    -67312.31   -8841.3498    44953.809    26252.491    82.783688 
   46900    1961.6963   -113.39831     1.774984   -111.62333    3568.9424    4.3488312    4.3488312    4.3488312    3568.9424    17868.977    6493.5995   -13655.749   -13864.474   -287.71004    9682.7747    82.246541 
   47000    1408.8795   -112.91108    1.2747838   -111.63629   -3956.5481    4.3667481    4.3667481    4.3667481   -3956.5481     27461.51   -9515.5383   -29815.616    12775.067   -2916.1716   -16420.517    83.267286 
   47100    900.01465   -112.45087   0.81435217   -111.63652   -24706.558    4.3813265    4.3813265    4.3813265   -24706.558   -15661.139   -1436.5406   -57021.995   -1027.6282    47059.602    16127.629    84.104039 
   47200    1498.5433    -112.9629    1.3559134   -111.60699   -12447.068    4.3726996    4.3726996    4.3726996   -12447.068   -23269.802   -9768.1076   -4303.2938   -5626.2696   -4363.1007    13099.625    83.608213 
   47300    1287.0442   -112.76369    1.1645447   -111.59915   -4496.6073    4.3593038    4.3593038    4.3593038   -4496.6073   -21749.322    6074.4048    2185.0956     22160.82   -3276.6743   -13182.153     82.84216 
   47400    1291.7396   -112.77502    1.1687931   -111.60622   -12138.328    4.3707952    4.3707952    4.3707952   -12138.328    19093.053    -15632.64   -39875.397   -1069.3677     36411.48    13971.081    83.499021 
   47500    1447.2704   -112.91502    1.3095207   -111.60549   -16694.009    4.3703196    4.3703196    4.3703196   -16694.009   -39339.258   -22466.598     11723.83   -5239.2364   -14003.444    7873.7928    83.471765 
   47600    952.44127    -112.4755   0.86178888   -111.61371    18215.263    4.3596172    4.3596172    4.3596172    18215.263    25797.187   -4698.6534    33547.256    17868.219   -3298.2713   -5503.1706    82.860024 
   47700    2018.7225   -113.43568    1.8265826    -111.6091   -11569.603    4.3670638    4.3670638    4.3670638   -11569.603   -5755.3059   -14020.376   -14933.128     4554.258    16891.508    2670.8125    83.285348 
   47800    1217.7646   -112.71771     1.101859   -111.61586     7648.772    4.3710315    4.3710315    4.3710315     7648.772    4112.2345    1082.8363    17751.245   -26595.504   -13885.236   -1362.1174    83.512561 
   47900    1288.5619   -112.78013    1.1659179   -111.61422   -4877.3447    4.3740997    4.3740997    4.3740997   -4877.3447   -10585.123    3287.2526   -7334.1641    9660.1523   -4036.2492   -4712.0599    83.688546 
   48000    1816.2605   -113.24241    1.6433907   -111.59902    1462.0568    4.3687002    4.3687002    4.3687002    1462.0568    8006.9346   -8384.9394    4764.1752   -4338.8358    1934.3243   -16258.281     83.37901 
   48100    1187.3899   -112.68267    1.0743753    -111.6083    9912.9474    4.3590023    4.3590023    4.3590023    9912.9474   -20074.304    23082.767    26730.379   -44676.692  -0.57014629     4363.051    82.824974 
   48200    1474.8606   -112.94909    1.3344849   -111.61461    -2104.374     4.373867     4.373867     4.373867    -2104.374   -11941.889    6371.5889    -742.8221    10315.491   -6533.2983   -8015.9103    83.675192 
   48300    1466.5611   -112.93533    1.3269753   -111.60836   -8002.8831     4.374778     4.374778     4.374778   -8002.8831   -670.00384   -22277.106   -1061.5392   -11732.615   -1921.1368   -33064.231    83.727486 
   48400    968.93843   -112.48737   0.87671586   -111.61065   -4106.3232    4.3637592    4.3637592    4.3637592   -4106.3232   -39464.487   -132.54821    27278.066   -45154.267    603.94444   -2912.5843    83.096423 
   48500     1660.124    -113.1104    1.5021151   -111.60828   -3341.3945     4.367167     4.367167     4.367167   -3341.3945    11055.627     7891.814   -28971.625    12468.097   -11345.847   -6760.9053    83.291254 
   48600    1287.2893    -112.7837    1.1647664   -111.61894    6174.3524    4.3681168    4.3681168    4.3681168    6174.3524   -13773.173    7652.2636    24643.967   -24194.015    3916.3134    -12336.27    83.345609 
   48700    1245.2581   -112.75352    1.1267357   -111.62678   -9794.2086    4.3832075    4.3832075    4.3832075   -9794.2086   -16188.844   -37861.565    24667.783    -40755.59   -2528.7757    -5710.318    84.212408 
   48800    2097.4305   -113.49296    1.8977992   -111.59516   -18749.773    4.3917917    4.3917917    4.3917917   -18749.773    -28687.61    14150.452   -41712.162    16904.598   -13388.852   -3170.3052    84.708148 
   48900    1668.1467   -113.11866    1.5093742   -111.60929   -17994.811    4.3573581    4.3573581    4.3573581   -17994.811    -27502.56   -33229.179    6747.3059   -38872.759    3004.7372   -13061.316    82.731281 
   49000    996.04736   -112.52779   0.90124459   -111.62655    37374.312    4.3392827    4.3392827    4.3392827    37374.312    9258.9971    49092.093    53771.844   -47180.119    1998.5421   -11722.205    81.705978 
   49100    1836.9625   -113.30421    1.6621223   -111.64209    7819.7486     4.386299     4.386299     4.386299    7819.7486   -19539.928    82631.182   -39632.008    26870.378    -8236.259    4988.3424    84.390723 
   49200    937.50527   -112.47283   0.84827447   -111.62456    -20808.36    4.4011322    4.4011322    4.4011322    -20808.36   -37497.042    2533.4676   -27461.505   -32563.935    6886.2406   -1923.9409    85.249774 
   49300    1013.5249   -112.51428   0.91705862   -111.59722    22997.417    4.3666478    4.3666478    4.3666478    22997.417    21053.889    8378.9348    39559.428   -20564.398    7840.1635    254.21462    83.261553 
   49400    1973.6533   -113.36504     1.785803   -111.57923    19410.558    4.3562068    4.3562068    4.3562068    19410.558    20404.172    4420.4762    33407.026    9346.1114   -1190.4564    2725.1635    82.665723 
   49500    938.35166   -112.46315    0.8490403   -111.61411   -3931.8279    4.3686206    4.3686206    4.3686206   -3931.8279    30767.951   -59567.021    17003.586   -50867.163    6882.7192    17618.246    83.374454 
   49600    1497.1154   -112.96721    1.3546214   -111.61259     12853.67    4.3754882    4.3754882    4.3754882     12853.67    21378.523   -34569.158    51751.645   -225.17698    218.26504   -15383.702    83.768268 
   49700    1661.4455   -113.10905    1.5033108   -111.60574    1455.4593    4.3783998    4.3783998    4.3783998    1455.4593    1575.0237   -28114.679    30906.033   -2016.2708   -1970.9135     8924.625    83.935608 
   49800    1025.9504   -112.54889   0.92830148   -111.62059   -10345.403    4.3603139    4.3603139    4.3603139   -10345.403    16229.251   -52350.119    5084.6592   -47240.114   -6521.7442    19861.019    82.899761 
   49900    1691.8814   -113.14962    1.5308499   -111.61877    25531.556    4.3434195    4.3434195    4.3434195    25531.556    5819.4053    9260.1221    61515.141    1885.9038    12181.935   -8751.9401    81.939883 
   50000    1779.6537   -113.25219    1.6102681   -111.64192   -2440.0865    4.3695814    4.3695814    4.3695814   -2440.0865    10108.423   -35175.524    17746.842   -3218.2531    979.41353    11730.658    83.429473 
   50100    954.75813   -112.49444   0.86388522   -111.63055   -48307.546    4.3882195    4.3882195    4.3882195   -48307.546   -61154.545   -75543.881   -8224.2111   -41919.944   -9614.6848    17382.007    84.501619 
   50200    1810.7032   -113.24462    1.6383623   -111.60626    1828.4581    4.3560306    4.3560306    4.3560306    1828.4581   -1810.6663   -5882.7688    13178.809     19355.39    11449.731    2515.7336    82.655693 
   50300    1541.7124   -112.99893    1.3949737   -111.60395    22267.776    4.3455755    4.3455755    4.3455755    22267.776    26705.459    20860.229    19237.641   -8698.7374   -9409.3342    4072.5067     82.06196 
   50400    590.72608   -112.17138   0.53450137   -111.63688   -20194.547    4.3718886    4.3718886    4.3718886   -20194.547   -45066.835   -6075.7911   -9441.0138   -43887.331   -6344.9362    17566.832    83.561696 
   50500    1774.7323   -113.21468    1.6058151   -111.60886   -19142.983    4.3856596    4.3856596    4.3856596   -19142.983   -8335.0563   -25230.309   -23863.584    15556.859      9586.65    3936.9019    84.353822 
   50600    1428.2506   -112.89425    1.2923111   -111.60194   -11432.444    4.3744339    4.3744339    4.3744339   -11432.444    -8410.527   -10709.587   -15177.218   -4555.5587   -9699.6257   -3401.6351    83.707734 
   50700    858.20326   -112.38595   0.77652035   -111.60943   -16544.441    4.3596579    4.3596579    4.3596579   -16544.441   -21679.167   -26398.472   -1555.6832   -53154.222   -10009.734    29545.576    82.862348 
   50800    2048.8268   -113.46856    1.8538216   -111.61474    23918.514    4.3534417    4.3534417    4.3534417    23918.514    18339.986     36143.39    17272.166    12267.903   -4512.5921    -9551.785    82.508406 
   50900    1680.6456   -113.15051    1.5206834   -111.62983    19681.452    4.3623669    4.3623669    4.3623669    19681.452    21042.337    8702.2504     29299.77   -5600.5605    5945.5567   -9557.7402    83.016911 
   51000    1049.9217   -112.58976   0.94999119   -111.63977   -14745.438    4.3790849    4.3790849    4.3790849   -14745.438   -10527.479   -3975.3705   -29733.463   -36846.006   -13893.758    21231.596    83.975019 
   51100    1864.9122   -113.29485    1.6874117   -111.60744   -5849.3339    4.3767879    4.3767879    4.3767879   -5849.3339    3302.1694   -30948.123    10097.952    25664.237   -11718.003   -15069.337    83.842942 
   51200     1290.414   -112.76548    1.1675937   -111.59789    8037.5066    4.3620909    4.3620909    4.3620909    8037.5066    18806.578   -27838.699    33144.641   -9895.1187    13269.997    4370.7852    83.001152 
   51300    1170.0505   -112.67001    1.0586863   -111.61132   -3654.4091    4.3704881    4.3704881    4.3704881   -3654.4091   -13944.459    -11102.21    14083.442   -35378.643   -1684.0482    11910.611    83.481422 
   51400    1749.3606   -113.17643    1.5828582   -111.59357    9170.3128    4.3752052    4.3752052    4.3752052    9170.3128    38963.509    -11953.49    500.92004    23934.157    15447.449   -9535.6988    83.752017 
   51500    1060.5129   -112.56886   0.95957433   -111.60928   -17089.842    4.3715244    4.3715244    4.3715244   -17089.842   -31749.583   -65507.021    45987.078   -16631.237   -9453.1756     2217.722    83.540818 
   51600    1365.9789   -112.84859    1.2359664   -111.61262   -7735.3003    4.3609221    4.3609221    4.3609221   -7735.3003   -15098.426   -32796.493    24689.018   -34666.628    12918.244     16668.52    82.934453 
   51700    1806.0857   -113.24785    1.6341843   -111.61367    12876.742    4.3628904    4.3628904    4.3628904    12876.742    18782.052    4199.6427    15648.532    14351.525    15047.057   -811.02526    83.046799 
   51800    1119.4108   -112.63598    1.0128664   -111.62311   -33573.152    4.3890534    4.3890534    4.3890534   -33573.152   -24634.493   -77675.822    1590.8596   -30638.258   -3027.2343    507.01603      84.5498 
   51900    1901.5995   -113.31128    1.7206072   -111.59067   -14014.345    4.3803606    4.3803606    4.3803606   -14014.345    9193.6643   -29437.741   -21798.957   -13000.707     19775.11     4047.604     84.04843 
   52000    1140.6267   -112.62492     1.032063   -111.59285    27359.679    4.3603727    4.3603727    4.3603727    27359.679    91228.488    -16146.84    6997.3889   -1011.8148    9522.1825   -11411.692    82.903115 
   52100    636.63343    -112.1936   0.57603931   -111.61756     14095.28    4.3686983    4.3686983    4.3686983     14095.28    44927.057    -22475.07    19833.852   -33038.841    3710.4354    8840.9205    83.378899 
   52200    1800.6796   -113.23166    1.6292927   -111.60237   -6535.0271    4.3920495    4.3920495    4.3920495   -6535.0271    64995.041   -36928.209   -47671.913    4829.9476    12693.563   -7636.7002    84.723066 
   52300    1214.2285   -112.69475    1.0986595   -111.59609   -33703.395    4.4009557    4.4009557    4.4009557   -33703.395    34308.216    -86797.82   -48620.581   -22360.941   -9212.8804   -26615.942    85.239517 
   52400    1049.9258     -112.539   0.94999495   -111.58901    3954.9283    4.3670016    4.3670016    4.3670016    3954.9283    10706.337   -34726.033    35884.482   -20249.904   -5044.1392    10670.938    83.281791 
   52500     1924.058   -113.31116    1.7409282   -111.57023     25823.73    4.3503006    4.3503006    4.3503006     25823.73    50451.119    15270.335    11749.736    6070.5524   -16557.489   -15465.362     82.32994 
   52600    1116.6558   -112.62048    1.0103736   -111.61011   -29362.402    4.3849668    4.3849668    4.3849668   -29362.402   -13190.963   -51779.917   -23116.325   -26048.413   -1340.6672   -15532.848    84.313851 
   52700    1574.9584   -113.01297    1.4250554   -111.58792   -23741.106    4.3906062    4.3906062    4.3906062   -23741.106   -54794.724   -24251.619    7823.0244   -19204.142   -3760.8865    15662.465    84.639572 
   52800    2059.1329   -113.42947    1.8631468   -111.56632   -18492.108    4.3750629    4.3750629    4.3750629   -18492.108    4916.9631   -20760.586   -39632.702    14038.067    412.97223   -18736.066    83.743848 
   52900    767.74601    -112.2836   0.69467273   -111.58892   -9952.8506    4.3715421    4.3715421    4.3715421   -9952.8506   -18469.038   -35286.645    23897.132   -39252.627     9680.164   -9692.3096    83.541834 
   53000    1769.3459   -113.19249    1.6009414   -111.59155   -2703.9691    4.3753423    4.3753423    4.3753423   -2703.9691   -26415.529    10938.151    7365.4709   -2198.4858    -3132.945    9445.7734    83.759889 
   53100    1727.8443    -113.1662    1.5633898   -111.60281   -13499.811    4.3800462    4.3800462    4.3800462   -13499.811   -3556.1344   -27326.726   -9616.5718    9043.4979    9200.5796   -7956.6057    84.030328 
   53200    1006.9589   -112.52075   0.91111754   -111.60964   -17366.201    4.3734473    4.3734473    4.3734473   -17366.201   -31091.225   -41735.412    20728.032   -43991.558   -6386.8515   -31712.792    83.651109 
   53300    1763.7842   -113.19777     1.595909   -111.60187    13432.655    4.3602342    4.3602342    4.3602342    13432.655    971.68621   -2012.2987    41338.578    12202.281   -8900.5164   -12457.341    82.895212 
   53400     1501.666   -112.98931     1.358739   -111.63058   -8516.9939    4.3740091    4.3740091    4.3740091   -8516.9939   -33086.254   -32298.455    39833.727    4782.9601    8878.6387    7186.0438     83.68335 
   53500    1064.5238   -112.57775   0.96320353   -111.61455   -41514.469    4.4005837    4.4005837    4.4005837   -41514.469   -30361.375   -85197.459   -8984.5737   -29377.066   -12038.303   -29622.921    85.217904 
   53600    2228.3178   -113.59482    2.0162287   -111.57859   -9651.1442     4.374334     4.374334     4.374334   -9651.1442    12435.546   -14191.982   -27196.997    11857.506    8391.9855   -8514.6748    83.701998 
   53700     1322.163   -112.78969    1.1963209   -111.59337    305.61731    4.3580525    4.3580525    4.3580525    305.61731   -31549.147   -7236.4123    39702.412   -14510.384   -8210.4369   -1707.9251    82.770842 
   53800    1265.2847   -112.76634    1.1448562   -111.62148   -19387.226     4.364152     4.364152     4.364152   -19387.226   -28190.272     -34730.6    4759.1951   -17417.388   -666.83512   -25197.185    83.118865 
   53900    1550.7701   -113.02903    1.4031694   -111.62586    18410.208    4.3685382    4.3685382    4.3685382    18410.208    21750.146    24112.355    9368.1238    6441.3075    10764.603    -5800.675    83.369734 
   54000    1137.9925   -112.66059    1.0296795   -111.63091   -30221.953    4.3933788    4.3933788    4.3933788   -30221.953   -43545.968   -67608.857    20488.965   -36211.795   -5076.8845    14724.729    84.800019 
   54100    1750.7983   -113.18323    1.5841591   -111.59907    -28261.74    4.3812337    4.3812337    4.3812337    -28261.74   -23801.922   -44640.829   -16342.471   -718.76844    14694.561   -6630.0702    84.098695 
   54200    1384.9696   -112.83078    1.2531496   -111.57763    40168.855    4.3468437    4.3468437    4.3468437    40168.855    41578.487    46212.345    32715.734   -17891.641    960.14416   -5776.6571    82.133829 
   54300    1094.6971   -112.61013   0.99050498   -111.61962     2086.532      4.37226      4.37226      4.37226     2086.532    20891.693   -42626.185    27994.088   -48289.133    3799.3805    11610.059    83.582999 
   54400    1808.9647   -113.22886    1.6367893   -111.59207    -15289.52    4.3959257    4.3959257    4.3959257    -15289.52   -5279.8351   -23516.669   -17072.056    27433.454   -2454.9711    -6250.293    84.947583 
   54500     1540.093   -112.99298    1.3935085   -111.59947    19167.032    4.3609699    4.3609699    4.3609699    19167.032    9168.3953    40710.167    7622.5346   -16413.428   -9949.1211    7449.4431     82.93718 
   54600    1031.6092   -112.54256   0.93342164   -111.60913    18261.605    4.3411511    4.3411511    4.3411511    18261.605    26028.915   -12104.558    40860.456   -33641.697    10072.089    -1676.925    81.811566 
   54700    1507.8236   -112.99599    1.3643105   -111.63168   -157.15528    4.3578175    4.3578175    4.3578175   -157.15528   -30257.014   -3698.6567    33484.205    34559.848   -5354.2291   -11788.735    82.757454 
   54800    1516.8842   -113.00777    1.3725087   -111.63526     95.00423    4.3871685    4.3871685    4.3871685     95.00423   -6537.9413    10942.089   -4119.1346   -19099.862   -3377.4209    3947.8497     84.44092 
   54900    992.71435   -112.50428   0.89822881   -111.60605   -31008.774    4.3993424    4.3993424    4.3993424   -31008.774   -38597.643   -10600.705   -43827.975   -22887.893    16438.043   -3442.5077     85.14581 
   55000    1441.9786    -112.9059    1.3047325   -111.60117    14525.852    4.3453575    4.3453575    4.3453575    14525.852   -4547.8848    43185.063    4940.3792    36660.531    3650.8227   -7659.8612    82.049611 
   55100    1618.4267   -113.05884    1.4643865   -111.59446     33420.34    4.3228127    4.3228127    4.3228127     33420.34    18186.509    8277.7359    73796.774   -14391.888    -7837.943   -12884.847    80.779148 
   55200    1261.4677   -112.77664    1.1414025   -111.63524   -26533.228    4.3756243    4.3756243    4.3756243   -26533.228   -46136.911   -18438.223    -15024.55   -26874.225    14356.212    6410.9619    83.776088 
   55300    1241.0251   -112.73721    1.1229056   -111.61431   -34284.165    4.3856945    4.3856945    4.3856945   -34284.165   -27631.874    -54056.74   -21163.883    14921.027    9998.1944   -8651.6067    84.355836 
   55400    1447.9155   -112.91349    1.3101044   -111.60339     6051.333      4.35858      4.35858      4.35858     6051.333    14091.022     -49309.8    53372.777    1606.9573   -3300.8151   -24424.443    82.800904 
   55500    1801.5197   -113.23357    1.6300529   -111.60352    9966.7593    4.3558472    4.3558472    4.3558472    9966.7593    19091.995   -5917.1851    16725.468   -14498.929    8326.3661    4546.1227    82.645251 
   55600    1112.9564   -112.63757    1.0070264   -111.63054    6596.6535    4.3603664    4.3603664    4.3603664    6596.6535    46478.282   -41115.511     14427.19    14459.127    1100.8872   -17349.071    82.902752 
   55700    1296.7092   -112.81156    1.1732898   -111.63828   -9544.7252    4.3771391    4.3771391    4.3771391   -9544.7252    11557.924    -52671.53    12479.431    4004.9096   -3573.7545    -22147.15    83.863128 
   55800     2284.092    -113.6717    2.0666945   -111.60501   -10422.448    4.3810606    4.3810606    4.3810606   -10422.448   -23936.604    2765.1428   -10095.883   -6951.5605    3751.5878    6464.7069    84.088729 
   55900    1168.0773      -112.68    1.0569009    -111.6231   -3800.1574    4.3559113    4.3559113    4.3559113   -3800.1574     35517.99    -47338.09     419.6276    13963.559    894.93711   -33995.216    82.648901 
   56000    545.27709   -112.13874   0.49337817   -111.64536    1016.1303    4.3462738    4.3462738    4.3462738    1016.1303     26641.44    18629.612   -42222.661    20604.697    158.48507   -2777.4745    82.101528 
   56100    1851.8051   -113.32634    1.6755521   -111.65078   -165.54716    4.3518514    4.3518514    4.3518514   -165.54716   -31979.766    26896.486    4586.6386     1087.328    5318.5799    13208.199    82.418021 
   56200    1733.3494   -113.22618     1.568371   -111.65781   -2221.9023    4.3699573    4.3699573    4.3699573   -2221.9023   -19983.584    32434.476     -19116.6   -127.37749    4871.6862   -18320.242    83.451009 
   56300    1026.1661   -112.58511   0.92849669   -111.65661    -20815.33    4.3788567    4.3788567    4.3788567    -20815.33    564.91117   -22618.955   -40391.946    25782.279   -6496.6556    -18799.53    83.961887 
   56400    1182.5973    -112.7039    1.0700389   -111.63386    455.83553    4.3668695    4.3668695    4.3668695    455.83553   -23212.716    9848.1198    14732.103    7137.1064    3773.5763    292.95045    83.274233 
   56500    2240.0976   -113.64406    2.0268874   -111.61717   -8957.3931    4.3682519    4.3682519    4.3682519   -8957.3931   -27741.978   -21790.584    22660.383    1704.8193    9678.4979    6116.4469    83.353344 
   56600    1579.1527   -113.05603    1.4288506   -111.62718    2504.5822    4.3694812    4.3694812    4.3694812    2504.5822    3103.1463   -18430.462    22841.063    14932.464   -16917.817   -7607.0827    83.423737 
   56700    744.58102   -112.30442   0.67371256   -111.63071   -2189.7552    4.3786277    4.3786277    4.3786277   -2189.7552   -4175.9334   -29995.106    27601.774    15301.233    2006.9082     1782.147    83.948718 
   56800    1656.0574   -113.10385    1.4984356   -111.60541   -14936.764    4.3834516    4.3834516    4.3834516   -14936.764    10292.263   -30984.111   -24118.444   -16261.029    5592.1197    14737.647    84.226482 
   56900    1619.7577   -113.06263    1.4655908   -111.59704    12490.433    4.3617283    4.3617283    4.3617283    12490.433   -12879.977    6704.1359    43647.139     4259.142   -2623.9738   -10724.234    82.980459 
   57000    1069.0555   -112.58624   0.96730386   -111.61894   -13713.569     4.364869     4.364869     4.364869   -13713.569   -43133.456    25693.725   -23700.975    13351.095     8049.154    3106.9005     83.15984 
   57100    1137.2509   -112.65407    1.0290085   -111.62507   -22445.311    4.3737874    4.3737874    4.3737874   -22445.311    16593.803    -19437.44   -64492.295   -12141.297     1029.627    9644.7832    83.670622 
   57200    1690.8461   -113.14987    1.5299131   -111.61996     6227.998    4.3647188    4.3647188    4.3647188     6227.998    19886.923   -444.45906   -758.46964     11917.24    799.01417   -13561.395    83.151252 
   57300     1732.968   -113.19597    1.5680259   -111.62794   -23983.371      4.37533      4.37533      4.37533   -23983.371   -45498.221   -14982.111   -11469.783    5023.1786    13777.432    12489.052    83.759187 
   57400    1190.7909   -112.70905    1.0774526   -111.63159   -25259.229    4.3712635    4.3712635    4.3712635   -25259.229    1282.7889   -56414.205   -20646.272   -5976.3832    11042.712    2374.2608    83.525863 
   57500    1659.6012   -113.13057    1.5016421   -111.62893    11428.183    4.3528975    4.3528975    4.3528975    11428.183    37025.987   -14880.482    12139.045    4675.4652   -7521.5853   -20875.847    82.477467 
   57600    2079.7454   -113.51801    1.8817973   -111.63621   -4705.9605     4.360418     4.360418     4.360418   -4705.9605   -33326.312    4617.8317    14590.599    2374.6171   -6152.4745    9399.6992    82.905694 
   57700    813.26246   -112.38523   0.73585696   -111.64937    7539.4568    4.3684125    4.3684125    4.3684125    7539.4568   -3938.6898    14366.548    12190.512   -7838.7638    15843.539    27035.461     83.36254 
   57800    931.65993   -112.48377   0.84298548   -111.64079     13332.75    4.3676274    4.3676274    4.3676274     13332.75    26566.283    1159.8078     12272.16    698.30756    1573.6483    -16884.04    83.317598 
   57900    1777.1835   -113.22868     1.608033   -111.62065    15925.861    4.3690256    4.3690256    4.3690256    15925.861    -4732.396    52628.402   -118.42278       3207.9   -15510.405   -766.36168    83.397643 
   58000    1317.7315   -112.82353    1.1923111   -111.63121    9161.3161    4.3617632    4.3617632    4.3617632    9161.3161    15621.802   -24408.906    36271.052   -10529.297    9606.2257    37471.536     82.98245 
   58100    785.84222   -112.34787   0.71104656   -111.63683    8164.8152    4.3517515    4.3517515    4.3517515    8164.8152    15933.376   -18287.614    26848.684   -13642.861   -5209.6471   -13362.944    82.412344 
   58200    1545.2342   -113.03679    1.3981603   -111.63863    49.799041    4.3613993    4.3613993    4.3613993    49.799041    -9611.874    10567.231   -805.95951    8544.1549   -18085.164   -18333.313     82.96168 
   58300     1884.334   -113.33268     1.704985    -111.6277    1003.0239     4.366784     4.366784     4.366784    1003.0239    4605.3895   -4135.3397    2539.0219    3887.6244    12448.203    25216.737    83.269342 
   58400    1260.3913   -112.77228    1.1404286   -111.63185    3925.9889    4.3590265    4.3590265    4.3590265    3925.9889     18960.51   -825.98898   -6356.5545   -24036.981   -1150.6625   -4718.1393    82.826349 
   58500    1211.8302   -112.72823    1.0964894   -111.63174   -9681.1534    4.3649156    4.3649156    4.3649156   -9681.1534   -1858.3281   -16852.878   -10332.254    21311.375   -10665.597     -18099.6    83.162503 
   58600    1625.4586   -113.08722    1.4707491   -111.61647   -13862.686     4.370409     4.370409     4.370409   -13862.686   -25955.322   -14803.915    -828.8195    20472.177    17956.395    7923.2185    83.476885 
   58700    1489.9966    -112.9641    1.3481802   -111.61592   -6632.1282     4.362547     4.362547     4.362547   -6632.1282    22739.405   -34333.626   -8302.1632   -30457.938   -7081.2626   -6141.6096    83.027196 
   58800    1051.5141   -112.57706   0.95143205   -111.62563   -17515.558    4.3606119    4.3606119    4.3606119   -17515.558   -393.59317   -38790.329   -13362.753    11379.745    -5186.711   -17142.058    82.916756 
   58900    1259.0047   -112.77203     1.139174   -111.63286   -12107.802    4.3572604    4.3572604    4.3572604   -12107.802   -30815.822   -14243.268    8735.6824    48635.474    15196.314   -6177.4736     82.72572 
   59000    1657.7743   -113.13628     1.499989   -111.63629    12292.939    4.3570963    4.3570963    4.3570963    12292.939    3314.5341    31222.689    2341.5957   -20211.268    27.139451    4174.5566    82.716372 
   59100    1287.1023    -112.8097    1.1645972    -111.6451   -12987.806    4.3671334    4.3671334    4.3671334   -12987.806   -3355.5482   -35688.298    80.427365    11.944286    1310.4033   -11320.473    83.289329 
   59200    1212.7647   -112.73777    1.0973349   -111.64044    520.50777    4.3554313    4.3554313    4.3554313    520.50777    -10617.19    -13705.12    25883.833    56667.131   -11209.448   -1547.7259     82.62158 
   59300    1667.1702   -113.13803    1.5084906   -111.62954    29919.925    4.3608269    4.3608269    4.3608269    29919.925    9202.1307    5217.9901    75339.655   -15580.851    5807.7164    11402.545    82.929023 
   59400    1513.0587   -112.99556    1.3690474   -111.62651   -6447.7015    4.3740593    4.3740593    4.3740593   -6447.7015    2421.8256   -50955.006    29190.076    8973.9115    7552.5474   -14954.973     83.68623 
   59500    987.52768    -112.5169   0.89353579   -111.62337    24255.018    4.3545375    4.3545375    4.3545375    24255.018    11667.013   -15250.171    76348.212    44826.431    3717.8829    501.94479    82.570728 
   59600     1362.628   -112.86264    1.2329345    -111.6297    11360.411    4.3531967    4.3531967    4.3531967    11360.411   -4743.6353     21850.68     16974.19   -12671.338    15056.997     22211.01    82.494475 
   59700    1327.4282    -112.8395    1.2010849   -111.63842   -2284.8147    4.3575089    4.3575089    4.3575089   -2284.8147   -13532.884   -19144.942    25823.382    19536.095   -1376.2033     17781.32    82.739872 
   59800    1432.9443   -112.93539    1.2965582   -111.63883    25921.624    4.3639872    4.3639872    4.3639872    25921.624   -3655.1328    25624.472    55795.532    24076.566    5793.3566    258.23451    83.109447 
   59900    1408.6565   -112.90078     1.274582    -111.6262   -16166.165    4.3891423    4.3891423    4.3891423   -16166.165   -17073.716    9309.6552   -40734.434   -18532.904   -6313.1867    22337.147    84.554938 
   60000    776.59934   -112.32871    0.7026834   -111.62603   -12908.147    4.3646863    4.3646863    4.3646863   -12908.147   -32330.808   -6884.8628    491.23075    31183.706    2028.0901    1208.6407    83.149399 
   60100    1520.4584   -112.97894    1.3757428    -111.6032    32504.089    4.3321837    4.3321837    4.3321837    32504.089    18334.547    32400.947    46776.772    27630.807   -220.65384    -11143.97    81.305624 
   60200    1659.3979   -113.12732    1.5014581   -111.62587   -3678.1833    4.3642169    4.3642169    4.3642169   -3678.1833   -11634.002    21154.396   -20554.944   -20362.423    3022.9365     11812.36    83.122575 
   60300    870.78751   -112.41096   0.78790684   -111.62306   -18683.426    4.3803444    4.3803444    4.3803444   -18683.426   -49215.019   -27859.986    21024.728    32202.153    9809.0332    6895.6379    84.047494 
   60400    1548.1337   -113.00668    1.4007839   -111.60589    -17928.12    4.3688264    4.3688264    4.3688264    -17928.12   -4044.1247   -60276.436    10536.202    9073.2308   -2011.3894   -15498.266    83.386235 
   60500    1441.5753   -112.90952    1.3043676   -111.60515   -14132.506    4.3600613    4.3600613    4.3600613   -14132.506   -8883.2655   -10.700877   -33503.551    -7042.925     2894.329   -20164.569    82.885352 
   60600    1307.6989     -112.798    1.1832334   -111.61477    7135.7528    4.3403683    4.3403683    4.3403683    7135.7528   -34448.714     17470.24    38385.733    34333.384    4423.2864     15062.43    81.767317 
   60700    1601.8022    -113.0889    1.4493443   -111.63956   -15812.941    4.3603191    4.3603191    4.3603191   -15812.941   -13928.198   -44220.909    10710.285    9310.4531   -2560.7313   -21271.431    82.900053 
   60800    1279.7478   -112.78472    1.1579427   -111.62677   -45259.641    4.3804656    4.3804656    4.3804656   -45259.641   -41203.473   -33010.381   -61565.067   -4501.1822    4793.7727   -35226.038    84.054474 
   60900    1042.1424   -112.55866   0.94295238   -111.61571    11333.247    4.3532065    4.3532065    4.3532065    11333.247    -27592.93    18631.848    42960.823    30147.251    -3710.966     11050.69    82.495035 
   61000    1957.9976   -113.37864    1.7716374   -111.60701   -5755.4272    4.3635274    4.3635274    4.3635274   -5755.4272    6769.9131   -9340.0056   -14696.189   -18409.303    838.40408   -1842.7135     83.08318 
   61100    976.27731   -112.49474   0.88335623   -111.61138   -24591.187    4.3735857    4.3735857    4.3735857   -24591.187   -15374.395   -20011.135    -38388.03   -7122.3942    961.04136   -16053.002     83.65905 
   61200    1594.0315   -113.04166    1.4423132   -111.59934    5710.3875    4.3699978    4.3699978    4.3699978    5710.3875   -2551.1129    18972.131    710.14441    9965.4406    1937.1453    9550.6023    83.453328 
   61300    1508.2602   -112.96118    1.3647055   -111.59648   -23662.458    4.3772098    4.3772098    4.3772098   -23662.458   -13568.671   -34093.052   -23325.653   -17512.482    2004.5591     11261.72     83.86719 
   61400    1002.4172   -112.51974   0.90700817   -111.61273    82.018584    4.3507807    4.3507807    4.3507807    82.018584   -29219.328    34399.129   -4933.7456   -18265.592   -4414.5295   -20654.002    82.357204 
   61500    1744.2428   -113.18219    1.5782276   -111.60396    37752.033    4.3480467    4.3480467    4.3480467    37752.033    487.73622     82261.37    30506.993   -85.004306    3813.4468   -3325.3829    82.202041 
   61600    782.71425   -112.33579   0.70821631   -111.62758    -9703.019    4.3798658    4.3798658    4.3798658    -9703.019   -21727.622    44039.928   -51421.363   -4951.0409    4517.0989    29580.336    84.019948 
   61700      1030.14   -112.54272   0.93209231   -111.61063   -4492.0932    4.3755459    4.3755459    4.3755459   -4492.0932   -23873.082     44744.58   -34347.777   -8212.7903     15446.71   -10290.132    83.771588 
   61800    1910.6906   -113.30866     1.728833   -111.57983    23855.681    4.3526082    4.3526082    4.3526082    23855.681    3849.3278    38694.165    29023.551    2778.0892   -4258.1192    -2728.065    82.461023 
   61900    590.12135   -112.14779    0.5339542   -111.61383   -48560.543    4.3647744    4.3647744    4.3647744   -48560.543   -22039.641   -61288.019   -62353.969   -3356.6292    8147.0222    42247.782    83.154435 
   62000    1983.6066      -113.39     1.794809    -111.5952   -11791.531    4.3611253    4.3611253    4.3611253   -11791.531   -20268.539   -6211.5831   -8894.4721   -4288.4984    17940.233    3167.7701    82.946045 
   62100     1292.251   -112.77909    1.1692558   -111.60983   -18654.142    4.3687124    4.3687124    4.3687124   -18654.142   -14072.949   -19919.055   -21970.422    13374.014   -13761.457    5100.1033    83.379708 
   62200     866.6523   -112.40285   0.78416521   -111.61869   -30473.163    4.3675355    4.3675355    4.3675355   -30473.163   -2904.8494   -19267.853   -69246.787    1721.4704    309.87939    45017.284     83.31234 
   62300    1908.8702   -113.32089    1.7271859    -111.5937    41086.018    4.3493678    4.3493678    4.3493678    41086.018     18869.33    103166.97    1221.7565   -9381.2129    1524.3158    -7242.332    82.276993 
   62400     799.6935   -112.35539   0.72357948   -111.63182    5893.5288    4.3722798    4.3722798    4.3722798    5893.5288   -8292.4462    57109.739   -31136.707    20009.235   -4404.5127   -2035.1977    83.584134 
   62500    1437.0347   -112.89311    1.3002592   -111.59285   -14971.728    4.3935457    4.3935457    4.3935457   -14971.728   -16029.444    20163.544   -49049.285    7777.9213     10431.46    18702.267    84.809685 
   62600    1795.6737   -113.20452    1.6247633   -111.57976    15756.463    4.3648767    4.3648767    4.3648767    15756.463    -12082.83    16641.461    42710.757    3600.1769   -12047.909   -2826.1009    83.160281 
   62700    1125.0494   -112.61464    1.0179684   -111.59667    -8178.083    4.3511246    4.3511246    4.3511246    -8178.083   -3054.1212   -36004.959    14524.831      31845.6    83.946542    15719.924    82.376732 
   62800    2070.6727   -113.47293    1.8735882   -111.59934    6356.3224    4.3577433    4.3577433    4.3577433    6356.3224    6838.6975    7728.4081    4501.8617    5031.5101    9132.2517    17082.618    82.753227 
   62900    1136.5088    -112.6475    1.0283371   -111.61917     4669.531    4.3725491    4.3725491    4.3725491     4669.531   -43585.726     4537.504    53056.815   -17686.665   -12848.932    1516.1874    83.599579 
   63000    1554.9453   -113.01623    1.4069472   -111.60928   -11425.449     4.368248     4.368248     4.368248   -11425.449   -21901.689   -31933.251    19558.592     10154.51   -1257.9144   -4462.3921    83.353119 
   63100    1520.2023    -112.9737     1.375511   -111.59818    42942.481    4.3435323    4.3435323    4.3435323    42942.481      11797.7    87162.367    29867.375    2517.8365    5876.4162    9464.2085    81.946267 
   63200     946.7169   -112.48409   0.85660935   -111.62748   -5291.8984    4.3513176    4.3513176    4.3513176   -5291.8984   -57487.413   -3143.4593    44755.177   -45746.362    1656.2664    6886.6151    82.387693 
   63300    1601.0169   -113.06583    1.4486337   -111.61719    14279.195    4.3651664    4.3651664    4.3651664    14279.195   -21986.375    55367.625    9456.3336    1504.5389   -5494.5646   -6260.0466    83.176836 
   63400    1597.9773   -113.06754    1.4458835   -111.62166   -30337.114     4.371661     4.371661     4.371661   -30337.114    -40098.11   -28350.914   -22562.318   -10359.811    6514.0232    -10689.82    83.548646 
   63500    858.79195   -112.40628     0.777053   -111.62922   -17485.409    4.3605473    4.3605473    4.3605473   -17485.409   -56711.737   -18417.898    22673.408    -62295.18    13920.621   -1028.4701     82.91307 
   63600     2086.199   -113.48701    1.8876367   -111.59937     25719.44    4.3399504    4.3399504    4.3399504     25719.44    15107.917    33459.905    28590.499    29186.146    -8411.482    -3381.836    81.743703 
   63700    1342.2076    -112.8384    1.2144576   -111.62394   -23496.365    4.3657938    4.3657938    4.3657938   -23496.365   -15408.258   -45870.556   -9210.2813   -5984.4034    12280.732   -12762.434    83.212709 
   63800     1364.652   -112.83977    1.2347658   -111.60501   -14590.343    4.3746531    4.3746531    4.3746531   -14590.343   -36699.345   -15576.587    8504.9026   -50739.845    17207.502    7085.9489    83.720318 
   63900    1721.3858   -113.14836    1.5575461   -111.59081    8579.2233    4.3504759    4.3504759    4.3504759    8579.2233   -8423.0816    5035.5699    29125.182    41453.044   -11556.036   -11841.465    82.339895 
   64000     1239.322   -112.73008    1.1213646   -111.60872   -11104.181    4.3511235    4.3511235    4.3511235   -11104.181   -14285.716   -34596.594    15569.768   -4358.6285    9740.1247   -5592.8575    82.376672 
   64100    1623.6451   -113.07934    1.4691082   -111.61023   -6303.6414    4.3575876    4.3575876    4.3575876   -6303.6414   -24469.169    1101.7445    4456.4999   -32363.308    8857.8122    1750.4371    82.744357 
   64200    1051.3502   -112.57238   0.95128373   -111.62109   -9693.1827    4.3704797    4.3704797    4.3704797   -9693.1827   -20732.009     -41102.8     32755.26      52809.4    565.77603   -9309.9695    83.480939 
   64300    1298.6666   -112.78095    1.1750608   -111.60589   -24988.821    4.3736935    4.3736935    4.3736935   -24988.821   -15904.924   -29581.919   -29479.619   -7598.1954     6489.934    19072.581    83.665236 
   64400    1673.5801   -113.11107    1.5142904   -111.59678   -8865.8851    4.3475322    4.3475322    4.3475322   -8865.8851   -32105.224    18420.457   -12912.889   -12612.028    15933.807    7440.3195    82.172866 
   64500    963.58053   -112.48993   0.87186792   -111.61806    3952.9695    4.3434925    4.3434925    4.3434925    3952.9695   -33405.801    2999.0389    42265.671    54347.583    1710.5786    -12686.52    81.944012 
   64600    1471.0722   -112.95706     1.331057     -111.626   -6260.5834    4.3629376    4.3629376    4.3629376   -6260.5834    4858.2957     11456.12   -35096.166    9696.9722   -5029.5122    14354.343    83.049495 
   64700    1567.2791   -113.03941     1.418107    -111.6213   -9097.2955    4.3672401    4.3672401    4.3672401   -9097.2955     -9440.46    18358.469   -36209.895   -32.814426    10666.816    16284.446    83.295438 
   64800    1031.1988   -112.55421   0.93305033   -111.62116   -7709.9093    4.3646496    4.3646496    4.3646496   -7709.9093   -17360.908    -18119.28     12350.46    65524.507    10590.698   -6688.7096    83.147302 
   64900    2047.5253   -113.45351    1.8526439   -111.60087    5757.2331    4.3532422    4.3532422    4.3532422    5757.2331    33362.739    6827.2341   -22918.274   -2821.6286   -7731.2402    18089.278    82.497066 
   65000    983.17552   -112.50678   0.88959787   -111.61718    19196.142    4.3531435    4.3531435    4.3531435    19196.142    50233.088    16193.744   -8838.4066    20931.147    15978.903    5107.0701    82.491452 
   65100    1324.4441   -112.82242    1.1983848   -111.62404   -36058.593    4.3713912    4.3713912    4.3713912   -36058.593    -55663.25   -36723.678   -15788.849     63440.11    6169.9588   -4377.9423    83.533179 
   65200    2138.3234    -113.5451    1.9347999    -111.6103    20657.637    4.3543653    4.3543653    4.3543653    20657.637    24650.088     26763.57    10559.253   -15973.161   -11030.889    926.27259     82.56093 
   65300     947.5145   -112.49186   0.85733103   -111.63453   -680.65151    4.3468925    4.3468925    4.3468925   -680.65151   -20564.513    14759.744    3762.8143    31489.668      13473.2    13513.341    82.136597 
   65400    1001.8184   -112.54308   0.90646632   -111.63661   -34044.324    4.3643788    4.3643788    4.3643788   -34044.324   -64109.517   -38678.223    654.76754    49345.731    12952.415    5697.2369    83.131826 
   65500    2098.0181    -113.5075    1.8983308   -111.60917    6541.4063    4.3576785    4.3576785    4.3576785    6541.4063   -1954.2135    15318.496     6259.936   -24358.289   -2370.0158   -19694.186    82.749535 
   65600    581.60309   -112.15452    0.5262467   -111.62828    4923.8494    4.3617502    4.3617502    4.3617502    4923.8494   -52348.874    37638.795    29481.628    50825.799    6697.2043    13490.396    82.981709 
   65700    1496.6895   -112.96488    1.3542361   -111.61064     -18641.3    4.3637704    4.3637704    4.3637704     -18641.3   -45661.038    -2247.391    -8015.471    17427.137    14835.085   -4036.3026    83.097064 
   65800    1637.3752   -113.07917    1.4815315   -111.59764    25138.904    4.3523545    4.3523545    4.3523545    25138.904   -4268.7539     62921.37    16764.095    771.45241   -429.42377   -17159.147    82.446607 
   65900    656.78137   -112.21816   0.59426959    -111.6239    -15015.86    4.3677974    4.3677974    4.3677974    -15015.86   -67196.963   -1337.1924    23486.575    54771.315    12060.121    578.42193    83.327326 
   66000    2022.4466   -113.42544    1.8299522   -111.59549   -7774.5635    4.3665336    4.3665336    4.3665336   -7774.5635   -22721.909    8224.5134   -8826.2951   -18793.699    4899.6982   -14800.318    83.255019 
   66100    1507.7296   -112.96317    1.3642255   -111.59895    2053.1014    4.3575129    4.3575129    4.3575129    2053.1014   -16733.946    4506.8652    18386.385    38552.144   -12913.449   -7236.3198    82.740098 
   66200    925.59521   -112.45401   0.83749799   -111.61651    -44810.17    4.3649919    4.3649919    4.3649919    -44810.17   -73667.614   -50515.134   -10247.764    50618.718    10786.955   -6855.1687    83.166867 
   66300    2124.9352   -113.52638     1.922686   -111.60369    19646.739    4.3413239    4.3413239    4.3413239    19646.739    32587.093    17517.381     8835.742   -34047.399     7688.697    5790.0491    81.821337 
   66400    1214.4541   -112.73362    1.0988636   -111.63476   -8393.1229    4.3531369    4.3531369    4.3531369   -8393.1229   -20625.829   -44169.923    39616.384    53444.424   -6008.3331    9071.0861    82.491076 
   66500    969.25002   -112.50251   0.87699779   -111.62551   -34334.168    4.3727673    4.3727673    4.3727673   -34334.168    -43620.78   -50380.889   -9000.8363    39464.686   -2785.5837   -15108.124    83.612092 
   66600    1718.9002   -113.15292    1.5552971   -111.59763    5535.3331     4.360598     4.360598     4.360598    5535.3331     49698.92   -1922.7881   -31170.133   -22909.147   -4597.9935    18601.786    82.915963 
   66700    1016.5647    -112.5348    0.9198091   -111.61499   -2952.3366    4.3595885    4.3595885    4.3595885   -2952.3366   -7671.7403   -36374.611    35189.342    63375.168   -3055.9268    10356.363    82.858392 
   66800    1524.4905   -112.98507     1.379391   -111.60568    9714.6317    4.3609087    4.3609087    4.3609087    9714.6317    4362.9708   -2049.6146    26830.539    11484.624   -12169.215   -10387.549    82.933689 
   66900    1422.9065   -112.89609    1.2874757   -111.60861    -4971.603    4.3647157    4.3647157    4.3647157    -4971.603    11605.395    18240.614   -44760.818   -9142.1991   -13274.048    26831.656     83.15108 
   67000    1177.2701   -112.67559    1.0652187   -111.61037   -14436.678    4.3657521    4.3657521    4.3657521   -14436.678   -10975.892   -35728.383    3394.2409     55145.37    3417.4515    2542.6672    83.210326 
   67100    1985.6341   -113.39281    1.7966434   -111.59617   -3272.4895    4.3588484    4.3588484    4.3588484   -3272.4895   -3132.7131    6062.8294   -12747.585   -2308.4484   -21904.166   -9832.0874    82.816198 
   67200    1253.2983   -112.74619    1.1340106   -111.61218   -2907.2648    4.3571882    4.3571882    4.3571882   -2907.2648    -16319.49    36874.635   -29276.939    7870.8559   -14899.773    15683.068    82.721605 
   67300    1196.7579   -112.70246    1.0828517   -111.61961   -4756.3597    4.3517132    4.3517132    4.3517132   -4756.3597   -13493.398    1485.7448   -2261.4263    39843.237     14072.07    9397.5084    82.410167 
   67400    1718.9311   -113.16855     1.555325   -111.61323    1837.9122    4.3581892    4.3581892    4.3581892    1837.9122    6088.8525     32688.03   -33263.146     116.0021    -25806.65   -8182.5065    82.778633 
   67500    1323.6544   -112.81261    1.1976703   -111.61494   -26962.756    4.3698295    4.3698295    4.3698295   -26962.756   -39821.785     -555.087   -40511.397    18863.768   -11432.514   -1615.5471    83.443683 
   67600    786.41972   -112.32889   0.71156909   -111.61732   -9767.7893    4.3621949    4.3621949    4.3621949   -9767.7893   -11363.503   -14981.301   -2958.5634    49317.803    18734.503    14905.029     83.00709 
   67700    1982.9405    -113.3907    1.7942062   -111.59649    1255.7106    4.3536848    4.3536848    4.3536848    1255.7106    20311.711   -188.19407   -16356.385   -14649.649   -12877.672   -7818.8718     82.52223 
   67800    915.51682   -112.44854   0.82837886   -111.62016    19528.929    4.3553452    4.3553452    4.3553452    19528.929   -1413.9769    50002.722    9998.0435    48970.787    -3102.993   -7485.6522    82.616682 
   67900    1237.7769   -112.74507    1.1199666    -111.6251   -14229.391    4.3649032    4.3649032    4.3649032   -14229.391    1471.0723   -50919.888    6760.6424    51862.305    12773.719    8939.0998    83.161797 
   68000    1883.3019   -113.30475    1.7040511    -111.6007    11077.735    4.3628507    4.3628507    4.3628507    11077.735     4615.565     41334.77    -12717.13    -30402.81    687.39474    -3032.163    83.044533 
   68100    744.74988   -112.28514   0.67386534   -111.61128    997.69767    4.3672218    4.3672218    4.3672218    997.69767   -5172.4414   -23310.748    31476.283    66672.685   -6254.7179    6171.0869    83.294388 
   68200    1936.4057   -113.34206    1.7521006   -111.58996   -1579.3988    4.3705074    4.3705074    4.3705074   -1579.3988   -16403.411    18553.675   -6888.4605    13764.511   -7040.8521   -187.41215    83.482525 
   68300    1595.9653   -113.04538     1.444063   -111.60131    11239.542    4.3546897    4.3546897    4.3546897    11239.542   -5877.2091    10515.187    29080.649    4223.9127   -1664.0688   -1464.3351    82.579385 
   68400    818.59826   -112.36515   0.74068491   -111.62447   -2739.9503    4.3541995    4.3541995    4.3541995   -2739.9503   -51040.174   -16325.152    59145.475    57456.232   -8661.3589    4754.9002    82.551498 
   68500    2079.6935   -113.48577    1.8817504   -111.60402    -10021.13    4.3664014    4.3664014    4.3664014    -10021.13   -29775.365    36364.812   -36652.838   -18663.528   -21110.547    1492.8753    83.247454 
   68600      1256.17   -112.74812     1.136609   -111.61151   -11276.854    4.3605647    4.3605647    4.3605647   -11276.854   -16413.269   -35176.022    17758.729    45471.136    1224.6795    6539.5431    82.914064 
   68700    963.47602   -112.48616   0.87177335   -111.61438      10358.4    4.3541322    4.3541322    4.3541322      10358.4   -48313.545    55188.608    24200.138    36620.344    -1747.267   -1440.9532    82.547671 
   68800    1950.2727   -113.37196    1.7646477   -111.60731   -5116.8792    4.3570856    4.3570856    4.3570856   -5116.8792   -17424.266    13732.304   -11658.676   -19499.899   -18487.357   -2345.5323     82.71576 
   68900    732.15632   -112.28727   0.66247043    -111.6248     27376.49    4.3506191    4.3506191    4.3506191     27376.49    14974.716    17799.685    49355.069    57159.806    7117.5164   -505.16019    82.348025 
   69000    1485.9188   -112.96275    1.3444905   -111.61826   -16317.027    4.3705215    4.3705215    4.3705215   -16317.027   -36064.599   -41384.254    28497.773   -1904.5644    6196.1992   -1352.7192    83.483332 
   69100    1705.7752   -113.14248    1.5434212   -111.59906    676.90598    4.3644753    4.3644753    4.3644753    676.90598   -6225.7436    6896.2032    1360.2584   -3490.4948   -10222.166   -4117.3716    83.137337 
   69200    816.57562   -112.34353   0.73885478   -111.60467    23459.123    4.3445451    4.3445451    4.3445451    23459.123    35216.737   -4498.2251    39658.858    62670.585   -1479.4023   -17959.192    82.003603 
   69300    1982.5913   -113.39923    1.7938903   -111.60534   -7773.7906    4.3620167    4.3620167    4.3620167   -7773.7906    -6519.098   -5738.5021   -11063.772   -20171.436    36.047221    12485.259    82.996922 
   69400     1569.269    -113.0271    1.4199076   -111.60719   -10546.397    4.3660776    4.3660776    4.3660776   -10546.397   -6515.7755   -22503.257   -2620.1578    22288.034    1052.1104   -5033.4414    83.228938 
   69500     930.0563   -112.45667   0.84153449   -111.61514    8904.1573    4.3552048    4.3552048    4.3552048    8904.1573     30121.41   -16460.067    13051.129    41906.843   -1233.8408   -25269.992    82.608691 
   69600    1904.6721   -113.32775    1.7233873   -111.60436   -11101.869    4.3640139    4.3640139    4.3640139   -11101.869    10606.118   -20502.726       -23409     -15020.7    10033.779    2409.7176    83.110976 
   69700    1180.5687    -112.6754    1.0682034   -111.60719   -13299.992    4.3649156    4.3649156    4.3649156   -13299.992   -28123.125   -38278.002    26501.151    48024.886   -2535.0863    6194.9421    83.162502 
   69800    1012.3048   -112.51632   0.91595462   -111.60037    21957.834    4.3573994    4.3573994    4.3573994    21957.834    52309.731    6148.1688    7415.6033    13321.212   -7598.1008   -28166.957    82.733635 
   69900    1413.7144   -112.87272    1.2791585   -111.59356    -5869.122    4.3679669    4.3679669    4.3679669    -5869.122     33515.19   -38475.616    -12646.94   -9388.3596   -7379.5375    5632.8896    83.337032 
   70000    779.07134   -112.30685   0.70492012   -111.60193   -11219.118    4.3671452    4.3671452    4.3671452   -11219.118   -29211.859    -50107.51    45662.013    52480.915   -2804.8607    2563.7077    83.290004 
   70100    1489.9063   -112.94389    1.3480986   -111.59579    14591.469     4.358601     4.358601     4.358601    14591.469    24614.227   -15113.294    34273.474   -1009.0307   -10548.226   -37524.023    82.802098 
   70200    1584.8057   -113.02959    1.4339655   -111.59563    5734.5272    4.3670952    4.3670952    4.3670952    5734.5272    20609.791   -13095.551    9689.3409    13842.054     -8682.75   -4356.4093    83.287143 
   70300    1265.7878   -112.74499    1.1453114   -111.59968   -4455.4852    4.3709602    4.3709602    4.3709602   -4455.4852   -8657.3437    -28505.79    23796.678    40570.459    6550.0494    11248.152    83.508477 
   70400    1946.5545   -113.34681    1.7612834   -111.58553   -16904.769    4.3657702    4.3657702    4.3657702   -16904.769    -1768.711   -25053.334   -23892.262    -16074.72    17512.634   -37903.523     83.21136 
   70500     1342.902   -112.80597     1.215086   -111.59088    1918.4589    4.3599884    4.3599884    4.3599884    1918.4589   -3277.2983   -3157.7418    12190.417    32239.212    1760.8149   -4392.7453    82.881196 
   70600    1449.0323   -112.90941    1.3111148    -111.5983   -15326.927    4.3659882    4.3659882    4.3659882   -15326.927    1168.7285   -37850.065   -9299.4442    24858.086    11259.177    13442.485    83.223824 
   70700    1393.0181   -112.85497    1.2604321   -111.59454   -20571.817    4.3689672    4.3689672    4.3689672   -20571.817   -14846.735   -12677.321   -34191.395   -12671.746    16283.636   -27492.923    83.394294 
   70800    953.22979   -112.45929   0.86250234   -111.59679   -679.74747    4.3596872    4.3596872    4.3596872   -679.74747   -27570.198   -23091.133    48622.088    51710.647    817.71468    3170.0237     82.86402 
   70900    1748.1262   -113.17248    1.5817413   -111.59073    2250.8042    4.3672465    4.3672465    4.3672465    2250.8042   -11689.708    4004.7057    14437.415    1067.1792    502.31543    16014.224    83.295803 
   71000    1086.1417   -112.58269   0.98276382   -111.59993   -3361.7461    4.3696147    4.3696147    4.3696147   -3361.7461    -19399.94    23797.805   -14483.103   -1991.4365    538.95441   -12557.352     83.43138 
   71100    1311.2151   -112.79008    1.1864149   -111.60366    7412.7775    4.3550822    4.3550822    4.3550822    7412.7775   -215.67891    3701.5452    18752.466    50960.451      -236.39   -3171.7658    82.601718 
   71200    2023.4794   -113.43243    1.8308867   -111.60154    17084.601    4.3492369    4.3492369    4.3492369    17084.601    96.160252    42397.214    8760.4283    -8831.256   -3029.2407    15621.847    82.269561 
   71300    1358.6551   -112.85475    1.2293397   -111.62541    11076.369    4.3516344    4.3516344    4.3516344    11076.369    4372.5992    19702.279    9154.2284   -20420.741   -3034.1609   -5701.5402     82.40569 
   71400    1366.6757   -112.86286    1.2365969   -111.62626    -13640.86    4.3677897    4.3677897    4.3677897    -13640.86   -14405.963   -14108.186   -12408.431     36994.08    11595.088   -9257.9707    83.326887 
   71500    1673.1813   -113.12228    1.5139296   -111.60835   -12802.927    4.3720027    4.3720027    4.3720027   -12802.927   -6294.3946   -7029.5433   -25084.842   -8252.4507   -8408.1737    32536.833     83.56824 
   71600    973.42288   -112.48225   0.88077348   -111.60147   -286.68554    4.3606473    4.3606473    4.3606473   -286.68554   -19815.699   -2443.0147    21398.657   -16853.772    15722.007   -13453.596    82.918778 
   71700    1544.6885   -112.98198    1.3976666   -111.58432     15789.56    4.3601449    4.3601449    4.3601449     15789.56    41768.236   -26964.109    32564.552    20605.816    18763.995   -4317.0805    82.890118 
   71800    981.70029     -112.486   0.88826305   -111.59774   -1718.6592    4.3713829    4.3713829    4.3713829   -1718.6592    29619.924   -32081.704   -2694.1973    -12941.92   -2271.7755    48495.087    83.532703 
   71900    1473.6824   -112.92461    1.3334188   -111.59119   -7037.7665    4.3706514    4.3706514    4.3706514   -7037.7665   -26248.834    8149.3961   -3013.8615    2125.2843    13303.448   -15829.377    83.490779 
   72000    1590.5157   -113.02045    1.4391321   -111.58132   -9018.8105    4.3667662    4.3667662    4.3667662   -9018.8105    11960.117     258.5368   -39275.085     15934.25   -6494.1488      24455.4    83.268321 
   72100    1206.8056   -112.68628     1.091943   -111.59433   -18226.249    4.3716827    4.3716827    4.3716827   -18226.249   -8394.3575    15330.453   -61614.842   -5180.3303   -1218.5716    36189.202    83.549891 
   72200    2026.4182   -113.41638    1.8335457   -111.58283   -6200.4575    4.3636949    4.3636949    4.3636949   -6200.4575    210.94978     9812.873   -28625.195    14528.178   -10168.658   -14419.968    83.092753 
   72300    999.62732   -112.50054   0.90448381   -111.59606     10694.06     4.358976     4.358976     4.358976     10694.06    71398.391    14431.888   -53748.099    3342.7842    3083.4769    69216.957    82.823474 
   72400    1893.7563   -113.30614    1.7135105   -111.59263    5492.0371    4.3704282    4.3704282    4.3704282    5492.0371     20624.13    7972.5391   -12120.557     5216.746    5731.8435   -4193.8086    83.477986 
   72500    1185.3315   -112.66887    1.0725129   -111.59636    18154.555    4.3746052    4.3746052    4.3746052    18154.555    80231.179   -10810.818   -14956.695   -7255.7076    22528.193    21511.182    83.717566 
   72600    1022.5475   -112.51305   0.92522245   -111.58783    18705.793    4.3705637    4.3705637    4.3705637    18705.793    71466.926   -4346.9123   -11002.636   -2163.2755    1115.3806    40111.634     83.48575 
   72700    1559.3204   -112.98463    1.4109059   -111.57372    15634.133    4.3695778    4.3695778    4.3695778    15634.133    18239.118   -33774.561    62437.841   -9005.8985    9431.3736   -32361.028    83.429264 
   72800    792.15108   -112.31217   0.71675495   -111.59542   -1727.5408    4.3665948    4.3665948    4.3665948   -1727.5408    32747.765   -61957.451    24027.064   -4576.8477    14375.938    60473.496    83.258518 
   72900    1501.3951   -112.95389    1.3584938   -111.59539    4429.1438    4.3619867    4.3619867    4.3619867    4429.1438    17507.231   -26771.046    22551.247    15324.377   -4699.4166    14804.245    82.995209 
   73000    1627.9842   -113.06649    1.4730343   -111.59345    -18261.64    4.3730946    4.3730946    4.3730946    -18261.64   -16316.764   -50377.965    11909.808   -1686.0976    4699.5916   -11771.351    83.630872 
   73100    765.11544   -112.29602   0.69229253   -111.60372    -31001.92    4.3751119    4.3751119    4.3751119    -31001.92    28259.694   -64406.614    -56858.84     183.1988   -7533.1297     68055.54    83.746658 
   73200    2136.6113   -113.51322    1.9332508   -111.57997    34441.206    4.3448243    4.3448243    4.3448243    34441.206    34699.214    28557.823    40066.579    -1077.529     7993.535    -19624.46    82.019415 
   73300    1100.0138   -112.61564   0.99531557   -111.62032    6168.1643    4.3564178    4.3564178    4.3564178    6168.1643    76046.215   -43432.487   -14109.234   -11479.802   -5336.6751    43633.312    82.677737 
   73400     1156.714   -112.64415    1.0466191   -111.59754   -26051.941    4.3868054    4.3868054    4.3868054   -26051.941     31145.16   -57705.625   -51595.356    -20780.89    5693.9645    33680.052    84.419952 
   73500    2006.1212   -113.37989    1.8151806   -111.56471     7871.126    4.3673671    4.3673671    4.3673671     7871.126   -3127.4612    1892.8854    24847.954    3497.6761    5011.9356   -4765.5275    83.302704 
   73600    877.08181     -112.379   0.79360205    -111.5854    -14375.77     4.356199     4.356199     4.356199    -14375.77    50269.455   -64615.553   -28781.212   -319.90629   -9136.2277    77712.269    82.665279 
   73700    1903.6382    -113.3013    1.7224518   -111.57885   -485.01536    4.3553873    4.3553873    4.3553873   -485.01536    13860.029   -14631.109   -683.96622   -6299.2613   -2859.3391   -28246.402    82.619078 
   73800    1358.8035   -112.82761    1.2294739   -111.59814   -13896.556    4.3691531    4.3691531    4.3691531   -13896.556    3052.6622   -27512.098   -17230.233    12004.889   -10623.716     40970.66    83.404941 
   73900    1086.5465    -112.5798   0.98313006   -111.59667   -40303.703    4.3858908    4.3858908    4.3858908   -40303.703   -16185.676   -67834.066   -36891.367   -1049.4263    685.83171    35978.501    84.367161 
   74000    1994.2862   -113.37323     1.804472   -111.56875   -7687.1036    4.3618301    4.3618301    4.3618301   -7687.1036   -3420.4413    12988.483   -32629.353   -4327.0962   -6869.6489   -11363.383    82.986266 
   74100    961.38614   -112.45705   0.86988238   -111.58716    -6562.282     4.346688     4.346688     4.346688    -6562.282    65132.261    -42662.75   -42156.357    4878.8696    2469.6449    84691.976    82.125001 
   74200     2092.142   -113.48517    1.8930141   -111.59216   -8862.0729    4.3563924    4.3563924    4.3563924   -8862.0729   -24283.254   -1691.2323   -611.73279    18250.555   -14149.612   -16463.596    82.676286 
   74300    1141.5095   -112.64054    1.0328618   -111.60767    -13379.07    4.3700947    4.3700947    4.3700947    -13379.07    7249.3703   -28800.171   -18586.409   -17304.578    2651.2603    51100.598    83.458881 
   74400    1475.1557   -112.93187    1.3347519   -111.59712    -15166.16    4.3727767    4.3727767    4.3727767    -15166.16    16171.767   -39803.018    -21867.23    11765.318   -1802.6465    29985.821     83.61263 
   74500    1706.3077   -113.13111    1.5439031    -111.5872   -11005.405    4.3659607    4.3659607    4.3659607   -11005.405   -11148.315   -21511.855    -356.0464    15784.882    6834.2243   -3798.0024    83.222255 
   74600    793.35051   -112.32282   0.71784021   -111.60498   -9157.7775    4.3546678    4.3546678    4.3546678   -9157.7775    31975.067   -48253.239    -11195.16   -1210.4556    -4141.676    68054.783    82.578136 
   74700    1870.3021    -113.2902    1.6922887   -111.59791    4175.0214    4.3514113    4.3514113    4.3514113    4175.0214    7812.8585    -361.4631    5073.6688    -8364.427     9466.447   -22329.239    82.393018 
   74800    1228.6022   -112.72777     1.111665   -111.61611   -9651.3098    4.3626166    4.3626166    4.3626166   -9651.3098     31151.43   -47547.373   -12557.986    6680.1102   -1538.9502    16053.393    83.031165 
   74900     1136.535   -112.64895    1.0283608   -111.62059   -5543.5007    4.3591561    4.3591561    4.3591561   -5543.5007    28567.647   -29425.483   -15772.666    13412.361    8017.6421    59761.699     82.83374 
   75000    1936.1174   -113.35536    1.7518397   -111.60352    14748.997    4.3570088    4.3570088    4.3570088    14748.997    19888.633    18566.688    5791.6708   -14750.631    6644.6026   -31501.277    82.711389 
   75100    870.44029   -112.40502   0.78759266   -111.61742   -18901.061    4.3654635    4.3654635    4.3654635   -18901.061    54808.179   -77816.723   -33694.639    3419.9724   -105.88653    49474.084    83.193825 
   75200    1467.8888   -112.93261    1.3281767   -111.60443    7483.9852    4.3576628    4.3576628    4.3576628    7483.9852    31483.417   -34036.459    25004.998    21407.567    12050.607    21798.324    82.748638 
   75300    1653.2309   -113.09878    1.4958781    -111.6029    4034.2945    4.3603854    4.3603854    4.3603854    4034.2945    14232.802   -22637.595    20507.677    11814.183   -5684.1557    2551.0511    82.903836 
   75400    957.64114   -112.48267   0.86649383   -111.61618   -38181.888    4.3628079    4.3628079    4.3628079   -38181.888    52336.507    -97528.18   -69353.991    408.31622   -4361.8299    64419.237    83.042089 
   75500    1685.7364   -113.12972    1.5252897   -111.60443    10993.306    4.3452311    4.3452311    4.3452311    10993.306    30501.769   -35554.062    38032.212    17548.392    9143.1749   -13195.825    82.042456 
   75600    1454.5614    -112.9342    1.3161177   -111.61808   -8896.7569    4.3598955    4.3598955    4.3598955   -8896.7569    26429.208   -55139.219    2019.7397    961.45785   -291.03301    28374.857    82.875896 
   75700    1102.1039   -112.60911   0.99720674   -111.61191   -34658.363    4.3751737    4.3751737    4.3751737   -34658.363    37161.904   -89408.878   -51728.115   -4318.0521    1296.2155    55770.499    83.750209 
   75800    2012.8107   -113.40966    1.8212334   -111.58843    22944.713    4.3538291    4.3538291    4.3538291    22944.713    6449.5201    13552.321    48832.298    11952.114   -557.59454   -27944.459    82.530437 
   75900     1281.932   -112.77053     1.159919   -111.61061   -8253.3638    4.3458773    4.3458773    4.3458773   -8253.3638    18245.593   -11127.384     -31878.3     7459.506   -2421.6479    45403.746    82.079063 
   76000    898.88573   -112.44336    0.8133307   -111.63003   -6267.0051    4.3557492    4.3557492    4.3557492   -6267.0051    33654.361   -30703.385    -21751.99   -3144.9598     3296.662    45163.979    82.639674 
   76100    2093.7232   -113.50003    1.8944448   -111.60558    6364.7291     4.370577     4.370577     4.370577    6364.7291      18052.8    10694.054   -9652.6669   -4642.7817   -1334.1374   -20889.184    83.486512 
   76200    676.21666   -112.22393   0.61185505   -111.61207    1419.0525    4.3774346    4.3774346    4.3774346    1419.0525    41530.241   -18566.164    -18706.92    1048.9457    1400.4499    58844.077    83.880109 
   76300    1329.4137   -112.79683    1.2028814   -111.59395    2816.1641    4.3616986    4.3616986    4.3616986    2816.1641    10968.897   -1337.7188   -1182.6863   -9196.4982    1154.7584   -971.97118    82.978762 
   76400    1421.6749   -112.87717    1.2863613   -111.59081     28005.58    4.3400014    4.3400014    4.3400014     28005.58    48922.961    7050.0113    28043.766   -4127.7743   -3109.4276    22268.288    81.746582 
   76500    1139.8509   -112.65631    1.0313611   -111.62495    6544.4865    4.3572497    4.3572497    4.3572497    6544.4865    58459.652   -18732.428   -20093.764   -1469.7813    16782.434    59568.132    82.725108 
   76600    1759.7924   -113.18371    1.5922971   -111.59141   -9876.8959    4.3836657    4.3836657    4.3836657   -9876.8959   -11712.238   -1267.9708   -16650.479    87.281023   -2036.4394   -17412.198    84.238822 
   76700    823.29255   -112.34471    0.7449324   -111.59978   -487.13195    4.3654181    4.3654181    4.3654181   -487.13195    31998.911   -11477.569   -21982.737    -1902.001   -11412.179      67433.3     83.19123 
   76800    1827.1501    -113.2399    1.6532438   -111.58666    17259.406    4.3440131    4.3440131    4.3440131    17259.406    20432.014    18172.322    13173.883    2774.5487    11892.323    26379.353    81.973484 
   76900    1907.1938   -113.32987     1.725669    -111.6042    19240.055     4.346039     4.346039     4.346039    19240.055    23678.728    27683.492    6357.9443     9794.927   -8233.2879   -6630.0059    82.088226 
   77000    583.22632   -112.16722   0.52771543    -111.6395    3944.2869    4.3605923    4.3605923    4.3605923    3944.2869    54668.615   -5896.3248    -36939.43   -3222.8205   -5766.9791    76448.166    82.915641 
   77100    1777.4713    -113.2279    1.6082934   -111.61961   -11704.759    4.3780952    4.3780952    4.3780952   -11704.759   -12902.354   -15572.661   -6639.2616    10289.552   -9436.6214   -20280.893     83.91809 
   77200     1639.011   -113.09876    1.4830116   -111.61575   -5216.9573    4.3568443    4.3568443    4.3568443   -5216.9573    39588.127   -37718.409   -17520.589    5133.2082    4359.9807    28492.334     82.70202 
   77300    911.25176   -112.43584   0.82451974   -111.61132    38493.576    4.3353258    4.3353258    4.3353258    38493.576    69639.469     1514.816    44326.444    4667.6122    340.74646    62395.539    81.482663 
   77400    1978.8171    -113.3983    1.7904753   -111.60782   -6920.0323    4.3578468    4.3578468    4.3578468   -6920.0323   -12348.605   -454.40211   -7957.0895   -2476.2417   -15348.147   -27490.698    82.759123 
   77500    1005.7844   -112.52848   0.91005484   -111.61842   -10969.789    4.3668492    4.3668492    4.3668492   -10969.789    26071.941   -66821.751    7840.4424   -10920.813    2572.6034    53962.764     83.27307 
   77600    1709.3313   -113.15807    1.5466388   -111.61143   -1936.3777    4.3589006    4.3589006    4.3589006   -1936.3777    13362.609   -24947.039    5775.2963    8012.9386    7074.6307    32899.207    82.819173 
   77700    1972.1819   -113.38697    1.7844717    -111.6025    7540.9091    4.3535897    4.3535897    4.3535897    7540.9091   -3133.1394   -1218.1794    26974.046   -2342.3688   -10036.769   -7891.3105    82.516824 
   77800    945.40948   -112.47208   0.85542636   -111.61666   -8283.3151    4.3593955    4.3593955    4.3593955   -8283.3151      57967.4   -65126.148   -17691.197   -4766.9397   -64.519429    73377.672    82.847385 
   77900    1795.6129   -113.22334    1.6247083   -111.59863   -7275.8902    4.3638596    4.3638596    4.3638596   -7275.8902    17125.981   -37056.309   -1897.3426    7538.9106    4111.4851   -10804.424    83.102159 
   78000    1276.0945   -112.76152    1.1546371   -111.60688     973.2295    4.3526614    4.3526614    4.3526614     973.2295    27135.024   -14514.929   -9700.4066   -3173.0263   -7618.6604    23020.205    82.464049 
   78100    827.38576   -112.37268   0.74863602   -111.62404    11237.241    4.3528998    4.3528998    4.3528998    11237.241    75798.961   -20480.492   -21606.746    446.85077   -7869.9393    64140.961      82.4776 
   78200    2258.1503   -113.64372    2.0432218    -111.6005    6943.3434    4.3580815    4.3580815    4.3580815    6943.3434    33766.434    -15068.24    2131.8366   -1766.3128    8399.4999   -23063.725    82.772493 
   78300     638.8571   -112.20422   0.57805133   -111.62617    6762.7992    4.3608995    4.3608995    4.3608995    6762.7992    62046.397   -26417.109   -15340.891    5442.4965   -10058.533     64041.81    82.933166 
   78400    1350.2841   -112.83584    1.2217654   -111.61407   -10517.515    4.3676624    4.3676624    4.3676624   -10517.515    22674.613   -8374.1518   -45853.006    605.47704    1690.2449    13180.871    83.319604 
   78500     1934.293    -113.3465    1.7501889   -111.59632    7716.8958    4.3559853    4.3559853    4.3559853    7716.8958    20282.094   -4013.6489     6882.242    4282.9708    13420.575    3205.6177     82.65311 
   78600    1094.7081   -112.60335   0.99051494   -111.61284    8764.9841    4.3493575    4.3493575    4.3493575    8764.9841    63944.613   -7707.5997   -29942.061     6964.679   -8081.3363    70666.538    82.276405 
   78700    1858.6006   -113.28622    1.6817009   -111.60452    4640.2473    4.3604499    4.3604499    4.3604499    4640.2473    12642.135    3493.5908   -2214.9837     -4023.06    3101.5999   -15322.791    82.907516 
   78800    1233.2299   -112.72556    1.1158524   -111.60971   -3503.7239    4.3647707    4.3647707    4.3647707   -3503.7239    17494.507   -6711.2623   -21294.417    7574.1996    7360.3175    51261.435    83.154221 
   78900     1714.517   -113.15804     1.551331   -111.60671   -146.03324    4.3607262    4.3607262    4.3607262   -146.03324    26144.439    1584.5843   -28167.123   -6730.1067    11022.145     32743.84    82.923278 
   79000    2026.6538   -113.43822     1.833759   -111.60446   -234.20342    4.3552358    4.3552358    4.3552358   -234.20342    15163.529    -8597.845   -7268.2945     12346.27   -13636.617   -11625.291    82.610456 
   79100    813.20606   -112.36155   0.73580593   -111.62575   -6471.0621    4.3607852    4.3607852    4.3607852   -6471.0621     39637.04   -36811.806    -22238.42    1917.1271    12059.888    70490.624    82.926641 
   79200    1975.8216   -113.39939    1.7877649   -111.61163   -17528.014    4.3713532    4.3713532    4.3713532   -17528.014   -7196.4496   -29277.184   -16110.407   -11042.148    10433.027   -1683.7685    83.531002 
   79300    1774.8768   -113.21328    1.6059459   -111.60734   -2428.9934    4.3595207    4.3595207    4.3595207   -2428.9934    32580.679   -35011.336   -4856.3234   -4360.1453    8386.5941     27300.81    82.854523 
   79400    1128.0373   -112.63431    1.0206719   -111.61363    12386.458    4.3566684    4.3566684    4.3566684    12386.458     41246.49   -21306.451    17219.335    2241.1624   -2470.4061     57604.37    82.692005 
   79500    2108.5458   -113.50131    1.9078565   -111.59345   -9824.7832    4.3740583    4.3740583    4.3740583   -9824.7832    6828.0704   -27815.965   -8486.4547   -17802.781    10396.059   -17942.357     83.68617 
   79600    918.00721    -112.4244   0.83063221   -111.59377   -17897.787    4.3741723    4.3741723    4.3741723   -17897.787    37553.032    -75993.15   -15253.242   -6072.5862    6744.9221      62861.4    83.692716 
   79700    1826.8018   -113.22708    1.6529286   -111.57415    5662.6567    4.3595955    4.3595955    4.3595955    5662.6567    13173.644    -5486.862    9301.1878    1865.7496   -6934.7196   -10769.703    82.858792 
   79800    1228.4822   -112.70259    1.1115565   -111.59103     3731.957    4.3665344    4.3665344    4.3665344     3731.957    46891.448   -25359.406   -10336.172   -6718.2871   -1330.7607    48078.902    83.255065 
   79900    1168.1487   -112.64525    1.0569655   -111.58828   -24015.061    4.3793583    4.3793583    4.3793583   -24015.061   -2243.8961   -52574.742   -17226.545   -76.806617    9967.8805    44262.974    83.990744 
   80000    1611.0252   -113.03249    1.4576895    -111.5748    6879.9352    4.3664528    4.3664528    4.3664528    6879.9352    4839.1353    2349.7286    13450.942    16967.847   -19149.535   -19924.642    83.250395 
   80100    933.37336   -112.43644   0.84453583   -111.59191   -3186.7304    4.3630213    4.3630213    4.3630213   -3186.7304    32440.455   -21021.112   -20979.534    9106.0546   -14375.995    69947.014    83.054274 
   80200    1698.9862   -113.12654    1.5372784   -111.58926   -8966.1531    4.3632686    4.3632686    4.3632686   -8966.1531   -18541.295   -3374.3982   -4982.7657   -12447.761    10626.551    12659.767    83.068401 
   80300     1237.071   -112.71713    1.1193278   -111.59781    20476.827    4.3528614    4.3528614    4.3528614    20476.827   -3609.2877    39670.362    25369.406    6844.1239    -11461.12    4973.3367    82.475419 
   80400     1262.881   -112.75321    1.1426813   -111.61053   -5643.8967    4.3654064    4.3654064    4.3654064   -5643.8967    28080.902   -26337.168   -18675.425    7107.8991   -6161.2351    52686.839    83.190558 
   80500    1624.7556   -113.06589     1.470113   -111.59578   -7153.9975    4.3718701    4.3718701    4.3718701   -7153.9975   -24585.086    5121.1203   -1998.0263    -19251.98    26305.831   -14170.745    83.560638 
   80600    1108.2806   -112.59452    1.0027956   -111.59172    14929.496    4.3560263    4.3560263    4.3560263    14929.496   -8522.0182    16868.763    36441.742   -2747.9291    3097.6107    28760.422    82.655446 
   80700    1793.9423   -113.21604    1.6231967   -111.59285    2770.1406    4.3537837    4.3537837    4.3537837    2770.1406    20402.646     -4533.14   -7559.0847    114.84667   -741.73267    26528.557    82.527853 
   80800    1219.4641   -112.71319    1.1033968   -111.60979    763.49723    4.3566381    4.3566381    4.3566381    763.49723   -14350.927   -10922.632     27564.05   -23071.616    23106.261   -21453.595    82.690279 
   80900    1193.9431   -112.69535    1.0803049   -111.61505    9052.7092    4.3651287    4.3651287    4.3651287    9052.7092   -6591.6636    10009.906    23739.885   -8957.3996    10405.222    24795.894    83.174683 
   81000    2076.2563   -113.48077    1.8786403   -111.60213    3601.7858    4.3680542    4.3680542    4.3680542    3601.7858     18265.09    77.696598   -7537.4291    8027.9617   -13027.035    4464.7428    83.342028 
   81100    1090.9314   -112.60138   0.98709769   -111.61428   -2777.1001    4.3526572    4.3526572    4.3526572   -2777.1001   -16236.755   -13202.588    21108.043   -19242.808    17329.173   -14693.196    82.463811 
   81200    1474.2441   -112.94763     1.333927    -111.6137    19371.512    4.3537366    4.3537366    4.3537366    19371.512    11573.812     20658.56    25882.165   -7929.0988    13961.974    11316.756    82.525175 
   81300    1926.2257   -113.34445    1.7428895   -111.60156   -8871.9582    4.3751169    4.3751169    4.3751169   -8871.9582   -7556.1666   -15848.743   -3210.9652    9621.1999   -22203.975   -8722.3607    83.746945 
   81400    861.38588    -112.3986   0.77940005    -111.6192   -12004.875    4.3637091    4.3637091    4.3637091   -12004.875   -13777.835    -30780.36    8543.5708   -21514.521    14478.027   -18460.574    83.093562 
   81500    1829.5425   -113.26083    1.6554085   -111.60543    22581.807    4.3422556    4.3422556    4.3422556    22581.807    25554.758    10431.626    31759.036   -12475.381    10752.292   -17671.259    81.874025 
   81600    1580.5462   -113.04749    1.4301114   -111.61738    18825.802    4.3488886    4.3488886    4.3488886    18825.802    17027.233    15028.436    24421.736    19112.885   -31556.814    16231.416    82.249798 
   81700    973.96563    -112.5098   0.88126457   -111.62854     -12892.5    4.3676619    4.3676619    4.3676619     -12892.5   -10249.619   -27896.024   -531.85782   -18006.676   -2389.4288   -8188.1141    83.319572 
   81800     1743.636   -113.18127    1.5776785    -111.6036   -2398.4961    4.3681519    4.3681519    4.3681519   -2398.4961    9213.1595    1170.7796   -17579.427   -8600.6288    11745.137    -9723.857    83.347619 
   81900    1095.6926   -112.59477   0.99140569   -111.60337    15179.194    4.3545648    4.3545648    4.3545648    15179.194   -6655.4516    32139.181    20053.852    18201.277   -41616.561    14439.884    82.572281 
   82000    1294.8065   -112.77191    1.1715681   -111.60034    10787.076    4.3570248    4.3570248    4.3570248    10787.076   -7423.9147   -2673.7111    42458.855   -24911.676    10340.283    -20769.17    82.712297 
   82100    1458.4249   -112.91491    1.3196135    -111.5953    5574.9533    4.3591046    4.3591046    4.3591046    5574.9533    12966.841     26007.37   -22249.351   -1680.2291    3914.3112    18793.751    82.830803 
   82200    896.11345   -112.41913   0.81082228   -111.60831   -5908.2317    4.3617537    4.3617537    4.3617537   -5908.2317   -22753.219    2908.3372    2120.1865    10174.999    -38925.86    16942.746     82.98191 
   82300    1729.5578   -113.17045    1.5649403   -111.60551   -5179.7004    4.3602726    4.3602726    4.3602726   -5179.7004   -22037.507    2805.4175    3692.9885   -21041.861    31154.194    -24631.56    82.897401 
   82400    1529.6463   -112.99046    1.3840561    -111.6064    32079.619     4.346163     4.346163     4.346163    32079.619    18503.824    38974.751    38760.281     5856.094   -18858.857    26539.193     82.09525 
   82500     914.9007   -112.45942   0.82782138    -111.6316   -2889.0186    4.3594796    4.3594796    4.3594796   -2889.0186   -22571.263    21730.165    -7825.958    15387.236   -31027.908    6540.1608    82.852184 
   82600    2074.6409   -113.47043    1.8771787   -111.59325   -6652.1946    4.3705676    4.3705676    4.3705676   -6652.1946   -17729.344    2199.5486   -4426.7883   -76.532041    35025.463   -2838.0292    83.485974 
   82700    1233.0844   -112.72032    1.1157207    -111.6046    17146.026    4.3550119    4.3550119    4.3550119    17146.026    1534.9724      42547.7    7355.4072   -811.93751   -39623.559    28364.682    82.597717 
   82800    1021.1429   -112.54101   0.92395151   -111.61706   -9503.1975    4.3574437    4.3574437    4.3574437   -9503.1975   -5815.4904    -68.00067   -22626.101    20701.701   -26660.492    180.99875    82.736159 
   82900    2283.3301   -113.66813     2.066005   -111.60212    8781.4425     4.349284     4.349284     4.349284    8781.4425    1395.8975     12049.72     12898.71    4749.0418    16032.201   -2001.6143    82.272237 
   83000    923.25159   -112.47436   0.83537744   -111.63898   -4196.0073     4.350787     4.350787     4.350787   -4196.0073    9801.2159    -10325.71   -12063.528   -4060.5343   -43451.689    22215.408     82.35756 
   83100    856.72728   -112.41119   0.77518485     -111.636   -27685.701    4.3695424    4.3695424    4.3695424   -27685.701    17210.308   -49181.789   -51085.623    29372.698   -22133.425     23463.73    83.427238 
   83200    2105.0535   -113.51021    1.9046966   -111.60551     12055.11    4.3547474    4.3547474    4.3547474     12055.11    11310.114      12189.2    12666.016   -8531.3441    19477.951   -14473.888    82.582669 
   83300    883.89759   -112.42091   0.79976912   -111.62114   -24656.906    4.3594884    4.3594884    4.3594884   -24656.906   -15964.874   -6805.1195   -51200.725   -2692.6853   -37816.185    27276.713    82.852682 
   83400     1440.464   -112.90889    1.3033621   -111.60553   -23590.455    4.3717642    4.3717642    4.3717642   -23590.455    6677.8211   -39921.626   -37527.559    15652.974   -15410.317    34270.047    83.554564 
   83500     1990.252   -113.39013    1.8008219    -111.5893   -2604.0131     4.362978     4.362978     4.362978   -2604.0131   -29944.095    9247.3876    12884.668   -7980.3378    13067.517   -3880.9317    83.051802 
   83600    1091.9226   -112.59761   0.98799451   -111.60962    -19296.73    4.3626831    4.3626831    4.3626831    -19296.73   -55554.036     3142.653   -5478.8057   -1365.7619   -43941.729    19428.413    83.034964 
   83700    2018.4543   -113.43252    1.8263399   -111.60618    3898.7362    4.3579063    4.3579063    4.3579063    3898.7362   -2517.5703   -18910.445    33124.224    2217.2002    5026.1342    23913.812    82.762511 
   83800    1550.3855   -113.01792    1.4028214   -111.61509    399.48428    4.3571789    4.3571789    4.3571789    399.48428   -46765.582    7494.6401    40469.395   -3178.1132    -10752.06   -4017.3634    82.721076 
   83900    1073.2038   -112.60382   0.97105734   -111.63276   -21668.316    4.3661352    4.3661352    4.3661352   -21668.316   -72097.828    25411.217   -18318.338   -8257.0696   -31974.525   -17692.335    83.232234 
   84000    2366.4305   -113.74073     2.141196   -111.59953    6310.1455    4.3673041    4.3673041    4.3673041    6310.1455   -7877.9365    25.502732     26782.87    3204.7451    18347.677    9974.4138    83.299098 
   84100    1061.0151    -112.5693   0.96002875   -111.60928   -33879.621    4.3751074    4.3751074    4.3751074   -33879.621   -75468.608     10128.35   -36298.604   -5330.9981   -51683.188   -4263.1292    83.746401 
   84200     1255.221   -112.74244    1.1357503   -111.60669   -18881.158    4.3597027    4.3597027    4.3597027   -18881.158   -33956.819    15978.452   -38665.108   -7083.6937    5192.0704   -9592.5926    82.864902 
   84300    1978.7614   -113.38431    1.7904249   -111.59388    16005.632     4.342946     4.342946     4.342946    16005.632    9571.2305    21982.983    16462.684   -2531.0436   -806.77913   -14456.839    81.913087 
   84400    944.69409   -112.48045   0.85477907   -111.62567   -24274.438    4.3640656    4.3640656    4.3640656   -24274.438   -76358.192    35184.934   -31650.054    9146.2608    -55492.65    8910.1917    83.113929 
   84500    1615.5576   -113.06898    1.4617905   -111.60719    1877.8023    4.3653766    4.3653766    4.3653766    1877.8023   -8203.0296     18376.69   -4540.2536   -705.77566    16337.329   -11249.289    83.188857 
   84600     1406.045   -112.87864    1.2722191   -111.60642   -624.19298    4.3651836    4.3651836    4.3651836   -624.19298   -26452.859    14456.171    10124.109    6206.7096   -16598.123    5647.1634    83.177823 
   84700    609.50099   -112.17046    0.5514893   -111.61897   -11905.972    4.3668136    4.3668136    4.3668136   -11905.972   -66090.223    25842.004    4530.3024    9756.8703   -40297.314    5738.8403    83.271035 
   84800    1997.6113   -113.40715    1.8074806   -111.59967     19237.58    4.3524064    4.3524064    4.3524064     19237.58    10486.595    33219.091    14007.055   -14712.116    23758.362   -6034.0975    82.449556 
   84900    1377.1179   -112.86561    1.2460452   -111.61956   -7321.4878    4.3610402    4.3610402    4.3610402   -7321.4878   -33109.852   -15977.505    27122.894    16717.975   -21786.796    2884.5757    82.941192 
   85000    512.75362   -112.10069   0.46395025   -111.63674   -26965.405     4.367072     4.367072     4.367072   -26965.405   -59134.699   -29602.268    7840.7526    15162.971   -38836.425    9354.1378    83.285817 
   85100    1875.8625    -113.3158    1.6973198   -111.61848    14463.304    4.3542203    4.3542203    4.3542203    14463.304    30794.995   -13551.316    26146.234   -8710.7852    24912.348    2348.0364    82.552684 
   85200    1456.9886   -112.94438    1.3183139   -111.62607   -17609.046    4.3607355    4.3607355    4.3607355   -17609.046   -24441.984   -1610.1894   -26774.965    4351.4459   -35095.445   -18315.142    82.923808 
   85300    986.41818   -112.52358    0.8925319   -111.63105   -12744.555    4.3580622    4.3580622    4.3580622   -12744.555   -31797.733    500.52896   -6936.4604    13246.359   -29989.378    7098.4167    82.771393 
   85400     2047.485   -113.46366    1.8526074   -111.61105    4874.4684    4.3606203    4.3606203    4.3606203    4874.4684     439.7108   -22968.779    37152.474    1932.0155    17975.137      312.267    82.917233 
   85500    916.23141   -112.45373   0.82902543    -111.6247   -33694.547    4.3696214    4.3696214    4.3696214   -33694.547   -43568.645   -8627.8127   -48887.184   -1836.8222   -48500.828   -22060.531    83.431767 
   85600    1206.7829   -112.71351    1.0919225   -111.62159   -798.40149    4.3508457    4.3508457    4.3508457   -798.40149   -28105.746    12374.285    13336.257    22889.729   -3219.0984    3848.5872    82.360892 
   85700    2115.4129   -113.52258    1.9140701   -111.60851      9424.78    4.3552355    4.3552355    4.3552355      9424.78   -2669.5641    3657.2004    27286.704   -2561.3843    581.33976    9254.6258    82.610438 
   85800    1228.2343   -112.74158    1.1113322   -111.63025   -1293.0948    4.3536037    4.3536037    4.3536037   -1293.0948   -25778.519   -2968.7684    24868.003   -7457.6262   -36564.222   -4354.5078    82.517616 
   85900    1244.7187   -112.75821    1.1262476   -111.63196    30701.818    4.3544677    4.3544677    4.3544677    30701.818    14008.062    14425.469    63671.923    22780.571   -14978.696   -5735.5953    82.566757 
   86000    1786.9718   -113.23396    1.6168897   -111.61707   -10852.818    4.3750577    4.3750577    4.3750577   -10852.818   -12451.225   -18819.639   -1287.5894   -1272.9328    6376.9986    27636.287    83.743546 
   86100    1282.2309   -112.78092    1.1601895   -111.62073    8493.2113     4.352937     4.352937     4.352937    8493.2113   -17149.768    11877.668    30751.734    -14631.41    -19257.28    1536.9399    82.479716 
   86200     1569.637    -113.0261    1.4202406   -111.60586    36507.798    4.3415038    4.3415038    4.3415038    36507.798    35541.068    23685.102    50297.225    20539.546   -18400.913   -12122.166    81.831511 
   86300    1487.7511   -112.96852    1.3461485   -111.62237   -8776.3562    4.3649707    4.3649707    4.3649707   -8776.3562    15687.485   -24189.562   -17826.991   -4061.0439    16898.098    49646.383    83.165653 
   86400    1250.6131   -112.74454     1.131581   -111.61296    24261.502     4.364161     4.364161     4.364161    24261.502    26391.145    9647.5323    36745.829   -16076.353   -19049.381     10960.25    83.119382 
   86500    1527.1385   -112.98988     1.381787   -111.60809    8899.3225    4.3599131    4.3599131    4.3599131    8899.3225    7148.1182    4367.4368    15182.412    13716.056   -17861.991    3355.4491    82.876901 
   86600    978.12079   -112.50189   0.88502425   -111.61686   -9246.7545    4.3668532    4.3668532    4.3668532   -9246.7545     36277.52   -33738.629   -30279.154    1631.7095    21131.661    55177.537      83.2733 
   86700    1659.4089   -113.10371    1.5014681   -111.60224    26013.911    4.3546326    4.3546326    4.3546326    26013.911    23686.976    25691.644    28663.113    -2243.787   -28091.943   -8307.6722    82.576136 
   86800    1159.2545    -112.6661    1.0489178   -111.61719     25304.46    4.3591382    4.3591382    4.3591382     25304.46    37627.171    22928.848     15357.36   -2269.3599   -9014.2348    25081.949    82.832718 
   86900      1156.11   -112.66099    1.0460726   -111.61491   -10723.613    4.3723903    4.3723903    4.3723903   -10723.613   -820.20115   -26562.143   -4788.4949    10022.841    10713.542    36085.781     83.59047 
   87000    1696.7783   -113.13597    1.5352807   -111.60069    37220.902     4.350036     4.350036     4.350036    37220.902    12814.663    43097.683     55750.36   -5102.5272    -20983.04   -33984.129    82.314916 
   87100     1331.187   -112.82334     1.204486   -111.61886    14584.457    4.3516064    4.3516064    4.3516064    14584.457    51450.642     3670.958    -11368.23   -8608.6688   -2115.1892     46409.55    82.404101 
   87200     1464.359   -112.94156    1.3249828   -111.61658   -13558.719    4.3673641    4.3673641    4.3673641   -13558.719    5765.0926    -39325.35   -7115.8996    14150.187    6779.5681    31009.567    83.302529 
   87300    1612.0323   -113.06622    1.4586007   -111.60762    10135.384    4.3592398    4.3592398    4.3592398    10135.384   -15277.264    16739.256    28944.159    14062.884   -14271.437   -33723.983    82.838509 
   87400    1323.4638   -112.81172    1.1974979   -111.61422   -21165.915    4.3646051    4.3646051    4.3646051   -21165.915    35173.881   -41588.036    -57083.59   -4200.4255    1655.0355    50689.522    83.144756 
   87500     1474.537    -112.9418     1.334192   -111.60761    3124.4627     4.357363     4.357363     4.357363    3124.4627    46114.652   -22614.757   -14126.507    1610.8977    6808.2279     19641.37    82.731563 
   87600     1360.962   -112.84387    1.2314271   -111.61244    4172.7063    4.3590259    4.3590259    4.3590259    4172.7063    5358.3633    4673.7178    2486.0379    13779.057    -9552.529   -27399.099    82.826316 
   87700    1299.4712   -112.78722    1.1757888   -111.61143   -19271.145    4.3773473    4.3773473    4.3773473   -19271.145    32498.497   -29328.481    -60983.45   -5794.4598   -7067.0871      46335.4    83.875095 
   87800    1632.1823    -113.0717    1.4768329   -111.59487    1242.8268    4.3674562    4.3674562    4.3674562    1242.8268    36313.659   -16712.351   -15872.827    6338.3131    13371.104   -6967.3438    83.307801 
   87900      1203.25    -112.6874    1.0887259   -111.59867    10826.938    4.3534118    4.3534118    4.3534118    10826.938    1408.9716    8720.4851    22351.356    19655.924    -10263.77    -21858.26    82.506707 
   88000    1916.0251    -113.3313    1.7336597   -111.59764    145.41478    4.3719683    4.3719683    4.3719683    145.41478    21554.225    6253.9027   -27371.884   -11918.987   -5975.5179    32202.417    83.566272 
   88100    1229.9091   -112.70704    1.1128476   -111.59419   -13213.625    4.3818411    4.3818411    4.3818411   -13213.625   -1766.9654   -25044.828   -12829.082    14346.847    10738.714   -12561.611    84.133677 
   88200    1229.1107   -112.71066    1.1121252   -111.59854    4531.2395    4.3568011    4.3568011    4.3568011    4531.2395   -20128.454     22617.92    11104.253    4848.3902   -21466.794   -16797.097    82.699563 
   88300    2141.3068   -113.52448    1.9374994   -111.58698    44193.765    4.3403384    4.3403384    4.3403384    44193.765    49025.595    55125.391    28430.309    66.551979    6331.2515    11487.314     81.76563 
   88400    1053.6884   -112.58552   0.95339938   -111.63212   -4204.8476    4.3565399    4.3565399    4.3565399   -4204.8476   -19436.939   -10598.617    17421.013    19209.929    20107.995   -13971.538    82.684689 
   88500    992.27067   -112.52787   0.89782735   -111.63004    -10388.47    4.3749628    4.3749628    4.3749628    -10388.47   -31415.603    5932.7186   -5682.5266    3165.6075   -12912.533   -15237.249    83.738096 
   88600    1753.7329   -113.18505    1.5868144   -111.59824   -15710.462    4.3731864    4.3731864    4.3731864   -15710.462   -7219.0821   -11063.801   -28848.503    834.40501    9989.9934    22720.139    83.636139 
   88700     1040.485   -112.54763   0.94145272   -111.60618   -3828.2422    4.3485863    4.3485863    4.3485863   -3828.2422   -565.21181    102.77967   -11022.294    15981.931    24569.495   -4485.9763     82.23265 
   88800    1742.9064   -113.18285    1.5770184   -111.60583    18149.994    4.3440164    4.3440164    4.3440164    18149.994    9550.7485    5036.9758    39862.257    6764.6452     -9845.08   -20309.738     81.97367 
   88900    1605.0583   -113.06748    1.4522905   -111.61519    -15116.68    4.3655119    4.3655119    4.3655119    -15116.68    16130.455   -32524.098   -28956.398   -963.39228    10378.024    27596.057    83.196592 
   89000    925.14334   -112.46097   0.83708914   -111.62389   -3674.7575    4.3628081    4.3628081    4.3628081   -3674.7575   -7086.4834   -2649.3648   -1288.4243    4451.7939    19773.764    6024.4766    83.042101 
   89100    2126.7583   -113.52832    1.9243356   -111.60398    7809.0995    4.3593571    4.3593571    4.3593571    7809.0995   -19136.408    8134.6826    34429.024      7918.79   -16602.261   -6865.8245    82.845195 
   89200    1352.0352   -112.83819    1.2233498   -111.61484    -11140.52    4.3618982    4.3618982    4.3618982    -11140.52    16375.219   -36647.463   -13149.317   -8908.0166    19021.412    40989.668    82.990156 
   89300    823.73798   -112.37074   0.74533544   -111.62541    15607.993     4.352926     4.352926     4.352926    15607.993   -14995.576    27663.411    34156.143      16792.4    26503.924    14316.366    82.479088 
   89400     2012.928   -113.43114    1.8213396    -111.6098      17671.9    4.3623146    4.3623146    4.3623146      17671.9    9131.5217    19080.018     24804.16    3159.3398   -13247.772   -17237.756    83.013926 
   89500    1110.3317   -112.62983    1.0046514   -111.62518   -10085.537    4.3670079    4.3670079    4.3670079   -10085.537    24796.601   -34442.131   -20611.081   -9965.7281     15204.51    15404.841    83.282152 
   89600    1122.1643   -112.63531    1.0153579   -111.61995   -12156.693    4.3624824    4.3624824    4.3624824   -12156.693   -24457.037    2527.0316   -14540.074   -3816.1783    20612.927    18827.968    83.023503 
   89700    1869.6792   -113.29492     1.691725    -111.6032    13880.142    4.3543398    4.3543398    4.3543398    13880.142    23699.263    12199.754    5741.4102   -9723.4094   -8551.4927   -22120.025    82.559482 
   89800    840.12063   -112.38372    0.7601588   -111.62356   -6010.0298    4.3597368    4.3597368    4.3597368   -6010.0298    48419.216   -17506.414   -48942.892   -328.02839    21410.995    12406.383    82.866848 
   89900    1472.5446   -112.94142    1.3323893   -111.60903     -21223.6    4.3663968    4.3663968    4.3663968     -21223.6   -690.67857    -18771.76   -44208.361   -16160.184    19805.195     17365.37    83.247191 
   90000    1474.5036   -112.94069    1.3341619   -111.60653   -11924.717    4.3689246    4.3689246    4.3689246   -11924.717    28948.171   -26036.116   -38686.205    9043.7238   -18927.465   -45300.117    83.391858 
   90100    1069.0063   -112.57969   0.96725935   -111.61243   -29529.048    4.3651738    4.3651738    4.3651738   -29529.048    3684.2302   -28274.165   -63997.209   -8334.3545    7451.1158    26552.257     83.17726 
   90200    1320.4468   -112.80327     1.194768    -111.6085    18430.532    4.3418796    4.3418796    4.3418796    18430.532    44441.484    21034.938   -10184.826   -20130.943    13678.523     24919.76    81.852761 
   90300    1637.8644   -113.10387    1.4819741   -111.62189    2543.6962    4.3531566    4.3531566    4.3531566    2543.6962    22389.598    11294.774   -26053.283    9189.2599   -18620.044   -42863.735    82.492196 
   90400    1140.1808    -112.6509    1.0316596   -111.61924   -34872.378    4.3773899    4.3773899    4.3773899   -34872.378   -6702.5915    -29017.35   -68897.193    -7339.249    4605.8487    39376.548    83.877541 
   90500     1188.004   -112.68759     1.074931   -111.61266    2760.0002    4.3557205    4.3557205    4.3557205    2760.0002   -7278.7133    22008.197   -6449.4825   -14657.332    2772.0644    17997.497    82.638041 
   90600    1876.8088   -113.29823     1.698176   -111.60005    21791.234    4.3473273    4.3473273    4.3473273    21791.234     24449.73    39220.407    1703.5649   -1058.5331   -19286.502   -22645.097    82.161246 
   90700    1090.2112   -112.60453   0.98644602   -111.61809   -13479.693    4.3711697    4.3711697    4.3711697   -13479.693    31454.707   -1618.4904   -70275.295   -9321.6798    10361.489    63105.916    83.520484 
   90800    1442.9812   -112.90606    1.3056397   -111.60042    8549.1335    4.3700949    4.3700949    4.3700949    8549.1335    20024.893    6999.6876   -1377.1796   -18568.752    3486.3366   -4198.4172    83.458888 
   90900    1646.1823   -113.08419    1.4895003   -111.59469   -13604.603    4.3628734    4.3628734    4.3628734   -13604.603    7821.3767   -12954.304   -35680.882   -6124.9564   -6366.6531    15629.405    83.045828 
   91000    1017.7107   -112.53793   0.92084604   -111.61709   -8133.4811    4.3503685    4.3503685    4.3503685   -8133.4811     63827.66   -21503.009   -66725.095   -1766.4765   -4741.2307    66079.138    82.333793 
   91100    2027.7605   -113.43767    1.8347603   -111.60291    28795.265    4.3404886    4.3404886    4.3404886    28795.265    57241.699    26079.647    3064.4472   -13235.519    9049.0707   -20237.442    81.774116 
   91200    1055.5873   -112.59118   0.95511761   -111.63607   -30816.302    4.3712264    4.3712264    4.3712264   -30816.302    18985.385   -46179.399   -65254.893   -3297.2854   -5016.1142    54680.528    83.523733 
   91300    1066.5652   -112.58958   0.96505064   -111.62453    -25625.28    4.3699188    4.3699188    4.3699188    -25625.28    36588.632   -37181.787   -76282.685   -2712.6063   -10399.472    28629.813    83.448802 
   91400     2012.619   -113.40916    1.8210599    -111.5881    19400.332    4.3452219    4.3452219    4.3452219    19400.332    42247.505    13834.998     2118.492    715.02525    11444.908    -23596.27    82.041931 
   91500    1010.6211   -112.52755    0.9144312   -111.61312   -36113.658    4.3578873    4.3578873    4.3578873   -36113.658    4770.5362   -41321.096   -71790.416   -1477.9294   -19391.294    84671.224    82.761429 
   91600    1378.8022   -112.86074    1.2475693   -111.61317    -6887.484    4.3559519    4.3559519    4.3559519    -6887.484    -4242.728     7817.157   -24236.881   -6928.1154   -15883.892   -7296.6149    82.651212 
   91700    1553.7164   -113.01866    1.4058352   -111.61283    10625.998    4.3591423    4.3591423    4.3591423    10625.998    28022.409    11774.898   -7919.3124   -8516.9342    5422.4277   -17311.373    82.832951 
   91800     1374.099   -112.85888    1.2433136   -111.61556   -8001.0847    4.3596451    4.3596451    4.3596451   -8001.0847    34182.632   -10882.757   -47303.129   -1629.7232   -8384.8065     67273.36    82.861618 
   91900    1640.0611   -113.09239    1.4839618   -111.60843    11150.729    4.3517169    4.3517169    4.3517169    11150.729   -8197.3997    29996.318    11653.269   -9044.0807   -5699.5489   -21393.713    82.410377 
   92000    951.75529   -112.48418   0.86116819   -111.62302   -8573.8841    4.3578947    4.3578947    4.3578947   -8573.8841    22216.389   -15591.261    -32346.78   -7136.5432   -4450.3509   -1762.8933    82.761853 
   92100    1651.7109   -113.10957    1.4945027   -111.61507    -14716.38    4.3552643    4.3552643    4.3552643    -14716.38    19905.268   -19297.522   -44756.887    867.38286    8793.2287    57128.415    82.612079 
   92200    1336.1075   -112.82486    1.2089382   -111.61592    -11183.34    4.3610903    4.3610903    4.3610903    -11183.34   -9484.5522     -6071.91   -17993.558    -5163.544   -10221.226   -24445.675    82.944049 
   92300    945.62254    -112.4742   0.85561915   -111.61858   -23205.891    4.3655213    4.3655213    4.3655213   -23205.891   -5842.5404   -39449.378   -24325.755   -15679.458   -8586.0732   -11263.036    83.197128 
   92400    2112.9303   -113.51685    1.9118237   -111.60503   -2248.1438    4.3527536    4.3527536    4.3527536   -2248.1438     8444.691     3531.571   -18720.694    483.00353    8417.7809    36577.151    82.469287 
   92500    1210.1446    -112.7208    1.0949642   -111.62583   -13026.748    4.3566037    4.3566037    4.3566037   -13026.748   -2992.3019   -12754.629   -23333.314    5600.2932   -1592.1073   -23618.386    82.688321 
   92600    1059.2188   -112.58809   0.95840347   -111.62969   -14458.179    4.3647248    4.3647248    4.3647248   -14458.179   -19037.649    333.75191   -24670.639   -17511.316   -14537.537   -28161.609    83.151597 
   92700     2201.896   -113.60197    1.9923218   -111.60965    4192.0009    4.3567132    4.3567132    4.3567132    4192.0009    1073.1856    12600.663    -1097.846   -11373.834    20133.866    13334.983    82.694558 
   92800    1391.2155   -112.87673    1.2588011   -111.61793    -14710.74    4.3605946    4.3605946    4.3605946    -14710.74   -2751.6834    350.56555   -41731.101    411.40206    12133.728   -22101.931    82.915773 
   92900    1277.6431   -112.76331    1.1560383   -111.60727   -7165.6204    4.3645097    4.3645097    4.3645097   -7165.6204    3472.0074   -12497.726   -12471.142   -16245.188    -17316.14   -28379.625    83.139307 
   93000    1641.6235   -113.08246    1.4853754   -111.59708   -5303.3497    4.3652587    4.3652587    4.3652587   -5303.3497    2047.6083    4284.0438   -22241.701   -4491.8974    17775.614    26042.873    83.182113 
   93100    1275.0113   -112.75479     1.153657   -111.60113   -19051.543    4.3711847    4.3711847    4.3711847   -19051.543    5505.8335   -20840.077   -41820.384    5384.8805    11763.363   -22523.116    83.521345 
   93200    1550.3726    -113.0013    1.4028097   -111.59849   -2059.2085    4.3545564    4.3545564    4.3545564   -2059.2085    12888.905   -15831.042   -3235.4887   -5940.4054   -11822.327   -30145.589    82.571803 
   93300    914.91994   -112.44051   0.82783878   -111.61267    5727.7653    4.3391453    4.3391453    4.3391453    5727.7653    32317.468    9482.4885    -24616.66   -18240.935    30890.502    43293.244    81.698217 
   93400    1408.2814   -112.90491    1.2742426   -111.63067   -19783.395     4.359329     4.359329     4.359329   -19783.395     15184.84   -30877.604    -43657.42    7452.6488    4593.6599    3366.8946    82.843598 
   93500    1823.1899   -113.26053    1.6496605   -111.61087   -8452.8469    4.3738134    4.3738134    4.3738134   -8452.8469   -18247.173   -7220.4801     109.1122    9466.6045   -7256.4886   -17950.954    83.672115 
   93600    754.84208   -112.30393   0.68299698   -111.62093    2001.7227    4.3614278    4.3614278    4.3614278    2001.7227    45400.191   -944.78385   -38450.239   -8364.5867    39461.928     45463.05    82.963311 
   93700    1866.3307   -113.29677    1.6886952   -111.60807     9866.504    4.3477963    4.3477963    4.3477963     9866.504    53318.168    -5360.239   -18358.417    7519.8503   -1344.5766    12765.752    82.187838 
   93800    2105.7395   -113.51441    1.9053174    -111.6091    10279.481     4.348347     4.348347     4.348347    10279.481     5120.889    11574.781    14142.771   -13471.737    10528.352   -13651.314    82.219073 
   93900    572.88102   -112.15902   0.51835479   -111.64066    695.97633    4.3630811    4.3630811    4.3630811    695.97633    40691.763    11366.497    -49970.33   -9738.7179    28033.372    45130.667    83.057691 
   94000    1954.2556   -113.37989    1.7682515   -111.61163   -18376.413    4.3715571    4.3715571    4.3715571   -18376.413    14344.847   -20978.861   -48495.224   -2125.7977    3714.9353    13270.609    83.542694 
   94100    1532.0713   -112.99712    1.3862503   -111.61087   -1949.7577    4.3555172    4.3555172    4.3555172   -1949.7577    7002.5964    2901.3167   -15753.186   -7075.3673    1731.2299   -9071.3151     82.62647 
   94200    651.11129   -112.20954   0.58913918    -111.6204   -5304.4194    4.3532462    4.3532462    4.3532462   -5304.4194    10874.751    14364.029   -41152.038    -6251.298    34513.079    41021.334    82.497292 
   94300    1881.9968   -113.30284    1.7028703   -111.59997   -18624.868    4.3702202    4.3702202    4.3702202   -18624.868   -6079.9697   -6308.5478   -43486.086     1293.279   -2983.4346   -20368.684    83.466071 
   94400    1110.0513   -112.61548    1.0043978   -111.61109   -10582.366    4.3624415    4.3624415    4.3624415   -10582.366   -6155.6001   -9234.1447   -16357.353   -12784.153   -1516.3276   -15204.426    83.021172 
   94500    1019.5944   -112.53297   0.92255048   -111.61042   -2787.8046    4.3447495    4.3447495    4.3447495   -2787.8046   -2346.7339    16679.737   -22696.417   -4166.3571    40716.403    41129.277    82.015175 
   94600     1679.701   -113.13298    1.5198288   -111.61316   -4842.7071    4.3571241    4.3571241    4.3571241   -4842.7071   -10700.004    23983.854   -27811.972    5346.3142   -33085.992   -20512.571    82.717955 
   94700    1397.6789    -112.8766    1.2646492   -111.61195   -24949.107    4.3698582    4.3698582    4.3698582   -24949.107   -41518.653     10977.36   -44306.028   -6891.4248    7106.6172    -2175.756    83.445328 
   94800    1324.3309   -112.79578    1.1982824   -111.59749   -2739.2113    4.3735004    4.3735004    4.3735004   -2739.2113   -16075.634    28996.498   -21138.498   -12437.737    27325.803    18638.183    83.654155 
   94900    1483.9923   -112.93077    1.3427474   -111.58802   -24680.196    4.3710966    4.3710966    4.3710966   -24680.196   -36556.378     18843.26   -56327.469    883.12879   -55182.767   -23219.736    83.516296 
   95000    1197.8797   -112.67578    1.0838668   -111.59191   -6907.4913    4.3441823    4.3441823    4.3441823   -6907.4913    3996.0664    12659.249   -37377.789    2241.7727    34284.783   -819.03372    81.983059 
   95100    1415.1208   -112.88639    1.2804311   -111.60596    9803.6074    4.3453466    4.3453466    4.3453466    9803.6074    5117.5094    25687.344    -1394.031   -14593.608    10749.899    10905.853    82.048997 
   95200    1424.8499   -112.90448    1.2892342   -111.61524   -18397.627    4.3679108    4.3679108    4.3679108   -18397.627    2676.3796   -4289.5053   -53579.755   -291.23421   -55758.923   -10505.764    83.333821 
   95300    1248.8887   -112.74297    1.1300208   -111.61295   -2823.8525    4.3654915    4.3654915    4.3654915   -2823.8525    48700.897   -13766.156   -43406.298    2981.1701    38715.436   -10213.539    83.195422 
   95400    1521.1869   -112.98578    1.3764019   -111.60938   -6287.2948    4.3604234    4.3604234    4.3604234   -6287.2948    8627.3905   -7490.9993   -19998.276   -22383.114   -215.85183    7672.0642    82.906006 
   95500    1530.4121   -112.99174    1.3847491     -111.607    10941.267    4.3535428    4.3535428    4.3535428    10941.267    23927.196    30659.197   -21762.591    432.20489   -55124.186   -5555.8055    82.514155 
   95600    1322.2313   -112.81203    1.1963827   -111.61565    6204.4073    4.3537643    4.3537643    4.3537643    6204.4073    13039.872     31194.31    -25620.96     4093.419    50396.173   -12117.151    82.526748 
   95700    1883.2379    -113.3148    1.7039932   -111.61081   -9154.0895    4.3627042    4.3627042    4.3627042   -9154.0895   -17177.886   -13231.776    2947.3931   -21167.634    14277.784    6323.2229    83.036169 
   95800    1403.8597   -112.88263    1.2702418   -111.61239   -314.33144    4.3662962    4.3662962    4.3662962   -314.33144    35308.907     -6875.37   -29376.531   -10708.289   -36297.648   -5044.8873     83.24144 
   95900    1002.7374   -112.52789   0.90729788   -111.62059   -16047.143    4.3614649    4.3614649    4.3614649   -16047.143    4164.6808    15900.892   -68207.004    4754.5172    53274.327   -11634.884    82.965427 
   96000    1750.4753   -113.19542    1.5838668   -111.61155    16445.126    4.3450304    4.3450304    4.3450304    16445.126    41186.446   -2557.1374    10706.069     -5378.03    10824.534    460.22804    82.031086 
   96100    1561.2812   -113.03935      1.41268   -111.62667   -11.074317    4.3479282    4.3479282    4.3479282   -11.074317    41060.773   -4021.2258    -37072.77   -5455.7982   -9154.0977   -2427.3352    82.195323 
   96200    667.52843   -112.24725   0.60399375   -111.64325   -29737.732    4.3621136    4.3621136    4.3621136   -29737.732   -49663.482    49664.211   -89213.924   -4503.0914    47263.341   -5422.1404    83.002453 
   96300     1672.963    -113.1325    1.5137321   -111.61877    23320.194    4.3521831    4.3521831    4.3521831    23320.194    39067.196    29223.951     1669.436    4717.5008   -6249.9186    5739.9372    82.436866 
   96400    1576.2629   -113.04744    1.4262358    -111.6212   -9672.0509    4.3667751    4.3667751    4.3667751   -9672.0509     18062.43    10060.714   -57139.297     27.53975    13004.221    5126.7703    83.268834 
   96500    934.03981   -112.46676   0.84513884   -111.62162   -19611.015    4.3639299    4.3639299    4.3639299   -19611.015   -21894.671    55270.688   -92209.062   -11793.318    37856.354   -5529.4226    83.106173 
   96600    1763.9908   -113.19554     1.596096   -111.59944    34763.883    4.3374474    4.3374474    4.3374474    34763.883    58380.322    43135.236    2776.0912    6289.9127   -26927.334    4204.3471    81.602349 
   96700    1403.9925   -112.89376    1.2703619   -111.62339    790.09225    4.3589991    4.3589991    4.3589991    790.09225    18248.334    10389.142   -26267.198   -2418.9891    32297.686    10922.944    82.824786 
   96800    1271.8518   -112.77439    1.1507983   -111.62359   -30019.827    4.3680869    4.3680869    4.3680869   -30019.827   -39261.822    20226.183   -71023.841    -6147.214    49272.265   -4750.6491    83.343896 
   96900    1692.5002   -113.14503    1.5314097   -111.61363    18246.514    4.3515708    4.3515708    4.3515708    18246.514    52189.838    11500.096   -8950.3926    -2649.533   -44840.834    8019.4014    82.402079 
   97000    1264.4274   -112.76544    1.1440805   -111.62136   -8687.1287    4.3518941    4.3518941    4.3518941   -8687.1287    3240.1741    12502.833   -41804.394   -9580.4364    45434.259    12633.153    82.420446 
   97100    1132.2406   -112.64851    1.0244751   -111.62404    16663.587    4.3495538    4.3495538    4.3495538    16663.587    55648.179    30730.402    -36387.82    7816.3499    39088.605    -8403.188    82.287545 
   97200    1786.6522     -113.239    1.6166004    -111.6224   -5463.4969    4.3636902    4.3636902    4.3636902   -5463.4969   -5096.7359    2312.4286   -13606.184   -12904.927   -36620.542    3878.0964    83.092482 
   97300    756.19076   -112.31168   0.68421729   -111.62747   -2728.7869    4.3672374    4.3672374    4.3672374   -2728.7869    17871.247    26841.796   -52899.404   -8589.3804    33426.631    28954.313    83.295284 
   97400    1386.7089   -112.86162    1.2547234    -111.6069    31291.452      4.35697      4.35697      4.35697    31291.452    52839.428    18986.698    22048.231    1180.7154    12525.257   -8525.3575    82.709176 
   97500    1808.1181   -113.23378    1.6360233   -111.59776    13452.353    4.3606917    4.3606917    4.3606917    13452.353    13520.582    3061.8195    23774.658   -16173.961   -9185.0762   -14626.041    82.921309 
   97600    1280.9848   -112.77602     1.159062   -111.61696    13640.358    4.3521813    4.3521813    4.3521813    13640.358    31177.221   -4079.9461    13823.801   -869.57048    39565.128    31135.358    82.436761 
   97700    1264.3276    -112.7684    1.1439902   -111.62441    17236.464     4.350504     4.350504     4.350504    17236.464    67911.542   -17063.446     861.2965   -2124.2007    10646.192   -18464.471    82.341487 
   97800    1976.2748   -113.40657     1.788175    -111.6184    13812.029    4.3544162    4.3544162    4.3544162    13812.029    20400.302    12469.559     8566.226   -3432.1408   -3576.8126   -26267.633    82.563829 
   97900    1267.4125   -112.78005    1.1467815   -111.63327     28294.92    4.3505431    4.3505431    4.3505431     28294.92    45137.175    19783.613    19963.972   -7503.1338    22890.888    27188.755     82.34371 
   98000    1198.4092    -112.7183    1.0843458   -111.63395   -11355.187      4.36544      4.36544      4.36544   -11355.187    25529.447   -51188.733    -8406.274   -1493.5273    13912.692   -5516.8671     83.19248 
   98100    1987.5294   -113.40887    1.7983583   -111.61051     1048.062    4.3603326    4.3603326    4.3603326     1048.062    17928.608   -6582.0007   -8202.4211    11631.933   -6597.9963   -19822.145    82.900823 
   98200    981.72807   -112.50996   0.88828819   -111.62167     7746.247    4.3526574    4.3526574    4.3526574     7746.247   -3130.6369    46082.843   -19713.465   -8714.5013    18823.399    11577.421     82.46382 
   98300    1247.5366   -112.75438    1.1287973   -111.62558   -21268.716    4.3613091    4.3613091    4.3613091   -21268.716    9067.8675   -30061.167   -42812.849    -70.35545    9652.3821    10424.074    82.956532 
   98400    2038.6169   -113.45929    1.8445834    -111.6147    7758.1926    4.3500796    4.3500796    4.3500796    7758.1926    20956.082   -6762.0393    9080.5347    17987.674   -11837.245   -2913.6083    82.317395 
   98500    827.51541   -112.38735   0.74875333   -111.63859    6363.7635    4.3545566    4.3545566    4.3545566    6363.7635   -2223.8875    39398.178       -18083   -2987.5413    29987.062   -1425.6132    82.571815 
   98600    1258.2688   -112.77153     1.138508   -111.63302   -19239.213    4.3665173    4.3665173    4.3665173   -19239.213   -8825.6429    13903.904   -62795.901    2312.2851   -4196.4066    16145.547    83.254083 
   98700    2100.4114   -113.51446    1.9004964   -111.61396    14296.724    4.3533196    4.3533196    4.3533196    14296.724    25865.224    11148.907    5876.0408   -2193.8083   -2079.0366   -2735.2222    82.501466 
   98800    1194.0406    -112.7122     1.080393   -111.63181   -8214.0572    4.3574515    4.3574515    4.3574515   -8214.0572    -4556.496    16516.918   -36602.594   -2848.4198    30408.515   -8521.6548    82.736601 
   98900    1174.2873   -112.69647    1.0625199   -111.63395   -6851.2499    4.3576107    4.3576107    4.3576107   -6851.2499   -20021.582    41413.388   -41945.556    518.28095   -18459.534    22403.742    82.745669 
   99000     1880.307   -113.32625    1.7013413   -111.62491      24731.1     4.345318     4.345318     4.345318      24731.1     27380.82     35278.54     11533.94    -8298.932   -8908.6722   -10172.644    82.047378 
   99100     1472.644   -112.97178    1.3324792   -111.63931   -9722.5501    4.3616541    4.3616541    4.3616541   -9722.5501   -3089.1517   -10419.088    -15659.41    10973.682    26893.005   -20841.703    82.976225 
   99200    1381.0273   -112.88265    1.2495825   -111.63307   -14426.936    4.3590567    4.3590567    4.3590567   -14426.936    -32226.82    22694.182    -33748.17    2409.6317   -10718.888    18181.757    82.828075 
   99300    1124.1569   -112.64436    1.0171608    -111.6272    29814.164    4.3451374    4.3451374    4.3451374    29814.164    27238.536    29102.111    33101.846   -22178.663   -18704.726   -22870.159    82.037145 
   99400    1541.5895   -113.02379    1.3948626   -111.62892    -15990.07     4.361953     4.361953     4.361953    -15990.07    6140.0911   -42102.643   -12007.657   -282.12231    22203.384   -25727.618     82.99328 
   99500    1306.1715    -112.8021    1.1818514   -111.62025    6088.6559    4.3633127    4.3633127    4.3633127    6088.6559   -20871.621     13515.09    25622.498     10485.79   -16628.035     18085.55    83.070921 
   99600    959.91107   -112.50162   0.86854771   -111.63307   -1944.6786    4.3516573    4.3516573    4.3516573   -1944.6786    8752.7833   -24222.789    9635.9695   -18490.398   -21112.745     -30825.2    82.406994 
   99700    1501.0508   -112.98976    1.3581823   -111.63158    3203.6919    4.3568926    4.3568926    4.3568926    3203.6919    19378.477   -35662.452     25895.05   -8474.4992    2401.1028   -23979.767     82.70477 
   99800    1941.7842   -113.38049    1.7569671   -111.62352    6256.8352     4.360517     4.360517     4.360517    6256.8352   -3346.4941    1552.2703    20564.729    8990.0603    -10770.63     14559.46    82.911343 
   99900    834.80489   -112.40079   0.75534901   -111.64544   -11462.733    4.3607646    4.3607646    4.3607646   -11462.733    14595.982   -16865.739   -32118.441   -21239.993   -22442.302    -24671.73    82.925469 
  100000    1623.0439   -113.10022    1.4685643   -111.63165   -9412.1182    4.3631514    4.3631514    4.3631514   -9412.1182     9791.954   -20113.591   -17914.717   -10545.544   -6364.2029   -16240.059    83.061707 
Loop time of 22.1038 on 1 procs for 100000 steps with 8 atoms

Pair  time (%) = 6.87391 (31.0983)
Kspce time (%) = 5.37096 (24.2988)
Neigh time (%) = 0.0942068 (0.426202)
Comm  time (%) = 1.02081 (4.61824)
Outpt time (%) = 0.0217917 (0.098588)
Other time (%) = 8.72213 (39.4598)

Nlocal:    8 ave 8 max 8 min
Histogram: 1 0 0 0 0 0 0 0 0 0
Nghost:    2147 ave 2147 max 2147 min
Histogram: 1 0 0 0 0 0 0 0 0 0
Neighs:    2086 ave 2086 max 2086 min
Histogram: 1 0 0 0 0 0 0 0 0 0

Total # of neighbors = 2086
Ave neighs/atom = 260.75
Neighbor list builds = 1154
Dangerous builds = 0
unfix 20
unfix 21
print "seeds:6276362"
seeds:6276362
